78

Co      0.016322329754360     -0.368261933972970     -0.409281071245150
N       0.302220791210360     -2.086406819084140      0.198975117749830
C       1.473353144413620     -2.898746062408190     -0.071736460635550
C       2.354567114976640     -2.270293416587550     -1.147592068175930
P       2.116813034453610     -0.476590665951740     -0.873505263833670
C       3.117736228996120     -0.167840924414500      0.615363781605350
C       2.446840985309550      0.164507651380940      1.785715750229760
C       3.152709031228070      0.378735427517550      2.955745043724800
C       4.533911692646620      0.263616906791830      2.956442312166950
C       5.207440701019020     -0.062924056060490      1.788866670844960
C       4.504220644744680     -0.278009358037210      0.617276877490750
C       3.117338644692200      0.373541812877500     -2.133423855707220
C       3.310465306923600      1.742346769848880     -1.953421009542780
C       4.039767468805090      2.473223597631230     -2.870762097276130
C       4.578139877271250      1.845043515405130     -3.984068024386000
C       4.378942368275790      0.488244859950390     -4.176047032709570
C       3.647903612007260     -0.247517695241190     -3.258215811758990
C      -0.608720466103090     -2.857998804879300      1.023360977492440
C      -1.747224447554290     -1.994413197029210      1.558705323087250
P      -2.003419550593920     -0.782019825467390      0.212163551539980
C      -3.345968255957900      0.318607377622490      0.756985495926950
C      -3.806840752296460      0.400027703093240      2.065857578367980
C      -4.820274648203510      1.286905782552560      2.389460232729630
C      -5.372428927130020      2.102401483234180      1.415993418908600
C      -4.907299813636370      2.035590824976010      0.110961069114020
C      -3.897175617211420      1.151935887733350     -0.215168984711030
C      -2.868565049275120     -1.769331778623620     -1.049338521718600
C      -2.192880005894720     -2.037977564781570     -2.233186159191450
C      -2.786913458591380     -2.812108577640960     -3.213501644231090
C      -4.061587490322590     -3.317613892785350     -3.012094071498050
C      -4.741455920903670     -3.046684509711430     -1.833997103622820
C      -4.150083242041450     -2.272531062763480     -0.851970735780360
H       1.167417748698500     -3.914962062543950     -0.384409657996990
H       2.072210012595370     -3.021061378691300      0.853481658307740
H       1.963378319548320     -2.511900494635910     -2.140363293808530
H       3.398769047476950     -2.585126813687830     -1.072737121806250
H       1.361188792064560      0.247151036175060      1.750528279518960
H       2.630796817164090      0.637291179642540      3.866247918784470
H       5.089210011018740      0.430733871512620      3.868332224998890
H       6.284898304552580     -0.148685049677700      1.794076656678090
H       5.027156188640260     -0.524781537904210     -0.297719092730160
H       2.880215051547700      2.222019017018460     -1.082861994629680
H       4.188874389673190      3.533132207796930     -2.722164879961380
H       5.149323670802890      2.414636782588730     -4.702758818123310
H       4.794806228673700     -0.000635052727520     -5.045775932094750
H       3.496254336095540     -1.305128967142680     -3.419957482759670
H      -1.040869939654250     -3.691447791007580      0.433051512169640
H      -0.060166431218920     -3.320990603845210      1.865203532839870
H      -2.641892584581480     -2.576939495781040      1.793792861169570
H      -1.417091547541160     -1.445243484802420      2.445520174997050
H      -3.381232372924790     -0.229358995982770      2.834287531535780
H      -5.179904258641060      1.342190764152580      3.407292313349440
H      -6.162325999864410      2.792998378325560      1.673564065902260
H      -5.332127368751030      2.675862462213640     -0.648827673423100
H      -3.520550118234630      1.093948050047800     -1.229017794622980
H      -1.192502127369280     -1.625669829784830     -2.359478895195230
H      -2.261165440503650     -3.020925482349810     -4.134506289923280
H      -4.529391684769370     -3.922683727441170     -3.775568571807620
H      -5.736485493985460     -3.440941347811540     -1.683028395911880
H      -4.681080776559480     -2.052161361704100      0.065130565831310
C      -0.250481082498680      1.239158947062940     -0.964162434361040
O      -0.429452011738950      2.326982792651220     -1.335287801418200
O      -0.232853088102740     -1.903281010172457     -2.372382700620170
C      -0.780515857776183     -0.638741457916678     -2.625590298382550
C       0.275957171128296      0.281470740628898     -3.171745000275436
C       1.011818976439997      1.108507476251878     -2.307061246516654
C       2.017016149695361      1.938746347344794     -2.813321319437144
C       2.301088559288966      1.940568021812758     -4.181858659242478
C       1.583432271148252      1.108730628394406     -5.045916780178466
C       0.577508230627916      0.276965734127337     -4.543633338590323
H       0.294826706308816     -1.821328240644303     -1.535166531704231
H      -1.602989799111774     -0.747254368220261     -3.364391884571770
H      -1.231975455988041     -0.217523100278524     -1.698247049947430
H       0.807778496527696      1.109963148625412     -1.243434449014027
H       2.578129794692756      2.578141190315151     -2.144124431567262
H       3.080159352985441      2.582737468031199     -4.571901080972910
H       1.808924964318551      1.105813111408840     -6.104520920237652
H       0.034588964021702     -0.369403152247592     -5.222192110377229
