55
Properties=species:S:1:pos:R:3:forces:R:3 energy:=T -80.771755558784=T gnorm:=T 0.000161217618=T xtb:=T 6.7.1=T (edcfbbe)=T energy=-2197.911420374732 pbc="F F F"
Co       0.18900296      -0.27081494      -0.00553550       0.00068129       0.00000840       0.00069881
C        2.10426126      -2.21438229       1.36581805       0.00008471      -0.00004458      -0.00058295
P        2.17458043      -0.53725880       0.84532046       0.00007160       0.00009523       0.00040387
C        3.62583490      -0.38883109      -0.24809583      -0.00048060       0.00017308      -0.00055329
C        3.40697062      -0.43024437      -1.62126447      -0.00020704       0.00020679       0.00033320
C        4.47465517      -0.42987760      -2.49919423      -0.00032068      -0.00052894       0.00004120
C        5.77097161      -0.39726178      -2.00836704       0.00007968      -0.00089307       0.00033949
C        5.99531772      -0.37278424      -0.64045644      -0.00042099       0.00011873      -0.00023232
C        4.92869400      -0.37313023       0.24024667       0.00017225       0.00056102      -0.00010500
C        2.65337010       0.49763946       2.26483695      -0.00009426       0.00014962      -0.00005065
C        2.37370063       0.06886410       3.55760429       0.00039072      -0.00078794      -0.00081630
C        2.68770741       0.87044321       4.64055103       0.00130209       0.00022560       0.00075242
C        3.27513819       2.10890860       4.43810088       0.00093189      -0.00079168       0.00007854
C        3.54209513       2.54827736       3.14989666      -0.00016378       0.00069341       0.00079154
C        3.22837323       1.75017927       2.06589420      -0.00119617      -0.00023840      -0.00062661
C        0.98697091      -2.86861345       0.88057515       0.00026504       0.00017543      -0.00001089
C        0.74796807      -4.26689993       1.03983224      -0.00019120      -0.00017931       0.00014733
C       -0.38286719      -4.83393274       0.53719969       0.00000512       0.00041046       0.00032025
C       -1.31916578      -4.03596910      -0.14524956       0.00023332      -0.00014518      -0.00020846
C       -1.05116983      -2.69194586      -0.26924931       0.00006840      -0.00017382      -0.00008338
C       -1.95886647      -1.74073570      -0.99991992      -0.00007896      -0.00013653       0.00001165
N       -1.88307769      -0.41092957      -0.36626760       0.00147716       0.00023657       0.00069052
C       -2.51876905      -0.48916558       0.97070545      -0.00023323      -0.00045948       0.00010549
C       -1.78999635       0.33534973       2.02766505      -0.00045699       0.00046013       0.00003967
C       -2.59505115       0.53628680      -1.24377651       0.00031495       0.00012806      -0.00072034
C       -2.71060326       1.95991445      -0.71741094       0.00005658       0.00003346       0.00010455
N        0.04024497      -2.11121897       0.23295373      -0.00051463      -0.00011106      -0.00011189
H        2.94670245      -2.72950955       1.80231981      -0.00009200       0.00039090       0.00018553
H        2.38301909      -0.45244950      -1.98191738      -0.00010774      -0.00007840      -0.00020657
H        4.30098494      -0.45234580      -3.56592784      -0.00013106      -0.00019353      -0.00001123
H        6.60776229      -0.39280688      -2.69219651      -0.00018283      -0.00017453       0.00010736
H        7.00722768      -0.35356981      -0.26021398      -0.00012101       0.00001973       0.00006750
H        5.10111966      -0.35353480       1.30844271      -0.00029369       0.00020526      -0.00000203
H        1.91381196      -0.90062986       3.69949469       0.00057043      -0.00021023      -0.00005922
H        2.47527680       0.53054659       5.64449667       0.00085025      -0.00046955       0.00005690
H        3.52315791       2.73461787       5.28353072       0.00044164      -0.00015919       0.00030135
H        3.99462264       3.51737635       2.99308206      -0.00026304       0.00006838       0.00016486
H        3.42943903       2.08909382       1.05799360      -0.00048848       0.00020709       0.00004050
H        1.48994431      -4.85406045       1.56035728       0.00001464       0.00022387       0.00005154
H       -0.56803044      -5.89301551       0.65293924       0.00027210      -0.00013382      -0.00016908
H       -2.21482953      -4.46333816      -0.56698613       0.00018640      -0.00016969      -0.00013242
H       -1.61235037      -1.65436694      -2.03654718      -0.00008874      -0.00014001      -0.00011723
H       -2.99428879      -2.11318558      -1.01847475      -0.00007209       0.00014164       0.00020074
H       -2.49789116      -1.53272843       1.29667369      -0.00043138       0.00005899       0.00010522
H       -3.57010015      -0.18517446       0.90252989      -0.00003410       0.00024569      -0.00064016
H       -2.20460635       0.11718946       3.00985300      -0.00004170      -0.00049745      -0.00007830
H       -0.72374679       0.06361915       2.03373359      -0.00024787       0.00060303      -0.00028372
H       -1.87303246       1.40214264       1.84564273      -0.00083708       0.00009963       0.00056854
H       -3.60957879       0.15055791      -1.43493205       0.00018919      -0.00004057      -0.00046172
H       -2.05887255       0.56279254      -2.19663185       0.00072879       0.00006428      -0.00021541
H       -3.12399946       2.58924138      -1.50271788      -0.00010733      -0.00028012      -0.00013508
H       -3.36949850       2.02196202       0.14422525       0.00039172       0.00012791      -0.00033359
H       -1.73405800       2.34952790      -0.44515942      -0.00005448       0.00030898      -0.00042863
C        0.54933641       1.35926057      -0.45036153      -0.00548264      -0.00018198       0.00077133
O        0.98353492       2.36989461      -0.80977296       0.00365582       0.00077774      -0.00010343
