55
Properties=species:S:1:pos:R:3 energy:=T -80.771755558784=T gnorm:=T 0.000161217618=T xtb:=T 6.7.1=T (edcfbbe)=T pbc="F F F"
Co       0.18900296      -0.27081494      -0.00553550
C        2.10426126      -2.21438229       1.36581805
P        2.17458043      -0.53725880       0.84532046
C        3.62583490      -0.38883109      -0.24809583
C        3.40697062      -0.43024437      -1.62126447
C        4.47465517      -0.42987760      -2.49919423
C        5.77097161      -0.39726178      -2.00836704
C        5.99531772      -0.37278424      -0.64045644
C        4.92869400      -0.37313023       0.24024667
C        2.65337010       0.49763946       2.26483695
C        2.37370063       0.06886410       3.55760429
C        2.68770741       0.87044321       4.64055103
C        3.27513819       2.10890860       4.43810088
C        3.54209513       2.54827736       3.14989666
C        3.22837323       1.75017927       2.06589420
C        0.98697091      -2.86861345       0.88057515
C        0.74796807      -4.26689993       1.03983224
C       -0.38286719      -4.83393274       0.53719969
C       -1.31916578      -4.03596910      -0.14524956
C       -1.05116983      -2.69194586      -0.26924931
C       -1.95886647      -1.74073570      -0.99991992
N       -1.88307769      -0.41092957      -0.36626760
C       -2.51876905      -0.48916558       0.97070545
C       -1.78999635       0.33534973       2.02766505
C       -2.59505115       0.53628680      -1.24377651
C       -2.71060326       1.95991445      -0.71741094
N        0.04024497      -2.11121897       0.23295373
H        2.94670245      -2.72950955       1.80231981
H        2.38301909      -0.45244950      -1.98191738
H        4.30098494      -0.45234580      -3.56592784
H        6.60776229      -0.39280688      -2.69219651
H        7.00722768      -0.35356981      -0.26021398
H        5.10111966      -0.35353480       1.30844271
H        1.91381196      -0.90062986       3.69949469
H        2.47527680       0.53054659       5.64449667
H        3.52315791       2.73461787       5.28353072
H        3.99462264       3.51737635       2.99308206
H        3.42943903       2.08909382       1.05799360
H        1.48994431      -4.85406045       1.56035728
H       -0.56803044      -5.89301551       0.65293924
H       -2.21482953      -4.46333816      -0.56698613
H       -1.61235037      -1.65436694      -2.03654718
H       -2.99428879      -2.11318558      -1.01847475
H       -2.49789116      -1.53272843       1.29667369
H       -3.57010015      -0.18517446       0.90252989
H       -2.20460635       0.11718946       3.00985300
H       -0.72374679       0.06361915       2.03373359
H       -1.87303246       1.40214264       1.84564273
H       -3.60957879       0.15055791      -1.43493205
H       -2.05887255       0.56279254      -2.19663185
H       -3.12399946       2.58924138      -1.50271788
H       -3.36949850       2.02196202       0.14422525
H       -1.73405800       2.34952790      -0.44515942
C        0.54933641       1.35926057      -0.45036153
O        0.98353492       2.36989461      -0.80977296
