65
Properties=species:S:1:pos:R:3 energy:=T -97.651442344773=T gnorm:=T 0.000172730875=T xtb:=T 6.7.1=T (edcfbbe)=T pbc="F F F"
Mn       0.19886710      -0.56238149      -0.48390848
N       -0.06122811      -2.68479975      -0.06719080
C        0.86155268      -3.10370717       1.01034229
C        2.30754530      -2.72271852       0.66700605
P        2.33829293      -1.06911627      -0.20002612
C        3.51025725      -1.38172830      -1.55726945
C        3.16148516      -2.35697919      -2.49160751
C        3.98614984      -2.61720546      -3.56804095
C        5.16163214      -1.89786512      -3.72718074
C        5.50292484      -0.91605090      -2.81209420
C        4.67983281      -0.64967921      -1.73062043
C        3.21275549       0.14384106       0.81965879
C        4.27064778      -0.11626968       1.68244280
C        4.85242853       0.93215151       2.37517190
C        4.39405775       2.22901595       2.20053323
C        3.34727406       2.49397819       1.32886143
C        2.75814272       1.45097677       0.64197616
C       -1.46444375      -3.07189931       0.19611191
C       -2.40415839      -2.33180935      -0.75912448
P       -2.01908883      -0.51034214      -0.67851499
C       -3.20915112       0.10582681       0.55869515
C       -3.05818635      -0.29013923       1.88688344
C       -3.94732525       0.14586876       2.85059719
C       -4.98791642       0.99287056       2.50140664
C       -5.13272559       1.40325112       1.18654685
C       -4.24834381       0.96627555       0.21527488
C       -2.64605591       0.19621610      -2.22271871
C       -3.68215842      -0.33275407      -2.98408657
C       -4.06029665       0.30728208      -4.15220566
C       -3.41913680       1.46847388      -4.55577892
C       -2.39053133       2.00288529      -3.79366501
C       -2.00427905       1.36464831      -2.63114842
H        0.22704812      -3.18755205      -0.91811585
H        0.54762627      -2.59337848       1.92673778
H        0.79053315      -4.18701983       1.16879336
H        2.75584893      -3.46093500      -0.00613922
H        2.91262503      -2.67317429       1.57553239
H        2.23417369      -2.90658285      -2.37431633
H        3.71423821      -3.37549293      -4.28745120
H        5.80705265      -2.09892507      -4.56910215
H        6.41401925      -0.35037684      -2.94055542
H        4.95177958       0.12343782      -1.02584996
H        4.64128869      -1.12389372       1.80716755
H        5.67010693       0.73800010       3.05341777
H        4.85402713       3.03955386       2.74584347
H        2.99613083       3.50655065       1.19413696
H        1.92458805       1.63208027      -0.05114650
H       -1.69987282      -2.80354336       1.22968898
H       -1.58677916      -4.15573425       0.08266589
H       -2.22369780      -2.64873141      -1.79350584
H       -3.44914158      -2.51887240      -0.49755852
H       -2.23571269      -0.93269518       2.17002976
H       -3.82643405      -0.16867598       3.87670723
H       -5.68023872       1.33802552       3.25469965
H       -5.93782857       2.06944772       0.91312756
H       -4.37065623       1.29749069      -0.80616794
H       -4.19076681      -1.23133731      -2.66624882
H       -4.86057877      -0.10089165      -4.75175072
H       -3.72040517       1.95972898      -5.46900092
H       -1.89313123       2.90767739      -4.11124356
H       -1.19183354       1.76105261      -2.01785109
C        0.34887328      -0.66085249      -2.26285476
O        0.50576619      -0.52272853      -3.38747898
C        0.13490475       0.01010207       1.20365688
O        0.12046822       0.54323201       2.21747543
