      -----------------------------------------------------------      
     |                   =====================                   |     
     |                           x T B                           |     
     |                   =====================                   |     
     |                         S. Grimme                         |     
     |          Mulliken Center for Theoretical Chemistry        |     
     |                    University of Bonn                     |     
      -----------------------------------------------------------      

   * xtb version 6.7.1 (edcfbbe) compiled by 'VssAdministrator@runnervm171ch' on 2026-06-10

   xtb is free software: you can redistribute it and/or modify it under
   the terms of the GNU Lesser General Public License as published by
   the Free Software Foundation, either version 3 of the License, or
   (at your option) any later version.
   
   xtb is distributed in the hope that it will be useful,
   but WITHOUT ANY WARRANTY; without even the implied warranty of
   MERCHANTABILITY or FITNESS FOR A PARTICULAR PURPOSE.  See the
   GNU Lesser General Public License for more details.
   
   Cite this work as:
   * C. Bannwarth, E. Caldeweyher, S. Ehlert, A. Hansen, P. Pracht,
     J. Seibert, S. Spicher, S. Grimme, WIREs Comput. Mol. Sci., 2020, 11,
     e01493. DOI: 10.1002/wcms.1493
   
   for GFN2-xTB:
   * C. Bannwarth, S. Ehlert and S. Grimme., J. Chem. Theory Comput., 2019,
     15, 1652-1671. DOI: 10.1021/acs.jctc.8b01176
   for GFN1-xTB:
   * S. Grimme, C. Bannwarth, P. Shushkov, J. Chem. Theory Comput., 2017,
     13, 1989-2009. DOI: 10.1021/acs.jctc.7b00118
   for GFN0-xTB:
   * P. Pracht, E. Caldeweyher, S. Ehlert, S. Grimme, ChemRxiv, 2019, preprint.
     DOI: 10.26434/chemrxiv.8326202.v1
   for GFN-FF:
   * S. Spicher and S. Grimme, Angew. Chem. Int. Ed., 2020, 59, 15665-15673.
     DOI: 10.1002/anie.202004239
   
   for ALPB and GBSA implicit solvation:
   * S. Ehlert, M. Stahn, S. Spicher, S. Grimme, J. Chem. Theory Comput.,
     2021, 17, 4250-4261. DOI: 10.1021/acs.jctc.1c00471
   
   for ddCOSMO and CPCM-X implicit solvation:
   * M. Stahn, S. Ehlert, S. Grimme, J. Phys. Chem. A,
     2023, XX, XXXX-XXXX. DOI: 10.1021/acs.jpca.3c04382
   
   for DFT-D4:
   * E. Caldeweyher, C. Bannwarth and S. Grimme, J. Chem. Phys., 2017,
     147, 034112. DOI: 10.1063/1.4993215
   * E. Caldeweyher, S. Ehlert, A. Hansen, H. Neugebauer, S. Spicher,
     C. Bannwarth and S. Grimme, J. Chem. Phys., 2019, 150, 154122.
     DOI: 10.1063/1.5090222
   * E. Caldeweyher, J.-M. Mewes, S. Ehlert and S. Grimme, Phys. Chem. Chem. Phys.
     2020, 22, 8499-8512. DOI: 10.1039/D0CP00502A
   
   for sTDA-xTB:
   * S. Grimme and C. Bannwarth, J. Chem. Phys., 2016, 145, 054103.
     DOI: 10.1063/1.4959605
   
   in the mass-spec context:
   * V. Asgeirsson, C. Bauer and S. Grimme, Chem. Sci., 2017, 8, 4879.
     DOI: 10.1039/c7sc00601b
   * J. Koopman and S. Grimme, ACS Omega 2019, 4, 12, 15120-15133.
     DOI: 10.1021/acsomega.9b02011
   
   for metadynamics refer to:
   * S. Grimme, J. Chem. Theory Comput., 2019, 155, 2847-2862
     DOI: 10.1021/acs.jctc.9b00143
   
   for SPH calculations refer to:
   * S. Spicher and S. Grimme, J. Chem. Theory Comput., 2021, 17, 1701-1714
     DOI: 10.1021/acs.jctc.0c01306
   
   for ONIOM refer to:
   * C. Plett, A. Katbashev, S. Ehlert, S. Grimme, M. Bursch,
     Phys. Chem. Chem. Phys., 2023, 25, 17860-17868. DOI: 10.1039/D3CP02178E
   
   for DIPRO refer to:
   * J. Kohn, N. Gildemeister, S. Grimme, D. Fazzi, A. Hansen,
     J. Chem. Phys., 2023, just accepted.
   
   for PTB refer to:
   * S. Grimme, M. Mueller, A. Hansen, J. Chem. Phys., 2023, 158, 124111.
     DOI: 10.1063/5.0137838
   
   with help from (in alphabetical order)
   P. Atkinson, C. Bannwarth, F. Bohle, G. Brandenburg, E. Caldeweyher
   M. Checinski, S. Dohm, S. Ehlert, S. Ehrlich, I. Gerasimov, C. Hölzer
   A. Katbashev, J. Kohn, J. Koopman, C. Lavigne, S. Lehtola, F. März, M. Müller,
   F. Musil, H. Neugebauer, J. Pisarek, C. Plett, P. Pracht, F. Pultar,
   J. Seibert, P. Shushkov, S. Spicher, M. Stahn, M. Steiner, T. Strunk,
   J. Stückrath, T. Rose, and J. Unsleber
   
 * started run on 2026/09/13 at 01:39:08.467     
   ID    Z sym.   atoms
    1   27 Co     1
    2    7 N      2
    3    6 C      3, 4, 6-13, 15-20, 57, 60-66
    4   15 P      5, 14
    5    1 H      21-56, 67-74
    6    8 O      58, 59

           -------------------------------------------------
          |                Calculation Setup                |
           -------------------------------------------------

          program call               : C:\Users\HUIWEI\miniconda3\envs\phase2ff\Library\bin\xtb.exe input.xyz --gfn 2 --chrg 0 --uhf 0 --etemp 300.0 --iterations 500 --acc 0.5 --opt tight --cycles 250 --grad --alpb toluene gsolv
          coordinate file            : input.xyz
          omp threads                :                     2

########################################################################
[WARNING] Please study the warnings concerning your input carefully
-1- prog_main_parseArguments: Unknown reference state 'gsolv'
########################################################################

           -------------------------------------------------
          |                 G F N 2 - x T B                 |
           -------------------------------------------------

        Reference                      10.1021/acs.jctc.8b01176
      * Hamiltonian:
        H0-scaling (s, p, d)           1.850000    2.230000    2.230000
        zeta-weighting                 0.500000
      * Dispersion:
        s8                             2.700000
        a1                             0.520000
        a2                             5.000000
        s9                             5.000000
      * Repulsion:
        kExp                           1.500000    1.000000
        rExp                           1.000000
      * Coulomb:
        alpha                          2.000000
        third order                    shell-resolved
        anisotropic                    true
        a3                             3.000000
        a5                             4.000000
        cn-shift                       1.200000
        cn-exp                         4.000000
        max-rad                        5.000000

      * Solvation model:               ALPB
        Solvent                        toluene
        Parameter file                 internal GFN2-xTB/ALPB
        Dielectric constant                7.0000E+00
        Reference state                gsolv [1 M gas/solution]
        Free energy shift                  2.2081E-03 Eh       1.3856E+00 kcal/mol
        Temperature                        2.9815E+02 K
        Density                            8.6700E-01 kg/L
        Solvent mass                       7.8110E+01 g/mol
        Interaction kernel             P16
        Born radius scaling (c1)           1.7172E+00
        Born radii integrator          GBOBC
        Born offset                        0.0000E+00 a0       0.0000E+00 AA
        H-bond correction              false
        Ion screening                  false
        Surface tension                    1.0000E-05 Eh       1.5569E+01 dyn/cm
        Grid points                               230 per atom

          ...................................................
          :                      SETUP                      :
          :.................................................:
          :  # basis functions                 182          :
          :  # atomic orbitals                 179          :
          :  # shells                          107          :
          :  # electrons                       176          :
          :  max. iterations                   500          :
          :  Hamiltonian                  GFN2-xTB          :
          :  restarted?                      false          :
          :  GBSA solvation                   true          :
          :  PC potential                    false          :
          :  electronic temp.          300.0000000     K    :
          :  accuracy                    0.5000000          :
          :  -> integral cutoff          0.2801030E+02      :
          :  -> integral neglect         0.5000000E-08      :
          :  -> SCF convergence          0.5000000E-06 Eh   :
          :  -> wf. convergence          0.5000000E-04 e    :
          :  Broyden damping             0.4000000          :
          :  net charge                          0          :
          :  unpaired electrons                  0          :
          ...................................................

 iter      E             dE          RMSdq      gap      omega  full diag
   1    -93.2663580 -0.932664E+02  0.519E+00    0.51       0.0  T
   2    -92.3067293  0.959629E+00  0.526E+00    0.06       1.0  T
   3    -93.5355438 -0.122881E+01  0.313E+00    0.26       1.0  T
   4    -93.7738108 -0.238267E+00  0.158E+00    0.82       1.0  T
   5    -93.6649086  0.108902E+00  0.195E+00    0.13       1.0  T
   6    -93.8594126 -0.194504E+00  0.103E+00    0.52       1.0  T
   7    -93.8092224  0.501901E-01  0.110E+00    0.25       1.0  T
   8    -93.6262146  0.183008E+00  0.182E+00    0.29       1.0  T
   9    -93.9339654 -0.307751E+00  0.384E-01    0.05       1.0  T
  10    -93.9280984  0.586702E-02  0.481E-01    0.16       1.0  T
  11    -93.9369441 -0.884571E-02  0.364E-01    0.13       1.0  T
  12    -93.9463286 -0.938448E-02  0.137E-01    0.07       1.0  T
  13    -93.9482149 -0.188637E-02  0.551E-02    0.08       1.0  T
  14    -93.9477685  0.446490E-03  0.891E-02    0.09       1.0  T
  15    -93.9484732 -0.704737E-03  0.163E-02    0.08       1.0  T
  16    -93.9484997 -0.264801E-04  0.460E-03    0.08       2.5  T
  17    -93.9484768  0.229092E-04  0.160E-02    0.08       1.0  T
  18    -93.9485011 -0.243575E-04  0.298E-03    0.08       3.9  T
  19    -93.9485019 -0.770603E-06  0.657E-04    0.08      17.7  T
  20    -93.9485019 -0.128862E-07  0.589E-04    0.08      19.7  T
  21    -93.9485019 -0.186860E-07  0.271E-04    0.08      42.9  T
  22    -93.9485019 -0.631758E-08  0.929E-05    0.08     125.2  T

   *** convergence criteria satisfied after 22 iterations ***

         #    Occupation            Energy/Eh            Energy/eV
      -------------------------------------------------------------
         1        2.0000           -0.8617787             -23.4502
       ...           ...                  ...                  ...
        82        2.0000           -0.3735393             -10.1645
        83        2.0000           -0.3724923             -10.1360
        84        2.0000           -0.3668030              -9.9812
        85        2.0000           -0.3593839              -9.7793
        86        2.0000           -0.3535724              -9.6212
        87        2.0000           -0.3290651              -8.9543
        88        1.6386           -0.2625712              -7.1449 (HOMO)
        89        0.3614           -0.2596987              -7.0668 (LUMO)
        90                         -0.2446206              -6.6565
        91                         -0.2406322              -6.5479
        92                         -0.2397841              -6.5249
        93                         -0.2311036              -6.2886
       ...                                ...                  ...
       179                          3.3563067              91.3298
      -------------------------------------------------------------
                  HL-Gap            0.0028724 Eh            0.0782 eV
             Fermi-level           -0.2611349 Eh           -7.1058 eV

 SCC (total)                   0 d,  0 h,  0 min,  0.389 sec
 SCC setup                      ...        0 min,  0.003 sec (  0.895%)
 Dispersion                     ...        0 min,  0.002 sec (  0.499%)
 classical contributions        ...        0 min,  0.000 sec (  0.097%)
 integral evaluation            ...        0 min,  0.020 sec (  5.163%)
 iterations                     ...        0 min,  0.283 sec ( 72.803%)
 molecular gradient             ...        0 min,  0.079 sec ( 20.239%)
 printout                       ...        0 min,  0.001 sec (  0.294%)

         :::::::::::::::::::::::::::::::::::::::::::::::::::::
         ::                     SUMMARY                     ::
         :::::::::::::::::::::::::::::::::::::::::::::::::::::
         :: total energy             -92.639823054501 Eh    ::
         :: total w/o Gsasa/hb       -92.608788269088 Eh    ::
         :: gradient norm              0.597397897886 Eh/a0 ::
         :: HOMO-LUMO gap              0.078162845650 eV    ::
         ::.................................................::
         :: SCC energy               -93.943591309644 Eh    ::
         :: -> isotropic ES            0.118307010987 Eh    ::
         :: -> anisotropic ES          0.015469364877 Eh    ::
         :: -> anisotropic XC          0.047375879576 Eh    ::
         :: -> dispersion             -0.108249829715 Eh    ::
         :: -> Gsolv                  -0.063764625403 Eh    ::
         ::    -> Gelec               -0.032729839990 Eh    ::
         ::    -> Gsasa               -0.033242928551 Eh    ::
         ::    -> Ghb                  0.000000000000 Eh    ::
         ::    -> Gshift               0.002208143139 Eh    ::
         :: repulsion energy           1.303768255143 Eh    ::
         :: add. restraining           0.000000000000 Eh    ::
         :: total charge               0.000000000000 e     ::
         :::::::::::::::::::::::::::::::::::::::::::::::::::::

      ----------------------------------------------------------- 
     |                   =====================                   |
     |                        A N C O P T                        |
     |                   =====================                   |
     |               Approximate Normal Coordinate               |
     |                Rational Function Optimizer                |
      ----------------------------------------------------------- 
      ----------------------------------------------------------- 
     |                   =====================                   |
     |                        A N C O P T                        |
     |                   =====================                   |
     |               Approximate Normal Coordinate               |
     |                Rational Function Optimizer                |
      ----------------------------------------------------------- 

          ...................................................
          :                      SETUP                      :
          :.................................................:
          :   optimization level             tight          :
          :   max. optcycles                   250          :
          :   ANC micro-cycles                  20          :
          :   degrees of freedom               216          :
          :.................................................:
          :   RF solver                   davidson          :
          :   write xtbopt.log                true          :
          :   linear?                        false          :
          :   energy convergence         0.1000000E-05 Eh   :
          :   grad. convergence          0.8000000E-03 Eh/α :
          :   maxmium RF displ.          1.0000000          :
          :   Hlow (freq-cutoff)         0.1000000E-01      :
          :   Hmax (freq-cutoff)         5.0000000          :
          :   S6 in model hess.         20.0000000          :
          ...................................................

generating ANC from exact Hessian ...
Using Lindh-Hessian (1995)
 Shifting diagonal of input Hessian by    9.7091014136675945E-003
 Lowest  eigenvalues of input Hessian
    0.000000    0.000000    0.000000    0.000000    0.000000    0.000000
    0.010000    0.010357    0.010558    0.010633    0.010794    0.010930
    0.011304    0.011852    0.012297    0.012950    0.013634    0.013814
 Highest eigenvalues
    1.875101    1.910377    2.022482    2.062129    2.167063    2.487861


........................................................................
.............................. CYCLE    1 ..............................
........................................................................

 iter      E             dE          RMSdq      gap      omega  full diag
   1    -93.9485019 -0.939485E+02  0.408E-05    0.08       0.0  T
   2    -93.9485019  0.286043E-07  0.519E-04    0.08      22.4  T
   3    -93.9485019 -0.273212E-07  0.117E-04    0.08      99.7  T
   4    -93.9485019 -0.806693E-09  0.732E-05    0.08     158.8  T
     SCC iter.                  ...        0 min,  0.055 sec
     gradient                   ...        0 min,  0.066 sec
 * total energy  :   -92.6398231 Eh     change       -0.9877965E-10 Eh
   gradient norm :     0.5973973 Eh/α   predicted     0.0000000E+00 (-100.00%)
   displ. norm   :     0.5954421 α      lambda       -0.2913337E+00
   maximum displ.:     0.1426057 α      in ANC's #152, #213, #141, ...

........................................................................
.............................. CYCLE    2 ..............................
........................................................................

 iter      E             dE          RMSdq      gap      omega  full diag
   1    -94.0709529 -0.940710E+02  0.113E+00    1.98       0.0  T
   2    -93.5115347  0.559418E+00  0.251E+00    0.21       1.0  T
   3    -94.1377924 -0.626258E+00  0.764E-01    0.64       1.0  T
   4    -94.1528199 -0.150275E-01  0.598E-01    0.91       1.0  T
   5    -94.1563423 -0.352241E-02  0.499E-01    0.42       1.0  T
   6    -94.1666109 -0.102686E-01  0.382E-01    0.39       1.0  T
   7    -94.1750893 -0.847836E-02  0.174E-01    0.10       1.0  T
   8    -94.1754190 -0.329698E-03  0.203E-01    0.24       1.0  T
   9    -94.1780992 -0.268026E-02  0.111E-01    0.17       1.0  T
  10    -94.1789652 -0.865935E-03  0.500E-02    0.12       1.0  T
  11    -94.1792475 -0.282300E-03  0.120E-02    0.14       1.0  T
  12    -94.1789800  0.267467E-03  0.507E-02    0.12       1.0  T
  13    -94.1792542 -0.274183E-03  0.733E-03    0.13       1.6  T
  14    -94.1792589 -0.470575E-05  0.273E-03    0.13       4.3  T
  15    -94.1792596 -0.660219E-06  0.117E-03    0.13       9.9  T
  16    -94.1792597 -0.142543E-06  0.322E-04    0.13      36.1  T
  17    -94.1792597  0.237995E-07  0.553E-04    0.13      21.0  T
  18    -94.1792597 -0.326340E-07  0.297E-05    0.13     392.0  T
     SCC iter.                  ...        0 min,  0.231 sec
     gradient                   ...        0 min,  0.080 sec
 * total energy  :   -92.8984849 Eh     change       -0.2586618E+00 Eh
   gradient norm :     0.4991997 Eh/α   predicted    -0.1973669E+00 ( -23.70%)
   displ. norm   :     0.7981302 α      lambda       -0.3699452E+00
   maximum displ.:     0.2923127 α      in ANC's #213, #162, #152, ...

........................................................................
.............................. CYCLE    3 ..............................
........................................................................

 iter      E             dE          RMSdq      gap      omega  full diag
   1    -94.4540542 -0.944541E+02  0.895E-01    2.23       0.0  T
   2    -94.4727205 -0.186663E-01  0.614E-01    1.84       1.0  T
   3    -94.4735780 -0.857462E-03  0.447E-01    2.08       1.0  T
   4    -94.4799700 -0.639202E-02  0.237E-01    1.77       1.0  T
   5    -94.4813428 -0.137276E-02  0.659E-02    1.79       1.0  T
   6    -94.4814583 -0.115492E-03  0.298E-02    1.79       1.0  T
   7    -94.4815006 -0.423540E-04  0.131E-02    1.80       1.0  T
   8    -94.4815031 -0.249749E-05  0.583E-03    1.80       2.0  T
   9    -94.4815036 -0.536258E-06  0.261E-03    1.80       4.5  T
  10    -94.4815037 -0.567484E-07  0.128E-03    1.80       9.1  T
  11    -94.4815037 -0.316178E-07  0.584E-04    1.80      19.9  T
  12    -94.4815037 -0.799378E-08  0.268E-04    1.80      43.4  T
  13    -94.4815037 -0.670980E-09  0.112E-04    1.80     104.1  T
     SCC iter.                  ...        0 min,  0.165 sec
     gradient                   ...        0 min,  0.077 sec
 * total energy  :   -93.1718388 Eh     change       -0.2733539E+00 Eh
   gradient norm :     0.2699259 Eh/α   predicted    -0.3028025E+00 (  10.77%)
   displ. norm   :     0.6821592 α      lambda       -0.1552162E+00
   maximum displ.:     0.1868977 α      in ANC's #152, #162, #213, ...

........................................................................
.............................. CYCLE    4 ..............................
........................................................................

 iter      E             dE          RMSdq      gap      omega  full diag
   1    -94.6094573 -0.946095E+02  0.409E-01    2.12       0.0  T
   2    -94.6112024 -0.174507E-02  0.261E-01    2.02       1.0  T
   3    -94.6114074 -0.204959E-03  0.180E-01    2.16       1.0  T
   4    -94.6123554 -0.948020E-03  0.100E-01    2.03       1.0  T
   5    -94.6127166 -0.361249E-03  0.368E-02    2.10       1.0  T
   6    -94.6127644 -0.477493E-04  0.144E-02    2.08       1.0  T
   7    -94.6127733 -0.888573E-05  0.580E-03    2.08       2.0  T
   8    -94.6127737 -0.410194E-06  0.172E-03    2.08       6.7  T
   9    -94.6127737 -0.444536E-07  0.789E-04    2.08      14.7  T
  10    -94.6127737 -0.974273E-08  0.424E-04    2.08      27.4  T
  11    -94.6127737 -0.240438E-08  0.154E-04    2.08      75.5  T
     SCC iter.                  ...        0 min,  0.138 sec
     gradient                   ...        0 min,  0.075 sec
 * total energy  :   -93.2963875 Eh     change       -0.1245487E+00 Eh
   gradient norm :     0.1756325 Eh/α   predicted    -0.1137224E+00 (  -8.69%)
   displ. norm   :     0.7366951 α      lambda       -0.1040189E+00
   maximum displ.:     0.2066827 α      in ANC's #50, #39, #152, ...

........................................................................
.............................. CYCLE    5 ..............................
........................................................................

 iter      E             dE          RMSdq      gap      omega  full diag
   1    -94.6949405 -0.946949E+02  0.298E-01    2.10       0.0  T
   2    -94.6957878 -0.847282E-03  0.178E-01    2.07       1.0  T
   3    -94.6957814  0.644751E-05  0.117E-01    2.13       1.0  T
   4    -94.6960823 -0.300977E-03  0.683E-02    2.06       1.0  T
   5    -94.6962886 -0.206242E-03  0.244E-02    2.11       1.0  T
   6    -94.6963052 -0.165800E-04  0.113E-02    2.09       1.0  T
   7    -94.6963106 -0.542568E-05  0.410E-03    2.09       2.8  T
   8    -94.6963107 -0.112600E-06  0.118E-03    2.09       9.9  T
   9    -94.6963107 -0.739179E-08  0.596E-04    2.09      19.5  T
  10    -94.6963107 -0.421001E-08  0.274E-04    2.09      42.4  T
  11    -94.6963107 -0.154125E-08  0.113E-04    2.09     102.6  T
     SCC iter.                  ...        0 min,  0.138 sec
     gradient                   ...        0 min,  0.082 sec
 * total energy  :   -93.3817572 Eh     change       -0.8536969E-01 Eh
   gradient norm :     0.1031870 Eh/α   predicted    -0.8023604E-01 (  -6.01%)
   displ. norm   :     0.7818562 α      lambda       -0.6926373E-01
   maximum displ.:     0.2444775 α      in ANC's #39, #50, #49, ...

........................................................................
.............................. CYCLE    6 ..............................
........................................................................

 iter      E             dE          RMSdq      gap      omega  full diag
   1    -94.7501033 -0.947501E+02  0.241E-01    2.12       0.0  T
   2    -94.7505539 -0.450580E-03  0.154E-01    2.07       1.0  T
   3    -94.7504839  0.699617E-04  0.105E-01    2.15       1.0  T
   4    -94.7508040 -0.320082E-03  0.564E-02    2.07       1.0  T
   5    -94.7509628 -0.158807E-03  0.175E-02    2.11       1.0  T
   6    -94.7509686 -0.580810E-05  0.785E-03    2.10       1.5  T
   7    -94.7509711 -0.244254E-05  0.324E-03    2.10       3.6  T
   8    -94.7509712 -0.106321E-06  0.107E-03    2.10      10.9  T
   9    -94.7509712 -0.586205E-08  0.484E-04    2.10      24.0  T
  10    -94.7509712 -0.486889E-08  0.231E-04    2.10      50.4  T
     SCC iter.                  ...        0 min,  0.139 sec
     gradient                   ...        0 min,  0.077 sec
 * total energy  :   -93.4398190 Eh     change       -0.5806180E-01 Eh
   gradient norm :     0.0713977 Eh/α   predicted    -0.5580229E-01 (  -3.89%)
   displ. norm   :     0.8082246 α      lambda       -0.5013419E-01
   maximum displ.:     0.2777731 α      in ANC's #39, #50, #42, ...

........................................................................
.............................. CYCLE    7 ..............................
........................................................................

 iter      E             dE          RMSdq      gap      omega  full diag
   1    -94.7826048 -0.947826E+02  0.216E-01    2.04       0.0  T
   2    -94.7830566 -0.451791E-03  0.130E-01    2.06       1.0  T
   3    -94.7830907 -0.340784E-04  0.680E-02    2.05       1.0  T
   4    -94.7832039 -0.113242E-03  0.215E-02    2.05       1.0  T
   5    -94.7832136 -0.971203E-05  0.925E-03    2.05       1.3  T
   6    -94.7832150 -0.138995E-05  0.460E-03    2.05       2.5  T
   7    -94.7832153 -0.225332E-06  0.256E-03    2.05       4.5  T
   8    -94.7832156 -0.291317E-06  0.122E-03    2.05       9.5  T
   9    -94.7832156 -0.468666E-07  0.416E-04    2.05      28.0  T
  10    -94.7832156 -0.351767E-08  0.189E-04    2.05      61.3  T
     SCC iter.                  ...        0 min,  0.136 sec
     gradient                   ...        0 min,  0.070 sec
 * total energy  :   -93.4829487 Eh     change       -0.4312974E-01 Eh
   gradient norm :     0.0589029 Eh/α   predicted    -0.4144160E-01 (  -3.91%)
   displ. norm   :     0.8275421 α      lambda       -0.3878775E-01
   maximum displ.:     0.2973689 α      in ANC's #39, #50, #42, ...

........................................................................
.............................. CYCLE    8 ..............................
........................................................................

 iter      E             dE          RMSdq      gap      omega  full diag
   1    -94.8092392 -0.948092E+02  0.210E-01    2.11       0.0  T
   2    -94.8094877 -0.248563E-03  0.138E-01    2.08       1.0  T
   3    -94.8093723  0.115444E-03  0.976E-02    2.14       1.0  T
   4    -94.8096890 -0.316713E-03  0.437E-02    2.08       1.0  T
   5    -94.8097929 -0.103874E-03  0.151E-02    2.11       1.0  T
   6    -94.8097990 -0.612341E-05  0.551E-03    2.10       2.1  T
   7    -94.8098000 -0.976869E-06  0.258E-03    2.10       4.5  T
   8    -94.8098000 -0.711799E-07  0.907E-04    2.10      12.8  T
   9    -94.8098001 -0.340638E-08  0.398E-04    2.10      29.2  T
  10    -94.8098001 -0.150203E-08  0.188E-04    2.10      61.8  T
     SCC iter.                  ...        0 min,  0.144 sec
     gradient                   ...        0 min,  0.063 sec
 * total energy  :   -93.5159953 Eh     change       -0.3304658E-01 Eh
   gradient norm :     0.0542894 Eh/α   predicted    -0.3267531E-01 (  -1.12%)
   displ. norm   :     0.8499075 α      lambda       -0.3167263E-01
   maximum displ.:     0.2866846 α      in ANC's #39, #42, #32, ...

........................................................................
.............................. CYCLE    9 ..............................
........................................................................

 iter      E             dE          RMSdq      gap      omega  full diag
   1    -94.8178190 -0.948178E+02  0.241E-01    1.87       0.0  T
   2    -94.8173172  0.501807E-03  0.196E-01    2.01       1.0  T
   3    -94.8184765 -0.115932E-02  0.119E-01    1.90       1.0  T
   4    -94.8189209 -0.444398E-03  0.382E-02    1.95       1.0  T
   5    -94.8189724 -0.514754E-04  0.133E-02    1.93       1.0  T
   6    -94.8189773 -0.486747E-05  0.601E-03    1.94       1.9  T
   7    -94.8189785 -0.120676E-05  0.224E-03    1.94       5.2  T
   8    -94.8189785 -0.563422E-07  0.835E-04    1.94      13.9  T
   9    -94.8189785 -0.659239E-08  0.414E-04    1.94      28.1  T
  10    -94.8189786 -0.282226E-08  0.207E-04    1.94      56.0  T
     SCC iter.                  ...        0 min,  0.136 sec
     gradient                   ...        0 min,  0.065 sec
 * total energy  :   -93.5413477 Eh     change       -0.2535241E-01 Eh
   gradient norm :     0.0524129 Eh/α   predicted    -0.2727557E-01 (   7.59%)
   displ. norm   :     0.8474586 α      lambda       -0.2664085E-01
   maximum displ.:     0.2852933 α      in ANC's #39, #42, #50, ...

........................................................................
.............................. CYCLE   10 ..............................
........................................................................

 iter      E             dE          RMSdq      gap      omega  full diag
   1    -94.8381006 -0.948381E+02  0.244E-01    2.10       0.0  T
   2    -94.8381595 -0.589430E-04  0.149E-01    2.07       1.0  T
   3    -94.8374290  0.730505E-03  0.132E-01    2.15       1.0  T
   4    -94.8383523 -0.923289E-03  0.297E-02    2.07       1.0  T
   5    -94.8383946 -0.423664E-04  0.137E-02    2.09       1.0  T
   6    -94.8384013 -0.663332E-05  0.444E-03    2.09       2.6  T
   7    -94.8384017 -0.430694E-06  0.211E-03    2.09       5.5  T
   8    -94.8384018 -0.629416E-07  0.800E-04    2.09      14.5  T
   9    -94.8384018 -0.415659E-08  0.338E-04    2.09      34.4  T
  10    -94.8384018 -0.858009E-09  0.136E-04    2.09      85.2  T
     SCC iter.                  ...        0 min,  0.160 sec
     gradient                   ...        0 min,  0.081 sec
 * total energy  :   -93.5623782 Eh     change       -0.2103053E-01 Eh
   gradient norm :     0.0412767 Eh/α   predicted    -0.2288700E-01 (   8.83%)
   displ. norm   :     0.7910705 α      lambda       -0.1804020E-01
   maximum displ.:     0.2518607 α      in ANC's #39, #42, #32, ...

........................................................................
.............................. CYCLE   11 ..............................
........................................................................

 iter      E             dE          RMSdq      gap      omega  full diag
   1    -94.8482077 -0.948482E+02  0.134E-01    2.07       0.0  T
   2    -94.8482759 -0.681522E-04  0.818E-02    2.10       1.0  T
   3    -94.8481174  0.158443E-03  0.577E-02    2.05       1.0  T
   4    -94.8482794 -0.161912E-03  0.257E-02    2.09       1.0  T
   5    -94.8483180 -0.386332E-04  0.723E-03    2.08       1.6  T
   6    -94.8483188 -0.848454E-06  0.314E-03    2.08       3.7  T
   7    -94.8483192 -0.390249E-06  0.125E-03    2.08       9.3  T
   8    -94.8483193 -0.253863E-07  0.487E-04    2.08      23.9  T
   9    -94.8483193 -0.169726E-08  0.246E-04    2.08      47.2  T
     SCC iter.                  ...        0 min,  0.126 sec
     gradient                   ...        0 min,  0.075 sec
 * total energy  :   -93.5779633 Eh     change       -0.1558505E-01 Eh
   gradient norm :     0.0332689 Eh/α   predicted    -0.1466483E-01 (  -5.90%)
   displ. norm   :     0.7907284 α      lambda       -0.1417462E-01
   maximum displ.:     0.2309198 α      in ANC's #39, #42, #32, ...

........................................................................
.............................. CYCLE   12 ..............................
........................................................................

 iter      E             dE          RMSdq      gap      omega  full diag
   1    -94.8571749 -0.948572E+02  0.127E-01    2.05       0.0  T
   2    -94.8571324  0.425199E-04  0.892E-02    2.10       1.0  T
   3    -94.8570497  0.826729E-04  0.732E-02    2.05       1.0  T
   4    -94.8573209 -0.271197E-03  0.164E-02    2.08       1.0  T
   5    -94.8573308 -0.987251E-05  0.660E-03    2.08       1.8  T
   6    -94.8573316 -0.856306E-06  0.297E-03    2.08       3.9  T
   7    -94.8573319 -0.222610E-06  0.105E-03    2.08      11.1  T
   8    -94.8573319 -0.119402E-07  0.482E-04    2.08      24.1  T
   9    -94.8573319 -0.220420E-08  0.246E-04    2.08      47.3  T
     SCC iter.                  ...        0 min,  0.142 sec
     gradient                   ...        0 min,  0.074 sec
 * total energy  :   -93.5900539 Eh     change       -0.1209060E-01 Eh
   gradient norm :     0.0234175 Eh/α   predicted    -0.1151866E-01 (  -4.73%)
   displ. norm   :     0.7833815 α      lambda       -0.1047000E-01
   maximum displ.:     0.2146009 α      in ANC's #32, #39, #42, ...

........................................................................
.............................. CYCLE   13 ..............................
........................................................................

 iter      E             dE          RMSdq      gap      omega  full diag
   1    -94.8630507 -0.948631E+02  0.110E-01    2.07       0.0  T
   2    -94.8630666 -0.158866E-04  0.685E-02    2.09       1.0  T
   3    -94.8628803  0.186275E-03  0.611E-02    2.05       1.0  T
   4    -94.8631023 -0.221926E-03  0.156E-02    2.08       1.0  T
   5    -94.8631141 -0.118639E-04  0.550E-03    2.08       2.1  T
   6    -94.8631147 -0.525182E-06  0.244E-03    2.08       4.8  T
   7    -94.8631148 -0.161624E-06  0.875E-04    2.08      13.3  T
   8    -94.8631148 -0.121102E-07  0.422E-04    2.08      27.5  T
   9    -94.8631148 -0.159612E-08  0.212E-04    2.08      54.8  T
     SCC iter.                  ...        0 min,  0.121 sec
     gradient                   ...        0 min,  0.072 sec
 * total energy  :   -93.5989261 Eh     change       -0.8872211E-02 Eh
   gradient norm :     0.0188258 Eh/α   predicted    -0.8447646E-02 (  -4.79%)
   displ. norm   :     0.7709915 α      lambda       -0.7768710E-02
   maximum displ.:     0.2105731 α      in ANC's #4, #32, #39, ...

........................................................................
.............................. CYCLE   14 ..............................
........................................................................

 iter      E             dE          RMSdq      gap      omega  full diag
   1    -94.8695655 -0.948696E+02  0.981E-02    2.07       0.0  T
   2    -94.8695805 -0.150694E-04  0.597E-02    2.09       1.0  T
   3    -94.8694547  0.125784E-03  0.486E-02    2.06       1.0  T
   4    -94.8695925 -0.137738E-03  0.146E-02    2.09       1.0  T
   5    -94.8696043 -0.118207E-04  0.488E-03    2.08       2.4  T
   6    -94.8696048 -0.492763E-06  0.207E-03    2.08       5.6  T
   7    -94.8696049 -0.116560E-06  0.759E-04    2.08      15.3  T
   8    -94.8696049 -0.655571E-08  0.364E-04    2.08      31.9  T
   9    -94.8696049 -0.112493E-08  0.193E-04    2.08      60.3  T
     SCC iter.                  ...        0 min,  0.117 sec
     gradient                   ...        0 min,  0.077 sec
 * total energy  :   -93.6054544 Eh     change       -0.6528339E-02 Eh
   gradient norm :     0.0186607 Eh/α   predicted    -0.6193330E-02 (  -5.13%)
   displ. norm   :     0.7672159 α      lambda       -0.5924316E-02
   maximum displ.:     0.2443632 α      in ANC's #4, #2, #32, ...

........................................................................
.............................. CYCLE   15 ..............................
........................................................................

 iter      E             dE          RMSdq      gap      omega  full diag
   1    -94.8708834 -0.948709E+02  0.951E-02    2.08       0.0  T
   2    -94.8709059 -0.224312E-04  0.555E-02    2.08       1.0  T
   3    -94.8708838  0.220648E-04  0.240E-02    2.07       1.0  T
   4    -94.8709030 -0.192073E-04  0.129E-02    2.09       1.0  T
   5    -94.8709118 -0.879481E-05  0.515E-03    2.08       2.3  T
   6    -94.8709128 -0.963758E-06  0.195E-03    2.08       6.0  T
   7    -94.8709129 -0.132883E-06  0.683E-04    2.08      17.0  T
   8    -94.8709129 -0.876751E-08  0.339E-04    2.08      34.3  T
   9    -94.8709129 -0.122772E-08  0.161E-04    2.08      72.0  T
     SCC iter.                  ...        0 min,  0.128 sec
     gradient                   ...        0 min,  0.077 sec
 * total energy  :   -93.6103172 Eh     change       -0.4862794E-02 Eh
   gradient norm :     0.0178162 Eh/α   predicted    -0.4705750E-02 (  -3.23%)
   displ. norm   :     0.7563948 α      lambda       -0.4887338E-02
   maximum displ.:     0.2741193 α      in ANC's #4, #2, #14, ...

........................................................................
.............................. CYCLE   16 ..............................
........................................................................

 iter      E             dE          RMSdq      gap      omega  full diag
   1    -94.8786738 -0.948787E+02  0.880E-02    2.08       0.0  T
   2    -94.8786899 -0.160957E-04  0.510E-02    2.07       1.0  T
   3    -94.8786454  0.444647E-04  0.290E-02    2.09       1.0  T
   4    -94.8786874 -0.420285E-04  0.133E-02    2.07       1.0  T
   5    -94.8786979 -0.104622E-04  0.423E-03    2.08       2.8  T
   6    -94.8786984 -0.513256E-06  0.173E-03    2.08       6.7  T
   7    -94.8786985 -0.776439E-07  0.637E-04    2.08      18.2  T
   8    -94.8786985 -0.480971E-08  0.292E-04    2.08      39.8  T
   9    -94.8786985 -0.537199E-09  0.152E-04    2.08      76.3  T
     SCC iter.                  ...        0 min,  0.123 sec
     gradient                   ...        0 min,  0.069 sec
 * total energy  :   -93.6141944 Eh     change       -0.3877160E-02 Eh
   gradient norm :     0.0184622 Eh/α   predicted    -0.3841777E-02 (  -0.91%)
   displ. norm   :     0.7389747 α      lambda       -0.3837412E-02
   maximum displ.:     0.2973941 α      in ANC's #4, #2, #14, ...

........................................................................
.............................. CYCLE   17 ..............................
........................................................................

 iter      E             dE          RMSdq      gap      omega  full diag
   1    -94.8806440 -0.948806E+02  0.829E-02    2.06       0.0  T
   2    -94.8806551 -0.111455E-04  0.480E-02    2.07       1.0  T
   3    -94.8806387  0.164421E-04  0.192E-02    2.06       1.0  T
   4    -94.8806545 -0.157822E-04  0.926E-03    2.07       1.3  T
   5    -94.8806585 -0.403944E-05  0.414E-03    2.07       2.8  T
   6    -94.8806592 -0.725042E-06  0.144E-03    2.07       8.1  T
   7    -94.8806593 -0.618168E-07  0.470E-04    2.07      24.7  T
   8    -94.8806593 -0.347667E-08  0.239E-04    2.07      48.7  T
     SCC iter.                  ...        0 min,  0.120 sec
     gradient                   ...        0 min,  0.075 sec
 * total energy  :   -93.6174243 Eh     change       -0.3229937E-02 Eh
   gradient norm :     0.0150580 Eh/α   predicted    -0.2966486E-02 (  -8.16%)
   displ. norm   :     0.7447350 α      lambda       -0.3373037E-02
   maximum displ.:     0.3217297 α      in ANC's #2, #4, #1, ...

........................................................................
.............................. CYCLE   18 ..............................
........................................................................

 iter      E             dE          RMSdq      gap      omega  full diag
   1    -94.8850587 -0.948851E+02  0.830E-02    2.06       0.0  T
   2    -94.8850664 -0.775316E-05  0.474E-02    2.06       1.0  T
   3    -94.8850514  0.149882E-04  0.177E-02    2.06       1.0  T
   4    -94.8850648 -0.133811E-04  0.868E-03    2.05       1.3  T
   5    -94.8850691 -0.430873E-05  0.361E-03    2.06       3.2  T
   6    -94.8850696 -0.505480E-06  0.111E-03    2.06      10.5  T
   7    -94.8850697 -0.333309E-07  0.455E-04    2.06      25.5  T
   8    -94.8850697 -0.287727E-08  0.189E-04    2.06      61.7  T
     SCC iter.                  ...        0 min,  0.114 sec
     gradient                   ...        0 min,  0.067 sec
 * total energy  :   -93.6203468 Eh     change       -0.2922457E-02 Eh
   gradient norm :     0.0157468 Eh/α   predicted    -0.2621914E-02 ( -10.28%)
   displ. norm   :     0.7498616 α      lambda       -0.3257760E-02
   maximum displ.:     0.3592080 α      in ANC's #2, #4, #1, ...

........................................................................
.............................. CYCLE   19 ..............................
........................................................................

 iter      E             dE          RMSdq      gap      omega  full diag
   1    -94.8914696 -0.948915E+02  0.894E-02    2.05       0.0  T
   2    -94.8914753 -0.567166E-05  0.511E-02    2.05       1.0  T
   3    -94.8914529  0.223829E-04  0.223E-02    2.04       1.0  T
   4    -94.8914741 -0.211326E-04  0.883E-03    2.05       1.3  T
   5    -94.8914785 -0.444130E-05  0.301E-03    2.05       3.9  T
   6    -94.8914787 -0.241254E-06  0.108E-03    2.05      10.8  T
   7    -94.8914788 -0.317045E-07  0.481E-04    2.05      24.2  T
   8    -94.8914788 -0.442448E-08  0.195E-04    2.05      59.6  T
     SCC iter.                  ...        0 min,  0.120 sec
     gradient                   ...        0 min,  0.079 sec
 * total energy  :   -93.6230628 Eh     change       -0.2716074E-02 Eh
   gradient norm :     0.0153472 Eh/α   predicted    -0.2544800E-02 (  -6.31%)
   displ. norm   :     0.7298238 α      lambda       -0.2918806E-02
   maximum displ.:     0.3721453 α      in ANC's #2, #4, #1, ...

........................................................................
.............................. CYCLE   20 ..............................
........................................................................

 iter      E             dE          RMSdq      gap      omega  full diag
   1    -94.8928478 -0.948928E+02  0.102E-01    2.04       0.0  T
   2    -94.8928440  0.380450E-05  0.601E-02    2.05       1.0  T
   3    -94.8926486  0.195342E-03  0.593E-02    2.02       1.0  T
   4    -94.8928673 -0.218634E-03  0.944E-03    2.05       1.2  T
   5    -94.8928709 -0.361056E-05  0.355E-03    2.04       3.3  T
   6    -94.8928709 -0.433460E-07  0.156E-03    2.04       7.5  T
   7    -94.8928710 -0.831143E-07  0.591E-04    2.04      19.7  T
   8    -94.8928710 -0.456160E-08  0.190E-04    2.04      61.3  T
   9    -94.8928710 -0.347484E-09  0.110E-04    2.04     106.0  T
     SCC iter.                  ...        0 min,  0.113 sec
     gradient                   ...        0 min,  0.074 sec
 * total energy  :   -93.6253534 Eh     change       -0.2290604E-02 Eh
   gradient norm :     0.0138689 Eh/α   predicted    -0.2236742E-02 (  -2.35%)
   displ. norm   :     0.6657427 α      lambda       -0.2145779E-02
   maximum displ.:     0.3551906 α      in ANC's #2, #4, #1, ...
 * RMSD in coord.:     1.4167992 α      energy gain  -0.9855304E+00 Eh

generating ANC from exact Hessian ...
Using Lindh-Hessian (1995)
 Shifting diagonal of input Hessian by    9.9557994890672689E-003
 Lowest  eigenvalues of input Hessian
    0.000000    0.000000    0.000000    0.000000    0.000000    0.000000
    0.010000    0.010199    0.010269    0.010333    0.010393    0.010560
    0.010707    0.010764    0.010931    0.011068    0.011148    0.011259
 Highest eigenvalues
    1.587687    1.609293    1.898658    2.000519    2.024434    2.484718


........................................................................
.............................. CYCLE   21 ..............................
........................................................................

 iter      E             dE          RMSdq      gap      omega  full diag
   1    -94.8953440 -0.948953E+02  0.954E-02    2.04       0.0  T
   2    -94.8953410  0.301318E-05  0.563E-02    2.05       1.0  T
   3    -94.8951762  0.164776E-03  0.525E-02    2.02       1.0  T
   4    -94.8953556 -0.179398E-03  0.687E-03    2.04       1.7  T
   5    -94.8953581 -0.244272E-05  0.275E-03    2.04       4.2  T
   6    -94.8953582 -0.109378E-06  0.105E-03    2.04      11.1  T
   7    -94.8953582 -0.139671E-07  0.455E-04    2.04      25.6  T
   8    -94.8953582 -0.353418E-08  0.205E-04    2.04      56.7  T
     SCC iter.                  ...        0 min,  0.106 sec
     gradient                   ...        0 min,  0.068 sec
 * total energy  :   -93.6270394 Eh     change       -0.1685949E-02 Eh
   gradient norm :     0.0113143 Eh/α   predicted     0.0000000E+00 (-100.00%)
   displ. norm   :     0.2451293 α      lambda       -0.1381808E-02
   maximum displ.:     0.0859001 α      in ANC's #6, #25, #14, ...

........................................................................
.............................. CYCLE   22 ..............................
........................................................................

 iter      E             dE          RMSdq      gap      omega  full diag
   1    -94.8983057 -0.948983E+02  0.634E-02    2.03       0.0  T
   2    -94.8983084 -0.268953E-05  0.361E-02    2.04       1.0  T
   3    -94.8983077  0.679226E-06  0.845E-03    2.03       1.4  T
   4    -94.8983091 -0.137847E-05  0.338E-03    2.04       3.4  T
   5    -94.8983091  0.223669E-07  0.155E-03    2.04       7.5  T
   6    -94.8983091 -0.183020E-07  0.845E-04    2.04      13.8  T
   7    -94.8983091 -0.249859E-07  0.462E-04    2.04      25.2  T
   8    -94.8983091 -0.121794E-07  0.146E-04    2.04      79.9  T
     SCC iter.                  ...        0 min,  0.107 sec
     gradient                   ...        0 min,  0.069 sec
 * total energy  :   -93.6281224 Eh     change       -0.1082963E-02 Eh
   gradient norm :     0.0068179 Eh/α   predicted    -0.7324214E-03 ( -32.37%)
   displ. norm   :     0.6238416 α      lambda       -0.2653546E-02
   maximum displ.:     0.2282927 α      in ANC's #6, #14, #38, ...

........................................................................
.............................. CYCLE   23 ..............................
........................................................................

 iter      E             dE          RMSdq      gap      omega  full diag
   1    -94.8967816 -0.948968E+02  0.165E-01    2.02       0.0  T
   2    -94.8968056 -0.239759E-04  0.955E-02    2.04       1.0  T
   3    -94.8965396  0.266037E-03  0.671E-02    1.99       1.0  T
   4    -94.8968108 -0.271226E-03  0.227E-02    2.03       1.0  T
   5    -94.8968345 -0.236813E-04  0.781E-03    2.02       1.5  T
   6    -94.8968355 -0.996876E-06  0.326E-03    2.03       3.6  T
   7    -94.8968356 -0.107685E-06  0.134E-03    2.02       8.7  T
   8    -94.8968356 -0.304496E-07  0.495E-04    2.03      23.5  T
   9    -94.8968356 -0.252442E-08  0.293E-04    2.03      39.7  T
     SCC iter.                  ...        0 min,  0.127 sec
     gradient                   ...        0 min,  0.074 sec
 * total energy  :   -93.6278506 Eh     change        0.2717953E-03 Eh
   gradient norm :     0.0274156 Eh/α   predicted    -0.1843128E-02 (-778.13%)
   displ. norm   :     0.2446123 α      lambda       -0.3624041E-02
   maximum displ.:     0.0788315 α      in ANC's #6, #36, #14, ...

........................................................................
.............................. CYCLE   24 ..............................
........................................................................

 iter      E             dE          RMSdq      gap      omega  full diag
   1    -94.8998932 -0.948999E+02  0.114E-01    2.04       0.0  T
   2    -94.8998940 -0.796843E-06  0.665E-02    2.03       1.0  T
   3    -94.8997236  0.170387E-03  0.600E-02    2.06       1.0  T
   4    -94.8999306 -0.207026E-03  0.151E-02    2.03       1.0  T
   5    -94.8999370 -0.633672E-05  0.699E-03    2.04       1.7  T
   6    -94.8999391 -0.207576E-05  0.192E-03    2.04       6.1  T
   7    -94.8999391 -0.523925E-07  0.819E-04    2.04      14.2  T
   8    -94.8999391 -0.670259E-08  0.256E-04    2.04      45.4  T
   9    -94.8999391 -0.724228E-09  0.139E-04    2.04      83.3  T
     SCC iter.                  ...        0 min,  0.116 sec
     gradient                   ...        0 min,  0.067 sec
 * total energy  :   -93.6298029 Eh     change       -0.1952314E-02 Eh
   gradient norm :     0.0126729 Eh/α   predicted    -0.1920445E-02 (  -1.63%)
   displ. norm   :     0.2662782 α      lambda       -0.7644812E-03
   maximum displ.:     0.1223361 α      in ANC's #6, #14, #5, ...

........................................................................
.............................. CYCLE   25 ..............................
........................................................................

 iter      E             dE          RMSdq      gap      omega  full diag
   1    -94.9005536 -0.949006E+02  0.469E-02    2.02       0.0  T
   2    -94.9005384  0.152122E-04  0.318E-02    2.04       1.0  T
   3    -94.9005277  0.107095E-04  0.288E-02    2.02       1.0  T
   4    -94.9005707 -0.430329E-04  0.479E-03    2.03       2.4  T
   5    -94.9005711 -0.382263E-06  0.164E-03    2.03       7.1  T
   6    -94.9005711 -0.586495E-07  0.787E-04    2.03      14.8  T
   7    -94.9005712 -0.144154E-07  0.313E-04    2.03      37.1  T
   8    -94.9005712 -0.109699E-08  0.112E-04    2.03     103.5  T
     SCC iter.                  ...        0 min,  0.107 sec
     gradient                   ...        0 min,  0.064 sec
 * total energy  :   -93.6304674 Eh     change       -0.6644896E-03 Eh
   gradient norm :     0.0075254 Eh/α   predicted    -0.4093445E-03 ( -38.40%)
   displ. norm   :     0.6615262 α      lambda       -0.1454446E-02
   maximum displ.:     0.2900474 α      in ANC's #6, #14, #5, ...

........................................................................
.............................. CYCLE   26 ..............................
........................................................................

 iter      E             dE          RMSdq      gap      omega  full diag
   1    -94.9001208 -0.949001E+02  0.994E-02    2.02       0.0  T
   2    -94.9000882  0.326273E-04  0.628E-02    2.05       1.0  T
   3    -94.8998713  0.216876E-03  0.678E-02    2.00       1.0  T
   4    -94.9001601 -0.288843E-03  0.639E-03    2.03       1.8  T
   5    -94.9001610 -0.823163E-06  0.252E-03    2.03       4.6  T
   6    -94.9001610 -0.593959E-07  0.122E-03    2.03       9.5  T
   7    -94.9001610 -0.311962E-07  0.441E-04    2.03      26.3  T
   8    -94.9001610 -0.267673E-08  0.198E-04    2.03      58.6  T
     SCC iter.                  ...        0 min,  0.105 sec
     gradient                   ...        0 min,  0.078 sec
 * total energy  :   -93.6316595 Eh     change       -0.1192136E-02 Eh
   gradient norm :     0.0076742 Eh/α   predicted    -0.1045470E-02 ( -12.30%)
   displ. norm   :     0.7209002 α      lambda       -0.1168096E-02
   maximum displ.:     0.3159467 α      in ANC's #6, #14, #5, ...

........................................................................
.............................. CYCLE   27 ..............................
........................................................................

 iter      E             dE          RMSdq      gap      omega  full diag
   1    -94.8983141 -0.948983E+02  0.989E-02    2.02       0.0  T
   2    -94.8982876  0.265707E-04  0.617E-02    2.05       1.0  T
   3    -94.8980451  0.242408E-03  0.683E-02    2.00       1.0  T
   4    -94.8983483 -0.303132E-03  0.598E-03    2.03       1.9  T
   5    -94.8983491 -0.793735E-06  0.257E-03    2.03       4.5  T
   6    -94.8983491 -0.461421E-07  0.126E-03    2.03       9.2  T
   7    -94.8983491 -0.273004E-07  0.485E-04    2.03      24.0  T
   8    -94.8983492 -0.351156E-08  0.211E-04    2.03      55.0  T
     SCC iter.                  ...        0 min,  0.111 sec
     gradient                   ...        0 min,  0.067 sec
 * total energy  :   -93.6326565 Eh     change       -0.9970045E-03 Eh
   gradient norm :     0.0099918 Eh/α   predicted    -0.8875774E-03 ( -10.98%)
   displ. norm   :     0.7169083 α      lambda       -0.1112985E-02
   maximum displ.:     0.3161671 α      in ANC's #6, #14, #4, ...

........................................................................
.............................. CYCLE   28 ..............................
........................................................................

 iter      E             dE          RMSdq      gap      omega  full diag
   1    -94.9012127 -0.949012E+02  0.926E-02    2.03       0.0  T
   2    -94.9012069  0.584947E-05  0.551E-02    2.05       1.0  T
   3    -94.9010051  0.201781E-03  0.565E-02    2.01       1.0  T
   4    -94.9012295 -0.224437E-03  0.630E-03    2.04       1.8  T
   5    -94.9012308 -0.129713E-05  0.210E-03    2.04       5.5  T
   6    -94.9012309 -0.294701E-07  0.110E-03    2.04      10.6  T
   7    -94.9012309 -0.232028E-07  0.476E-04    2.04      24.4  T
   8    -94.9012309 -0.375434E-08  0.173E-04    2.04      67.2  T
     SCC iter.                  ...        0 min,  0.107 sec
     gradient                   ...        0 min,  0.071 sec
 * total energy  :   -93.6335965 Eh     change       -0.9400115E-03 Eh
   gradient norm :     0.0082675 Eh/α   predicted    -0.8425102E-03 ( -10.37%)
   displ. norm   :     0.7676409 α      lambda       -0.1034706E-02
   maximum displ.:     0.3317967 α      in ANC's #6, #14, #4, ...

........................................................................
.............................. CYCLE   29 ..............................
........................................................................

 iter      E             dE          RMSdq      gap      omega  full diag
   1    -94.9005786 -0.949006E+02  0.942E-02    2.04       0.0  T
   2    -94.9005848 -0.623224E-05  0.551E-02    2.05       1.0  T
   3    -94.9004938  0.909855E-04  0.363E-02    2.02       1.0  T
   4    -94.9005876 -0.937502E-04  0.101E-02    2.04       1.1  T
   5    -94.9005927 -0.518293E-05  0.246E-03    2.04       4.7  T
   6    -94.9005928 -0.247800E-07  0.134E-03    2.04       8.7  T
   7    -94.9005928 -0.229162E-07  0.598E-04    2.04      19.4  T
   8    -94.9005928 -0.588773E-08  0.228E-04    2.04      51.1  T
   9    -94.9005928 -0.680814E-09  0.100E-04    2.04     115.7  T
     SCC iter.                  ...        0 min,  0.123 sec
     gradient                   ...        0 min,  0.077 sec
 * total energy  :   -93.6344483 Eh     change       -0.8518061E-03 Eh
   gradient norm :     0.0090227 Eh/α   predicted    -0.8222198E-03 (  -3.47%)
   displ. norm   :     0.6948669 α      lambda       -0.1083794E-02
   maximum displ.:     0.2895028 α      in ANC's #6, #4, #14, ...

........................................................................
.............................. CYCLE   30 ..............................
........................................................................

 iter      E             dE          RMSdq      gap      omega  full diag
   1    -94.9095689 -0.949096E+02  0.900E-02    2.05       0.0  T
   2    -94.9095782 -0.927963E-05  0.529E-02    2.05       1.0  T
   3    -94.9095476  0.306167E-04  0.253E-02    2.06       1.0  T
   4    -94.9095758 -0.281717E-04  0.100E-02    2.04       1.2  T
   5    -94.9095819 -0.617756E-05  0.316E-03    2.05       3.7  T
   6    -94.9095824 -0.432840E-06  0.142E-03    2.05       8.2  T
   7    -94.9095824 -0.526964E-07  0.622E-04    2.05      18.7  T
   8    -94.9095824 -0.600086E-08  0.203E-04    2.05      57.2  T
   9    -94.9095824 -0.423185E-09  0.852E-05    2.05     136.4  T
     SCC iter.                  ...        0 min,  0.123 sec
     gradient                   ...        0 min,  0.077 sec
 * total energy  :   -93.6352458 Eh     change       -0.7974571E-03 Eh
   gradient norm :     0.0094632 Eh/α   predicted    -0.8035487E-03 (   0.76%)
   displ. norm   :     0.7840504 α      lambda       -0.8959803E-03
   maximum displ.:     0.3266904 α      in ANC's #6, #4, #14, ...

........................................................................
.............................. CYCLE   31 ..............................
........................................................................

 iter      E             dE          RMSdq      gap      omega  full diag
   1    -94.9039541 -0.949040E+02  0.109E-01    2.02       0.0  T
   2    -94.9038990  0.551056E-04  0.716E-02    2.06       1.0  T
   3    -94.9037081  0.190905E-03  0.730E-02    2.01       1.0  T
   4    -94.9040158 -0.307643E-03  0.594E-03    2.04       2.0  T
   5    -94.9040170 -0.119239E-05  0.290E-03    2.04       4.0  T
   6    -94.9040171 -0.175082E-06  0.141E-03    2.04       8.2  T
   7    -94.9040172 -0.213582E-07  0.444E-04    2.04      26.2  T
   8    -94.9040172 -0.423388E-08  0.201E-04    2.04      57.9  T
     SCC iter.                  ...        0 min,  0.125 sec
     gradient                   ...        0 min,  0.079 sec
 * total energy  :   -93.6359664 Eh     change       -0.7205743E-03 Eh
   gradient norm :     0.0096700 Eh/α   predicted    -0.7233907E-03 (   0.39%)
   displ. norm   :     0.6477042 α      lambda       -0.7850511E-03
   maximum displ.:     0.2516840 α      in ANC's #4, #6, #14, ...

........................................................................
.............................. CYCLE   32 ..............................
........................................................................

 iter      E             dE          RMSdq      gap      omega  full diag
   1    -94.9048410 -0.949048E+02  0.865E-02    2.03       0.0  T
   2    -94.9048434 -0.238967E-05  0.507E-02    2.04       1.0  T
   3    -94.9047968  0.465861E-04  0.252E-02    2.02       1.0  T
   4    -94.9048451 -0.482520E-04  0.596E-03    2.04       2.0  T
   5    -94.9048467 -0.168554E-05  0.205E-03    2.03       5.7  T
   6    -94.9048468 -0.574100E-07  0.963E-04    2.03      12.1  T
   7    -94.9048468 -0.170073E-07  0.389E-04    2.03      29.9  T
   8    -94.9048468 -0.188984E-08  0.165E-04    2.03      70.5  T
     SCC iter.                  ...        0 min,  0.107 sec
     gradient                   ...        0 min,  0.072 sec
 * total energy  :   -93.6366037 Eh     change       -0.6373820E-03 Eh
   gradient norm :     0.0085580 Eh/α   predicted    -0.5572025E-03 ( -12.58%)
   displ. norm   :     0.5993423 α      lambda       -0.7466403E-03
   maximum displ.:     0.2431888 α      in ANC's #4, #6, #7, ...

........................................................................
.............................. CYCLE   33 ..............................
........................................................................

 iter      E             dE          RMSdq      gap      omega  full diag
   1    -94.9067271 -0.949067E+02  0.896E-02    2.02       0.0  T
   2    -94.9067174  0.971148E-05  0.541E-02    2.03       1.0  T
   3    -94.9065254  0.191945E-03  0.570E-02    2.00       1.0  T
   4    -94.9067429 -0.217440E-03  0.490E-03    2.02       2.4  T
   5    -94.9067440 -0.108159E-05  0.222E-03    2.02       5.2  T
   6    -94.9067441 -0.999201E-07  0.102E-03    2.02      11.4  T
   7    -94.9067441 -0.126649E-07  0.344E-04    2.02      33.8  T
   8    -94.9067441 -0.148891E-08  0.159E-04    2.02      73.3  T
     SCC iter.                  ...        0 min,  0.122 sec
     gradient                   ...        0 min,  0.080 sec
 * total energy  :   -93.6371763 Eh     change       -0.5725186E-03 Eh
   gradient norm :     0.0070274 Eh/α   predicted    -0.5074236E-03 ( -11.37%)
   displ. norm   :     0.6665059 α      lambda       -0.6592884E-03
   maximum displ.:     0.2532434 α      in ANC's #4, #6, #7, ...

........................................................................
.............................. CYCLE   34 ..............................
........................................................................

 iter      E             dE          RMSdq      gap      omega  full diag
   1    -94.9074032 -0.949074E+02  0.945E-02    2.03       0.0  T
   2    -94.9073776  0.255944E-04  0.624E-02    2.01       1.0  T
   3    -94.9072204  0.157209E-03  0.601E-02    2.05       1.0  T
   4    -94.9074387 -0.218330E-03  0.569E-03    2.02       2.0  T
   5    -94.9074397 -0.101816E-05  0.307E-03    2.02       3.8  T
   6    -94.9074401 -0.407772E-06  0.126E-03    2.02       9.2  T
   7    -94.9074402 -0.100949E-07  0.488E-04    2.02      23.8  T
   8    -94.9074402 -0.287555E-08  0.192E-04    2.02      60.4  T
     SCC iter.                  ...        0 min,  0.111 sec
     gradient                   ...        0 min,  0.081 sec
 * total energy  :   -93.6376419 Eh     change       -0.4656319E-03 Eh
   gradient norm :     0.0099237 Eh/α   predicted    -0.4760848E-03 (   2.24%)
   displ. norm   :     0.5527564 α      lambda       -0.5975197E-03
   maximum displ.:     0.2029132 α      in ANC's #4, #7, #6, ...

........................................................................
.............................. CYCLE   35 ..............................
........................................................................

 iter      E             dE          RMSdq      gap      omega  full diag
   1    -94.9085296 -0.949085E+02  0.879E-02    2.00       0.0  T
   2    -94.9085150  0.146003E-04  0.538E-02    2.02       1.0  T
   3    -94.9083283  0.186717E-03  0.577E-02    1.99       1.0  T
   4    -94.9085487 -0.220460E-03  0.431E-03    2.01       2.7  T
   5    -94.9085493 -0.565092E-06  0.222E-03    2.01       5.2  T
   6    -94.9085494 -0.740237E-07  0.950E-04    2.01      12.2  T
   7    -94.9085494 -0.135691E-07  0.354E-04    2.01      32.9  T
   8    -94.9085494 -0.233246E-08  0.148E-04    2.01      78.7  T
     SCC iter.                  ...        0 min,  0.114 sec
     gradient                   ...        0 min,  0.076 sec
 * total energy  :   -93.6380779 Eh     change       -0.4360102E-03 Eh
   gradient norm :     0.0072812 Eh/α   predicted    -0.3900436E-03 ( -10.54%)
   displ. norm   :     0.4755473 α      lambda       -0.5325525E-03
   maximum displ.:     0.1500506 α      in ANC's #7, #4, #34, ...

........................................................................
.............................. CYCLE   36 ..............................
........................................................................

 iter      E             dE          RMSdq      gap      omega  full diag
   1    -94.9148121 -0.949148E+02  0.825E-02    1.99       0.0  T
   2    -94.9148087  0.337455E-05  0.496E-02    2.00       1.0  T
   3    -94.9146662  0.142529E-03  0.468E-02    1.98       1.0  T
   4    -94.9148219 -0.155643E-03  0.452E-03    2.00       2.6  T
   5    -94.9148226 -0.757874E-06  0.205E-03    2.00       5.7  T
   6    -94.9148227 -0.902916E-07  0.856E-04    2.00      13.6  T
   7    -94.9148227 -0.106551E-07  0.348E-04    2.00      33.4  T
   8    -94.9148227 -0.231756E-08  0.140E-04    2.00      83.2  T
     SCC iter.                  ...        0 min,  0.113 sec
     gradient                   ...        0 min,  0.068 sec
 * total energy  :   -93.6383315 Eh     change       -0.2536291E-03 Eh
   gradient norm :     0.0119423 Eh/α   predicted    -0.3264961E-03 (  28.73%)
   displ. norm   :     0.5026986 α      lambda       -0.5926790E-03
   maximum displ.:     0.1501735 α      in ANC's #4, #9, #22, ...

........................................................................
.............................. CYCLE   37 ..............................
........................................................................

 iter      E             dE          RMSdq      gap      omega  full diag
   1    -94.9058165 -0.949058E+02  0.827E-02    1.99       0.0  T
   2    -94.9058237 -0.717593E-05  0.482E-02    1.99       1.0  T
   3    -94.9058120  0.117473E-04  0.197E-02    1.99       1.0  T
   4    -94.9058227 -0.107137E-04  0.734E-03    1.99       1.6  T
   5    -94.9058259 -0.322125E-05  0.290E-03    1.99       4.0  T
   6    -94.9058262 -0.342982E-06  0.135E-03    1.99       8.6  T
   7    -94.9058263 -0.469014E-07  0.477E-04    1.99      24.3  T
   8    -94.9058263 -0.279287E-08  0.198E-04    1.99      58.8  T
     SCC iter.                  ...        0 min,  0.105 sec
     gradient                   ...        0 min,  0.075 sec
 * total energy  :   -93.6385861 Eh     change       -0.2545977E-03 Eh
   gradient norm :     0.0095894 Eh/α   predicted    -0.3712281E-03 (  45.81%)
   displ. norm   :     0.2606291 α      lambda       -0.4812626E-03
   maximum displ.:     0.0971981 α      in ANC's #6, #4, #14, ...

........................................................................
.............................. CYCLE   38 ..............................
........................................................................

 iter      E             dE          RMSdq      gap      omega  full diag
   1    -94.9185368 -0.949185E+02  0.676E-02    2.02       0.0  T
   2    -94.9184928  0.440010E-04  0.520E-02    1.99       1.0  T
   3    -94.9185567 -0.638953E-04  0.356E-02    2.02       1.0  T
   4    -94.9186058 -0.490951E-04  0.814E-03    2.00       1.4  T
   5    -94.9186076 -0.176221E-05  0.330E-03    2.01       3.5  T
   6    -94.9186081 -0.453960E-06  0.142E-03    2.01       8.2  T
   7    -94.9186081 -0.147150E-07  0.435E-04    2.01      26.7  T
   8    -94.9186081 -0.224328E-08  0.147E-04    2.01      79.2  T
     SCC iter.                  ...        0 min,  0.116 sec
     gradient                   ...        0 min,  0.073 sec
 * total energy  :   -93.6386072 Eh     change       -0.2110517E-04 Eh
   gradient norm :     0.0155308 Eh/α   predicted    -0.2569809E-03 (1117.62%)
   displ. norm   :     0.1842653 α      lambda       -0.5437717E-03
   maximum displ.:     0.0623771 α      in ANC's #7, #8, #34, ...

........................................................................
.............................. CYCLE   39 ..............................
........................................................................

 iter      E             dE          RMSdq      gap      omega  full diag
   1    -94.9130782 -0.949131E+02  0.515E-02    1.99       0.0  T
   2    -94.9130546  0.235413E-04  0.404E-02    2.01       1.0  T
   3    -94.9130850 -0.304134E-04  0.272E-02    1.99       1.0  T
   4    -94.9131135 -0.284794E-04  0.646E-03    2.00       1.8  T
   5    -94.9131148 -0.130063E-05  0.242E-03    2.00       4.8  T
   6    -94.9131150 -0.229746E-06  0.116E-03    2.00      10.0  T
   7    -94.9131151 -0.159151E-07  0.392E-04    2.00      29.7  T
   8    -94.9131151 -0.175966E-08  0.965E-05    2.00     120.5  T
     SCC iter.                  ...        0 min,  0.128 sec
     gradient                   ...        0 min,  0.076 sec
 * total energy  :   -93.6389172 Eh     change       -0.3099534E-03 Eh
   gradient norm :     0.0068345 Eh/α   predicted    -0.2811185E-03 (  -9.30%)
   displ. norm   :     0.2153694 α      lambda       -0.2824437E-03
   maximum displ.:     0.0699940 α      in ANC's #3, #8, #9, ...

........................................................................
.............................. CYCLE   40 ..............................
........................................................................

 iter      E             dE          RMSdq      gap      omega  full diag
   1    -94.9117927 -0.949118E+02  0.440E-02    2.00       0.0  T
   2    -94.9117937 -0.908806E-06  0.261E-02    2.00       1.0  T
   3    -94.9117665  0.271189E-04  0.215E-02    2.01       1.0  T
   4    -94.9117957 -0.291273E-04  0.479E-03    2.00       2.4  T
   5    -94.9117969 -0.120285E-05  0.116E-03    2.00      10.0  T
   6    -94.9117969  0.409327E-08  0.704E-04    2.00      16.5  T
   7    -94.9117969 -0.118642E-07  0.218E-04    2.00      53.4  T
   8    -94.9117969 -0.323283E-09  0.112E-04    2.00     103.3  T
     SCC iter.                  ...        0 min,  0.119 sec
     gradient                   ...        0 min,  0.072 sec
 * total energy  :   -93.6390738 Eh     change       -0.1565863E-03 Eh
   gradient norm :     0.0071063 Eh/α   predicted    -0.1477739E-03 (  -5.63%)
   displ. norm   :     0.3181321 α      lambda       -0.2661996E-03
   maximum displ.:     0.1111477 α      in ANC's #3, #9, #11, ...

........................................................................
.............................. CYCLE   41 ..............................
........................................................................

 iter      E             dE          RMSdq      gap      omega  full diag
   1    -94.9084976 -0.949085E+02  0.610E-02    2.00       0.0  T
   2    -94.9084951  0.247516E-05  0.373E-02    2.01       1.0  T
   3    -94.9084147  0.804491E-04  0.361E-02    1.99       1.0  T
   4    -94.9085034 -0.887630E-04  0.335E-03    2.01       3.5  T
   5    -94.9085040 -0.559529E-06  0.137E-03    2.00       8.5  T
   6    -94.9085041 -0.787396E-07  0.553E-04    2.00      21.0  T
   7    -94.9085041 -0.212104E-08  0.255E-04    2.00      45.6  T
   8    -94.9085041 -0.989985E-09  0.116E-04    2.00     100.2  T
     SCC iter.                  ...        0 min,  0.125 sec
     gradient                   ...        0 min,  0.076 sec
 * total energy  :   -93.6392687 Eh     change       -0.1949581E-03 Eh
   gradient norm :     0.0078406 Eh/α   predicted    -0.1465727E-03 ( -24.82%)
   displ. norm   :     0.4484840 α      lambda       -0.4243501E-03
   maximum displ.:     0.1761263 α      in ANC's #3, #6, #5, ...

........................................................................
.............................. CYCLE   42 ..............................
........................................................................

 iter      E             dE          RMSdq      gap      omega  full diag
   1    -94.9123528 -0.949124E+02  0.799E-02    2.03       0.0  T
   2    -94.9123399  0.128402E-04  0.498E-02    2.01       1.0  T
   3    -94.9122032  0.136780E-03  0.511E-02    2.04       1.0  T
   4    -94.9123706 -0.167437E-03  0.480E-03    2.02       2.4  T
   5    -94.9123716 -0.981362E-06  0.173E-03    2.02       6.7  T
   6    -94.9123716 -0.340009E-07  0.917E-04    2.02      12.7  T
   7    -94.9123716 -0.173810E-07  0.312E-04    2.02      37.3  T
   8    -94.9123716 -0.147139E-08  0.159E-04    2.02      73.1  T
     SCC iter.                  ...        0 min,  0.136 sec
     gradient                   ...        0 min,  0.076 sec
 * total energy  :   -93.6395213 Eh     change       -0.2525600E-03 Eh
   gradient norm :     0.0066068 Eh/α   predicted    -0.2548488E-03 (   0.91%)
   displ. norm   :     0.5214485 α      lambda       -0.3565280E-03
   maximum displ.:     0.2159739 α      in ANC's #3, #9, #1, ...
 * RMSD in coord.:     1.0051153 α      energy gain  -0.1416784E-01 Eh

generating ANC from exact Hessian ...
Using Lindh-Hessian (1995)
 Shifting diagonal of input Hessian by    9.9219012470328407E-003
 Lowest  eigenvalues of input Hessian
    0.000000    0.000000    0.000000    0.000000    0.000000    0.000000
    0.010000    0.010113    0.010131    0.010167    0.010241    0.010326
    0.010405    0.010610    0.010692    0.010923    0.010958    0.011045
 Highest eigenvalues
    1.579747    1.613722    1.889123    1.986339    2.011454    2.491152


........................................................................
.............................. CYCLE   43 ..............................
........................................................................

 iter      E             dE          RMSdq      gap      omega  full diag
   1    -94.9077622 -0.949078E+02  0.105E-01    2.04       0.0  T
   2    -94.9077441  0.181397E-04  0.658E-02    2.02       1.0  T
   3    -94.9074969  0.247188E-03  0.665E-02    2.06       1.0  T
   4    -94.9077894 -0.292552E-03  0.560E-03    2.03       2.1  T
   5    -94.9077906 -0.111110E-05  0.206E-03    2.03       5.6  T
   6    -94.9077906 -0.927527E-07  0.105E-03    2.03      11.0  T
   7    -94.9077907 -0.151594E-07  0.352E-04    2.03      33.0  T
   8    -94.9077907 -0.207659E-08  0.153E-04    2.03      76.1  T
     SCC iter.                  ...        0 min,  0.115 sec
     gradient                   ...        0 min,  0.078 sec
 * total energy  :   -93.6396203 Eh     change       -0.9899258E-04 Eh
   gradient norm :     0.0119440 Eh/α   predicted     0.0000000E+00 (-100.00%)
   displ. norm   :     0.1034813 α      lambda       -0.4351730E-03
   maximum displ.:     0.0597499 α      in ANC's #8, #3, #38, ...

........................................................................
.............................. CYCLE   44 ..............................
........................................................................

 iter      E             dE          RMSdq      gap      omega  full diag
   1    -94.9129692 -0.949130E+02  0.343E-02    2.03       0.0  T
   2    -94.9129689  0.387593E-06  0.206E-02    2.03       1.0  T
   3    -94.9129516  0.172999E-04  0.198E-02    2.02       1.0  T
   4    -94.9129731 -0.215411E-04  0.417E-03    2.03       2.8  T
   5    -94.9129741 -0.956234E-06  0.139E-03    2.03       8.4  T
   6    -94.9129741 -0.400589E-07  0.643E-04    2.03      18.1  T
   7    -94.9129741 -0.951481E-08  0.201E-04    2.03      57.9  T
   8    -94.9129741 -0.422631E-09  0.698E-05    2.03     166.5  T
     SCC iter.                  ...        0 min,  0.115 sec
     gradient                   ...        0 min,  0.076 sec
 * total energy  :   -93.6399015 Eh     change       -0.2811899E-03 Eh
   gradient norm :     0.0043018 Eh/α   predicted    -0.2199173E-03 ( -21.79%)
   displ. norm   :     0.2465535 α      lambda       -0.5534232E-03
   maximum displ.:     0.1294682 α      in ANC's #8, #34, #3, ...

........................................................................
.............................. CYCLE   45 ..............................
........................................................................

 iter      E             dE          RMSdq      gap      omega  full diag
   1    -94.9182084 -0.949182E+02  0.946E-02    2.03       0.0  T
   2    -94.9182068  0.162416E-05  0.559E-02    2.04       1.0  T
   3    -94.9180648  0.142059E-03  0.525E-02    2.01       1.0  T
   4    -94.9182288 -0.164071E-03  0.111E-02    2.04       1.1  T
   5    -94.9182343 -0.543845E-05  0.473E-03    2.03       2.5  T
   6    -94.9182351 -0.871871E-06  0.151E-03    2.03       7.7  T
   7    -94.9182352 -0.364731E-07  0.534E-04    2.03      21.8  T
   8    -94.9182352 -0.252395E-08  0.158E-04    2.03      73.5  T
   9    -94.9182352 -0.291422E-09  0.746E-05    2.03     155.7  T
     SCC iter.                  ...        0 min,  0.142 sec
     gradient                   ...        0 min,  0.073 sec
 * total energy  :   -93.6394581 Eh     change        0.4433620E-03 Eh
   gradient norm :     0.0182409 Eh/α   predicted    -0.2935511E-03 (-166.21%)
   displ. norm   :     0.0997043 α      lambda       -0.1253657E-02
   maximum displ.:     0.0490528 α      in ANC's #34, #30, #41, ...

........................................................................
.............................. CYCLE   46 ..............................
........................................................................

 iter      E             dE          RMSdq      gap      omega  full diag
   1    -94.9163941 -0.949164E+02  0.690E-02    2.04       0.0  T
   2    -94.9163856  0.844111E-05  0.420E-02    2.03       1.0  T
   3    -94.9163170  0.685954E-04  0.407E-02    2.05       1.0  T
   4    -94.9164137 -0.966788E-04  0.748E-03    2.03       1.6  T
   5    -94.9164150 -0.130679E-05  0.384E-03    2.04       3.0  T
   6    -94.9164155 -0.547189E-06  0.120E-03    2.04       9.7  T
   7    -94.9164156 -0.210744E-07  0.412E-04    2.04      28.2  T
   8    -94.9164156 -0.208583E-08  0.121E-04    2.04      95.9  T
     SCC iter.                  ...        0 min,  0.113 sec
     gradient                   ...        0 min,  0.070 sec
 * total energy  :   -93.6401345 Eh     change       -0.6764286E-03 Eh
   gradient norm :     0.0045036 Eh/α   predicted    -0.6330617E-03 (  -6.41%)
   displ. norm   :     0.1165335 α      lambda       -0.1261034E-03
   maximum displ.:     0.0626972 α      in ANC's #8, #3, #6, ...

........................................................................
.............................. CYCLE   47 ..............................
........................................................................

 iter      E             dE          RMSdq      gap      omega  full diag
   1    -94.9151580 -0.949152E+02  0.257E-02    2.04       0.0  T
   2    -94.9151580 -0.112024E-09  0.151E-02    2.04       1.0  T
   3    -94.9151504  0.760576E-05  0.107E-02    2.03       1.1  T
   4    -94.9151584 -0.805457E-05  0.132E-03    2.04       8.8  T
   5    -94.9151585 -0.829810E-07  0.575E-04    2.04      20.2  T
   6    -94.9151585 -0.454739E-08  0.248E-04    2.04      46.9  T
   7    -94.9151585 -0.157155E-08  0.721E-05    2.04     161.2  T
     SCC iter.                  ...        0 min,  0.096 sec
     gradient                   ...        0 min,  0.080 sec
 * total energy  :   -93.6402494 Eh     change       -0.1148370E-03 Eh
   gradient norm :     0.0031817 Eh/α   predicted    -0.6391208E-04 ( -44.35%)
   displ. norm   :     0.4623542 α      lambda       -0.4207752E-03
   maximum displ.:     0.2306376 α      in ANC's #8, #3, #6, ...

........................................................................
.............................. CYCLE   48 ..............................
........................................................................

 iter      E             dE          RMSdq      gap      omega  full diag
   1    -94.9108231 -0.949108E+02  0.976E-02    2.04       0.0  T
   2    -94.9108253 -0.223185E-05  0.570E-02    2.04       1.0  T
   3    -94.9108247  0.594920E-06  0.536E-03    2.04       2.2  T
   4    -94.9108254 -0.677589E-06  0.359E-03    2.04       3.2  T
   5    -94.9108259 -0.515485E-06  0.170E-03    2.04       6.9  T
   6    -94.9108260 -0.956877E-07  0.592E-04    2.04      19.7  T
   7    -94.9108260 -0.103111E-07  0.214E-04    2.04      54.3  T
   8    -94.9108260 -0.153429E-08  0.941E-05    2.04     123.6  T
     SCC iter.                  ...        0 min,  0.110 sec
     gradient                   ...        0 min,  0.076 sec
 * total energy  :   -93.6405726 Eh     change       -0.3231946E-03 Eh
   gradient norm :     0.0046594 Eh/α   predicted    -0.2553631E-03 ( -20.99%)
   displ. norm   :     0.4896535 α      lambda       -0.3040301E-03
   maximum displ.:     0.2393097 α      in ANC's #8, #3, #6, ...

........................................................................
.............................. CYCLE   49 ..............................
........................................................................

 iter      E             dE          RMSdq      gap      omega  full diag
   1    -94.9074353 -0.949074E+02  0.102E-01    2.04       0.0  T
   2    -94.9074372 -0.185248E-05  0.595E-02    2.04       1.0  T
   3    -94.9074368  0.394583E-06  0.497E-03    2.04       2.3  T
   4    -94.9074373 -0.498497E-06  0.309E-03    2.04       3.8  T
   5    -94.9074376 -0.384767E-06  0.199E-03    2.04       5.8  T
   6    -94.9074378 -0.178470E-06  0.500E-04    2.04      23.3  T
   7    -94.9074378 -0.291158E-08  0.193E-04    2.04      60.3  T
     SCC iter.                  ...        0 min,  0.093 sec
     gradient                   ...        0 min,  0.071 sec
 * total energy  :   -93.6407917 Eh     change       -0.2191333E-03 Eh
   gradient norm :     0.0082135 Eh/α   predicted    -0.1884677E-03 ( -13.99%)
   displ. norm   :     0.3683596 α      lambda       -0.2737742E-03
   maximum displ.:     0.1621599 α      in ANC's #8, #3, #6, ...

........................................................................
.............................. CYCLE   50 ..............................
........................................................................

 iter      E             dE          RMSdq      gap      omega  full diag
   1    -94.9085239 -0.949085E+02  0.741E-02    2.05       0.0  T
   2    -94.9085245 -0.609441E-06  0.433E-02    2.05       1.0  T
   3    -94.9085196  0.492173E-05  0.882E-03    2.05       1.3  T
   4    -94.9085248 -0.524920E-05  0.208E-03    2.05       5.6  T
   5    -94.9085250 -0.169923E-06  0.101E-03    2.05      11.5  T
   6    -94.9085250 -0.196128E-07  0.301E-04    2.05      38.6  T
   7    -94.9085250 -0.716739E-09  0.110E-04    2.05     105.4  T
     SCC iter.                  ...        0 min,  0.101 sec
     gradient                   ...        0 min,  0.077 sec
 * total energy  :   -93.6410250 Eh     change       -0.2332649E-03 Eh
   gradient norm :     0.0074928 Eh/α   predicted    -0.1554630E-03 ( -33.35%)
   displ. norm   :     0.4648881 α      lambda       -0.5062837E-03
   maximum displ.:     0.2084837 α      in ANC's #3, #6, #8, ...

........................................................................
.............................. CYCLE   51 ..............................
........................................................................

 iter      E             dE          RMSdq      gap      omega  full diag
   1    -94.9155102 -0.949155E+02  0.914E-02    2.05       0.0  T
   2    -94.9155113 -0.109271E-05  0.536E-02    2.05       1.0  T
   3    -94.9154944  0.169243E-04  0.161E-02    2.06       1.0  T
   4    -94.9155121 -0.176624E-04  0.313E-03    2.05       3.7  T
   5    -94.9155126 -0.492475E-06  0.139E-03    2.05       8.4  T
   6    -94.9155126 -0.427711E-07  0.481E-04    2.05      24.2  T
   7    -94.9155126 -0.320054E-08  0.152E-04    2.05      76.5  T
     SCC iter.                  ...        0 min,  0.100 sec
     gradient                   ...        0 min,  0.066 sec
 * total energy  :   -93.6414069 Eh     change       -0.3819650E-03 Eh
   gradient norm :     0.0030169 Eh/α   predicted    -0.3078533E-03 ( -19.40%)
   displ. norm   :     0.7224355 α      lambda       -0.4566745E-03
   maximum displ.:     0.3230694 α      in ANC's #6, #3, #8, ...

........................................................................
.............................. CYCLE   52 ..............................
........................................................................

 iter      E             dE          RMSdq      gap      omega  full diag
   1    -94.9124575 -0.949125E+02  0.145E-01    2.06       0.0  T
   2    -94.9124601 -0.256611E-05  0.849E-02    2.05       1.0  T
   3    -94.9124473  0.127513E-04  0.148E-02    2.06       1.0  T
   4    -94.9124607 -0.133263E-04  0.437E-03    2.05       2.7  T
   5    -94.9124617 -0.101580E-05  0.188E-03    2.05       6.2  T
   6    -94.9124618 -0.798021E-07  0.576E-04    2.05      20.2  T
   7    -94.9124618 -0.614683E-08  0.207E-04    2.05      56.2  T
   8    -94.9124618 -0.972392E-09  0.995E-05    2.05     116.8  T
     SCC iter.                  ...        0 min,  0.118 sec
     gradient                   ...        0 min,  0.071 sec
 * total energy  :   -93.6417867 Eh     change       -0.3798073E-03 Eh
   gradient norm :     0.0061421 Eh/α   predicted    -0.3475115E-03 (  -8.50%)
   displ. norm   :     0.6421320 α      lambda       -0.5005935E-03
   maximum displ.:     0.3220325 α      in ANC's #6, #3, #8, ...

........................................................................
.............................. CYCLE   53 ..............................
........................................................................

 iter      E             dE          RMSdq      gap      omega  full diag
   1    -94.9129167 -0.949129E+02  0.122E-01    2.06       0.0  T
   2    -94.9129175 -0.851149E-06  0.716E-02    2.06       1.0  T
   3    -94.9128653  0.522617E-04  0.282E-02    2.07       1.0  T
   4    -94.9129200 -0.547336E-04  0.380E-03    2.06       3.1  T
   5    -94.9129208 -0.791085E-06  0.159E-03    2.06       7.3  T
   6    -94.9129209 -0.512494E-07  0.498E-04    2.06      23.3  T
   7    -94.9129209 -0.429347E-08  0.184E-04    2.06      63.1  T
     SCC iter.                  ...        0 min,  0.110 sec
     gradient                   ...        0 min,  0.082 sec
 * total energy  :   -93.6422151 Eh     change       -0.4283875E-03 Eh
   gradient norm :     0.0066207 Eh/α   predicted    -0.3535063E-03 ( -17.48%)
   displ. norm   :     0.5797423 α      lambda       -0.6829037E-03
   maximum displ.:     0.3150240 α      in ANC's #6, #3, #2, ...

........................................................................
.............................. CYCLE   54 ..............................
........................................................................

 iter      E             dE          RMSdq      gap      omega  full diag
   1    -94.9208190 -0.949208E+02  0.978E-02    2.07       0.0  T
   2    -94.9208191 -0.874046E-07  0.578E-02    2.06       1.0  T
   3    -94.9207119  0.107206E-03  0.417E-02    2.09       1.0  T
   4    -94.9208251 -0.113174E-03  0.693E-03    2.06       1.7  T
   5    -94.9208280 -0.297734E-05  0.203E-03    2.07       5.7  T
   6    -94.9208281 -0.305658E-07  0.897E-04    2.07      13.0  T
   7    -94.9208281 -0.256663E-07  0.318E-04    2.07      36.6  T
   8    -94.9208281 -0.925425E-09  0.119E-04    2.07      97.8  T
     SCC iter.                  ...        0 min,  0.124 sec
     gradient                   ...        0 min,  0.064 sec
 * total energy  :   -93.6426385 Eh     change       -0.4233310E-03 Eh
   gradient norm :     0.0069463 Eh/α   predicted    -0.4562383E-03 (   7.77%)
   displ. norm   :     0.7962318 α      lambda       -0.6122998E-03
   maximum displ.:     0.4219908 α      in ANC's #6, #3, #8, ...

........................................................................
.............................. CYCLE   55 ..............................
........................................................................

 iter      E             dE          RMSdq      gap      omega  full diag
   1    -94.9096766 -0.949097E+02  0.154E-01    2.08       0.0  T
   2    -94.9096788 -0.218363E-05  0.905E-02    2.07       1.0  T
   3    -94.9095730  0.105766E-03  0.397E-02    2.09       1.0  T
   4    -94.9096838 -0.110761E-03  0.536E-03    2.07       2.2  T
   5    -94.9096854 -0.164582E-05  0.196E-03    2.08       5.9  T
   6    -94.9096855 -0.686667E-07  0.716E-04    2.08      16.2  T
   7    -94.9096855 -0.826222E-08  0.275E-04    2.08      42.2  T
   8    -94.9096855 -0.114773E-08  0.110E-04    2.08     105.9  T
     SCC iter.                  ...        0 min,  0.117 sec
     gradient                   ...        0 min,  0.073 sec
 * total energy  :   -93.6430497 Eh     change       -0.4112064E-03 Eh
   gradient norm :     0.0097085 Eh/α   predicted    -0.5002516E-03 (  21.65%)
   displ. norm   :     0.3911048 α      lambda       -0.3405191E-03
   maximum displ.:     0.2300597 α      in ANC's #6, #3, #2, ...

........................................................................
.............................. CYCLE   56 ..............................
........................................................................

 iter      E             dE          RMSdq      gap      omega  full diag
   1    -94.9092790 -0.949093E+02  0.673E-02    2.08       0.0  T
   2    -94.9092788  0.223258E-06  0.396E-02    2.08       1.0  T
   3    -94.9092329  0.458603E-04  0.255E-02    2.09       1.0  T
   4    -94.9092815 -0.485993E-04  0.214E-03    2.08       5.4  T
   5    -94.9092816 -0.128643E-06  0.942E-04    2.08      12.3  T
   6    -94.9092816 -0.591511E-08  0.379E-04    2.08      30.7  T
   7    -94.9092816 -0.166359E-08  0.174E-04    2.08      66.7  T
     SCC iter.                  ...        0 min,  0.108 sec
     gradient                   ...        0 min,  0.079 sec
 * total energy  :   -93.6433453 Eh     change       -0.2956390E-03 Eh
   gradient norm :     0.0088660 Eh/α   predicted    -0.1963069E-03 ( -33.60%)
   displ. norm   :     0.5086625 α      lambda       -0.8587001E-03
   maximum displ.:     0.2938364 α      in ANC's #6, #3, #1, ...

........................................................................
.............................. CYCLE   57 ..............................
........................................................................

 iter      E             dE          RMSdq      gap      omega  full diag
   1    -94.9204620 -0.949205E+02  0.833E-02    2.10       0.0  T
   2    -94.9204633 -0.134386E-05  0.493E-02    2.08       1.0  T
   3    -94.9203517  0.111644E-03  0.399E-02    2.11       1.0  T
   4    -94.9204722 -0.120555E-03  0.579E-03    2.09       2.0  T
   5    -94.9204732 -0.101865E-05  0.229E-03    2.09       5.1  T
   6    -94.9204732 -0.189357E-07  0.104E-03    2.09      11.2  T
   7    -94.9204733 -0.163882E-07  0.365E-04    2.09      31.9  T
   8    -94.9204733 -0.133046E-08  0.191E-04    2.09      60.8  T
     SCC iter.                  ...        0 min,  0.110 sec
     gradient                   ...        0 min,  0.060 sec
 * total energy  :   -93.6438242 Eh     change       -0.4788648E-03 Eh
   gradient norm :     0.0075108 Eh/α   predicted    -0.5404414E-03 (  12.86%)
   displ. norm   :     0.7357316 α      lambda       -0.6532012E-03
   maximum displ.:     0.4330120 α      in ANC's #6, #3, #2, ...

........................................................................
.............................. CYCLE   58 ..............................
........................................................................

 iter      E             dE          RMSdq      gap      omega  full diag
   1    -94.9134991 -0.949135E+02  0.132E-01    2.10       0.0  T
   2    -94.9134983  0.764349E-06  0.774E-02    2.09       1.0  T
   3    -94.9133140  0.184348E-03  0.512E-02    2.12       1.0  T
   4    -94.9135100 -0.196002E-03  0.509E-03    2.10       2.3  T
   5    -94.9135108 -0.811999E-06  0.197E-03    2.10       5.9  T
   6    -94.9135108 -0.113665E-07  0.739E-04    2.10      15.7  T
   7    -94.9135108 -0.104490E-07  0.318E-04    2.10      36.6  T
   8    -94.9135108 -0.176379E-08  0.124E-04    2.10      93.9  T
     SCC iter.                  ...        0 min,  0.119 sec
     gradient                   ...        0 min,  0.078 sec
 * total energy  :   -93.6443485 Eh     change       -0.5243765E-03 Eh
   gradient norm :     0.0086449 Eh/α   predicted    -0.5033940E-03 (  -4.00%)
   displ. norm   :     0.6242870 α      lambda       -0.5875968E-03
   maximum displ.:     0.3692690 α      in ANC's #6, #3, #1, ...

........................................................................
.............................. CYCLE   59 ..............................
........................................................................

 iter      E             dE          RMSdq      gap      omega  full diag
   1    -94.9090852 -0.949091E+02  0.110E-01    2.11       0.0  T
   2    -94.9090823  0.286249E-05  0.647E-02    2.10       1.0  T
   3    -94.9088970  0.185303E-03  0.513E-02    2.13       1.0  T
   4    -94.9090958 -0.198789E-03  0.371E-03    2.10       3.1  T
   5    -94.9090960 -0.220048E-06  0.172E-03    2.10       6.8  T
   6    -94.9090960 -0.172829E-07  0.566E-04    2.10      20.5  T
   7    -94.9090960 -0.363357E-08  0.246E-04    2.10      47.2  T
   8    -94.9090960 -0.111631E-08  0.109E-04    2.10     106.2  T
     SCC iter.                  ...        0 min,  0.116 sec
     gradient                   ...        0 min,  0.073 sec
 * total energy  :   -93.6447703 Eh     change       -0.4218017E-03 Eh
   gradient norm :     0.0121980 Eh/α   predicted    -0.4083064E-03 (  -3.20%)
   displ. norm   :     0.5184890 α      lambda       -0.6783025E-03
   maximum displ.:     0.2922543 α      in ANC's #6, #3, #5, ...

........................................................................
.............................. CYCLE   60 ..............................
........................................................................

 iter      E             dE          RMSdq      gap      omega  full diag
   1    -94.9100505 -0.949101E+02  0.839E-02    2.11       0.0  T
   2    -94.9100473  0.315841E-05  0.499E-02    2.10       1.0  T
   3    -94.9099151  0.132151E-03  0.442E-02    2.13       1.0  T
   4    -94.9100588 -0.143649E-03  0.333E-03    2.10       3.5  T
   5    -94.9100590 -0.227852E-06  0.155E-03    2.10       7.5  T
   6    -94.9100590 -0.453230E-08  0.530E-04    2.10      21.9  T
   7    -94.9100590 -0.124089E-07  0.226E-04    2.10      51.3  T
   8    -94.9100590 -0.104841E-08  0.110E-04    2.10     105.5  T
     SCC iter.                  ...        0 min,  0.117 sec
     gradient                   ...        0 min,  0.074 sec
 * total energy  :   -93.6453126 Eh     change       -0.5422709E-03 Eh
   gradient norm :     0.0102112 Eh/α   predicted    -0.4303268E-03 ( -20.64%)
   displ. norm   :     0.5331281 α      lambda       -0.9683844E-03
   maximum displ.:     0.2371128 α      in ANC's #6, #5, #1, ...

........................................................................
.............................. CYCLE   61 ..............................
........................................................................

 iter      E             dE          RMSdq      gap      omega  full diag
   1    -94.9227672 -0.949228E+02  0.852E-02    2.10       0.0  T
   2    -94.9227682 -0.971968E-06  0.505E-02    2.09       1.0  T
   3    -94.9226599  0.108226E-03  0.405E-02    2.12       1.0  T
   4    -94.9227768 -0.116890E-03  0.541E-03    2.09       2.1  T
   5    -94.9227779 -0.110734E-05  0.194E-03    2.10       6.0  T
   6    -94.9227779  0.715602E-09  0.860E-04    2.10      13.5  T
   7    -94.9227780 -0.229300E-07  0.270E-04    2.10      43.1  T
   8    -94.9227780 -0.153601E-08  0.122E-04    2.10      95.2  T
     SCC iter.                  ...        0 min,  0.118 sec
     gradient                   ...        0 min,  0.064 sec
 * total energy  :   -93.6457375 Eh     change       -0.4249193E-03 Eh
   gradient norm :     0.0129714 Eh/α   predicted    -0.6218147E-03 (  46.34%)
   displ. norm   :     0.6656006 α      lambda       -0.9004294E-03
   maximum displ.:     0.4030357 α      in ANC's #6, #3, #1, ...

........................................................................
.............................. CYCLE   62 ..............................
........................................................................

 iter      E             dE          RMSdq      gap      omega  full diag
   1    -94.9150076 -0.949150E+02  0.117E-01    2.11       0.0  T
   2    -94.9150091 -0.150689E-05  0.684E-02    2.09       1.0  T
   3    -94.9148626  0.146493E-03  0.471E-02    2.12       1.0  T
   4    -94.9150193 -0.156697E-03  0.609E-03    2.10       1.9  T
   5    -94.9150207 -0.140079E-05  0.214E-03    2.10       5.4  T
   6    -94.9150207 -0.232623E-07  0.844E-04    2.10      13.8  T
   7    -94.9150207 -0.202890E-07  0.389E-04    2.10      29.9  T
   8    -94.9150207 -0.302634E-08  0.152E-04    2.10      76.4  T
     SCC iter.                  ...        0 min,  0.103 sec
     gradient                   ...        0 min,  0.074 sec
 * total energy  :   -93.6463764 Eh     change       -0.6389158E-03 Eh
   gradient norm :     0.0105349 Eh/α   predicted    -0.6496706E-03 (   1.68%)
   displ. norm   :     0.4924646 α      lambda       -0.7511419E-03
   maximum displ.:     0.2962927 α      in ANC's #6, #1, #4, ...

........................................................................
.............................. CYCLE   63 ..............................
........................................................................

 iter      E             dE          RMSdq      gap      omega  full diag
   1    -94.9166130 -0.949166E+02  0.908E-02    2.10       0.0  T
   2    -94.9166155 -0.252926E-05  0.532E-02    2.09       1.0  T
   3    -94.9165452  0.703147E-04  0.343E-02    2.11       1.0  T
   4    -94.9166197 -0.744768E-04  0.613E-03    2.09       1.9  T
   5    -94.9166216 -0.194951E-05  0.201E-03    2.09       5.8  T
   6    -94.9166217 -0.452837E-07  0.815E-04    2.09      14.3  T
   7    -94.9166217 -0.179243E-07  0.406E-04    2.09      28.6  T
   8    -94.9166217 -0.250742E-08  0.153E-04    2.09      76.1  T
     SCC iter.                  ...        0 min,  0.107 sec
     gradient                   ...        0 min,  0.073 sec
 * total energy  :   -93.6466607 Eh     change       -0.2842277E-03 Eh
   gradient norm :     0.0183308 Eh/α   predicted    -0.4666572E-03 (  64.18%)
   displ. norm   :     0.5139791 α      lambda       -0.9895191E-03
   maximum displ.:     0.3104323 α      in ANC's #6, #3, #1, ...

........................................................................
.............................. CYCLE   64 ..............................
........................................................................

 iter      E             dE          RMSdq      gap      omega  full diag
   1    -94.9104253 -0.949104E+02  0.955E-02    2.10       0.0  T
   2    -94.9104273 -0.199193E-05  0.557E-02    2.09       1.0  T
   3    -94.9103419  0.853487E-04  0.366E-02    2.11       1.0  T
   4    -94.9104328 -0.908769E-04  0.526E-03    2.09       2.2  T
   5    -94.9104342 -0.137006E-05  0.178E-03    2.09       6.5  T
   6    -94.9104342 -0.579164E-07  0.768E-04    2.09      15.1  T
   7    -94.9104342 -0.162076E-07  0.299E-04    2.09      38.8  T
   8    -94.9104342 -0.101794E-08  0.108E-04    2.09     107.2  T
     SCC iter.                  ...        0 min,  0.107 sec
     gradient                   ...        0 min,  0.068 sec
 * total energy  :   -93.6471967 Eh     change       -0.5359947E-03 Eh
   gradient norm :     0.0161728 Eh/α   predicted    -0.6254653E-03 (  16.69%)
   displ. norm   :     0.3366319 α      lambda       -0.1223117E-02
   maximum displ.:     0.1217344 α      in ANC's #1, #5, #6, ...

........................................................................
.............................. CYCLE   65 ..............................
........................................................................

 iter      E             dE          RMSdq      gap      omega  full diag
   1    -94.9197313 -0.949197E+02  0.753E-02    2.09       0.0  T
   2    -94.9197424 -0.111450E-04  0.444E-02    2.09       1.0  T
   3    -94.9197269  0.155225E-04  0.184E-02    2.10       1.0  T
   4    -94.9197410 -0.140932E-04  0.858E-03    2.09       1.4  T
   5    -94.9197459 -0.494549E-05  0.210E-03    2.09       5.5  T
   6    -94.9197460 -0.104256E-06  0.980E-04    2.09      11.9  T
   7    -94.9197461 -0.134830E-07  0.350E-04    2.09      33.2  T
   8    -94.9197461 -0.280910E-08  0.150E-04    2.09      77.3  T
     SCC iter.                  ...        0 min,  0.106 sec
     gradient                   ...        0 min,  0.077 sec
 * total energy  :   -93.6472933 Eh     change       -0.9661883E-04 Eh
   gradient norm :     0.0219479 Eh/α   predicted    -0.6808631E-03 ( 604.69%)
   displ. norm   :     0.2815041 α      lambda       -0.1183288E-02
   maximum displ.:     0.1631014 α      in ANC's #6, #4, #1, ...

........................................................................
.............................. CYCLE   66 ..............................
........................................................................

 iter      E             dE          RMSdq      gap      omega  full diag
   1    -94.9207215 -0.949207E+02  0.584E-02    2.09       0.0  T
   2    -94.9207271 -0.556816E-05  0.334E-02    2.09       1.0  T
   3    -94.9207075  0.195830E-04  0.201E-02    2.10       1.0  T
   4    -94.9207268 -0.192376E-04  0.754E-03    2.09       1.5  T
   5    -94.9207301 -0.333317E-05  0.185E-03    2.09       6.3  T
   6    -94.9207301 -0.186350E-07  0.902E-04    2.09      12.9  T
   7    -94.9207301 -0.163759E-07  0.306E-04    2.09      38.0  T
   8    -94.9207301 -0.136232E-08  0.140E-04    2.09      83.2  T
     SCC iter.                  ...        0 min,  0.119 sec
     gradient                   ...        0 min,  0.073 sec
 * total energy  :   -93.6480208 Eh     change       -0.7274666E-03 Eh
   gradient norm :     0.0084667 Eh/α   predicted    -0.6385347E-03 ( -12.22%)
   displ. norm   :     0.6079223 α      lambda       -0.6597597E-03
   maximum displ.:     0.3614901 α      in ANC's #6, #1, #4, ...
 * RMSD in coord.:     1.0878283 α      energy gain  -0.8499472E-02 Eh

generating ANC from exact Hessian ...
Using Lindh-Hessian (1995)
 Shifting diagonal of input Hessian by    9.9711372843980465E-003
 Lowest  eigenvalues of input Hessian
    0.000000    0.000000    0.000000    0.000000    0.000000    0.000000
    0.010000    0.010114    0.010168    0.010275    0.010345    0.010415
    0.010545    0.010807    0.010903    0.010949    0.011014    0.011079
 Highest eigenvalues
    1.581148    1.614462    1.883899    1.983370    2.007451    2.491054


........................................................................
.............................. CYCLE   67 ..............................
........................................................................

 iter      E             dE          RMSdq      gap      omega  full diag
   1    -94.9155574 -0.949156E+02  0.100E-01    2.09       0.0  T
   2    -94.9155551  0.234567E-05  0.595E-02    2.08       1.0  T
   3    -94.9153960  0.159051E-03  0.491E-02    2.11       1.0  T
   4    -94.9155686 -0.172582E-03  0.384E-03    2.08       3.0  T
   5    -94.9155691 -0.483817E-06  0.175E-03    2.08       6.6  T
   6    -94.9155691 -0.271928E-07  0.722E-04    2.08      16.1  T
   7    -94.9155691 -0.137058E-07  0.332E-04    2.08      35.0  T
   8    -94.9155691 -0.227736E-08  0.132E-04    2.08      88.0  T
     SCC iter.                  ...        0 min,  0.108 sec
     gradient                   ...        0 min,  0.071 sec
 * total energy  :   -93.6483604 Eh     change       -0.3396212E-03 Eh
   gradient norm :     0.0118591 Eh/α   predicted     0.0000000E+00 (-100.00%)
   displ. norm   :     0.1067941 α      lambda       -0.4348280E-03
   maximum displ.:     0.0393278 α      in ANC's #23, #22, #39, ...

........................................................................
.............................. CYCLE   68 ..............................
........................................................................

 iter      E             dE          RMSdq      gap      omega  full diag
   1    -94.9203362 -0.949203E+02  0.320E-02    2.10       0.0  T
   2    -94.9203369 -0.688345E-06  0.194E-02    2.09       1.0  T
   3    -94.9203250  0.118889E-04  0.131E-02    2.10       1.0  T
   4    -94.9203376 -0.125561E-04  0.306E-03    2.09       3.8  T
   5    -94.9203380 -0.403619E-06  0.784E-04    2.10      14.8  T
   6    -94.9203380 -0.293956E-08  0.362E-04    2.09      32.1  T
   7    -94.9203380 -0.213352E-08  0.123E-04    2.09      94.5  T
     SCC iter.                  ...        0 min,  0.116 sec
     gradient                   ...        0 min,  0.072 sec
 * total energy  :   -93.6486673 Eh     change       -0.3068989E-03 Eh
   gradient norm :     0.0038619 Eh/α   predicted    -0.2199059E-03 ( -28.35%)
   displ. norm   :     0.2173915 α      lambda       -0.3898031E-03
   maximum displ.:     0.0685860 α      in ANC's #23, #39, #4, ...

........................................................................
.............................. CYCLE   69 ..............................
........................................................................

 iter      E             dE          RMSdq      gap      omega  full diag
   1    -94.9241303 -0.949241E+02  0.598E-02    2.05       0.0  T
   2    -94.9241308 -0.426030E-06  0.358E-02    2.06       1.0  T
   3    -94.9240768  0.539571E-04  0.266E-02    2.04       1.0  T
   4    -94.9241344 -0.576138E-04  0.409E-03    2.06       2.8  T
   5    -94.9241348 -0.352846E-06  0.168E-03    2.06       6.9  T
   6    -94.9241348 -0.141844E-07  0.709E-04    2.06      16.4  T
   7    -94.9241348 -0.824018E-08  0.307E-04    2.06      37.9  T
   8    -94.9241348 -0.105472E-08  0.132E-04    2.06      88.1  T
     SCC iter.                  ...        0 min,  0.104 sec
     gradient                   ...        0 min,  0.084 sec
 * total energy  :   -93.6488381 Eh     change       -0.1708364E-03 Eh
   gradient norm :     0.0071184 Eh/α   predicted    -0.2041454E-03 (  19.50%)
   displ. norm   :     0.2596339 α      lambda       -0.4120373E-03
   maximum displ.:     0.0813021 α      in ANC's #39, #2, #23, ...

........................................................................
.............................. CYCLE   70 ..............................
........................................................................

 iter      E             dE          RMSdq      gap      omega  full diag
   1    -94.9248144 -0.949248E+02  0.653E-02    2.11       0.0  T
   2    -94.9248133  0.110032E-05  0.406E-02    2.09       1.0  T
   3    -94.9247254  0.878633E-04  0.370E-02    2.12       1.0  T
   4    -94.9248249 -0.995156E-04  0.543E-03    2.10       2.1  T
   5    -94.9248257 -0.811695E-06  0.155E-03    2.10       7.5  T
   6    -94.9248257  0.116373E-09  0.710E-04    2.10      16.4  T
   7    -94.9248258 -0.687648E-08  0.313E-04    2.10      37.1  T
   8    -94.9248258 -0.173158E-08  0.149E-04    2.10      78.3  T
     SCC iter.                  ...        0 min,  0.109 sec
     gradient                   ...        0 min,  0.071 sec
 * total energy  :   -93.6490553 Eh     change       -0.2172320E-03 Eh
   gradient norm :     0.0099078 Eh/α   predicted    -0.2199094E-03 (   1.23%)
   displ. norm   :     0.1733214 α      lambda       -0.2356776E-03
   maximum displ.:     0.0526226 α      in ANC's #39, #4, #16, ...

........................................................................
.............................. CYCLE   71 ..............................
........................................................................

 iter      E             dE          RMSdq      gap      omega  full diag
   1    -94.9229838 -0.949230E+02  0.225E-02    2.10       0.0  T
   2    -94.9229842 -0.378781E-06  0.126E-02    2.10       1.0  T
   3    -94.9229838  0.331810E-06  0.367E-03    2.10       3.2  T
   4    -94.9229841 -0.225634E-06  0.190E-03    2.10       6.1  T
   5    -94.9229843 -0.192424E-06  0.656E-04    2.10      17.7  T
   6    -94.9229843 -0.898225E-08  0.249E-04    2.10      46.6  T
   7    -94.9229843 -0.206492E-08  0.104E-04    2.10     111.4  T
     SCC iter.                  ...        0 min,  0.104 sec
     gradient                   ...        0 min,  0.081 sec
 * total energy  :   -93.6492517 Eh     change       -0.1963169E-03 Eh
   gradient norm :     0.0062537 Eh/α   predicted    -0.1213790E-03 ( -38.17%)
   displ. norm   :     0.3782967 α      lambda       -0.3586133E-03
   maximum displ.:     0.1271976 α      in ANC's #4, #6, #39, ...

........................................................................
.............................. CYCLE   72 ..............................
........................................................................

 iter      E             dE          RMSdq      gap      omega  full diag
   1    -94.9199755 -0.949200E+02  0.478E-02    2.09       0.0  T
   2    -94.9199768 -0.131786E-05  0.272E-02    2.09       1.0  T
   3    -94.9199763  0.545452E-06  0.607E-03    2.09       1.9  T
   4    -94.9199771 -0.823142E-06  0.202E-03    2.09       5.8  T
   5    -94.9199771  0.197431E-09  0.129E-03    2.09       9.0  T
   6    -94.9199772 -0.535869E-07  0.811E-04    2.09      14.3  T
   7    -94.9199772 -0.346395E-07  0.263E-04    2.09      44.1  T
   8    -94.9199772 -0.555985E-09  0.106E-04    2.09     109.5  T
     SCC iter.                  ...        0 min,  0.117 sec
     gradient                   ...        0 min,  0.078 sec
 * total energy  :   -93.6494709 Eh     change       -0.2192442E-03 Eh
   gradient norm :     0.0034495 Eh/α   predicted    -0.2049677E-03 (  -6.51%)
   displ. norm   :     0.1740845 α      lambda       -0.8780704E-04
   maximum displ.:     0.0660135 α      in ANC's #4, #10, #6, ...

........................................................................
.............................. CYCLE   73 ..............................
........................................................................

 iter      E             dE          RMSdq      gap      omega  full diag
   1    -94.9203983 -0.949204E+02  0.183E-02    2.09       0.0  T
   2    -94.9203986 -0.224334E-06  0.107E-02    2.09       1.1  T
   3    -94.9203984  0.121575E-06  0.246E-03    2.09       4.7  T
   4    -94.9203986 -0.135336E-06  0.117E-03    2.09       9.9  T
   5    -94.9203986 -0.146612E-07  0.768E-04    2.09      15.1  T
   6    -94.9203986 -0.357993E-07  0.223E-04    2.09      52.2  T
   7    -94.9203986 -0.129374E-08  0.104E-04    2.09     111.8  T
     SCC iter.                  ...        0 min,  0.095 sec
     gradient                   ...        0 min,  0.079 sec
 * total energy  :   -93.6495405 Eh     change       -0.6960912E-04 Eh
   gradient norm :     0.0031879 Eh/α   predicted    -0.4523571E-04 ( -35.01%)
   displ. norm   :     0.2908159 α      lambda       -0.1323451E-03
   maximum displ.:     0.1140101 α      in ANC's #4, #10, #2, ...

........................................................................
.............................. CYCLE   74 ..............................
........................................................................

 iter      E             dE          RMSdq      gap      omega  full diag
   1    -94.9219891 -0.949220E+02  0.281E-02    2.09       0.0  T
   2    -94.9219893 -0.216952E-06  0.165E-02    2.08       1.0  T
   3    -94.9219805  0.886928E-05  0.126E-02    2.09       1.0  T
   4    -94.9219900 -0.955103E-05  0.223E-03    2.08       5.2  T
   5    -94.9219903 -0.243960E-06  0.794E-04    2.08      14.6  T
   6    -94.9219903 -0.805754E-08  0.311E-04    2.08      37.4  T
   7    -94.9219903 -0.207666E-08  0.167E-04    2.08      69.7  T
     SCC iter.                  ...        0 min,  0.099 sec
     gradient                   ...        0 min,  0.067 sec
 * total energy  :   -93.6496335 Eh     change       -0.9297735E-04 Eh
   gradient norm :     0.0023285 Eh/α   predicted    -0.7176897E-04 ( -22.81%)
   displ. norm   :     0.2157718 α      lambda       -0.7373533E-04
   maximum displ.:     0.0863714 α      in ANC's #4, #10, #2, ...

........................................................................
.............................. CYCLE   75 ..............................
........................................................................

 iter      E             dE          RMSdq      gap      omega  full diag
   1    -94.9234510 -0.949235E+02  0.204E-02    2.09       0.0  T
   2    -94.9234508  0.247981E-06  0.126E-02    2.08       1.0  T
   3    -94.9234428  0.800672E-05  0.120E-02    2.09       1.0  T
   4    -94.9234520 -0.927817E-05  0.144E-03    2.08       8.1  T
   5    -94.9234521 -0.689194E-07  0.554E-04    2.08      21.0  T
   6    -94.9234521 -0.205593E-08  0.240E-04    2.08      48.4  T
   7    -94.9234521 -0.180206E-08  0.970E-05    2.08     119.8  T
     SCC iter.                  ...        0 min,  0.090 sec
     gradient                   ...        0 min,  0.073 sec
 * total energy  :   -93.6496881 Eh     change       -0.5458242E-04 Eh
   gradient norm :     0.0025443 Eh/α   predicted    -0.3858574E-04 ( -29.31%)
   displ. norm   :     0.2394109 α      lambda       -0.6979752E-04
   maximum displ.:     0.0988791 α      in ANC's #2, #10, #4, ...

........................................................................
.............................. CYCLE   76 ..............................
........................................................................

 iter      E             dE          RMSdq      gap      omega  full diag
   1    -94.9236786 -0.949237E+02  0.222E-02    2.09       0.0  T
   2    -94.9236782  0.383483E-06  0.139E-02    2.08       1.0  T
   3    -94.9236676  0.105954E-04  0.134E-02    2.09       1.0  T
   4    -94.9236799 -0.122566E-04  0.146E-03    2.09       7.9  T
   5    -94.9236799 -0.549199E-07  0.587E-04    2.09      19.8  T
   6    -94.9236799 -0.103728E-08  0.247E-04    2.09      47.1  T
   7    -94.9236799 -0.279316E-08  0.839E-05    2.09     138.5  T
     SCC iter.                  ...        0 min,  0.095 sec
     gradient                   ...        0 min,  0.078 sec
 * total energy  :   -93.6497418 Eh     change       -0.5375752E-04 Eh
   gradient norm :     0.0024813 Eh/α   predicted    -0.3689916E-04 ( -31.36%)
   displ. norm   :     0.2746283 α      lambda       -0.8765041E-04
   maximum displ.:     0.1156112 α      in ANC's #2, #10, #4, ...

........................................................................
.............................. CYCLE   77 ..............................
........................................................................

 iter      E             dE          RMSdq      gap      omega  full diag
   1    -94.9243785 -0.949244E+02  0.277E-02    2.09       0.0  T
   2    -94.9243784  0.133337E-06  0.171E-02    2.08       1.0  T
   3    -94.9243626  0.158056E-04  0.155E-02    2.10       1.0  T
   4    -94.9243802 -0.175978E-04  0.195E-03    2.09       6.0  T
   5    -94.9243803 -0.846099E-07  0.819E-04    2.09      14.2  T
   6    -94.9243803 -0.245647E-08  0.317E-04    2.09      36.7  T
   7    -94.9243803 -0.329538E-08  0.140E-04    2.09      83.3  T
     SCC iter.                  ...        0 min,  0.102 sec
     gradient                   ...        0 min,  0.077 sec
 * total energy  :   -93.6498029 Eh     change       -0.6108942E-04 Eh
   gradient norm :     0.0031942 Eh/α   predicted    -0.4713090E-04 ( -22.85%)
   displ. norm   :     0.3023280 α      lambda       -0.8535916E-04
   maximum displ.:     0.1358847 α      in ANC's #2, #10, #4, ...

........................................................................
.............................. CYCLE   78 ..............................
........................................................................

 iter      E             dE          RMSdq      gap      omega  full diag
   1    -94.9218409 -0.949218E+02  0.310E-02    2.09       0.0  T
   2    -94.9218412 -0.354378E-06  0.186E-02    2.09       1.0  T
   3    -94.9218271  0.140969E-04  0.142E-02    2.10       1.0  T
   4    -94.9218423 -0.152104E-04  0.234E-03    2.09       5.0  T
   5    -94.9218425 -0.163203E-06  0.848E-04    2.09      13.7  T
   6    -94.9218425 -0.290483E-08  0.341E-04    2.09      34.1  T
   7    -94.9218425 -0.352844E-08  0.146E-04    2.09      79.8  T
     SCC iter.                  ...        0 min,  0.098 sec
     gradient                   ...        0 min,  0.070 sec
 * total energy  :   -93.6498567 Eh     change       -0.5382903E-04 Eh
   gradient norm :     0.0026919 Eh/α   predicted    -0.4659143E-04 ( -13.45%)
   displ. norm   :     0.1899253 α      lambda       -0.6044603E-04
   maximum displ.:     0.0796893 α      in ANC's #2, #10, #4, ...

........................................................................
.............................. CYCLE   79 ..............................
........................................................................

 iter      E             dE          RMSdq      gap      omega  full diag
   1    -94.9217562 -0.949218E+02  0.224E-02    2.09       0.0  T
   2    -94.9217565 -0.340830E-06  0.130E-02    2.09       1.0  T
   3    -94.9217564  0.162795E-06  0.239E-03    2.09       4.9  T
   4    -94.9217566 -0.188574E-06  0.119E-03    2.09       9.8  T
   5    -94.9217566 -0.432063E-07  0.823E-04    2.09      14.1  T
   6    -94.9217566 -0.249233E-07  0.304E-04    2.09      38.2  T
   7    -94.9217566 -0.284760E-08  0.121E-04    2.09      96.5  T
     SCC iter.                  ...        0 min,  0.100 sec
     gradient                   ...        0 min,  0.077 sec
 * total energy  :   -93.6499004 Eh     change       -0.4367938E-04 Eh
   gradient norm :     0.0020525 Eh/α   predicted    -0.3131433E-04 ( -28.31%)
   displ. norm   :     0.2013748 α      lambda       -0.6198201E-04
   maximum displ.:     0.0875051 α      in ANC's #2, #10, #4, ...

........................................................................
.............................. CYCLE   80 ..............................
........................................................................

 iter      E             dE          RMSdq      gap      omega  full diag
   1    -94.9214512 -0.949215E+02  0.228E-02    2.09       0.0  T
   2    -94.9214515 -0.309067E-06  0.133E-02    2.09       1.0  T
   3    -94.9214487  0.277911E-05  0.706E-03    2.09       1.6  T
   4    -94.9214516 -0.285203E-05  0.201E-03    2.09       5.8  T
   5    -94.9214518 -0.204462E-06  0.750E-04    2.09      15.5  T
   6    -94.9214518 -0.807184E-08  0.341E-04    2.09      34.1  T
   7    -94.9214518 -0.292211E-08  0.130E-04    2.09      89.5  T
     SCC iter.                  ...        0 min,  0.098 sec
     gradient                   ...        0 min,  0.068 sec
 * total energy  :   -93.6499457 Eh     change       -0.4523025E-04 Eh
   gradient norm :     0.0021405 Eh/α   predicted    -0.3224799E-04 ( -28.70%)
   displ. norm   :     0.1923255 α      lambda       -0.5531573E-04
   maximum displ.:     0.0797694 α      in ANC's #2, #4, #10, ...

........................................................................
.............................. CYCLE   81 ..............................
........................................................................

 iter      E             dE          RMSdq      gap      omega  full diag
   1    -94.9218763 -0.949219E+02  0.217E-02    2.09       0.0  T
   2    -94.9218763  0.703537E-09  0.130E-02    2.09       1.0  T
   3    -94.9218688  0.748567E-05  0.110E-02    2.09       1.1  T
   4    -94.9218770 -0.821702E-05  0.160E-03    2.09       7.3  T
   5    -94.9218771 -0.912055E-07  0.672E-04    2.09      17.3  T
   6    -94.9218771 -0.352151E-08  0.303E-04    2.09      38.4  T
   7    -94.9218771 -0.235769E-08  0.112E-04    2.09     103.9  T
     SCC iter.                  ...        0 min,  0.096 sec
     gradient                   ...        0 min,  0.075 sec
 * total energy  :   -93.6499866 Eh     change       -0.4093142E-04 Eh
   gradient norm :     0.0022235 Eh/α   predicted    -0.2868150E-04 ( -29.93%)
   displ. norm   :     0.2388761 α      lambda       -0.5266313E-04
   maximum displ.:     0.1031376 α      in ANC's #2, #4, #10, ...

........................................................................
.............................. CYCLE   82 ..............................
........................................................................

 iter      E             dE          RMSdq      gap      omega  full diag
   1    -94.9220937 -0.949221E+02  0.254E-02    2.09       0.0  T
   2    -94.9220938 -0.853099E-07  0.152E-02    2.10       1.0  T
   3    -94.9220862  0.754503E-05  0.108E-02    2.09       1.1  T
   4    -94.9220943 -0.805328E-05  0.176E-03    2.10       6.6  T
   5    -94.9220944 -0.132830E-06  0.652E-04    2.09      17.8  T
   6    -94.9220944 -0.231006E-08  0.293E-04    2.09      39.7  T
   7    -94.9220944 -0.223280E-08  0.120E-04    2.09      96.5  T
     SCC iter.                  ...        0 min,  0.091 sec
     gradient                   ...        0 min,  0.075 sec
 * total energy  :   -93.6500278 Eh     change       -0.4116935E-04 Eh
   gradient norm :     0.0021060 Eh/α   predicted    -0.2783573E-04 ( -32.39%)
   displ. norm   :     0.3212408 α      lambda       -0.6636030E-04
   maximum displ.:     0.1391207 α      in ANC's #2, #4, #10, ...

........................................................................
.............................. CYCLE   83 ..............................
........................................................................

 iter      E             dE          RMSdq      gap      omega  full diag
   1    -94.9223275 -0.949223E+02  0.347E-02    2.10       0.0  T
   2    -94.9223277 -0.296846E-06  0.205E-02    2.10       1.0  T
   3    -94.9223223  0.549799E-05  0.915E-03    2.09       1.3  T
   4    -94.9223279 -0.565447E-05  0.225E-03    2.10       5.2  T
   5    -94.9223282 -0.283667E-06  0.753E-04    2.10      15.4  T
   6    -94.9223282 -0.651310E-08  0.311E-04    2.10      37.3  T
   7    -94.9223282 -0.189308E-08  0.128E-04    2.10      90.7  T
     SCC iter.                  ...        0 min,  0.096 sec
     gradient                   ...        0 min,  0.072 sec
 * total energy  :   -93.6500801 Eh     change       -0.5231357E-04 Eh
   gradient norm :     0.0021177 Eh/α   predicted    -0.3660919E-04 ( -30.02%)
   displ. norm   :     0.3707324 α      lambda       -0.7539088E-04
   maximum displ.:     0.1600119 α      in ANC's #2, #4, #10, ...

........................................................................
.............................. CYCLE   84 ..............................
........................................................................

 iter      E             dE          RMSdq      gap      omega  full diag
   1    -94.9222811 -0.949223E+02  0.410E-02    2.10       0.0  T
   2    -94.9222816 -0.475613E-06  0.241E-02    2.10       1.0  T
   3    -94.9222812  0.404649E-06  0.320E-03    2.10       3.6  T
   4    -94.9222818 -0.573994E-06  0.114E-03    2.10      10.2  T
   5    -94.9222818 -0.582783E-08  0.745E-04    2.10      15.6  T
   6    -94.9222818 -0.155411E-07  0.377E-04    2.10      30.8  T
   7    -94.9222818 -0.694340E-08  0.140E-04    2.10      83.2  T
     SCC iter.                  ...        0 min,  0.097 sec
     gradient                   ...        0 min,  0.064 sec
 * total energy  :   -93.6501395 Eh     change       -0.5938686E-04 Eh
   gradient norm :     0.0026134 Eh/α   predicted    -0.4287846E-04 ( -27.80%)
   displ. norm   :     0.3601572 α      lambda       -0.7993035E-04
   maximum displ.:     0.1500352 α      in ANC's #2, #4, #10, ...

........................................................................
.............................. CYCLE   85 ..............................
........................................................................

 iter      E             dE          RMSdq      gap      omega  full diag
   1    -94.9228087 -0.949228E+02  0.416E-02    2.10       0.0  T
   2    -94.9228090 -0.293818E-06  0.244E-02    2.10       1.0  T
   3    -94.9228025  0.649724E-05  0.980E-03    2.11       1.2  T
   4    -94.9228094 -0.683450E-05  0.191E-03    2.10       6.1  T
   5    -94.9228095 -0.147711E-06  0.936E-04    2.10      12.4  T
   6    -94.9228095 -0.144450E-07  0.302E-04    2.10      38.6  T
   7    -94.9228095 -0.240826E-08  0.118E-04    2.10      98.5  T
     SCC iter.                  ...        0 min,  0.095 sec
     gradient                   ...        0 min,  0.074 sec
 * total energy  :   -93.6502007 Eh     change       -0.6122965E-04 Eh
   gradient norm :     0.0029581 Eh/α   predicted    -0.4515322E-04 ( -26.26%)
   displ. norm   :     0.3643189 α      lambda       -0.7002511E-04
   maximum displ.:     0.1574660 α      in ANC's #2, #4, #10, ...

........................................................................
.............................. CYCLE   86 ..............................
........................................................................

 iter      E             dE          RMSdq      gap      omega  full diag
   1    -94.9217882 -0.949218E+02  0.402E-02    2.10       0.0  T
   2    -94.9217881  0.621082E-07  0.237E-02    2.10       1.0  T
   3    -94.9217707  0.174316E-04  0.159E-02    2.11       1.0  T
   4    -94.9217893 -0.185968E-04  0.174E-03    2.10       6.7  T
   5    -94.9217893 -0.596118E-07  0.935E-04    2.10      12.4  T
   6    -94.9217894 -0.675136E-08  0.310E-04    2.10      37.5  T
   7    -94.9217894 -0.412346E-08  0.116E-04    2.10     100.0  T
     SCC iter.                  ...        0 min,  0.092 sec
     gradient                   ...        0 min,  0.068 sec
 * total energy  :   -93.6502540 Eh     change       -0.5330238E-04 Eh
   gradient norm :     0.0029524 Eh/α   predicted    -0.3966070E-04 ( -25.59%)
   displ. norm   :     0.2820541 α      lambda       -0.8185871E-04
   maximum displ.:     0.1375062 α      in ANC's #6, #2, #3, ...

........................................................................
.............................. CYCLE   87 ..............................
........................................................................

 iter      E             dE          RMSdq      gap      omega  full diag
   1    -94.9253829 -0.949254E+02  0.336E-02    2.10       0.0  T
   2    -94.9253832 -0.280926E-06  0.194E-02    2.10       1.0  T
   3    -94.9253715  0.116611E-04  0.136E-02    2.11       1.0  T
   4    -94.9253841 -0.125166E-04  0.241E-03    2.10       4.8  T
   5    -94.9253842 -0.173520E-06  0.961E-04    2.10      12.1  T
   6    -94.9253842 -0.289688E-09  0.417E-04    2.10      27.9  T
   7    -94.9253842 -0.507760E-08  0.115E-04    2.10     101.5  T
     SCC iter.                  ...        0 min,  0.096 sec
     gradient                   ...        0 min,  0.068 sec
 * total energy  :   -93.6502945 Eh     change       -0.4054627E-04 Eh
   gradient norm :     0.0032444 Eh/α   predicted    -0.4418902E-04 (   8.98%)
   displ. norm   :     0.4979296 α      lambda       -0.8333272E-04
   maximum displ.:     0.2299027 α      in ANC's #2, #4, #10, ...

........................................................................
.............................. CYCLE   88 ..............................
........................................................................

 iter      E             dE          RMSdq      gap      omega  full diag
   1    -94.9194045 -0.949194E+02  0.521E-02    2.10       0.0  T
   2    -94.9194055 -0.100124E-05  0.307E-02    2.10       1.0  T
   3    -94.9193933  0.121991E-04  0.133E-02    2.10       1.0  T
   4    -94.9194061 -0.128210E-04  0.304E-03    2.10       3.8  T
   5    -94.9194064 -0.343296E-06  0.141E-03    2.10       8.2  T
   6    -94.9194065 -0.145006E-07  0.581E-04    2.10      20.0  T
   7    -94.9194065 -0.111380E-07  0.188E-04    2.10      61.9  T
   8    -94.9194065 -0.430731E-09  0.862E-05    2.10     134.8  T
     SCC iter.                  ...        0 min,  0.101 sec
     gradient                   ...        0 min,  0.065 sec
 * total energy  :   -93.6503337 Eh     change       -0.3920498E-04 Eh
   gradient norm :     0.0037927 Eh/α   predicted    -0.5199745E-04 (  32.63%)
   displ. norm   :     0.0531684 α      lambda       -0.4936233E-04
   maximum displ.:     0.0198615 α      in ANC's #6, #3, #10, ...

........................................................................
.............................. CYCLE   89 ..............................
........................................................................

 iter      E             dE          RMSdq      gap      omega  full diag
   1    -94.9212094 -0.949212E+02  0.972E-03    2.10       0.0  T
   2    -94.9212096 -0.205411E-06  0.566E-03    2.10       2.1  T
   3    -94.9212090  0.652941E-06  0.356E-03    2.10       3.3  T
   4    -94.9212096 -0.629536E-06  0.141E-03    2.10       8.3  T
   5    -94.9212097 -0.113716E-06  0.373E-04    2.10      31.2  T
   6    -94.9212097 -0.999663E-09  0.203E-04    2.10      57.3  T
     SCC iter.                  ...        0 min,  0.076 sec
     gradient                   ...        0 min,  0.074 sec
 * total energy  :   -93.6503708 Eh     change       -0.3703583E-04 Eh
   gradient norm :     0.0024467 Eh/α   predicted    -0.2475260E-04 ( -33.17%)
   displ. norm   :     0.2907144 α      lambda       -0.9381837E-04
   maximum displ.:     0.1270748 α      in ANC's #6, #2, #3, ...

........................................................................
.............................. CYCLE   90 ..............................
........................................................................

 iter      E             dE          RMSdq      gap      omega  full diag
   1    -94.9237240 -0.949237E+02  0.317E-02    2.09       0.0  T
   2    -94.9237244 -0.350243E-06  0.189E-02    2.10       1.0  T
   3    -94.9237134  0.109857E-04  0.133E-02    2.09       1.0  T
   4    -94.9237251 -0.116909E-04  0.237E-03    2.10       4.9  T
   5    -94.9237254 -0.288842E-06  0.891E-04    2.10      13.1  T
   6    -94.9237254 -0.146981E-07  0.404E-04    2.10      28.8  T
   7    -94.9237254 -0.206069E-08  0.156E-04    2.10      74.7  T
     SCC iter.                  ...        0 min,  0.089 sec
     gradient                   ...        0 min,  0.076 sec
 * total energy  :   -93.6504355 Eh     change       -0.6467289E-04 Eh
   gradient norm :     0.0026967 Eh/α   predicted    -0.5087887E-04 ( -21.33%)
   displ. norm   :     0.4578225 α      lambda       -0.7101714E-04
   maximum displ.:     0.2181916 α      in ANC's #2, #6, #12, ...

........................................................................
.............................. CYCLE   91 ..............................
........................................................................

 iter      E             dE          RMSdq      gap      omega  full diag
   1    -94.9219507 -0.949220E+02  0.468E-02    2.09       0.0  T
   2    -94.9219515 -0.741932E-06  0.275E-02    2.10       1.0  T
   3    -94.9219495  0.195791E-05  0.590E-03    2.09       2.0  T
   4    -94.9219515 -0.196523E-05  0.267E-03    2.10       4.3  T
   5    -94.9219518 -0.327331E-06  0.124E-03    2.09       9.4  T
   6    -94.9219519 -0.529779E-07  0.428E-04    2.09      27.1  T
   7    -94.9219519 -0.225650E-08  0.136E-04    2.09      85.6  T
     SCC iter.                  ...        0 min,  0.093 sec
     gradient                   ...        0 min,  0.076 sec
 * total energy  :   -93.6504893 Eh     change       -0.5389475E-04 Eh
   gradient norm :     0.0038369 Eh/α   predicted    -0.4295399E-04 ( -20.30%)
   displ. norm   :     0.4155487 α      lambda       -0.9701682E-04
   maximum displ.:     0.2022690 α      in ANC's #2, #6, #12, ...

........................................................................
.............................. CYCLE   92 ..............................
........................................................................

 iter      E             dE          RMSdq      gap      omega  full diag
   1    -94.9223977 -0.949224E+02  0.456E-02    2.09       0.0  T
   2    -94.9223981 -0.426373E-06  0.268E-02    2.10       1.0  T
   3    -94.9223867  0.113746E-04  0.131E-02    2.09       1.0  T
   4    -94.9223986 -0.118541E-04  0.270E-03    2.10       4.3  T
   5    -94.9223990 -0.394347E-06  0.972E-04    2.10      12.0  T
   6    -94.9223990 -0.115262E-07  0.377E-04    2.10      30.9  T
   7    -94.9223990 -0.226071E-08  0.156E-04    2.10      74.7  T
     SCC iter.                  ...        0 min,  0.097 sec
     gradient                   ...        0 min,  0.073 sec
 * total energy  :   -93.6505627 Eh     change       -0.7333801E-04 Eh
   gradient norm :     0.0036958 Eh/α   predicted    -0.5688714E-04 ( -22.43%)
   displ. norm   :     0.3608074 α      lambda       -0.1107378E-03
   maximum displ.:     0.1795394 α      in ANC's #2, #9, #12, ...
 * RMSD in coord.:     0.6514956 α      energy gain  -0.2541930E-02 Eh

generating ANC from exact Hessian ...
Using Lindh-Hessian (1995)
 Shifting diagonal of input Hessian by    9.9270900242286637E-003
 Lowest  eigenvalues of input Hessian
    0.000000    0.000000    0.000000    0.000000    0.000000    0.000000
    0.010000    0.010138    0.010163    0.010237    0.010376    0.010442
    0.010495    0.010734    0.010796    0.010973    0.011012    0.011023
 Highest eigenvalues
    1.589773    1.626490    1.897585    2.000287    2.023195    2.490541


........................................................................
.............................. CYCLE   93 ..............................
........................................................................

 iter      E             dE          RMSdq      gap      omega  full diag
   1    -94.9231382 -0.949231E+02  0.438E-02    2.09       0.0  T
   2    -94.9231386 -0.400194E-06  0.257E-02    2.10       1.0  T
   3    -94.9231267  0.119114E-04  0.131E-02    2.09       1.0  T
   4    -94.9231390 -0.123757E-04  0.269E-03    2.10       4.3  T
   5    -94.9231394 -0.391913E-06  0.759E-04    2.10      15.3  T
   6    -94.9231394 -0.691679E-08  0.334E-04    2.10      34.8  T
   7    -94.9231394 -0.219651E-08  0.123E-04    2.10      94.3  T
     SCC iter.                  ...        0 min,  0.094 sec
     gradient                   ...        0 min,  0.083 sec
 * total energy  :   -93.6506418 Eh     change       -0.7913836E-04 Eh
   gradient norm :     0.0043844 Eh/α   predicted     0.0000000E+00 (-100.00%)
   displ. norm   :     0.0421729 α      lambda       -0.6234190E-04
   maximum displ.:     0.0146398 α      in ANC's #9, #35, #7, ...

........................................................................
.............................. CYCLE   94 ..............................
........................................................................

 iter      E             dE          RMSdq      gap      omega  full diag
   1    -94.9233683 -0.949234E+02  0.106E-02    2.10       0.0  T
   2    -94.9233686 -0.286036E-06  0.613E-03    2.10       1.9  T
   3    -94.9233684  0.224798E-06  0.273E-03    2.10       4.3  T
   4    -94.9233685 -0.182799E-06  0.130E-03    2.10       8.9  T
   5    -94.9233686 -0.968955E-07  0.494E-04    2.10      23.5  T
   6    -94.9233686 -0.560568E-08  0.245E-04    2.10      47.5  T
     SCC iter.                  ...        0 min,  0.085 sec
     gradient                   ...        0 min,  0.077 sec
 * total energy  :   -93.6506881 Eh     change       -0.4624563E-04 Eh
   gradient norm :     0.0016852 Eh/α   predicted    -0.3135368E-04 ( -32.20%)
   displ. norm   :     0.1301796 α      lambda       -0.5668890E-04
   maximum displ.:     0.0534886 α      in ANC's #9, #35, #7, ...

........................................................................
.............................. CYCLE   95 ..............................
........................................................................

 iter      E             dE          RMSdq      gap      omega  full diag
   1    -94.9233396 -0.949233E+02  0.263E-02    2.11       0.0  T
   2    -94.9233397 -0.889336E-07  0.158E-02    2.10       1.0  T
   3    -94.9233278  0.119622E-04  0.134E-02    2.11       1.0  T
   4    -94.9233408 -0.130698E-04  0.178E-03    2.10       6.5  T
   5    -94.9233409 -0.775005E-07  0.756E-04    2.10      15.4  T
   6    -94.9233409 -0.650260E-08  0.339E-04    2.10      34.3  T
   7    -94.9233409 -0.154169E-08  0.150E-04    2.10      77.5  T
     SCC iter.                  ...        0 min,  0.096 sec
     gradient                   ...        0 min,  0.076 sec
 * total energy  :   -93.6507184 Eh     change       -0.3034432E-04 Eh
   gradient norm :     0.0035306 Eh/α   predicted    -0.2855827E-04 (  -5.89%)
   displ. norm   :     0.1251241 α      lambda       -0.7811040E-04
   maximum displ.:     0.0568345 α      in ANC's #9, #35, #7, ...

........................................................................
.............................. CYCLE   96 ..............................
........................................................................

 iter      E             dE          RMSdq      gap      omega  full diag
   1    -94.9229948 -0.949230E+02  0.401E-02    2.08       0.0  T
   2    -94.9229955 -0.754848E-06  0.237E-02    2.09       1.0  T
   3    -94.9229815  0.140351E-04  0.135E-02    2.08       1.0  T
   4    -94.9229960 -0.144621E-04  0.395E-03    2.09       2.9  T
   5    -94.9229967 -0.678968E-06  0.105E-03    2.09      11.1  T
   6    -94.9229967 -0.629211E-08  0.432E-04    2.09      26.9  T
   7    -94.9229967 -0.386764E-08  0.174E-04    2.09      66.8  T
     SCC iter.                  ...        0 min,  0.094 sec
     gradient                   ...        0 min,  0.081 sec
 * total energy  :   -93.6507213 Eh     change       -0.2919584E-05 Eh
   gradient norm :     0.0051370 Eh/α   predicted    -0.3967170E-04 (1258.81%)
   displ. norm   :     0.0306048 α      lambda       -0.7074147E-04
   maximum displ.:     0.0113970 α      in ANC's #6, #23, #22, ...

........................................................................
.............................. CYCLE   97 ..............................
........................................................................

 iter      E             dE          RMSdq      gap      omega  full diag
   1    -94.9233343 -0.949233E+02  0.176E-02    2.10       0.0  T
   2    -94.9233342  0.465204E-07  0.111E-02    2.09       1.1  T
   3    -94.9233280  0.624178E-05  0.102E-02    2.10       1.1  T
   4    -94.9233353 -0.734408E-05  0.182E-03    2.10       6.4  T
   5    -94.9233354 -0.827904E-07  0.574E-04    2.10      20.3  T
   6    -94.9233354 -0.899050E-09  0.259E-04    2.10      45.0  T
   7    -94.9233354 -0.143956E-08  0.105E-04    2.10     111.1  T
     SCC iter.                  ...        0 min,  0.093 sec
     gradient                   ...        0 min,  0.069 sec
 * total energy  :   -93.6507691 Eh     change       -0.4779654E-04 Eh
   gradient norm :     0.0022532 Eh/α   predicted    -0.3540536E-04 ( -25.92%)
   displ. norm   :     0.0787599 α      lambda       -0.3777175E-04
   maximum displ.:     0.0434790 α      in ANC's #9, #11, #35, ...

........................................................................
.............................. CYCLE   98 ..............................
........................................................................

 iter      E             dE          RMSdq      gap      omega  full diag
   1    -94.9233284 -0.949233E+02  0.135E-02    2.10       0.0  T
   2    -94.9233286 -0.203752E-06  0.812E-03    2.10       1.4  T
   3    -94.9233264  0.213630E-05  0.564E-03    2.10       2.1  T
   4    -94.9233286 -0.221857E-05  0.185E-03    2.10       6.3  T
   5    -94.9233288 -0.168529E-06  0.376E-04    2.10      30.9  T
   6    -94.9233288 -0.499625E-09  0.202E-04    2.10      57.4  T
     SCC iter.                  ...        0 min,  0.083 sec
     gradient                   ...        0 min,  0.069 sec
 * total energy  :   -93.6507971 Eh     change       -0.2800842E-04 Eh
   gradient norm :     0.0009665 Eh/α   predicted    -0.1900469E-04 ( -32.15%)
   displ. norm   :     0.2028515 α      lambda       -0.3370523E-04
   maximum displ.:     0.1118121 α      in ANC's #9, #11, #35, ...

........................................................................
.............................. CYCLE   99 ..............................
........................................................................

 iter      E             dE          RMSdq      gap      omega  full diag
   1    -94.9229722 -0.949230E+02  0.293E-02    2.10       0.0  T
   2    -94.9229723 -0.119738E-06  0.176E-02    2.10       1.0  T
   3    -94.9229586  0.137130E-04  0.141E-02    2.11       1.0  T
   4    -94.9229734 -0.147849E-04  0.208E-03    2.10       5.6  T
   5    -94.9229735 -0.136743E-06  0.538E-04    2.10      21.6  T
   6    -94.9229735 -0.129700E-08  0.294E-04    2.10      39.6  T
   7    -94.9229735 -0.133289E-08  0.121E-04    2.10      96.0  T
     SCC iter.                  ...        0 min,  0.090 sec
     gradient                   ...        0 min,  0.077 sec
 * total energy  :   -93.6508263 Eh     change       -0.2915280E-04 Eh
   gradient norm :     0.0028685 Eh/α   predicted    -0.1716484E-04 ( -41.12%)
   displ. norm   :     0.0665453 α      lambda       -0.1879930E-04
   maximum displ.:     0.0399796 α      in ANC's #9, #11, #7, ...

........................................................................
.............................. CYCLE  100 ..............................
........................................................................

 iter      E             dE          RMSdq      gap      omega  full diag
   1    -94.9232287 -0.949232E+02  0.107E-02    2.10       0.0  T
   2    -94.9232287 -0.301698E-07  0.630E-03    2.10       1.8  T
   3    -94.9232279  0.802055E-06  0.339E-03    2.10       3.4  T
   4    -94.9232287 -0.845382E-06  0.536E-04    2.10      21.7  T
   5    -94.9232287 -0.107036E-07  0.185E-04    2.10      62.8  T
   6    -94.9232287 -0.151218E-09  0.929E-05    2.10     125.1  T
     SCC iter.                  ...        0 min,  0.078 sec
     gradient                   ...        0 min,  0.069 sec
 * total energy  :   -93.6508427 Eh     change       -0.1641213E-04 Eh
   gradient norm :     0.0020655 Eh/α   predicted    -0.9441488E-05 ( -42.47%)
   displ. norm   :     0.1561684 α      lambda       -0.3755973E-04
   maximum displ.:     0.0941717 α      in ANC's #9, #11, #7, ...

........................................................................
.............................. CYCLE  101 ..............................
........................................................................

 iter      E             dE          RMSdq      gap      omega  full diag
   1    -94.9234852 -0.949235E+02  0.255E-02    2.10       0.0  T
   2    -94.9234853 -0.160605E-06  0.149E-02    2.10       1.0  T
   3    -94.9234835  0.179634E-05  0.512E-03    2.10       2.3  T
   4    -94.9234854 -0.185790E-05  0.121E-03    2.10       9.6  T
   5    -94.9234854 -0.715412E-07  0.437E-04    2.10      26.6  T
   6    -94.9234854 -0.152737E-08  0.194E-04    2.10      59.8  T
     SCC iter.                  ...        0 min,  0.073 sec
     gradient                   ...        0 min,  0.067 sec
 * total energy  :   -93.6508699 Eh     change       -0.2716967E-04 Eh
   gradient norm :     0.0006244 Eh/α   predicted    -0.1923809E-04 ( -29.19%)
   displ. norm   :     0.2292941 α      lambda       -0.2022358E-04
   maximum displ.:     0.1402633 α      in ANC's #9, #11, #3, ...

........................................................................
.............................. CYCLE  102 ..............................
........................................................................

 iter      E             dE          RMSdq      gap      omega  full diag
   1    -94.9231811 -0.949232E+02  0.369E-02    2.10       0.0  T
   2    -94.9231813 -0.212501E-06  0.217E-02    2.10       1.0  T
   3    -94.9231786  0.269848E-05  0.613E-03    2.10       1.9  T
   4    -94.9231814 -0.281719E-05  0.142E-03    2.10       8.2  T
   5    -94.9231815 -0.918278E-07  0.596E-04    2.10      19.5  T
   6    -94.9231815 -0.500062E-08  0.214E-04    2.10      54.4  T
   7    -94.9231815 -0.399822E-09  0.105E-04    2.10     110.9  T
     SCC iter.                  ...        0 min,  0.087 sec
     gradient                   ...        0 min,  0.075 sec
 * total energy  :   -93.6508908 Eh     change       -0.2091033E-04 Eh
   gradient norm :     0.0013949 Eh/α   predicted    -0.1034926E-04 ( -50.51%)
   displ. norm   :     0.1335904 α      lambda       -0.1295214E-04
   maximum displ.:     0.0846618 α      in ANC's #9, #3, #13, ...

........................................................................
.............................. CYCLE  103 ..............................
........................................................................

 iter      E             dE          RMSdq      gap      omega  full diag
   1    -94.9235966 -0.949236E+02  0.221E-02    2.10       0.0  T
   2    -94.9235967 -0.117923E-06  0.130E-02    2.10       1.0  T
   3    -94.9235964  0.293576E-06  0.223E-03    2.10       5.2  T
   4    -94.9235967 -0.265308E-06  0.110E-03    2.10      10.5  T
   5    -94.9235968 -0.730165E-07  0.418E-04    2.10      27.8  T
   6    -94.9235968 -0.492264E-08  0.152E-04    2.10      76.6  T
     SCC iter.                  ...        0 min,  0.080 sec
     gradient                   ...        0 min,  0.072 sec
 * total energy  :   -93.6509074 Eh     change       -0.1666370E-04 Eh
   gradient norm :     0.0012433 Eh/α   predicted    -0.6527795E-05 ( -60.83%)
   displ. norm   :     0.1926414 α      lambda       -0.2074920E-04
   maximum displ.:     0.1190453 α      in ANC's #9, #3, #13, ...

........................................................................
.............................. CYCLE  104 ..............................
........................................................................

 iter      E             dE          RMSdq      gap      omega  full diag
   1    -94.9235672 -0.949236E+02  0.311E-02    2.10       0.0  T
   2    -94.9235674 -0.261426E-06  0.182E-02    2.10       1.0  T
   3    -94.9235674  0.835314E-07  0.197E-03    2.10       5.9  T
   4    -94.9235675 -0.150748E-06  0.749E-04    2.10      15.5  T
   5    -94.9235675 -0.788815E-08  0.376E-04    2.10      30.9  T
   6    -94.9235675 -0.132985E-08  0.244E-04    2.10      47.6  T
     SCC iter.                  ...        0 min,  0.079 sec
     gradient                   ...        0 min,  0.068 sec
 * total energy  :   -93.6509326 Eh     change       -0.2517714E-04 Eh
   gradient norm :     0.0006570 Eh/α   predicted    -0.1054946E-04 ( -58.10%)
   displ. norm   :     0.2242081 α      lambda       -0.2177366E-04
   maximum displ.:     0.1336233 α      in ANC's #9, #3, #13, ...

........................................................................
.............................. CYCLE  105 ..............................
........................................................................

 iter      E             dE          RMSdq      gap      omega  full diag
   1    -94.9234539 -0.949235E+02  0.357E-02    2.10       0.0  T
   2    -94.9234543 -0.388169E-06  0.210E-02    2.10       1.0  T
   3    -94.9234541  0.233200E-06  0.280E-03    2.10       4.1  T
   4    -94.9234543 -0.248954E-06  0.146E-03    2.10       7.9  T
   5    -94.9234544 -0.754284E-07  0.814E-04    2.10      14.3  T
   6    -94.9234544 -0.289187E-07  0.289E-04    2.10      40.2  T
   7    -94.9234544 -0.195709E-08  0.131E-04    2.10      89.1  T
     SCC iter.                  ...        0 min,  0.092 sec
     gradient                   ...        0 min,  0.075 sec
 * total energy  :   -93.6509553 Eh     change       -0.2267025E-04 Eh
   gradient norm :     0.0010226 Eh/α   predicted    -0.1113095E-04 ( -50.90%)
   displ. norm   :     0.1630615 α      lambda       -0.1151369E-04
   maximum displ.:     0.0988887 α      in ANC's #9, #3, #13, ...

........................................................................
.............................. CYCLE  106 ..............................
........................................................................

 iter      E             dE          RMSdq      gap      omega  full diag
   1    -94.9230166 -0.949230E+02  0.263E-02    2.10       0.0  T
   2    -94.9230168 -0.144769E-06  0.154E-02    2.10       1.0  T
   3    -94.9230130  0.382643E-05  0.746E-03    2.10       1.6  T
   4    -94.9230170 -0.405565E-05  0.990E-04    2.10      11.7  T
   5    -94.9230170 -0.266753E-07  0.482E-04    2.10      24.1  T
   6    -94.9230170 -0.474482E-08  0.191E-04    2.10      60.8  T
     SCC iter.                  ...        0 min,  0.083 sec
     gradient                   ...        0 min,  0.082 sec
 * total energy  :   -93.6509669 Eh     change       -0.1161508E-04 Eh
   gradient norm :     0.0006594 Eh/α   predicted    -0.5825883E-05 ( -49.84%)
   displ. norm   :     0.0908631 α      lambda       -0.6185332E-05
   maximum displ.:     0.0519355 α      in ANC's #9, #3, #13, ...

........................................................................
.............................. CYCLE  107 ..............................
........................................................................

 iter      E             dE          RMSdq      gap      omega  full diag
   1    -94.9232281 -0.949232E+02  0.154E-02    2.10       0.0  T
   2    -94.9232281 -0.448050E-08  0.912E-03    2.09       1.3  T
   3    -94.9232256  0.251823E-05  0.597E-03    2.10       1.9  T
   4    -94.9232283 -0.268004E-05  0.532E-04    2.10      21.8  T
   5    -94.9232283 -0.477654E-08  0.273E-04    2.10      42.5  T
   6    -94.9232283 -0.444345E-09  0.103E-04    2.10     113.1  T
     SCC iter.                  ...        0 min,  0.081 sec
     gradient                   ...        0 min,  0.064 sec
 * total energy  :   -93.6509742 Eh     change       -0.7265534E-05 Eh
   gradient norm :     0.0005343 Eh/α   predicted    -0.3108348E-05 ( -57.22%)
   displ. norm   :     0.1061583 α      lambda       -0.7587819E-05
   maximum displ.:     0.0631055 α      in ANC's #9, #3, #16, ...

........................................................................
.............................. CYCLE  108 ..............................
........................................................................

 iter      E             dE          RMSdq      gap      omega  full diag
   1    -94.9229015 -0.949229E+02  0.205E-02    2.10       0.0  T
   2    -94.9229014  0.950684E-07  0.122E-02    2.09       1.0  T
   3    -94.9228943  0.710329E-05  0.101E-02    2.10       1.2  T
   4    -94.9229020 -0.765238E-05  0.878E-04    2.09      13.2  T
   5    -94.9229020 -0.985135E-08  0.432E-04    2.09      26.9  T
   6    -94.9229020 -0.968626E-09  0.148E-04    2.09      78.6  T
     SCC iter.                  ...        0 min,  0.085 sec
     gradient                   ...        0 min,  0.075 sec
 * total energy  :   -93.6509822 Eh     change       -0.8007489E-05 Eh
   gradient norm :     0.0005793 Eh/α   predicted    -0.3814244E-05 ( -52.37%)
   displ. norm   :     0.0961553 α      lambda       -0.6386858E-05
   maximum displ.:     0.0520792 α      in ANC's #9, #3, #11, ...

........................................................................
.............................. CYCLE  109 ..............................
........................................................................

 iter      E             dE          RMSdq      gap      omega  full diag
   1    -94.9230088 -0.949230E+02  0.208E-02    2.10       0.0  T
   2    -94.9230089 -0.667179E-07  0.121E-02    2.09       1.0  T
   3    -94.9230043  0.452614E-05  0.783E-03    2.10       1.5  T
   4    -94.9230092 -0.482361E-05  0.117E-03    2.09       9.9  T
   5    -94.9230092 -0.290406E-07  0.489E-04    2.09      23.8  T
   6    -94.9230092 -0.139920E-08  0.199E-04    2.09      58.3  T
     SCC iter.                  ...        0 min,  0.080 sec
     gradient                   ...        0 min,  0.070 sec
 * total energy  :   -93.6509883 Eh     change       -0.6114557E-05 Eh
   gradient norm :     0.0005737 Eh/α   predicted    -0.3210787E-05 ( -47.49%)
   displ. norm   :     0.0845523 α      lambda       -0.5097666E-05
   maximum displ.:     0.0458131 α      in ANC's #9, #3, #16, ...

........................................................................
.............................. CYCLE  110 ..............................
........................................................................

 iter      E             dE          RMSdq      gap      omega  full diag
   1    -94.9229321 -0.949229E+02  0.183E-02    2.10       0.0  T
   2    -94.9229320  0.539119E-07  0.108E-02    2.09       1.1  T
   3    -94.9229271  0.488821E-05  0.829E-03    2.10       1.4  T
   4    -94.9229324 -0.524463E-05  0.837E-04    2.09      13.9  T
   5    -94.9229324 -0.676772E-08  0.431E-04    2.09      27.0  T
   6    -94.9229324 -0.108832E-08  0.139E-04    2.09      83.7  T
     SCC iter.                  ...        0 min,  0.077 sec
     gradient                   ...        0 min,  0.076 sec
 * total energy  :   -93.6509942 Eh     change       -0.5927090E-05 Eh
   gradient norm :     0.0005821 Eh/α   predicted    -0.2561794E-05 ( -56.78%)
   displ. norm   :     0.1312725 α      lambda       -0.8235534E-05
   maximum displ.:     0.0667612 α      in ANC's #9, #3, #16, ...

........................................................................
.............................. CYCLE  111 ..............................
........................................................................

 iter      E             dE          RMSdq      gap      omega  full diag
   1    -94.9227949 -0.949228E+02  0.281E-02    2.10       0.0  T
   2    -94.9227951 -0.157484E-06  0.162E-02    2.09       1.0  T
   3    -94.9227918  0.329914E-05  0.674E-03    2.10       1.7  T
   4    -94.9227952 -0.348213E-05  0.147E-03    2.09       7.9  T
   5    -94.9227953 -0.571211E-07  0.728E-04    2.09      16.0  T
   6    -94.9227953 -0.589438E-08  0.244E-04    2.09      47.6  T
   7    -94.9227953 -0.195922E-08  0.969E-05    2.09     120.0  T
     SCC iter.                  ...        0 min,  0.095 sec
     gradient                   ...        0 min,  0.066 sec
 * total energy  :   -93.6510041 Eh     change       -0.9909335E-05 Eh
   gradient norm :     0.0006880 Eh/α   predicted    -0.4153749E-05 ( -58.08%)
   displ. norm   :     0.2573569 α      lambda       -0.1570083E-04
   maximum displ.:     0.1302196 α      in ANC's #9, #3, #16, ...

........................................................................
.............................. CYCLE  112 ..............................
........................................................................

 iter      E             dE          RMSdq      gap      omega  full diag
   1    -94.9221962 -0.949222E+02  0.543E-02    2.10       0.0  T
   2    -94.9221970 -0.787082E-06  0.312E-02    2.09       1.0  T
   3    -94.9221918  0.519252E-05  0.881E-03    2.10       1.3  T
   4    -94.9221970 -0.521844E-05  0.328E-03    2.09       3.5  T
   5    -94.9221975 -0.477139E-06  0.147E-03    2.09       7.9  T
   6    -94.9221975 -0.410120E-07  0.478E-04    2.09      24.3  T
   7    -94.9221975 -0.703359E-08  0.195E-04    2.09      59.5  T
     SCC iter.                  ...        0 min,  0.100 sec
     gradient                   ...        0 min,  0.071 sec
 * total energy  :   -93.6510245 Eh     change       -0.2040828E-04 Eh
   gradient norm :     0.0012940 Eh/α   predicted    -0.8085712E-05 ( -60.38%)
   displ. norm   :     0.5495148 α      lambda       -0.3240673E-04
   maximum displ.:     0.2797544 α      in ANC's #9, #3, #16, ...

........................................................................
.............................. CYCLE  113 ..............................
........................................................................

 iter      E             dE          RMSdq      gap      omega  full diag
   1    -94.9193969 -0.949194E+02  0.117E-01    2.10       0.0  T
   2    -94.9194012 -0.432108E-05  0.674E-02    2.09       1.0  T
   3    -94.9193812  0.200296E-04  0.177E-02    2.10       1.0  T
   4    -94.9194006 -0.194032E-04  0.760E-03    2.09       1.5  T
   5    -94.9194035 -0.287507E-05  0.328E-03    2.09       3.5  T
   6    -94.9194037 -0.224042E-06  0.112E-03    2.09      10.4  T
   7    -94.9194037 -0.382298E-07  0.460E-04    2.09      25.2  T
   8    -94.9194037 -0.163173E-08  0.217E-04    2.09      53.5  T
     SCC iter.                  ...        0 min,  0.106 sec
     gradient                   ...        0 min,  0.076 sec
 * total energy  :   -93.6509776 Eh     change        0.4692863E-04 Eh
   gradient norm :     0.0051259 Eh/α   predicted    -0.1837934E-04 (-139.16%)
   displ. norm   :     0.2123034 α      lambda       -0.1013839E-03
   maximum displ.:     0.1190903 α      in ANC's #9, #3, #16, ...

........................................................................
.............................. CYCLE  114 ..............................
........................................................................

 iter      E             dE          RMSdq      gap      omega  full diag
   1    -94.9220117 -0.949220E+02  0.488E-02    2.09       0.0  T
   2    -94.9220125 -0.827514E-06  0.279E-02    2.09       1.0  T
   3    -94.9220065  0.604922E-05  0.931E-03    2.09       1.2  T
   4    -94.9220126 -0.616815E-05  0.314E-03    2.09       3.7  T
   5    -94.9220131 -0.440073E-06  0.132E-03    2.09       8.8  T
   6    -94.9220131 -0.276540E-07  0.481E-04    2.09      24.2  T
   7    -94.9220131 -0.663752E-08  0.197E-04    2.09      59.0  T
     SCC iter.                  ...        0 min,  0.094 sec
     gradient                   ...        0 min,  0.081 sec
 * total energy  :   -93.6510401 Eh     change       -0.6246060E-04 Eh
   gradient norm :     0.0015814 Eh/α   predicted    -0.5298105E-04 ( -15.18%)
   displ. norm   :     0.1681720 α      lambda       -0.2512040E-04
   maximum displ.:     0.0791397 α      in ANC's #9, #3, #16, ...

........................................................................
.............................. CYCLE  115 ..............................
........................................................................

 iter      E             dE          RMSdq      gap      omega  full diag
   1    -94.9230062 -0.949230E+02  0.359E-02    2.09       0.0  T
   2    -94.9230065 -0.287144E-06  0.204E-02    2.10       1.0  T
   3    -94.9230006  0.583135E-05  0.938E-03    2.09       1.2  T
   4    -94.9230068 -0.618770E-05  0.186E-03    2.09       6.3  T
   5    -94.9230069 -0.697305E-07  0.977E-04    2.09      11.9  T
   6    -94.9230069 -0.297683E-07  0.299E-04    2.09      38.9  T
   7    -94.9230069 -0.233747E-08  0.113E-04    2.09     103.0  T
     SCC iter.                  ...        0 min,  0.099 sec
     gradient                   ...        0 min,  0.074 sec
 * total energy  :   -93.6510576 Eh     change       -0.1754236E-04 Eh
   gradient norm :     0.0008249 Eh/α   predicted    -0.1272171E-04 ( -27.48%)
   displ. norm   :     0.0480822 α      lambda       -0.8331239E-05
   maximum displ.:     0.0245660 α      in ANC's #4, #1, #14, ...

........................................................................
.............................. CYCLE  116 ..............................
........................................................................

 iter      E             dE          RMSdq      gap      omega  full diag
   1    -94.9229798 -0.949230E+02  0.971E-03    2.09       0.0  T
   2    -94.9229798 -0.319782E-07  0.563E-03    2.09       2.1  T
   3    -94.9229794  0.409279E-06  0.276E-03    2.09       4.2  T
   4    -94.9229798 -0.419384E-06  0.659E-04    2.09      17.6  T
   5    -94.9229798 -0.247631E-07  0.256E-04    2.09      45.5  T
   6    -94.9229798 -0.241766E-08  0.938E-05    2.09     123.9  T
     SCC iter.                  ...        0 min,  0.096 sec
     gradient                   ...        0 min,  0.081 sec
 * total energy  :   -93.6510674 Eh     change       -0.9753615E-05 Eh
   gradient norm :     0.0006786 Eh/α   predicted    -0.4173058E-05 ( -57.22%)
   displ. norm   :     0.1364528 α      lambda       -0.1553692E-04
   maximum displ.:     0.0560563 α      in ANC's #1, #4, #9, ...

........................................................................
.............................. CYCLE  117 ..............................
........................................................................

 iter      E             dE          RMSdq      gap      omega  full diag
   1    -94.9223979 -0.949224E+02  0.252E-02    2.09       0.0  T
   2    -94.9223980 -0.926600E-07  0.148E-02    2.09       1.0  T
   3    -94.9223921  0.586791E-05  0.963E-03    2.09       1.2  T
   4    -94.9223983 -0.625558E-05  0.131E-03    2.09       8.9  T
   5    -94.9223984 -0.807453E-07  0.637E-04    2.09      18.3  T
   6    -94.9223984 -0.593934E-08  0.263E-04    2.09      44.2  T
   7    -94.9223984 -0.168217E-08  0.105E-04    2.09     110.9  T
     SCC iter.                  ...        0 min,  0.097 sec
     gradient                   ...        0 min,  0.065 sec
 * total energy  :   -93.6510842 Eh     change       -0.1683686E-04 Eh
   gradient norm :     0.0007922 Eh/α   predicted    -0.7835422E-05 ( -53.46%)
   displ. norm   :     0.1592852 α      lambda       -0.1097783E-04
   maximum displ.:     0.0707913 α      in ANC's #1, #4, #9, ...

........................................................................
.............................. CYCLE  118 ..............................
........................................................................

 iter      E             dE          RMSdq      gap      omega  full diag
   1    -94.9219994 -0.949220E+02  0.286E-02    2.09       0.0  T
   2    -94.9219995 -0.111216E-06  0.168E-02    2.09       1.0  T
   3    -94.9219912  0.834356E-05  0.110E-02    2.09       1.1  T
   4    -94.9220001 -0.890969E-05  0.147E-03    2.09       7.9  T
   5    -94.9220001 -0.726963E-07  0.692E-04    2.09      16.8  T
   6    -94.9220001 -0.292945E-08  0.282E-04    2.09      41.2  T
   7    -94.9220002 -0.235227E-08  0.112E-04    2.09     103.4  T
     SCC iter.                  ...        0 min,  0.100 sec
     gradient                   ...        0 min,  0.068 sec
 * total energy  :   -93.6510962 Eh     change       -0.1195801E-04 Eh
   gradient norm :     0.0008429 Eh/α   predicted    -0.5554038E-05 ( -53.55%)
   displ. norm   :     0.1760819 α      lambda       -0.9661420E-05
   maximum displ.:     0.0849520 α      in ANC's #1, #4, #9, ...

........................................................................
.............................. CYCLE  119 ..............................
........................................................................

 iter      E             dE          RMSdq      gap      omega  full diag
   1    -94.9218660 -0.949219E+02  0.318E-02    2.09       0.0  T
   2    -94.9218660 -0.129731E-07  0.186E-02    2.08       1.0  T
   3    -94.9218543  0.117525E-04  0.131E-02    2.09       1.0  T
   4    -94.9218669 -0.126001E-04  0.152E-03    2.09       7.6  T
   5    -94.9218670 -0.696034E-07  0.755E-04    2.09      15.4  T
   6    -94.9218670 -0.450652E-08  0.302E-04    2.09      38.5  T
   7    -94.9218670 -0.310230E-08  0.105E-04    2.09     111.1  T
     SCC iter.                  ...        0 min,  0.096 sec
     gradient                   ...        0 min,  0.059 sec
 * total energy  :   -93.6511066 Eh     change       -0.1047835E-04 Eh
   gradient norm :     0.0007152 Eh/α   predicted    -0.4899064E-05 ( -53.25%)
   displ. norm   :     0.1340019 α      lambda       -0.7621596E-05
   maximum displ.:     0.0728241 α      in ANC's #1, #4, #5, ...

........................................................................
.............................. CYCLE  120 ..............................
........................................................................

 iter      E             dE          RMSdq      gap      omega  full diag
   1    -94.9221802 -0.949222E+02  0.234E-02    2.09       0.0  T
   2    -94.9221802 -0.485640E-08  0.137E-02    2.08       1.0  T
   3    -94.9221748  0.543718E-05  0.871E-03    2.09       1.3  T
   4    -94.9221806 -0.579201E-05  0.103E-03    2.09      11.3  T
   5    -94.9221806 -0.242371E-07  0.521E-04    2.09      22.3  T
   6    -94.9221806 -0.113970E-08  0.186E-04    2.09      62.5  T
   7    -94.9221806 -0.125794E-08  0.634E-05    2.09     183.2  T
     SCC iter.                  ...        0 min,  0.093 sec
     gradient                   ...        0 min,  0.072 sec
 * total energy  :   -93.6511157 Eh     change       -0.9101565E-05 Eh
   gradient norm :     0.0005104 Eh/α   predicted    -0.3844292E-05 ( -57.76%)
   displ. norm   :     0.1197200 α      lambda       -0.7878923E-05
   maximum displ.:     0.0713843 α      in ANC's #1, #4, #7, ...
 * RMSD in coord.:     0.2693605 α      energy gain  -0.5530589E-03 Eh

generating ANC from exact Hessian ...
Using Lindh-Hessian (1995)
 Shifting diagonal of input Hessian by    9.9224918421084787E-003
 Lowest  eigenvalues of input Hessian
    0.000000    0.000000    0.000000    0.000000    0.000000    0.000000
    0.010000    0.010150    0.010163    0.010241    0.010336    0.010381
    0.010517    0.010759    0.010907    0.010938    0.011012    0.011036
 Highest eigenvalues
    1.588693    1.622329    1.897930    2.000663    2.023284    2.491040


........................................................................
.............................. CYCLE  121 ..............................
........................................................................

 iter      E             dE          RMSdq      gap      omega  full diag
   1    -94.9225816 -0.949226E+02  0.201E-02    2.09       0.0  T
   2    -94.9225816 -0.361856E-07  0.117E-02    2.09       1.0  T
   3    -94.9225801  0.145271E-05  0.439E-03    2.09       2.6  T
   4    -94.9225817 -0.153199E-05  0.744E-04    2.09      15.6  T
   5    -94.9225817 -0.130709E-07  0.368E-04    2.09      31.6  T
   6    -94.9225817 -0.984244E-09  0.110E-04    2.09     106.2  T
     SCC iter.                  ...        0 min,  0.077 sec
     gradient                   ...        0 min,  0.077 sec
 * total energy  :   -93.6511252 Eh     change       -0.9425259E-05 Eh
   gradient norm :     0.0006610 Eh/α   predicted     0.0000000E+00 (-100.00%)
   displ. norm   :     0.0206544 α      lambda       -0.5049444E-06
   maximum displ.:     0.0138325 α      in ANC's #1, #3, #7, ...

........................................................................
.............................. CYCLE  122 ..............................
........................................................................

 iter      E             dE          RMSdq      gap      omega  full diag
   1    -94.9222363 -0.949222E+02  0.338E-03    2.09       0.0  T
   2    -94.9222363 -0.803230E-08  0.200E-03    2.09       5.8  T
   3    -94.9222362  0.104742E-06  0.123E-03    2.09       9.4  T
   4    -94.9222363 -0.109497E-06  0.335E-04    2.09      34.7  T
   5    -94.9222363 -0.504788E-08  0.102E-04    2.09     113.6  T
     SCC iter.                  ...        0 min,  0.065 sec
     gradient                   ...        0 min,  0.057 sec
 * total energy  :   -93.6511287 Eh     change       -0.3569478E-05 Eh
   gradient norm :     0.0002723 Eh/α   predicted    -0.1492491E-05 ( -58.19%)
   displ. norm   :     0.0528794 α      lambda       -0.5068518E-05
   maximum displ.:     0.0321866 α      in ANC's #1, #3, #7, ...

........................................................................
.............................. CYCLE  123 ..............................
........................................................................

 iter      E             dE          RMSdq      gap      omega  full diag
   1    -94.9219538 -0.949220E+02  0.711E-03    2.09       0.0  T
   2    -94.9219537  0.848513E-07  0.439E-03    2.09       2.6  T
   3    -94.9219528  0.900986E-06  0.445E-03    2.08       2.6  T
   4    -94.9219540 -0.117682E-05  0.525E-04    2.09      22.1  T
   5    -94.9219540 -0.742530E-08  0.186E-04    2.09      62.4  T
   6    -94.9219540 -0.346461E-10  0.839E-05    2.09     138.6  T
     SCC iter.                  ...        0 min,  0.089 sec
     gradient                   ...        0 min,  0.070 sec
 * total energy  :   -93.6511347 Eh     change       -0.5920650E-05 Eh
   gradient norm :     0.0007218 Eh/α   predicted    -0.2538308E-05 ( -57.13%)
   displ. norm   :     0.0920819 α      lambda       -0.7086758E-05
   maximum displ.:     0.0558483 α      in ANC's #1, #3, #6, ...

........................................................................
.............................. CYCLE  124 ..............................
........................................................................

 iter      E             dE          RMSdq      gap      omega  full diag
   1    -94.9218697 -0.949219E+02  0.205E-02    2.09       0.0  T
   2    -94.9218696  0.620334E-07  0.120E-02    2.09       1.0  T
   3    -94.9218650  0.456114E-05  0.879E-03    2.09       1.3  T
   4    -94.9218699 -0.487653E-05  0.881E-04    2.09      13.2  T
   5    -94.9218700 -0.471976E-07  0.376E-04    2.09      30.9  T
   6    -94.9218700 -0.573984E-08  0.126E-04    2.09      92.3  T
     SCC iter.                  ...        0 min,  0.078 sec
     gradient                   ...        0 min,  0.063 sec
 * total energy  :   -93.6511376 Eh     change       -0.2906127E-05 Eh
   gradient norm :     0.0014027 Eh/α   predicted    -0.3556931E-05 (  22.39%)
   displ. norm   :     0.1075530 α      lambda       -0.1174195E-04
   maximum displ.:     0.0642948 α      in ANC's #1, #3, #7, ...

........................................................................
.............................. CYCLE  125 ..............................
........................................................................

 iter      E             dE          RMSdq      gap      omega  full diag
   1    -94.9221633 -0.949222E+02  0.136E-02    2.09       0.0  T
   2    -94.9221634 -0.635859E-07  0.823E-03    2.09       1.4  T
   3    -94.9221601  0.322179E-05  0.741E-03    2.08       1.6  T
   4    -94.9221639 -0.373571E-05  0.161E-03    2.09       7.2  T
   5    -94.9221639 -0.782041E-07  0.520E-04    2.09      22.4  T
   6    -94.9221639 -0.134678E-08  0.219E-04    2.09      53.0  T
   7    -94.9221639 -0.785533E-09  0.988E-05    2.09     117.7  T
     SCC iter.                  ...        0 min,  0.096 sec
     gradient                   ...        0 min,  0.071 sec
 * total energy  :   -93.6511438 Eh     change       -0.6276204E-05 Eh
   gradient norm :     0.0010231 Eh/α   predicted    -0.5904423E-05 (  -5.92%)
   displ. norm   :     0.0175180 α      lambda       -0.4228546E-05
   maximum displ.:     0.0063491 α      in ANC's #1, #3, #12, ...

........................................................................
.............................. CYCLE  126 ..............................
........................................................................

 iter      E             dE          RMSdq      gap      omega  full diag
   1    -94.9222890 -0.949223E+02  0.543E-03    2.09       0.0  T
   2    -94.9222890 -0.461360E-07  0.313E-03    2.09       3.7  T
   3    -94.9222885  0.484716E-06  0.284E-03    2.09       4.1  T
   4    -94.9222891 -0.573716E-06  0.710E-04    2.09      16.4  T
   5    -94.9222891 -0.881056E-08  0.255E-04    2.09      45.6  T
   6    -94.9222891 -0.140940E-08  0.872E-05    2.09     133.3  T
     SCC iter.                  ...        0 min,  0.082 sec
     gradient                   ...        0 min,  0.072 sec
 * total energy  :   -93.6511481 Eh     change       -0.4308219E-05 Eh
   gradient norm :     0.0005565 Eh/α   predicted    -0.2114955E-05 ( -50.91%)
   displ. norm   :     0.0382259 α      lambda       -0.4697883E-05
   maximum displ.:     0.0177503 α      in ANC's #1, #3, #18, ...

........................................................................
.............................. CYCLE  127 ..............................
........................................................................

 iter      E             dE          RMSdq      gap      omega  full diag
   1    -94.9224191 -0.949224E+02  0.562E-03    2.09       0.0  T
   2    -94.9224191  0.448937E-07  0.365E-03    2.09       3.2  T
   3    -94.9224187  0.355885E-06  0.337E-03    2.09       3.5  T
   4    -94.9224194 -0.647565E-06  0.662E-04    2.09      17.6  T
   5    -94.9224194 -0.105213E-07  0.212E-04    2.09      54.8  T
   6    -94.9224194 -0.185338E-09  0.984E-05    2.09     118.1  T
     SCC iter.                  ...        0 min,  0.077 sec
     gradient                   ...        0 min,  0.064 sec
 * total energy  :   -93.6511532 Eh     change       -0.5027298E-05 Eh
   gradient norm :     0.0004784 Eh/α   predicted    -0.2354522E-05 ( -53.17%)
   displ. norm   :     0.0719425 α      lambda       -0.5020392E-05
   maximum displ.:     0.0427607 α      in ANC's #1, #3, #7, ...

........................................................................
.............................. CYCLE  128 ..............................
........................................................................

 iter      E             dE          RMSdq      gap      omega  full diag
   1    -94.9224727 -0.949225E+02  0.930E-03    2.09       0.0  T
   2    -94.9224726  0.161084E-06  0.592E-03    2.09       2.0  T
   3    -94.9224710  0.153825E-05  0.580E-03    2.09       2.0  T
   4    -94.9224731 -0.206035E-05  0.651E-04    2.09      17.8  T
   5    -94.9224731 -0.128475E-07  0.261E-04    2.09      44.6  T
   6    -94.9224731 -0.648498E-09  0.119E-04    2.09      97.4  T
     SCC iter.                  ...        0 min,  0.080 sec
     gradient                   ...        0 min,  0.076 sec
 * total energy  :   -93.6511589 Eh     change       -0.5725245E-05 Eh
   gradient norm :     0.0007505 Eh/α   predicted    -0.2517015E-05 ( -56.04%)
   displ. norm   :     0.1254716 α      lambda       -0.6760506E-05
   maximum displ.:     0.0789654 α      in ANC's #1, #3, #7, ...

........................................................................
.............................. CYCLE  129 ..............................
........................................................................

 iter      E             dE          RMSdq      gap      omega  full diag
   1    -94.9223342 -0.949223E+02  0.152E-02    2.09       0.0  T
   2    -94.9223341  0.129136E-06  0.917E-03    2.09       1.3  T
   3    -94.9223294  0.461665E-05  0.860E-03    2.09       1.4  T
   4    -94.9223346 -0.515490E-05  0.774E-04    2.09      15.0  T
   5    -94.9223346 -0.157277E-07  0.397E-04    2.09      29.3  T
   6    -94.9223346 -0.230385E-08  0.163E-04    2.09      71.4  T
     SCC iter.                  ...        0 min,  0.084 sec
     gradient                   ...        0 min,  0.083 sec
 * total energy  :   -93.6511673 Eh     change       -0.8352799E-05 Eh
   gradient norm :     0.0008265 Eh/α   predicted    -0.3404306E-05 ( -59.24%)
   displ. norm   :     0.1878879 α      lambda       -0.9169287E-05
   maximum displ.:     0.1212995 α      in ANC's #1, #3, #7, ...

........................................................................
.............................. CYCLE  130 ..............................
........................................................................

 iter      E             dE          RMSdq      gap      omega  full diag
   1    -94.9220223 -0.949220E+02  0.218E-02    2.09       0.0  T
   2    -94.9220223 -0.167908E-07  0.130E-02    2.09       1.0  T
   3    -94.9220172  0.507756E-05  0.877E-03    2.09       1.3  T
   4    -94.9220226 -0.542076E-05  0.103E-03    2.09      11.3  T
   5    -94.9220227 -0.376979E-07  0.558E-04    2.09      20.8  T
   6    -94.9220227 -0.782430E-08  0.188E-04    2.09      61.7  T
   7    -94.9220227 -0.199691E-09  0.655E-05    2.09     177.5  T
     SCC iter.                  ...        0 min,  0.093 sec
     gradient                   ...        0 min,  0.069 sec
 * total energy  :   -93.6511789 Eh     change       -0.1166155E-04 Eh
   gradient norm :     0.0006686 Eh/α   predicted    -0.4657497E-05 ( -60.06%)
   displ. norm   :     0.2555504 α      lambda       -0.1120547E-04
   maximum displ.:     0.1675618 α      in ANC's #1, #3, #7, ...

........................................................................
.............................. CYCLE  131 ..............................
........................................................................

 iter      E             dE          RMSdq      gap      omega  full diag
   1    -94.9216000 -0.949216E+02  0.291E-02    2.09       0.0  T
   2    -94.9216002 -0.170806E-06  0.172E-02    2.09       1.0  T
   3    -94.9215957  0.451960E-05  0.802E-03    2.09       1.4  T
   4    -94.9216005 -0.479286E-05  0.132E-03    2.09       8.8  T
   5    -94.9216005 -0.505756E-07  0.718E-04    2.09      16.2  T
   6    -94.9216005 -0.144511E-07  0.228E-04    2.09      50.9  T
   7    -94.9216005 -0.389974E-09  0.808E-05    2.09     143.9  T
     SCC iter.                  ...        0 min,  0.090 sec
     gradient                   ...        0 min,  0.065 sec
 * total energy  :   -93.6511921 Eh     change       -0.1314005E-04 Eh
   gradient norm :     0.0006363 Eh/α   predicted    -0.5768459E-05 ( -56.10%)
   displ. norm   :     0.1741399 α      lambda       -0.7541566E-05
   maximum displ.:     0.1172769 α      in ANC's #1, #3, #7, ...

........................................................................
.............................. CYCLE  132 ..............................
........................................................................

 iter      E             dE          RMSdq      gap      omega  full diag
   1    -94.9216659 -0.949217E+02  0.201E-02    2.09       0.0  T
   2    -94.9216661 -0.120517E-06  0.118E-02    2.09       1.0  T
   3    -94.9216656  0.484050E-06  0.289E-03    2.09       4.0  T
   4    -94.9216661 -0.509218E-06  0.105E-03    2.09      11.1  T
   5    -94.9216661 -0.362557E-07  0.583E-04    2.09      19.9  T
   6    -94.9216661 -0.135336E-07  0.166E-04    2.09      69.9  T
   7    -94.9216661 -0.269040E-09  0.601E-05    2.09     193.3  T
     SCC iter.                  ...        0 min,  0.088 sec
     gradient                   ...        0 min,  0.075 sec
 * total energy  :   -93.6512013 Eh     change       -0.9215009E-05 Eh
   gradient norm :     0.0006407 Eh/α   predicted    -0.3822419E-05 ( -58.52%)
   displ. norm   :     0.1320014 α      lambda       -0.6978416E-05
   maximum displ.:     0.0911511 α      in ANC's #1, #3, #7, ...

........................................................................
.............................. CYCLE  133 ..............................
........................................................................

 iter      E             dE          RMSdq      gap      omega  full diag
   1    -94.9219666 -0.949220E+02  0.161E-02    2.09       0.0  T
   2    -94.9219667 -0.106168E-06  0.933E-03    2.09       1.2  T
   3    -94.9219666  0.107492E-06  0.170E-03    2.09       6.8  T
   4    -94.9219668 -0.147094E-06  0.649E-04    2.09      17.9  T
   5    -94.9219668 -0.240580E-08  0.322E-04    2.09      36.2  T
   6    -94.9219668 -0.197252E-08  0.203E-04    2.09      57.4  T
     SCC iter.                  ...        0 min,  0.080 sec
     gradient                   ...        0 min,  0.069 sec
 * total energy  :   -93.6512101 Eh     change       -0.8850936E-05 Eh
   gradient norm :     0.0005128 Eh/α   predicted    -0.3517309E-05 ( -60.26%)
   displ. norm   :     0.1389662 α      lambda       -0.7957653E-05
   maximum displ.:     0.0952346 α      in ANC's #1, #3, #5, ...

........................................................................
.............................. CYCLE  134 ..............................
........................................................................

 iter      E             dE          RMSdq      gap      omega  full diag
   1    -94.9220517 -0.949221E+02  0.183E-02    2.09       0.0  T
   2    -94.9220518 -0.115611E-06  0.106E-02    2.09       1.1  T
   3    -94.9220511  0.700041E-06  0.319E-03    2.09       3.6  T
   4    -94.9220519 -0.709063E-06  0.124E-03    2.09       9.4  T
   5    -94.9220519 -0.705869E-07  0.569E-04    2.09      20.4  T
   6    -94.9220519 -0.644205E-08  0.187E-04    2.09      62.1  T
   7    -94.9220519 -0.965343E-09  0.685E-05    2.09     169.8  T
     SCC iter.                  ...        0 min,  0.091 sec
     gradient                   ...        0 min,  0.082 sec
 * total energy  :   -93.6512204 Eh     change       -0.1027430E-04 Eh
   gradient norm :     0.0003900 Eh/α   predicted    -0.4016765E-05 ( -60.90%)
   displ. norm   :     0.1606388 α      lambda       -0.8799352E-05
   maximum displ.:     0.1085337 α      in ANC's #1, #3, #5, ...

........................................................................
.............................. CYCLE  135 ..............................
........................................................................

 iter      E             dE          RMSdq      gap      omega  full diag
   1    -94.9220440 -0.949220E+02  0.224E-02    2.09       0.0  T
   2    -94.9220441 -0.145337E-06  0.130E-02    2.09       1.0  T
   3    -94.9220415  0.262687E-05  0.601E-03    2.09       1.9  T
   4    -94.9220443 -0.276700E-05  0.145E-03    2.09       8.0  T
   5    -94.9220444 -0.800559E-07  0.677E-04    2.09      17.2  T
   6    -94.9220444 -0.605164E-08  0.245E-04    2.09      47.4  T
   7    -94.9220444 -0.158987E-08  0.887E-05    2.09     131.0  T
     SCC iter.                  ...        0 min,  0.101 sec
     gradient                   ...        0 min,  0.080 sec
 * total energy  :   -93.6512314 Eh     change       -0.1101943E-04 Eh
   gradient norm :     0.0003916 Eh/α   predicted    -0.4454772E-05 ( -59.57%)
   displ. norm   :     0.1475360 α      lambda       -0.7075905E-05
   maximum displ.:     0.1006837 α      in ANC's #1, #3, #18, ...

........................................................................
.............................. CYCLE  136 ..............................
........................................................................

 iter      E             dE          RMSdq      gap      omega  full diag
   1    -94.9219763 -0.949220E+02  0.211E-02    2.09       0.0  T
   2    -94.9219763 -0.354259E-07  0.123E-02    2.09       1.0  T
   3    -94.9219718  0.457164E-05  0.804E-03    2.09       1.4  T
   4    -94.9219767 -0.489314E-05  0.113E-03    2.09      10.3  T
   5    -94.9219767 -0.369649E-07  0.594E-04    2.09      19.6  T
   6    -94.9219767 -0.528672E-08  0.223E-04    2.09      52.1  T
   7    -94.9219767 -0.122068E-08  0.734E-05    2.09     158.4  T
     SCC iter.                  ...        0 min,  0.095 sec
     gradient                   ...        0 min,  0.072 sec
 * total energy  :   -93.6512400 Eh     change       -0.8560391E-05 Eh
   gradient norm :     0.0003606 Eh/α   predicted    -0.3573878E-05 ( -58.25%)
   displ. norm   :     0.0992744 α      lambda       -0.4641225E-05
   maximum displ.:     0.0703176 α      in ANC's #1, #2, #3, ...

........................................................................
.............................. CYCLE  137 ..............................
........................................................................

 iter      E             dE          RMSdq      gap      omega  full diag
   1    -94.9219611 -0.949220E+02  0.147E-02    2.09       0.0  T
   2    -94.9219610  0.416667E-07  0.871E-03    2.09       1.3  T
   3    -94.9219577  0.336812E-05  0.705E-03    2.09       1.6  T
   4    -94.9219613 -0.365017E-05  0.748E-04    2.09      15.5  T
   5    -94.9219613 -0.149104E-07  0.376E-04    2.09      30.9  T
   6    -94.9219613 -0.152559E-08  0.153E-04    2.09      75.8  T
     SCC iter.                  ...        0 min,  0.080 sec
     gradient                   ...        0 min,  0.075 sec
 * total energy  :   -93.6512458 Eh     change       -0.5867744E-05 Eh
   gradient norm :     0.0003126 Eh/α   predicted    -0.2332853E-05 ( -60.24%)
   displ. norm   :     0.0678788 α      lambda       -0.3813055E-05
   maximum displ.:     0.0499798 α      in ANC's #1, #9, #2, ...

........................................................................
.............................. CYCLE  138 ..............................
........................................................................

 iter      E             dE          RMSdq      gap      omega  full diag
   1    -94.9220277 -0.949220E+02  0.101E-02    2.09       0.0  T
   2    -94.9220277 -0.841496E-08  0.596E-03    2.09       2.0  T
   3    -94.9220269  0.797842E-06  0.331E-03    2.09       3.5  T
   4    -94.9220277 -0.844256E-06  0.484E-04    2.09      24.0  T
   5    -94.9220278 -0.787982E-08  0.219E-04    2.09      53.2  T
   6    -94.9220278 -0.833609E-09  0.851E-05    2.09     136.6  T
     SCC iter.                  ...        0 min,  0.085 sec
     gradient                   ...        0 min,  0.061 sec
 * total energy  :   -93.6512508 Eh     change       -0.5001107E-05 Eh
   gradient norm :     0.0002606 Eh/α   predicted    -0.1911914E-05 ( -61.77%)
   displ. norm   :     0.0627553 α      lambda       -0.3832462E-05
   maximum displ.:     0.0464428 α      in ANC's #1, #9, #2, ...

........................................................................
.............................. CYCLE  139 ..............................
........................................................................

 iter      E             dE          RMSdq      gap      omega  full diag
   1    -94.9219751 -0.949220E+02  0.986E-03    2.09       0.0  T
   2    -94.9219751  0.120391E-07  0.587E-03    2.09       2.0  T
   3    -94.9219739  0.117188E-05  0.413E-03    2.09       2.8  T
   4    -94.9219751 -0.125078E-05  0.411E-04    2.09      28.3  T
   5    -94.9219751 -0.502092E-08  0.187E-04    2.09      62.1  T
   6    -94.9219751 -0.313889E-09  0.766E-05    2.09     151.7  T
     SCC iter.                  ...        0 min,  0.081 sec
     gradient                   ...        0 min,  0.071 sec
 * total energy  :   -93.6512558 Eh     change       -0.4971030E-05 Eh
   gradient norm :     0.0002313 Eh/α   predicted    -0.1924354E-05 ( -61.29%)
   displ. norm   :     0.0645892 α      lambda       -0.3531440E-05
   maximum displ.:     0.0470980 α      in ANC's #1, #9, #2, ...

........................................................................
.............................. CYCLE  140 ..............................
........................................................................

 iter      E             dE          RMSdq      gap      omega  full diag
   1    -94.9219318 -0.949219E+02  0.101E-02    2.09       0.0  T
   2    -94.9219319 -0.243870E-07  0.591E-03    2.09       2.0  T
   3    -94.9219318  0.211060E-07  0.770E-04    2.09      15.1  T
   4    -94.9219319 -0.299467E-07  0.296E-04    2.09      39.2  T
   5    -94.9219319  0.354817E-09  0.197E-04    2.09      58.9  T
     SCC iter.                  ...        0 min,  0.070 sec
     gradient                   ...        0 min,  0.073 sec
 * total energy  :   -93.6512602 Eh     change       -0.4379680E-05 Eh
   gradient norm :     0.0002113 Eh/α   predicted    -0.1769915E-05 ( -59.59%)
   displ. norm   :     0.0604591 α      lambda       -0.2627386E-05
   maximum displ.:     0.0441862 α      in ANC's #1, #9, #2, ...

........................................................................
.............................. CYCLE  141 ..............................
........................................................................

 iter      E             dE          RMSdq      gap      omega  full diag
   1    -94.9218756 -0.949219E+02  0.920E-03    2.09       0.0  T
   2    -94.9218756 -0.177971E-07  0.540E-03    2.09       2.2  T
   3    -94.9218756  0.384243E-07  0.844E-04    2.09      13.8  T
   4    -94.9218756 -0.395090E-07  0.398E-04    2.09      29.2  T
   5    -94.9218756 -0.601794E-08  0.229E-04    2.09      50.8  T
     SCC iter.                  ...        0 min,  0.076 sec
     gradient                   ...        0 min,  0.061 sec
 * total energy  :   -93.6512635 Eh     change       -0.3276492E-05 Eh
   gradient norm :     0.0002316 Eh/α   predicted    -0.1317822E-05 ( -59.78%)
   displ. norm   :     0.0524172 α      lambda       -0.1992501E-05
   maximum displ.:     0.0386081 α      in ANC's #1, #9, #2, ...

........................................................................
.............................. CYCLE  142 ..............................
........................................................................

 iter      E             dE          RMSdq      gap      omega  full diag
   1    -94.9218164 -0.949218E+02  0.789E-03    2.09       0.0  T
   2    -94.9218164  0.137234E-07  0.469E-03    2.09       2.5  T
   3    -94.9218155  0.899087E-06  0.367E-03    2.09       3.2  T
   4    -94.9218165 -0.964384E-06  0.352E-04    2.09      33.0  T
   5    -94.9218165 -0.187775E-08  0.178E-04    2.09      65.4  T
   6    -94.9218165 -0.506802E-09  0.721E-05    2.09     161.1  T
     SCC iter.                  ...        0 min,  0.071 sec
     gradient                   ...        0 min,  0.066 sec
 * total energy  :   -93.6512660 Eh     change       -0.2538141E-05 Eh
   gradient norm :     0.0002020 Eh/α   predicted    -0.1000436E-05 ( -60.58%)
   displ. norm   :     0.0510733 α      lambda       -0.1820743E-05
   maximum displ.:     0.0381205 α      in ANC's #1, #9, #2, ...

........................................................................
.............................. CYCLE  143 ..............................
........................................................................

 iter      E             dE          RMSdq      gap      omega  full diag
   1    -94.9218164 -0.949218E+02  0.718E-03    2.09       0.0  T
   2    -94.9218164 -0.366262E-08  0.423E-03    2.09       2.7  T
   3    -94.9218161  0.307219E-06  0.207E-03    2.09       5.6  T
   4    -94.9218164 -0.325029E-06  0.271E-04    2.09      42.9  T
   5    -94.9218164 -0.128819E-08  0.140E-04    2.09      82.8  T
     SCC iter.                  ...        0 min,  0.061 sec
     gradient                   ...        0 min,  0.063 sec
 * total energy  :   -93.6512684 Eh     change       -0.2367376E-05 Eh
   gradient norm :     0.0001672 Eh/α   predicted    -0.9134394E-06 ( -61.42%)
   displ. norm   :     0.0526568 α      lambda       -0.1774835E-05
   maximum displ.:     0.0391653 α      in ANC's #1, #2, #3, ...

........................................................................
.............................. CYCLE  144 ..............................
........................................................................

 iter      E             dE          RMSdq      gap      omega  full diag
   1    -94.9217832 -0.949218E+02  0.700E-03    2.09       0.0  T
   2    -94.9217832 -0.350298E-09  0.414E-03    2.09       2.8  T
   3    -94.9217827  0.457790E-06  0.260E-03    2.09       4.5  T
   4    -94.9217832 -0.486334E-06  0.301E-04    2.09      38.7  T
   5    -94.9217832 -0.247728E-08  0.154E-04    2.09      75.4  T
     SCC iter.                  ...        0 min,  0.064 sec
     gradient                   ...        0 min,  0.076 sec
 * total energy  :   -93.6512707 Eh     change       -0.2305422E-05 Eh
   gradient norm :     0.0001334 Eh/α   predicted    -0.8899624E-06 ( -61.40%)
   displ. norm   :     0.0572559 α      lambda       -0.1742395E-05
   maximum displ.:     0.0422168 α      in ANC's #1, #3, #2, ...

........................................................................
.............................. CYCLE  145 ..............................
........................................................................

 iter      E             dE          RMSdq      gap      omega  full diag
   1    -94.9217876 -0.949218E+02  0.714E-03    2.09       0.0  T
   2    -94.9217876 -0.756424E-08  0.421E-03    2.09       2.8  T
   3    -94.9217873  0.308155E-06  0.217E-03    2.09       5.3  T
   4    -94.9217876 -0.325670E-06  0.333E-04    2.09      34.9  T
   5    -94.9217876 -0.525448E-08  0.166E-04    2.09      70.1  T
     SCC iter.                  ...        0 min,  0.059 sec
     gradient                   ...        0 min,  0.065 sec
 * total energy  :   -93.6512730 Eh     change       -0.2271864E-05 Eh
   gradient norm :     0.0001389 Eh/α   predicted    -0.8744109E-06 ( -61.51%)
   displ. norm   :     0.0598530 α      lambda       -0.1630564E-05
   maximum displ.:     0.0437001 α      in ANC's #1, #3, #4, ...

........................................................................
.............................. CYCLE  146 ..............................
........................................................................

 iter      E             dE          RMSdq      gap      omega  full diag
   1    -94.9217999 -0.949218E+02  0.717E-03    2.09       0.0  T
   2    -94.9217999 -0.181287E-07  0.420E-03    2.09       2.8  T
   3    -94.9217999  0.277954E-07  0.675E-04    2.09      17.2  T
   4    -94.9217999 -0.348569E-07  0.252E-04    2.09      46.2  T
   5    -94.9217999  0.396128E-09  0.196E-04    2.09      59.4  T
     SCC iter.                  ...        0 min,  0.065 sec
     gradient                   ...        0 min,  0.069 sec
 * total energy  :   -93.6512751 Eh     change       -0.2193553E-05 Eh
   gradient norm :     0.0001669 Eh/α   predicted    -0.8214164E-06 ( -62.55%)
   displ. norm   :     0.0586980 α      lambda       -0.1585752E-05
   maximum displ.:     0.0425499 α      in ANC's #1, #3, #4, ...

........................................................................
.............................. CYCLE  147 ..............................
........................................................................

 iter      E             dE          RMSdq      gap      omega  full diag
   1    -94.9217970 -0.949218E+02  0.679E-03    2.09       0.0  T
   2    -94.9217970 -0.156925E-07  0.398E-03    2.09       2.9  T
   3    -94.9217968  0.170752E-06  0.150E-03    2.09       7.7  T
   4    -94.9217970 -0.178619E-06  0.410E-04    2.09      28.3  T
   5    -94.9217970 -0.775246E-08  0.184E-04    2.09      63.2  T
     SCC iter.                  ...        0 min,  0.062 sec
     gradient                   ...        0 min,  0.070 sec
 * total energy  :   -93.6512773 Eh     change       -0.2176691E-05 Eh
   gradient norm :     0.0001828 Eh/α   predicted    -0.7969275E-06 ( -63.39%)
   displ. norm   :     0.0595754 α      lambda       -0.1670902E-05
   maximum displ.:     0.0430586 α      in ANC's #1, #3, #4, ...

........................................................................
.............................. CYCLE  148 ..............................
........................................................................

 iter      E             dE          RMSdq      gap      omega  full diag
   1    -94.9218059 -0.949218E+02  0.674E-03    2.09       0.0  T
   2    -94.9218059 -0.171635E-07  0.394E-03    2.09       3.0  T
   3    -94.9218058  0.150051E-06  0.139E-03    2.09       8.4  T
   4    -94.9218059 -0.155479E-06  0.446E-04    2.09      26.1  T
   5    -94.9218060 -0.938883E-08  0.191E-04    2.09      60.8  T
     SCC iter.                  ...        0 min,  0.061 sec
     gradient                   ...        0 min,  0.064 sec
 * total energy  :   -93.6512796 Eh     change       -0.2278832E-05 Eh
   gradient norm :     0.0001591 Eh/α   predicted    -0.8380920E-06 ( -63.22%)
   displ. norm   :     0.0631826 α      lambda       -0.1732716E-05
   maximum displ.:     0.0455750 α      in ANC's #1, #3, #4, ...

........................................................................
.............................. CYCLE  149 ..............................
........................................................................

 iter      E             dE          RMSdq      gap      omega  full diag
   1    -94.9218157 -0.949218E+02  0.698E-03    2.09       0.0  T
   2    -94.9218157  0.574403E-09  0.415E-03    2.09       2.8  T
   3    -94.9218150  0.731315E-06  0.318E-03    2.09       3.7  T
   4    -94.9218158 -0.787081E-06  0.368E-04    2.09      31.6  T
   5    -94.9218158 -0.437274E-08  0.194E-04    2.09      59.9  T
   6    -94.9218158 -0.500890E-09  0.743E-05    2.09     156.5  T
     SCC iter.                  ...        0 min,  0.076 sec
     gradient                   ...        0 min,  0.067 sec
 * total energy  :   -93.6512819 Eh     change       -0.2283734E-05 Eh
   gradient norm :     0.0001389 Eh/α   predicted    -0.8714577E-06 ( -61.84%)
   displ. norm   :     0.0659526 α      lambda       -0.1612268E-05
   maximum displ.:     0.0482328 α      in ANC's #1, #3, #4, ...

........................................................................
.............................. CYCLE  150 ..............................
........................................................................

 iter      E             dE          RMSdq      gap      omega  full diag
   1    -94.9217974 -0.949218E+02  0.733E-03    2.09       0.0  T
   2    -94.9217974 -0.938076E-08  0.434E-03    2.09       2.7  T
   3    -94.9217969  0.509956E-06  0.260E-03    2.09       4.5  T
   4    -94.9217974 -0.542293E-06  0.376E-04    2.09      30.9  T
   5    -94.9217974 -0.485990E-08  0.180E-04    2.09      64.4  T
   6    -94.9217974 -0.315723E-09  0.683E-05    2.09     170.1  T
     SCC iter.                  ...        0 min,  0.073 sec
     gradient                   ...        0 min,  0.073 sec
 * total energy  :   -93.6512840 Eh     change       -0.2067693E-05 Eh
   gradient norm :     0.0001221 Eh/α   predicted    -0.8094275E-06 ( -60.85%)
   displ. norm   :     0.0511113 α      lambda       -0.1090977E-05
   maximum displ.:     0.0382027 α      in ANC's #1, #3, #4, ...
 * RMSD in coord.:     0.2570781 α      energy gain  -0.1682123E-03 Eh

generating ANC from exact Hessian ...
Using Lindh-Hessian (1995)
 Shifting diagonal of input Hessian by    9.9279406746570521E-003
 Lowest  eigenvalues of input Hessian
    0.000000    0.000000    0.000000    0.000000    0.000000    0.000000
    0.010000    0.010144    0.010163    0.010261    0.010328    0.010365
    0.010512    0.010758    0.010895    0.010936    0.011015    0.011034
 Highest eigenvalues
    1.588308    1.621519    1.897460    2.000161    2.023018    2.491375


........................................................................
.............................. CYCLE  151 ..............................
........................................................................

 iter      E             dE          RMSdq      gap      omega  full diag
   1    -94.9217941 -0.949218E+02  0.547E-03    2.09       0.0  T
   2    -94.9217941 -0.553608E-08  0.322E-03    2.09       3.6  T
   3    -94.9217938  0.236360E-06  0.179E-03    2.09       6.5  T
   4    -94.9217941 -0.250753E-06  0.287E-04    2.09      40.6  T
   5    -94.9217941 -0.295232E-08  0.134E-04    2.09      86.9  T
     SCC iter.                  ...        0 min,  0.059 sec
     gradient                   ...        0 min,  0.076 sec
 * total energy  :   -93.6512854 Eh     change       -0.1435906E-05 Eh
   gradient norm :     0.0001108 Eh/α   predicted     0.0000000E+00 (-100.00%)
   displ. norm   :     0.0071764 α      lambda       -0.1674694E-07
   maximum displ.:     0.0052915 α      in ANC's #1, #12, #35, ...

........................................................................
.............................. CYCLE  152 ..............................
........................................................................

 iter      E             dE          RMSdq      gap      omega  full diag
   1    -94.9218141 -0.949218E+02  0.145E-03    2.09       0.0  T
   2    -94.9218141 -0.828038E-09  0.844E-04    2.09      13.8  T
   3    -94.9218141  0.595577E-09  0.164E-04    2.09      71.1  T
   4    -94.9218141 -0.627722E-09  0.659E-05    2.09     176.4  T
     SCC iter.                  ...        0 min,  0.047 sec
     gradient                   ...        0 min,  0.065 sec
 * total energy  :   -93.6512857 Eh     change       -0.3384299E-06 Eh
   gradient norm :     0.0001215 Eh/α   predicted    -0.1472330E-06 ( -56.50%)
   displ. norm   :     0.0266293 α      lambda       -0.9818939E-06
   maximum displ.:     0.0159659 α      in ANC's #1, #5, #12, ...

   *** GEOMETRY OPTIMIZATION CONVERGED AFTER 152 ITERATIONS ***

------------------------------------------------------------------------
 total energy gain   :        -1.0114627 Eh     -634.7024 kcal/mol
 total RMSD          :         2.0532843 a0        1.0866 Å
 total power (kW/mol):       -17.4710190 (step)  -84.2981 (real)
------------------------------------------------------------------------

 ANCopt (total)                0 d,  0 h,  0 min, 31.503 sec
 optimizer setup                ...        0 min,  0.001 sec (  0.004%)
 model hessian                  ...        0 min,  0.851 sec (  2.701%)
 ANC generation                 ...        0 min,  0.097 sec (  0.307%)
 coordinate transformation      ...        0 min,  0.028 sec (  0.088%)
 single point calculation       ...        0 min, 30.309 sec ( 96.210%)
 optimization log               ...        0 min,  0.104 sec (  0.329%)
 hessian update                 ...        0 min,  0.025 sec (  0.080%)
 rational function              ...        0 min,  0.057 sec (  0.180%)

================
 final structure:
================
74
 xtb: 6.7.1 (edcfbbe)
Co           0.00378483575783       -0.21008766286544       -0.38573764093098
N            0.15428405206126       -1.94485513717341        0.28594492664647
C            1.41650024888610       -2.63669684572492        0.50141950765159
C            2.56542847410680       -1.99534676647382       -0.27208352754882
P            2.18692681311450       -0.20015297946732       -0.36296823659896
C            3.32902153987428        0.43000734504412       -1.70526961180441
C            4.69134796444074       -0.26096169153082       -1.72061956745382
C            2.66135401602925        0.31030784669945       -3.07090837080454
C            2.99201779205709        0.60394496947939        1.12201260643688
C            2.74174470565598       -0.17996343561930        2.40525348754960
C            2.42021620344976        2.01574598446954        1.24156287308430
C           -0.85136882820467       -2.58229659241983        1.12276989974330
C           -2.25476023909757       -2.05853601966802        0.82181582310740
P           -2.06365706492598       -0.29804243304408        0.32539762382155
C           -2.50232013770904        0.65280114106356        1.87240496078595
C           -2.62655511557123        2.14378791081562        1.56849213842486
C           -1.40550052891712        0.41569448278155        2.90620407863456
C           -3.52718791887751        0.02658668288568       -0.78504100193219
C           -4.85520730755026       -0.48531942339064       -0.23377560498523
C           -3.23774409954077       -0.55832984035268       -2.16498320583207
H            1.66133572615670       -2.65724620110774        1.57890838342379
H            1.31633997322975       -3.69590999666436        0.19799228658081
H            3.53550816401915       -2.21359622950974        0.17837967669135
H            2.56180578439872       -2.35957864718672       -1.30400791942737
H            3.47301007008568        1.49537948364607       -1.48421475434821
H            5.35957926550390        0.26722934007895       -2.39962263825940
H            4.59857740444179       -1.28604818220123       -2.07314965171814
H            5.15363700780951       -0.27243211787845       -0.73574305924751
H            3.29009708836986        0.75465745788542       -3.84152264747412
H            2.49954109689610       -0.73504147014941       -3.32634348898267
H            1.70003534950138        0.82112012123505       -3.07571327346216
H            4.07195981157248        0.66568117150121        0.94007904502464
H            3.07813616260607        0.39510538130614        3.26764637672243
H            3.27801930956618       -1.12647003296383        2.40084171700078
H            1.67785008559709       -0.37934355080444        2.52199552744521
H            1.34070300050261        1.96411285420092        1.38758587337529
H            2.86368723537360        2.54204967060173        2.08566377439746
H            2.60599016266305        2.59650929508466        0.33930077231644
H           -0.61299358539581       -2.43745872763232        2.19375641489488
H           -0.83193431345617       -3.67537800039834        0.95760950794922
H           -2.92922168877377       -2.18465588114682        1.67157784846620
H           -2.65696714481502       -2.59391152691654       -0.04096740890653
H           -3.45464484752763        0.27134507258538        2.26082527285381
H           -3.50260486556789        2.35742324255472        0.96057294511135
H           -2.71482940206697        2.71042940737283        2.49473837858050
H           -1.74184484338481        2.49288412578349        1.03631997360972
H           -1.55318092695505        1.04986091300915        3.77955672992928
H           -1.39375117155622       -0.62060290530579        3.23643133143513
H           -0.43636842050309        0.65181298428100        2.46374583948346
H           -3.57721859788463        1.11734793339459       -0.89079828439647
H           -4.84275422555748       -1.56819501688407       -0.13235783215287
H           -5.08443795491458       -0.04551487167818        0.73410537074304
H           -5.65949431470007       -0.22199866949999       -0.91997762010512
H           -2.32426924920028       -0.12210675325623       -2.56852416745238
H           -3.10644981047001       -1.63756731686901       -2.11761968543978
H           -4.05607759877260       -0.34072202070433       -2.85024791191166
C           -0.19343999882395        1.29958874037689       -1.18719950536060
O           -0.34409426614621        2.32387361493844       -1.71929498649708
O           -0.92603521338359       -3.06606168494361       -2.05541356137125
C           -0.29987827280203       -2.37516931922806       -3.10018169977592
C            0.94045716588388       -3.05155818019115       -3.63694936376244
C            1.54331672274814       -2.56847699619188       -4.79423547464965
C            2.70057487036885       -3.15053698656406       -5.27867454008020
C            3.26950820697875       -4.22659523968391       -4.61524245646369
C            2.66634775166074       -4.72334081224087       -3.47301183485391
C            1.50763363336908       -4.13958002113816       -2.98880607799407
H           -0.53974983068376       -2.70303826503424       -1.21685209146473
H           -0.02414727940390       -1.35294284341716       -2.75769019320150
H           -1.02733514363069       -2.26638151670433       -3.91529125870299
H            1.09968845803610       -1.72980285070956       -5.31354627092418
H            3.16139817548086       -2.76431607572992       -6.17674074061157
H            4.17514967924750       -4.67913985193680       -4.99286153943812
H            3.09810906697006       -5.56885112902516       -2.95584823781588
H            1.02450948593230       -4.53502094283233       -2.10725165664173

 Bond Distances (Angstroems)
 ---------------------------
Co1-N2=1.8663        Co1-P5=2.1833        Co1-P14=2.1881       Co1-C57=1.7206       N2-Co1=1.8663        N2-C3=1.4554         
N2-C12=1.4553        C3-N2=1.4554         C3-C4=1.5263         C3-H21=1.1051        C3-H22=1.1064        C4-C3=1.5263         
C4-P5=1.8369         C4-H23=1.0916        C4-H24=1.0943        P5-Co1=2.1833        P5-C4=1.8369         P5-C6=1.8717         
P5-C9=1.8708         C6-P5=1.8717         C6-C7=1.5276         C6-C8=1.5248         C6-H25=1.0975        C7-C6=1.5276         
C7-H26=1.0893        C7-H27=1.0880        C7-H28=1.0880        C8-C6=1.5248         C8-H29=1.0893        C8-H30=1.0882        
C8-H31=1.0886        C9-P5=1.8708         C9-C10=1.5244        C9-C11=1.5279        C9-H32=1.0969        C10-C9=1.5244        
C10-H33=1.0898       C10-H34=1.0879       C10-H35=1.0887       C11-C9=1.5279        C11-H36=1.0906       C11-H37=1.0891       
C11-H38=1.0890       C12-N2=1.4553        C12-C13=1.5279       C12-H39=1.1067       C12-H40=1.1057       C13-C12=1.5279       
C13-P14=1.8391       C13-H41=1.0922       C13-H42=1.0922       P14-Co1=2.1881       P14-C13=1.8391       P14-C15=1.8681       
P14-C18=1.8656       C15-P14=1.8681       C15-C16=1.5267       C15-C17=1.5258       C15-H43=1.0970       C16-C15=1.5267       
C16-H44=1.0875       C16-H45=1.0894       C16-H46=1.0899       C17-C15=1.5258       C17-H47=1.0894       C17-H48=1.0877       
C17-H49=1.0912       C18-P14=1.8656       C18-C19=1.5263       C18-C20=1.5265       C18-H50=1.0970       C19-C18=1.5263       
C19-H51=1.0877       C19-H52=1.0876       C19-H53=1.0895       C20-C18=1.5265       C20-H54=1.0898       C20-H55=1.0882       
C20-H56=1.0893       H21-C3=1.1051        H22-C3=1.1064        H23-C4=1.0916        H24-C4=1.0943        H25-C6=1.0975        
H26-C7=1.0893        H27-C7=1.0880        H28-C7=1.0880        H29-C8=1.0893        H30-C8=1.0882        H31-C8=1.0886        
H32-C9=1.0969        H33-C10=1.0898       H34-C10=1.0879       H35-C10=1.0887       H36-C11=1.0906       H37-C11=1.0891       
H38-C11=1.0890       H39-C12=1.1067       H40-C12=1.1057       H41-C13=1.0922       H42-C13=1.0922       H43-C15=1.0970       
H44-C16=1.0875       H45-C16=1.0894       H46-C16=1.0899       H47-C17=1.0894       H48-C17=1.0877       H49-C17=1.0912       
H50-C18=1.0970       H51-C19=1.0877       H52-C19=1.0876       H53-C19=1.0895       H54-C20=1.0898       H55-C20=1.0882       
H56-C20=1.0893       C57-Co1=1.7206       C57-O58=1.1640       O58-C57=1.1640       O59-C60=1.4003       O59-H67=0.9921       
C60-O59=1.4003       C60-C61=1.5113       C60-H68=1.1128       C60-H69=1.0979       C61-C60=1.5113       C61-C62=1.3914       
C61-C66=1.3876       C62-C61=1.3914       C62-C63=1.3830       C62-H70=1.0816       C63-C62=1.3830       C63-C64=1.3863       
C63-H71=1.0808       C64-C63=1.3863       C64-C65=1.3839       C64-H72=1.0805       C65-C64=1.3839       C65-C66=1.3849       
C65-H73=1.0811       C66-C61=1.3876       C66-C65=1.3849       C66-H74=1.0802       H67-O59=0.9921       H68-C60=1.1128       
H69-C60=1.0979       H70-C62=1.0816       H71-C63=1.0808       H72-C64=1.0805       H73-C65=1.0811       H74-C66=1.0802       
 C  H  Rav=1.0914 sigma=0.0072  Rmin=1.0802  Rmax=1.1128    43
 C  C  Rav=1.4760 sigma=0.0665  Rmin=1.3830  Rmax=1.5279    17
 N  C  Rav=1.4554 sigma=0.0001  Rmin=1.4553  Rmax=1.4554     2
 O  H  Rav=0.9921 sigma=0.0000  Rmin=0.9921  Rmax=0.9921     1
 O  C  Rav=1.2822 sigma=0.1182  Rmin=1.1640  Rmax=1.4003     2
 P  C  Rav=1.8587 sigma=0.0148  Rmin=1.8369  Rmax=1.8717     6
 Co C  Rav=1.7206 sigma=0.0000  Rmin=1.7206  Rmax=1.7206     1
 Co N  Rav=1.8663 sigma=0.0000  Rmin=1.8663  Rmax=1.8663     1
 Co P  Rav=2.1857 sigma=0.0024  Rmin=2.1833  Rmax=2.1881     2

 selected bond angles (degree)
 --------------------
P5-Co1-N2= 85.40               P14-Co1-N2= 85.52              P14-Co1-P5=160.32              C57-Co1-N2=172.96              
C57-Co1-P5= 96.63              C57-Co1-P14= 94.49             C3-N2-Co1=124.41               C12-N2-Co1=123.94              
C12-N2-C3=107.82               C4-C3-N2=112.21                H21-C3-N2=110.20               H21-C3-C4=109.58               
H22-C3-N2=109.63               H22-C3-C4=109.36               H22-C3-H21=105.64              P5-C4-C3=106.30                
H23-C4-C3=112.07               H23-C4-P5=113.51               H24-C4-C3=109.60               H24-C4-P5=106.14               
H24-C4-H23=109.00              C4-P5-Co1=101.66               C6-P5-Co1=127.17               C6-P5-C4=103.81                
C9-P5-Co1=116.14               C9-P5-C4=106.98                C9-P5-C6= 99.32                C7-C6-P5=113.52                
C8-C6-P5=110.41                C8-C6-C7=110.24                H25-C6-P5=105.21               H25-C6-C7=108.91               
H25-C6-C8=108.30               H26-C7-C6=109.51               H27-C7-C6=110.69               H27-C7-H26=107.89              
H28-C7-C6=112.00               H28-C7-H26=107.98              H28-C7-H27=108.64              H29-C8-C6=110.42               
H30-C8-C6=110.53               H30-C8-H29=108.16              H31-C8-C6=110.72               H31-C8-H29=108.37              
H31-C8-H30=108.57              C10-C9-P5=112.12               C11-C9-P5=107.35               C11-C9-C10=110.36              
H32-C9-P5=108.43               H32-C9-C10=109.28              H32-C9-C11=109.23              H33-C10-C9=110.13              
H34-C10-C9=111.29              H34-C10-H33=108.07             H35-C10-C9=110.17              H35-C10-H33=108.27             
H35-C10-H34=108.83             

 selected dihedral angles (degree)
 ---------------------------------
C3-N2-Co1-P5=357.01           C3-N2-Co1-P14=194.49          C3-N2-Co1-C57=104.12          C12-N2-Co1-P5=152.24          
C12-N2-Co1-P14=349.71         C12-N2-Co1-C57=259.34         C4-C3-N2-Co1=341.86           C4-C3-N2-C12=183.28           
H21-C3-N2-Co1=104.27          H21-C3-N2-C12=305.70          H22-C3-N2-Co1=220.14          H22-C3-N2-C12= 61.56          
P5-C4-C3-N2= 31.62            P5-C4-C3-H21=268.86           P5-C4-C3-H22=153.50           H23-C4-C3-N2=156.17           
H23-C4-C3-H21= 33.40          H23-C4-C3-H22=278.04          H24-C4-C3-N2=277.32           H24-C4-C3-H21=154.56          
H24-C4-C3-H22= 39.20          C4-P5-Co1-N2= 18.34           C4-P5-Co1-P14= 81.11          C4-P5-Co1-C57=205.12          
C6-P5-Co1-N2=135.89           C6-P5-Co1-P14=198.65          C6-P5-Co1-C57=322.66          C9-P5-Co1-N2=262.65           
C9-P5-Co1-P14=325.42          C9-P5-Co1-C57= 89.43          Co1-P5-C4-C3=329.03           Co1-P5-C4-H23=205.38          
Co1-P5-C4-H24= 85.68          C6-P5-C4-C3=195.71            C6-P5-C4-H23= 72.06           C6-P5-C4-H24=312.36           
C9-P5-C4-C3= 91.27            C9-P5-C4-H23=327.61           C9-P5-C4-H24=207.92           C7-C6-P5-Co1=207.44           
C7-C6-P5-C4=324.03            C7-C6-P5-C9= 74.22            C8-C6-P5-Co1=331.81           C8-C6-P5-C4= 88.40            
C8-C6-P5-C9=198.59            H25-C6-P5-Co1= 88.45          H25-C6-P5-C4=205.04           H25-C6-P5-C9=315.23           
H26-C7-C6-P5=189.93           H26-C7-C6-C8= 65.47           H26-C7-C6-H25=306.78          H27-C7-C6-P5= 71.10           
H27-C7-C6-C8=306.64           H27-C7-C6-H25=187.94          H28-C7-C6-P5=309.69           H28-C7-C6-C8=185.23           
H28-C7-C6-H25= 66.54          H29-C8-C6-P5=175.16           H29-C8-C6-C7=301.39           H29-C8-C6-H25= 60.46          
H30-C8-C6-P5=294.80           H30-C8-C6-C7= 61.03           H30-C8-C6-H25=180.09          H31-C8-C6-P5= 55.14           
H31-C8-C6-C7=181.37           H31-C8-C6-H25=300.43          C10-C9-P5-Co1= 67.10          C10-C9-P5-C4=314.44           
C10-C9-P5-C6=206.79           C11-C9-P5-Co1=305.75          C11-C9-P5-C4=193.08           C11-C9-P5-C6= 85.44           
H32-C9-P5-Co1=187.84          H32-C9-P5-C4= 75.18           H32-C9-P5-C6=327.54           H33-C10-C9-P5=189.36          
H33-C10-C9-C11=308.98         H33-C10-C9-H32= 69.11         H34-C10-C9-P5= 69.54          H34-C10-C9-C11=189.15         
H34-C10-C9-H32=309.29         H35-C10-C9-P5=308.72          H35-C10-C9-C11= 68.34         H35-C10-C9-H32=188.47         
           -------------------------------------------------
          |                Final Singlepoint                |
           -------------------------------------------------

          ...................................................
          :                      SETUP                      :
          :.................................................:
          :  # basis functions                 182          :
          :  # atomic orbitals                 179          :
          :  # shells                          107          :
          :  # electrons                       176          :
          :  max. iterations                   500          :
          :  Hamiltonian                  GFN2-xTB          :
          :  restarted?                      false          :
          :  GBSA solvation                   true          :
          :  PC potential                    false          :
          :  electronic temp.          300.0000000     K    :
          :  accuracy                    0.5000000          :
          :  -> integral cutoff          0.2801030E+02      :
          :  -> integral neglect         0.5000000E-08      :
          :  -> SCF convergence          0.5000000E-06 Eh   :
          :  -> wf. convergence          0.5000000E-04 e    :
          :  Broyden damping             0.4000000          :
          :  net charge                          0          :
          :  unpaired electrons                  0          :
          ...................................................

 iter      E             dE          RMSdq      gap      omega  full diag
   1    -94.9218141 -0.949218E+02  0.507E-05    2.09       0.0  T
   2    -94.9218141  0.157542E-09  0.639E-05    2.09     181.8  T
   3    -94.9218141 -0.313506E-09  0.129E-05    2.09     902.2  T

   *** convergence criteria satisfied after 3 iterations ***

         #    Occupation            Energy/Eh            Energy/eV
      -------------------------------------------------------------
         1        2.0000           -0.7182190             -19.5437
       ...           ...                  ...                  ...
        82        2.0000           -0.3808988             -10.3648
        83        2.0000           -0.3790757             -10.3152
        84        2.0000           -0.3319059              -9.0316
        85        2.0000           -0.3245120              -8.8304
        86        2.0000           -0.3176285              -8.6431
        87        2.0000           -0.3124777              -8.5029
        88        2.0000           -0.3058492              -8.3226 (HOMO)
        89                         -0.2291250              -6.2348 (LUMO)
        90                         -0.2177802              -5.9261
        91                         -0.2143915              -5.8339
        92                         -0.2086630              -5.6780
        93                         -0.2010849              -5.4718
       ...                                ...                  ...
       179                          2.9353854              79.8759
      -------------------------------------------------------------
                  HL-Gap            0.0767242 Eh            2.0878 eV
             Fermi-level           -0.2674871 Eh           -7.2787 eV

 SCC (total)                   0 d,  0 h,  0 min,  0.120 sec
 SCC setup                      ...        0 min,  0.003 sec (  2.795%)
 Dispersion                     ...        0 min,  0.002 sec (  1.306%)
 classical contributions        ...        0 min,  0.000 sec (  0.388%)
 integral evaluation            ...        0 min,  0.016 sec ( 12.989%)
 iterations                     ...        0 min,  0.035 sec ( 29.006%)
 molecular gradient             ...        0 min,  0.064 sec ( 52.924%)
 printout                       ...        0 min,  0.001 sec (  0.570%)

         :::::::::::::::::::::::::::::::::::::::::::::::::::::
         ::                     SUMMARY                     ::
         :::::::::::::::::::::::::::::::::::::::::::::::::::::
         :: total energy             -93.651285730735 Eh    ::
         :: total w/o Gsasa/hb       -93.615548716549 Eh    ::
         :: gradient norm              0.000122213632 Eh/a0 ::
         :: HOMO-LUMO gap              2.087771151457 eV    ::
         ::.................................................::
         :: SCC energy               -94.916972528329 Eh    ::
         :: -> isotropic ES            0.073790434779 Eh    ::
         :: -> anisotropic ES          0.015404731089 Eh    ::
         :: -> anisotropic XC          0.046870830898 Eh    ::
         :: -> dispersion             -0.096680693660 Eh    ::
         :: -> Gsolv                  -0.038745381404 Eh    ::
         ::    -> Gelec               -0.003008367218 Eh    ::
         ::    -> Gsasa               -0.037945157325 Eh    ::
         ::    -> Ghb                  0.000000000000 Eh    ::
         ::    -> Gshift               0.002208143139 Eh    ::
         :: repulsion energy           1.265686797595 Eh    ::
         :: add. restraining           0.000000000000 Eh    ::
         :: total charge              -0.000000000000 e     ::
         :::::::::::::::::::::::::::::::::::::::::::::::::::::

           -------------------------------------------------
          |                Property Printout                |
           -------------------------------------------------

    * Orbital Energies and Occupations

         #    Occupation            Energy/Eh            Energy/eV
      -------------------------------------------------------------
         1        2.0000           -0.7182190             -19.5437
       ...           ...                  ...                  ...
        76        2.0000           -0.4072441             -11.0817
        77        2.0000           -0.4052149             -11.0265
        78        2.0000           -0.3986598             -10.8481
        79        2.0000           -0.3974534             -10.8153
        80        2.0000           -0.3880580             -10.5596
        81        2.0000           -0.3864263             -10.5152
        82        2.0000           -0.3808988             -10.3648
        83        2.0000           -0.3790757             -10.3152
        84        2.0000           -0.3319059              -9.0316
        85        2.0000           -0.3245120              -8.8304
        86        2.0000           -0.3176285              -8.6431
        87        2.0000           -0.3124777              -8.5029
        88        2.0000           -0.3058492              -8.3226 (HOMO)
        89                         -0.2291250              -6.2348 (LUMO)
        90                         -0.2177802              -5.9261
        91                         -0.2143915              -5.8339
        92                         -0.2086630              -5.6780
        93                         -0.2010849              -5.4718
        94                         -0.1568914              -4.2692
        95                         -0.1355317              -3.6880
        96                         -0.1317128              -3.5841
        97                         -0.1285413              -3.4978
        98                         -0.0879155              -2.3923
        99                         -0.0428630              -1.1664
       ...                                ...                  ...
       179                          2.9353854              79.8759
      -------------------------------------------------------------
                  HL-Gap            0.0767242 Eh            2.0878 eV
             Fermi-level           -0.2674871 Eh           -7.2787 eV

     #   Z          covCN         q      C6AA      α(0)
     1  27 Co       3.539    -0.310   147.656    24.896
     2   7 N        2.726    -0.254    26.603     7.660
     3   6 C        3.908     0.039    19.856     6.334
     4   6 C        3.751    -0.059    21.692     6.642
     5  15 P        4.218     0.067   157.264    22.527
     6   6 C        3.797    -0.018    20.907     6.511
     7   6 C        3.799    -0.106    22.516     6.756
     8   6 C        3.826    -0.104    22.458     6.743
     9   6 C        3.798    -0.012    20.795     6.493
    10   6 C        3.811    -0.099    22.385     6.735
    11   6 C        3.859    -0.102    22.409     6.732
    12   6 C        3.900     0.038    19.886     6.339
    13   6 C        3.751    -0.066    21.824     6.662
    14  15 P        4.241     0.076   156.888    22.500
    15   6 C        3.798    -0.014    20.824     6.498
    16   6 C        3.825    -0.104    22.473     6.746
    17   6 C        3.851    -0.099    22.355     6.725
    18   6 C        3.798    -0.017    20.876     6.506
    19   6 C        3.797    -0.107    22.537     6.760
    20   6 C        3.844    -0.105    22.475     6.744
    21   1 H        0.922     0.000     3.050     2.731
    22   1 H        0.922    -0.002     3.092     2.750
    23   1 H        0.925     0.047     2.352     2.398
    24   1 H        0.927     0.060     2.202     2.320
    25   1 H        0.926     0.047     2.362     2.403
    26   1 H        0.925     0.044     2.402     2.423
    27   1 H        0.925     0.044     2.392     2.419
    28   1 H        0.925     0.042     2.418     2.432
    29   1 H        0.925     0.039     2.457     2.451
    30   1 H        0.925     0.045     2.386     2.416
    31   1 H        0.925     0.045     2.385     2.415
    32   1 H        0.925     0.046     2.367     2.406
    33   1 H        0.925     0.039     2.462     2.454
    34   1 H        0.925     0.037     2.486     2.466
    35   1 H        0.925     0.056     2.243     2.342
    36   1 H        0.924     0.058     2.224     2.332
    37   1 H        0.925     0.042     2.426     2.436
    38   1 H        0.925     0.039     2.462     2.454
    39   1 H        0.922    -0.003     3.109     2.757
    40   1 H        0.922     0.000     3.057     2.734
    41   1 H        0.925     0.048     2.351     2.398
    42   1 H        0.927     0.068     2.107     2.270
    43   1 H        0.925     0.047     2.360     2.402
    44   1 H        0.925     0.039     2.467     2.456
    45   1 H        0.925     0.043     2.408     2.426
    46   1 H        0.925     0.050     2.320     2.382
    47   1 H        0.925     0.039     2.464     2.455
    48   1 H        0.925     0.041     2.435     2.440
    49   1 H        0.924     0.062     2.178     2.308
    50   1 H        0.926     0.048     2.340     2.392
    51   1 H        0.925     0.046     2.371     2.408
    52   1 H        0.925     0.042     2.428     2.437
    53   1 H        0.925     0.043     2.408     2.427
    54   1 H        0.925     0.050     2.324     2.384
    55   1 H        0.925     0.057     2.238     2.339
    56   1 H        0.925     0.037     2.483     2.464
    57   6 C        1.793     0.152    27.520     8.479
    58   8 O        0.856    -0.264    19.146     5.866
    59   8 O        1.652    -0.492    22.713     6.433
    60   6 C        3.678     0.088    19.338     6.300
    61   6 C        2.967     0.003    27.955     8.672
    62   6 C        2.924    -0.043    29.057     8.840
    63   6 C        2.919    -0.031    28.774     8.796
    64   6 C        2.920    -0.036    28.887     8.814
    65   6 C        2.919    -0.034    28.836     8.806
    66   6 C        2.924    -0.032    28.789     8.799
    67   1 H        0.801     0.333     0.631     1.248
    68   1 H        0.921     0.051     2.305     2.374
    69   1 H        0.923     0.030     2.592     2.518
    70   1 H        0.925     0.025     2.662     2.551
    71   1 H        0.926     0.028     2.618     2.530
    72   1 H        0.926     0.026     2.642     2.542
    73   1 H        0.926     0.026     2.650     2.546
    74   1 H        0.926     0.041     2.441     2.443

 Mol. C6AA /au·bohr⁶  :      55208.689512
 Mol. C8AA /au·bohr⁸  :    1492058.840428
 Mol. α(0) /au        :        369.994794


Wiberg/Mayer (AO) data.
largest (>0.10) Wiberg bond orders for each atom

 ---------------------------------------------------------------------------
     #   Z sym  total        # sym  WBO       # sym  WBO       # sym  WBO
 ---------------------------------------------------------------------------
     1  27 Co   4.441 --    57 C    1.347     2 N    0.797     5 P    0.784
                            14 P    0.779    58 O    0.290
     2   7 N    3.248 --    12 C    1.013     3 C    1.012     1 Co   0.797
     3   6 C    3.994 --     2 N    1.012     4 C    0.992    21 H    0.961
                            22 H    0.958
     4   6 C    3.996 --     5 P    1.013     3 C    0.992    23 H    0.946
                            24 H    0.937
     5  15 P    4.228 --     4 C    1.013     6 C    0.965     9 C    0.965
                             1 Co   0.784
     6   6 C    3.989 --     8 C    1.004     7 C    0.999     5 P    0.965
                            25 H    0.940
     7   6 C    3.995 --     6 C    0.999    27 H    0.982    26 H    0.981
                            28 H    0.976
     8   6 C    3.995 --     6 C    1.004    29 H    0.983    31 H    0.973
                            30 H    0.973
     9   6 C    3.994 --    10 C    1.003    11 C    0.999     5 P    0.965
                            32 H    0.937
    10   6 C    3.995 --     9 C    1.003    33 H    0.982    34 H    0.981
                            35 H    0.971
    11   6 C    3.995 --     9 C    0.999    37 H    0.982    38 H    0.976
                            36 H    0.966
    12   6 C    3.994 --     2 N    1.013    13 C    0.991    40 H    0.961
                            39 H    0.959
    13   6 C    3.996 --    14 P    1.010    12 C    0.991    41 H    0.947
                            42 H    0.940
    14  15 P    4.226 --    13 C    1.010    18 C    0.969    15 C    0.965
                             1 Co   0.779
    15   6 C    3.994 --    16 C    1.002    17 C    1.000    14 P    0.965
                            43 H    0.937
    16   6 C    3.995 --    15 C    1.002    45 H    0.981    44 H    0.980
                            46 H    0.976
    17   6 C    3.994 --    15 C    1.000    47 H    0.982    48 H    0.977
                            49 H    0.959
    18   6 C    3.990 --    20 C    1.000    19 C    0.998    14 P    0.969
                            50 H    0.939
    19   6 C    3.995 --    18 C    0.998    51 H    0.981    53 H    0.981
                            52 H    0.979
    20   6 C    3.994 --    18 C    1.000    56 H    0.982    55 H    0.975
                            54 H    0.969
    21   1 H    0.998 --     3 C    0.961
    22   1 H    0.997 --     3 C    0.958
    23   1 H    0.997 --     4 C    0.946
    24   1 H    0.996 --     4 C    0.937
    25   1 H    0.998 --     6 C    0.940
    26   1 H    0.996 --     7 C    0.981
    27   1 H    0.998 --     7 C    0.982
    28   1 H    0.998 --     7 C    0.976
    29   1 H    0.998 --     8 C    0.983
    30   1 H    0.998 --     8 C    0.973
    31   1 H    0.998 --     8 C    0.973
    32   1 H    0.997 --     9 C    0.937
    33   1 H    0.998 --    10 C    0.982
    34   1 H    0.999 --    10 C    0.981
    35   1 H    0.997 --    10 C    0.971
    36   1 H    0.997 --    11 C    0.966
    37   1 H    0.998 --    11 C    0.982
    38   1 H    0.998 --    11 C    0.976
    39   1 H    0.998 --    12 C    0.959
    40   1 H    0.997 --    12 C    0.961
    41   1 H    0.997 --    13 C    0.947
    42   1 H    0.995 --    13 C    0.940
    43   1 H    0.997 --    15 C    0.937
    44   1 H    0.998 --    16 C    0.980
    45   1 H    0.998 --    16 C    0.981
    46   1 H    0.997 --    16 C    0.976
    47   1 H    0.998 --    17 C    0.982
    48   1 H    0.998 --    17 C    0.977
    49   1 H    0.996 --    17 C    0.959
    50   1 H    0.998 --    18 C    0.939
    51   1 H    0.998 --    19 C    0.981
    52   1 H    0.998 --    19 C    0.979
    53   1 H    0.996 --    19 C    0.981
    54   1 H    0.997 --    20 C    0.969
    55   1 H    0.997 --    20 C    0.975
    56   1 H    0.998 --    20 C    0.982
    57   6 C    3.602 --    58 O    2.056     1 Co   1.347
    58   8 O    2.406 --    57 C    2.056     1 Co   0.290
    59   8 O    1.931 --    60 C    1.016    67 H    0.793
    60   6 C    3.967 --    59 O    1.016    61 C    0.996    69 H    0.960
                            68 H    0.907
    61   6 C    3.988 --    66 C    1.418    62 C    1.399    60 C    0.996
                            64 C    0.109
    62   6 C    3.992 --    63 C    1.453    61 C    1.399    70 H    0.970
                            65 C    0.112
    63   6 C    3.993 --    62 C    1.453    64 C    1.430    71 H    0.971
                            66 C    0.109
    64   6 C    3.992 --    65 C    1.445    63 C    1.430    72 H    0.972
                            61 C    0.109
    65   6 C    3.992 --    64 C    1.445    66 C    1.436    73 H    0.971
                            62 C    0.112
    66   6 C    3.992 --    65 C    1.436    61 C    1.418    74 H    0.965
                            63 C    0.109
    67   1 H    0.889 --    59 O    0.793
    68   1 H    0.997 --    60 C    0.907
    69   1 H    0.999 --    60 C    0.960
    70   1 H    0.999 --    62 C    0.970
    71   1 H    0.999 --    63 C    0.971
    72   1 H    0.999 --    64 C    0.972
    73   1 H    0.999 --    65 C    0.971
    74   1 H    0.998 --    66 C    0.965
 ---------------------------------------------------------------------------

Topologies differ in total number of bonds
Writing topology from bond orders to xtbtopo.mol

molecular dipole:
                 x           y           z       tot (Debye)
 q only:        0.363       0.409       1.267
   full:        0.548       0.152       1.495       4.067
molecular quadrupole (traceless):
                xx          xy          yy          xz          yz          zz
 q only:       21.556      -1.298     -18.497      -5.374      -1.098      -3.058
  q+dip:       22.125      -4.489     -18.325      -7.461      -4.934      -3.800
   full:       22.393      -3.286     -19.152      -6.688      -3.853      -3.241

           -------------------------------------------------
          |                Geometry Summary                 |
           -------------------------------------------------

      molecular mass/u    :      499.4932859
   center of mass at/Å    :        0.3303266      -0.8533385      -0.8144464
  moments of inertia/u·Å² :        0.2748407E+04   0.4455750E+04   0.5519288E+04
rotational constants/cm⁻¹ :        0.6133600E-02   0.3783343E-02   0.3054313E-02

 * 74 selected distances

     #   Z          #   Z                                           value/Å
     1  27 Co       2   7 N                                       1.8663404
     2   7 N        3   6 C                                       1.4554258
     3   6 C        4   6 C                                       1.5263268
     1  27 Co       5  15 P                                       2.1832835
     4   6 C        5  15 P                                       1.8369118
     5  15 P        6   6 C                                       1.8716987
     6   6 C        7   6 C                                       1.5276150
     6   6 C        8   6 C                                       1.5248205
     5  15 P        9   6 C                                       1.8708056
     9   6 C       10   6 C                                       1.5244201
     9   6 C       11   6 C                                       1.5278848
     2   7 N       12   6 C                                       1.4553164
    12   6 C       13   6 C                                       1.5278764
     1  27 Co      14  15 P                                       2.1880965 (max)
    13   6 C       14  15 P                                       1.8391003
    14  15 P       15   6 C                                       1.8680902
    15   6 C       16   6 C                                       1.5267087
    15   6 C       17   6 C                                       1.5257699
    14  15 P       18   6 C                                       1.8655780
    18   6 C       19   6 C                                       1.5262953
    18   6 C       20   6 C                                       1.5264816
     3   6 C       21   1 H                                       1.1051467
     3   6 C       22   1 H                                       1.1063602
     4   6 C       23   1 H                                       1.0916065
     4   6 C       24   1 H                                       1.0943245
     6   6 C       25   1 H                                       1.0975500
     7   6 C       26   1 H                                       1.0892953
     7   6 C       27   1 H                                       1.0879735
     7   6 C       28   1 H                                       1.0880371
     8   6 C       29   1 H                                       1.0893168
     8   6 C       30   1 H                                       1.0882031
     8   6 C       31   1 H                                       1.0886166
     9   6 C       32   1 H                                       1.0968984
    10   6 C       33   1 H                                       1.0897638
    10   6 C       34   1 H                                       1.0878809
    10   6 C       35   1 H                                       1.0886933
    11   6 C       36   1 H                                       1.0905676
    11   6 C       37   1 H                                       1.0891137
    11   6 C       38   1 H                                       1.0889789
    12   6 C       39   1 H                                       1.1067127
    12   6 C       40   1 H                                       1.1056595
    13   6 C       41   1 H                                       1.0921997
    13   6 C       42   1 H                                       1.0921504
    15   6 C       43   1 H                                       1.0969511
    16   6 C       44   1 H                                       1.0875059
    16   6 C       45   1 H                                       1.0894068
    16   6 C       46   1 H                                       1.0898568
    17   6 C       47   1 H                                       1.0893675
    17   6 C       48   1 H                                       1.0877043
    17   6 C       49   1 H                                       1.0912097
    18   6 C       50   1 H                                       1.0970178
    19   6 C       51   1 H                                       1.0876858
    19   6 C       52   1 H                                       1.0875516
    19   6 C       53   1 H                                       1.0895361
    20   6 C       54   1 H                                       1.0897580
    20   6 C       55   1 H                                       1.0882257
    20   6 C       56   1 H                                       1.0893167
     1  27 Co      57   6 C                                       1.7205703
    57   6 C       58   8 O                                       1.1640370
    59   8 O       60   6 C                                       1.4003377
    61   6 C       62   6 C                                       1.3914448
    62   6 C       63   6 C                                       1.3830119
    63   6 C       64   6 C                                       1.3862644
    64   6 C       65   6 C                                       1.3839255
    61   6 C       66   6 C                                       1.3876494
    65   6 C       66   6 C                                       1.3848648
    59   8 O       67   1 H                                       0.9920625 (min)
    60   6 C       68   1 H                                       1.1127781
    60   6 C       69   1 H                                       1.0979217
    62   6 C       70   1 H                                       1.0816026
    63   6 C       71   1 H                                       1.0807626
    64   6 C       72   1 H                                       1.0805459
    65   6 C       73   1 H                                       1.0810939
    66   6 C       74   1 H                                       1.0802411

 * 9 distinct bonds (by element types)

   Z      Z             #   av. dist./Å        max./Å        min./Å
   1 H    6 C          43     1.0914207     1.1127781     1.0802411
   6 C    6 C          16     1.4738350     1.5278848     1.3830119
   6 C    7 N           2     1.4553711     1.4554258     1.4553164
   1 H    8 O           1     0.9920625     0.9920625     0.9920625
   6 C    8 O           2     1.2821873     1.4003377     1.1640370
   6 C   15 P           6     1.8586974     1.8716987     1.8369118
   6 C   27 Co          1     1.7205703     1.7205703     1.7205703
   7 N   27 Co          1     1.8663404     1.8663404     1.8663404
  15 P   27 Co          2     2.1856900     2.1880965     2.1832835


optimized geometry written to: xtbopt.xyz


           -------------------------------------------------
          | TOTAL ENERGY              -93.651285730735 Eh   |
          | GRADIENT NORM               0.000122213632 Eh/α |
          | HOMO-LUMO GAP               2.087771151457 eV   |
           -------------------------------------------------

------------------------------------------------------------------------
 * finished run on 2026/09/13 at 01:39:40.611     
------------------------------------------------------------------------
 total:
 * wall-time:     0 d,  0 h,  0 min, 32.141 sec
 *  cpu-time:     0 d,  0 h,  0 min,  6.547 sec
 * ratio c/w:     0.204 speedup
 SCF:
 * wall-time:     0 d,  0 h,  0 min,  0.390 sec
 *  cpu-time:     0 d,  0 h,  0 min,  0.062 sec
 * ratio c/w:     0.160 speedup
 ANC optimizer:
 * wall-time:     0 d,  0 h,  0 min, 31.630 sec
 *  cpu-time:     0 d,  0 h,  0 min,  6.469 sec
 * ratio c/w:     0.205 speedup


normal termination of xtb
Note: The following floating-point exceptions are signalling: IEEE_DIVIDE_BY_ZERO IEEE_UNDERFLOW_FLAG IEEE_DENORMAL
