74
 energy: -93.651285730735 gnorm: 0.000122213632 xtb: 6.7.1 (edcfbbe)
Co           0.00378483575783       -0.21008766286544       -0.38573764093098
N            0.15428405206126       -1.94485513717341        0.28594492664647
C            1.41650024888610       -2.63669684572492        0.50141950765159
C            2.56542847410680       -1.99534676647382       -0.27208352754882
P            2.18692681311450       -0.20015297946732       -0.36296823659896
C            3.32902153987428        0.43000734504412       -1.70526961180441
C            4.69134796444074       -0.26096169153082       -1.72061956745382
C            2.66135401602925        0.31030784669945       -3.07090837080454
C            2.99201779205709        0.60394496947939        1.12201260643688
C            2.74174470565598       -0.17996343561930        2.40525348754960
C            2.42021620344976        2.01574598446954        1.24156287308430
C           -0.85136882820467       -2.58229659241983        1.12276989974330
C           -2.25476023909757       -2.05853601966802        0.82181582310740
P           -2.06365706492598       -0.29804243304408        0.32539762382155
C           -2.50232013770904        0.65280114106356        1.87240496078595
C           -2.62655511557123        2.14378791081562        1.56849213842486
C           -1.40550052891712        0.41569448278155        2.90620407863456
C           -3.52718791887751        0.02658668288568       -0.78504100193219
C           -4.85520730755026       -0.48531942339064       -0.23377560498523
C           -3.23774409954077       -0.55832984035268       -2.16498320583207
H            1.66133572615670       -2.65724620110774        1.57890838342379
H            1.31633997322975       -3.69590999666436        0.19799228658081
H            3.53550816401915       -2.21359622950974        0.17837967669135
H            2.56180578439872       -2.35957864718672       -1.30400791942737
H            3.47301007008568        1.49537948364607       -1.48421475434821
H            5.35957926550390        0.26722934007895       -2.39962263825940
H            4.59857740444179       -1.28604818220123       -2.07314965171814
H            5.15363700780951       -0.27243211787845       -0.73574305924751
H            3.29009708836986        0.75465745788542       -3.84152264747412
H            2.49954109689610       -0.73504147014941       -3.32634348898267
H            1.70003534950138        0.82112012123505       -3.07571327346216
H            4.07195981157248        0.66568117150121        0.94007904502464
H            3.07813616260607        0.39510538130614        3.26764637672243
H            3.27801930956618       -1.12647003296383        2.40084171700078
H            1.67785008559709       -0.37934355080444        2.52199552744521
H            1.34070300050261        1.96411285420092        1.38758587337529
H            2.86368723537360        2.54204967060173        2.08566377439746
H            2.60599016266305        2.59650929508466        0.33930077231644
H           -0.61299358539581       -2.43745872763232        2.19375641489488
H           -0.83193431345617       -3.67537800039834        0.95760950794922
H           -2.92922168877377       -2.18465588114682        1.67157784846620
H           -2.65696714481502       -2.59391152691654       -0.04096740890653
H           -3.45464484752763        0.27134507258538        2.26082527285381
H           -3.50260486556789        2.35742324255472        0.96057294511135
H           -2.71482940206697        2.71042940737283        2.49473837858050
H           -1.74184484338481        2.49288412578349        1.03631997360972
H           -1.55318092695505        1.04986091300915        3.77955672992928
H           -1.39375117155622       -0.62060290530579        3.23643133143513
H           -0.43636842050309        0.65181298428100        2.46374583948346
H           -3.57721859788463        1.11734793339459       -0.89079828439647
H           -4.84275422555748       -1.56819501688407       -0.13235783215287
H           -5.08443795491458       -0.04551487167818        0.73410537074304
H           -5.65949431470007       -0.22199866949999       -0.91997762010512
H           -2.32426924920028       -0.12210675325623       -2.56852416745238
H           -3.10644981047001       -1.63756731686901       -2.11761968543978
H           -4.05607759877260       -0.34072202070433       -2.85024791191166
C           -0.19343999882395        1.29958874037689       -1.18719950536060
O           -0.34409426614621        2.32387361493844       -1.71929498649708
O           -0.92603521338359       -3.06606168494361       -2.05541356137125
C           -0.29987827280203       -2.37516931922806       -3.10018169977592
C            0.94045716588388       -3.05155818019115       -3.63694936376244
C            1.54331672274814       -2.56847699619188       -4.79423547464965
C            2.70057487036885       -3.15053698656406       -5.27867454008020
C            3.26950820697875       -4.22659523968391       -4.61524245646369
C            2.66634775166074       -4.72334081224087       -3.47301183485391
C            1.50763363336908       -4.13958002113816       -2.98880607799407
H           -0.53974983068376       -2.70303826503424       -1.21685209146473
H           -0.02414727940390       -1.35294284341716       -2.75769019320150
H           -1.02733514363069       -2.26638151670433       -3.91529125870299
H            1.09968845803610       -1.72980285070956       -5.31354627092418
H            3.16139817548086       -2.76431607572992       -6.17674074061157
H            4.17514967924750       -4.67913985193680       -4.99286153943812
H            3.09810906697006       -5.56885112902516       -2.95584823781588
H            1.02450948593230       -4.53502094283233       -2.10725165664173
