      -----------------------------------------------------------      
     |                   =====================                   |     
     |                           x T B                           |     
     |                   =====================                   |     
     |                         S. Grimme                         |     
     |          Mulliken Center for Theoretical Chemistry        |     
     |                    University of Bonn                     |     
      -----------------------------------------------------------      

   * xtb version 6.7.1 (edcfbbe) compiled by 'VssAdministrator@runnervm171ch' on 2026-06-10

   xtb is free software: you can redistribute it and/or modify it under
   the terms of the GNU Lesser General Public License as published by
   the Free Software Foundation, either version 3 of the License, or
   (at your option) any later version.
   
   xtb is distributed in the hope that it will be useful,
   but WITHOUT ANY WARRANTY; without even the implied warranty of
   MERCHANTABILITY or FITNESS FOR A PARTICULAR PURPOSE.  See the
   GNU Lesser General Public License for more details.
   
   Cite this work as:
   * C. Bannwarth, E. Caldeweyher, S. Ehlert, A. Hansen, P. Pracht,
     J. Seibert, S. Spicher, S. Grimme, WIREs Comput. Mol. Sci., 2020, 11,
     e01493. DOI: 10.1002/wcms.1493
   
   for GFN2-xTB:
   * C. Bannwarth, S. Ehlert and S. Grimme., J. Chem. Theory Comput., 2019,
     15, 1652-1671. DOI: 10.1021/acs.jctc.8b01176
   for GFN1-xTB:
   * S. Grimme, C. Bannwarth, P. Shushkov, J. Chem. Theory Comput., 2017,
     13, 1989-2009. DOI: 10.1021/acs.jctc.7b00118
   for GFN0-xTB:
   * P. Pracht, E. Caldeweyher, S. Ehlert, S. Grimme, ChemRxiv, 2019, preprint.
     DOI: 10.26434/chemrxiv.8326202.v1
   for GFN-FF:
   * S. Spicher and S. Grimme, Angew. Chem. Int. Ed., 2020, 59, 15665-15673.
     DOI: 10.1002/anie.202004239
   
   for ALPB and GBSA implicit solvation:
   * S. Ehlert, M. Stahn, S. Spicher, S. Grimme, J. Chem. Theory Comput.,
     2021, 17, 4250-4261. DOI: 10.1021/acs.jctc.1c00471
   
   for ddCOSMO and CPCM-X implicit solvation:
   * M. Stahn, S. Ehlert, S. Grimme, J. Phys. Chem. A,
     2023, XX, XXXX-XXXX. DOI: 10.1021/acs.jpca.3c04382
   
   for DFT-D4:
   * E. Caldeweyher, C. Bannwarth and S. Grimme, J. Chem. Phys., 2017,
     147, 034112. DOI: 10.1063/1.4993215
   * E. Caldeweyher, S. Ehlert, A. Hansen, H. Neugebauer, S. Spicher,
     C. Bannwarth and S. Grimme, J. Chem. Phys., 2019, 150, 154122.
     DOI: 10.1063/1.5090222
   * E. Caldeweyher, J.-M. Mewes, S. Ehlert and S. Grimme, Phys. Chem. Chem. Phys.
     2020, 22, 8499-8512. DOI: 10.1039/D0CP00502A
   
   for sTDA-xTB:
   * S. Grimme and C. Bannwarth, J. Chem. Phys., 2016, 145, 054103.
     DOI: 10.1063/1.4959605
   
   in the mass-spec context:
   * V. Asgeirsson, C. Bauer and S. Grimme, Chem. Sci., 2017, 8, 4879.
     DOI: 10.1039/c7sc00601b
   * J. Koopman and S. Grimme, ACS Omega 2019, 4, 12, 15120-15133.
     DOI: 10.1021/acsomega.9b02011
   
   for metadynamics refer to:
   * S. Grimme, J. Chem. Theory Comput., 2019, 155, 2847-2862
     DOI: 10.1021/acs.jctc.9b00143
   
   for SPH calculations refer to:
   * S. Spicher and S. Grimme, J. Chem. Theory Comput., 2021, 17, 1701-1714
     DOI: 10.1021/acs.jctc.0c01306
   
   for ONIOM refer to:
   * C. Plett, A. Katbashev, S. Ehlert, S. Grimme, M. Bursch,
     Phys. Chem. Chem. Phys., 2023, 25, 17860-17868. DOI: 10.1039/D3CP02178E
   
   for DIPRO refer to:
   * J. Kohn, N. Gildemeister, S. Grimme, D. Fazzi, A. Hansen,
     J. Chem. Phys., 2023, just accepted.
   
   for PTB refer to:
   * S. Grimme, M. Mueller, A. Hansen, J. Chem. Phys., 2023, 158, 124111.
     DOI: 10.1063/5.0137838
   
   with help from (in alphabetical order)
   P. Atkinson, C. Bannwarth, F. Bohle, G. Brandenburg, E. Caldeweyher
   M. Checinski, S. Dohm, S. Ehlert, S. Ehrlich, I. Gerasimov, C. Hölzer
   A. Katbashev, J. Kohn, J. Koopman, C. Lavigne, S. Lehtola, F. März, M. Müller,
   F. Musil, H. Neugebauer, J. Pisarek, C. Plett, P. Pracht, F. Pultar,
   J. Seibert, P. Shushkov, S. Spicher, M. Stahn, M. Steiner, T. Strunk,
   J. Stückrath, T. Rose, and J. Unsleber
   
 * started run on 2026/09/13 at 01:17:53.285     
   ID    Z sym.   atoms
    1   44 Ru     1
    2    7 N      2
    3    6 C      3, 4, 6-19, 21-32, 61, 65-71
    4   15 P      5, 20
    5    1 H      33-60, 63, 72-79
    6    8 O      62, 64

           -------------------------------------------------
          |                Calculation Setup                |
           -------------------------------------------------

          program call               : C:\Users\HUIWEI\miniconda3\envs\phase2ff\Library\bin\xtb.exe input.xyz --gfn 2 --chrg 0 --uhf 0 --etemp 300.0 --iterations 500 --acc 0.5 --opt tight --cycles 250 --grad --alpb toluene gsolv
          coordinate file            : input.xyz
          omp threads                :                     2

########################################################################
[WARNING] Please study the warnings concerning your input carefully
-1- prog_main_parseArguments: Unknown reference state 'gsolv'
########################################################################

           -------------------------------------------------
          |                 G F N 2 - x T B                 |
           -------------------------------------------------

        Reference                      10.1021/acs.jctc.8b01176
      * Hamiltonian:
        H0-scaling (s, p, d)           1.850000    2.230000    2.230000
        zeta-weighting                 0.500000
      * Dispersion:
        s8                             2.700000
        a1                             0.520000
        a2                             5.000000
        s9                             5.000000
      * Repulsion:
        kExp                           1.500000    1.000000
        rExp                           1.000000
      * Coulomb:
        alpha                          2.000000
        third order                    shell-resolved
        anisotropic                    true
        a3                             3.000000
        a5                             4.000000
        cn-shift                       1.200000
        cn-exp                         4.000000
        max-rad                        5.000000

      * Solvation model:               ALPB
        Solvent                        toluene
        Parameter file                 internal GFN2-xTB/ALPB
        Dielectric constant                7.0000E+00
        Reference state                gsolv [1 M gas/solution]
        Free energy shift                  2.2081E-03 Eh       1.3856E+00 kcal/mol
        Temperature                        2.9815E+02 K
        Density                            8.6700E-01 kg/L
        Solvent mass                       7.8110E+01 g/mol
        Interaction kernel             P16
        Born radius scaling (c1)           1.7172E+00
        Born radii integrator          GBOBC
        Born offset                        0.0000E+00 a0       0.0000E+00 AA
        H-bond correction              false
        Ion screening                  false
        Surface tension                    1.0000E-05 Eh       1.5569E+01 dyn/cm
        Grid points                               230 per atom

          ...................................................
          :                      SETUP                      :
          :.................................................:
          :  # basis functions                 223          :
          :  # atomic orbitals                 220          :
          :  # shells                          124          :
          :  # electrons                       216          :
          :  max. iterations                   500          :
          :  Hamiltonian                  GFN2-xTB          :
          :  restarted?                      false          :
          :  GBSA solvation                   true          :
          :  PC potential                    false          :
          :  electronic temp.          300.0000000     K    :
          :  accuracy                    0.5000000          :
          :  -> integral cutoff          0.2801030E+02      :
          :  -> integral neglect         0.5000000E-08      :
          :  -> SCF convergence          0.5000000E-06 Eh   :
          :  -> wf. convergence          0.5000000E-04 e    :
          :  Broyden damping             0.4000000          :
          :  net charge                          0          :
          :  unpaired electrons                  0          :
          ...................................................

 iter      E             dE          RMSdq      gap      omega  full diag
   1   -114.7438322 -0.114744E+03  0.635E+00    0.57       0.0  T
   2   -108.9849140  0.575892E+01  0.944E+00    0.15       1.0  T
   3   -115.4447558 -0.645984E+01  0.450E+00    0.71       1.0  T
   4   -116.1830268 -0.738271E+00  0.315E+00    2.12       1.0  T
   5   -116.5690502 -0.386023E+00  0.151E+00    0.27       1.0  T
   6   -116.2387427  0.330308E+00  0.214E+00    0.90       1.0  T
   7   -116.5986256 -0.359883E+00  0.102E+00    0.31       1.0  T
   8   -116.3815663  0.217059E+00  0.157E+00    0.29       1.0  T
   9   -116.6255981 -0.244032E+00  0.730E-01    0.27       1.0  T
  10   -116.6664695 -0.408714E-01  0.480E-01    0.13       1.0  T
  11   -116.6758112 -0.934167E-02  0.351E-01    0.11       1.0  T
  12   -116.6845588 -0.874769E-02  0.229E-01    0.06       1.0  T
  13   -116.6880836 -0.352476E-02  0.144E-01    0.08       1.0  T
  14   -116.6904379 -0.235426E-02  0.284E-02    0.07       1.0  T
  15   -116.6901338  0.304019E-03  0.550E-02    0.07       1.0  T
  16   -116.6904006 -0.266764E-03  0.293E-02    0.06       1.0  T
  17   -116.6904992 -0.986132E-04  0.738E-03    0.07       1.5  T
  18   -116.6905033 -0.403088E-05  0.411E-03    0.07       2.7  T
  19   -116.6905046 -0.138252E-05  0.211E-03    0.07       5.3  T
  20   -116.6905049 -0.212882E-06  0.158E-03    0.07       7.1  T
  21   -116.6905051 -0.285293E-06  0.308E-04    0.07      36.6  T
  22   -116.6905051  0.553177E-08  0.366E-04    0.07      30.8  T

   *** convergence criteria satisfied after 22 iterations ***

         #    Occupation            Energy/Eh            Energy/eV
      -------------------------------------------------------------
         1        2.0000           -0.8114679             -22.0812
       ...           ...                  ...                  ...
       102        2.0000           -0.4156090             -11.3093
       103        2.0000           -0.4050799             -11.0228
       104        2.0000           -0.4009425             -10.9102
       105        2.0000           -0.3961280             -10.7792
       106        2.0000           -0.3759181             -10.2293
       107        2.0000           -0.3729385             -10.1482
       108        1.5668           -0.3099079              -8.4330 (HOMO)
       109        0.4332           -0.3074651              -8.3666 (LUMO)
       110                         -0.2866568              -7.8003
       111                         -0.2817744              -7.6675
       112                         -0.2712550              -7.3812
       113                         -0.2682056              -7.2982
       ...                                ...                  ...
       220                          4.7166792             128.3474
      -------------------------------------------------------------
                  HL-Gap            0.0024428 Eh            0.0665 eV
             Fermi-level           -0.3086865 Eh           -8.3998 eV

 SCC (total)                   0 d,  0 h,  0 min,  0.408 sec
 SCC setup                      ...        0 min,  0.003 sec (  0.653%)
 Dispersion                     ...        0 min,  0.002 sec (  0.420%)
 classical contributions        ...        0 min,  0.000 sec (  0.092%)
 integral evaluation            ...        0 min,  0.016 sec (  4.031%)
 iterations                     ...        0 min,  0.326 sec ( 79.713%)
 molecular gradient             ...        0 min,  0.061 sec ( 14.880%)
 printout                       ...        0 min,  0.001 sec (  0.205%)

         :::::::::::::::::::::::::::::::::::::::::::::::::::::
         ::                     SUMMARY                     ::
         :::::::::::::::::::::::::::::::::::::::::::::::::::::
         :: total energy            -114.767179736060 Eh    ::
         :: total w/o Gsasa/hb      -114.720728406130 Eh    ::
         :: gradient norm              0.393685512087 Eh/a0 ::
         :: HOMO-LUMO gap              0.066471985836 eV    ::
         ::.................................................::
         :: SCC energy              -116.686519995457 Eh    ::
         :: -> isotropic ES            0.041006676883 Eh    ::
         :: -> anisotropic ES          0.017394249771 Eh    ::
         :: -> anisotropic XC          0.068576267969 Eh    ::
         :: -> dispersion             -0.130431180398 Eh    ::
         :: -> Gsolv                  -0.061030632762 Eh    ::
         ::    -> Gelec               -0.014579302833 Eh    ::
         ::    -> Gsasa               -0.048659473068 Eh    ::
         ::    -> Ghb                  0.000000000000 Eh    ::
         ::    -> Gshift               0.002208143139 Eh    ::
         :: repulsion energy           1.919340259397 Eh    ::
         :: add. restraining           0.000000000000 Eh    ::
         :: total charge              -0.000000000171 e     ::
         :::::::::::::::::::::::::::::::::::::::::::::::::::::

      ----------------------------------------------------------- 
     |                   =====================                   |
     |                        A N C O P T                        |
     |                   =====================                   |
     |               Approximate Normal Coordinate               |
     |                Rational Function Optimizer                |
      ----------------------------------------------------------- 
      ----------------------------------------------------------- 
     |                   =====================                   |
     |                        A N C O P T                        |
     |                   =====================                   |
     |               Approximate Normal Coordinate               |
     |                Rational Function Optimizer                |
      ----------------------------------------------------------- 

          ...................................................
          :                      SETUP                      :
          :.................................................:
          :   optimization level             tight          :
          :   max. optcycles                   250          :
          :   ANC micro-cycles                  20          :
          :   degrees of freedom               231          :
          :.................................................:
          :   RF solver                   davidson          :
          :   write xtbopt.log                true          :
          :   linear?                        false          :
          :   energy convergence         0.1000000E-05 Eh   :
          :   grad. convergence          0.8000000E-03 Eh/α :
          :   maxmium RF displ.          1.0000000          :
          :   Hlow (freq-cutoff)         0.1000000E-01      :
          :   Hmax (freq-cutoff)         5.0000000          :
          :   S6 in model hess.         20.0000000          :
          ...................................................

generating ANC from exact Hessian ...
Using Lindh-Hessian (1995)
 Shifting diagonal of input Hessian by    1.3048138370950361E-002
 Lowest  eigenvalues of input Hessian
    0.010000    0.000000    0.000000    0.000000    0.000000    0.000000
    0.000000    0.013127    0.013190    0.013383    0.013446    0.013547
    0.013711    0.013777    0.013840    0.013926    0.013988    0.014092
 Highest eigenvalues
    2.006706    2.010903    2.035802    2.041339    2.359554    2.649663


........................................................................
.............................. CYCLE    1 ..............................
........................................................................

 iter      E             dE          RMSdq      gap      omega  full diag
   1   -116.6905051 -0.116691E+03  0.300E-05    0.07       0.0  T
   2   -116.6905051  0.144870E-07  0.342E-04    0.07      32.9  T
   3   -116.6905051 -0.141923E-07  0.582E-05    0.07     193.5  T
     SCC iter.                  ...        0 min,  0.045 sec
     gradient                   ...        0 min,  0.072 sec
 * total energy  :  -114.7671798 Eh     change       -0.1620256E-07 Eh
   gradient norm :     0.3936781 Eh/α   predicted     0.0000000E+00 (-100.00%)
   displ. norm   :     0.5774089 α      lambda       -0.1776484E+00
   maximum displ.:     0.1734595 α      in ANC's #147, #57, #146, ...

........................................................................
.............................. CYCLE    2 ..............................
........................................................................

 iter      E             dE          RMSdq      gap      omega  full diag
   1   -116.8084982 -0.116808E+03  0.532E-01    0.12       0.0  T
   2   -116.7226563  0.858419E-01  0.103E+00    0.62       1.0  T
   3   -116.7604608 -0.378045E-01  0.795E-01    0.10       1.0  T
   4   -116.7674112 -0.695048E-02  0.749E-01    0.31       1.0  T
   5   -116.8275464 -0.601352E-01  0.193E-01    0.11       1.0  T
   6   -116.8121818  0.153646E-01  0.365E-01    0.10       1.0  T
   7   -116.8266253 -0.144435E-01  0.151E-01    0.12       1.0  T
   8   -116.8266860 -0.607156E-04  0.142E-01    0.12       1.0  T
   9   -116.8284900 -0.180393E-02  0.701E-02    0.11       1.0  T
  10   -116.8289769 -0.486898E-03  0.322E-02    0.11       1.0  T
  11   -116.8290692 -0.923475E-04  0.145E-02    0.11       1.0  T
  12   -116.8290931 -0.238834E-04  0.177E-03    0.11       6.3  T
  13   -116.8290920  0.104579E-05  0.323E-03    0.11       3.5  T
  14   -116.8290930 -0.970064E-06  0.152E-03    0.11       7.4  T
  15   -116.8290933 -0.253180E-06  0.264E-04    0.11      42.6  T
  16   -116.8290932  0.186567E-07  0.471E-04    0.11      23.9  T
     SCC iter.                  ...        0 min,  0.224 sec
     gradient                   ...        0 min,  0.066 sec
 * total energy  :  -114.9091706 Eh     change       -0.1419909E+00 Eh
   gradient norm :     0.2237979 Eh/α   predicted    -0.1185089E+00 ( -16.54%)
   displ. norm   :     0.6183646 α      lambda       -0.1137796E+00
   maximum displ.:     0.1829487 α      in ANC's #147, #57, #146, ...

........................................................................
.............................. CYCLE    3 ..............................
........................................................................

 iter      E             dE          RMSdq      gap      omega  full diag
   1   -116.8754637 -0.116875E+03  0.617E-01    0.15       0.0  T
   2   -116.7384035  0.137060E+00  0.135E+00    1.46       1.0  T
   3   -116.8443596 -0.105956E+00  0.845E-01    0.53       1.0  T
   4   -116.8852901 -0.409305E-01  0.551E-01    0.24       1.0  T
   5   -116.7618226  0.123467E+00  0.111E+00    0.17       1.0  T
   6   -116.9124602 -0.150638E+00  0.239E-01    0.17       1.0  T
   7   -116.8999596  0.125006E-01  0.378E-01    0.14       1.0  T
   8   -116.9101460 -0.101864E-01  0.255E-01    0.18       1.0  T
   9   -116.9179089 -0.776288E-02  0.194E-02    0.15       1.0  T
  10   -116.9175857  0.323118E-03  0.510E-02    0.15       1.0  T
  11   -116.9179176 -0.331848E-03  0.559E-03    0.15       2.0  T
  12   -116.9179064  0.112086E-04  0.101E-02    0.15       1.1  T
  13   -116.9179184 -0.120350E-04  0.156E-03    0.15       7.2  T
  14   -116.9179186 -0.134288E-06  0.932E-04    0.15      12.1  T
  15   -116.9179186 -0.769035E-07  0.376E-04    0.15      29.9  T
  16   -116.9179186 -0.819013E-08  0.207E-04    0.15      54.3  T
     SCC iter.                  ...        0 min,  0.245 sec
     gradient                   ...        0 min,  0.067 sec
 * total energy  :  -114.9936886 Eh     change       -0.8451801E-01 Eh
   gradient norm :     0.1166754 Eh/α   predicted    -0.7864304E-01 (  -6.95%)
   displ. norm   :     0.6822388 α      lambda       -0.6252682E-01
   maximum displ.:     0.2231132 α      in ANC's #38, #57, #53, ...

........................................................................
.............................. CYCLE    4 ..............................
........................................................................

 iter      E             dE          RMSdq      gap      omega  full diag
   1   -116.9311772 -0.116931E+03  0.521E-01    0.15       0.0  T
   2   -116.8045497  0.126627E+00  0.120E+00    1.14       1.0  T
   3   -116.9085229 -0.103973E+00  0.666E-01    0.31       1.0  T
   4   -116.9345667 -0.260438E-01  0.418E-01    0.15       1.0  T
   5   -116.9389712 -0.440450E-02  0.371E-01    0.20       1.0  T
   6   -116.9476609 -0.868968E-02  0.218E-01    0.16       1.0  T
   7   -116.9518600 -0.419909E-02  0.108E-01    0.17       1.0  T
   8   -116.9528698 -0.100976E-02  0.435E-02    0.17       1.0  T
   9   -116.9523463  0.523452E-03  0.764E-02    0.16       1.0  T
  10   -116.9530780 -0.731718E-03  0.140E-02    0.17       1.0  T
  11   -116.9530917 -0.136697E-04  0.635E-03    0.16       1.8  T
  12   -116.9530955 -0.378938E-05  0.291E-03    0.17       3.9  T
  13   -116.9530964 -0.857728E-06  0.532E-04    0.17      21.1  T
  14   -116.9530962  0.159121E-06  0.121E-03    0.16       9.3  T
  15   -116.9530964 -0.168252E-06  0.256E-04    0.17      44.0  T
  16   -116.9530964 -0.276015E-08  0.195E-04    0.17      57.6  T
     SCC iter.                  ...        0 min,  0.241 sec
     gradient                   ...        0 min,  0.062 sec
 * total energy  :  -115.0452714 Eh     change       -0.5158274E-01 Eh
   gradient norm :     0.0886255 Eh/α   predicted    -0.4581497E-01 ( -11.18%)
   displ. norm   :     0.7386311 α      lambda       -0.4835621E-01
   maximum displ.:     0.2628248 α      in ANC's #38, #127, #57, ...

........................................................................
.............................. CYCLE    5 ..............................
........................................................................

 iter      E             dE          RMSdq      gap      omega  full diag
   1   -116.9568752 -0.116957E+03  0.546E-01    0.17       0.0  T
   2   -116.8117914  0.145084E+00  0.127E+00    1.11       1.0  T
   3   -116.9458681 -0.134077E+00  0.580E-01    0.27       1.0  T
   4   -116.9186627  0.272054E-01  0.717E-01    0.18       1.0  T
   5   -116.9576960 -0.390332E-01  0.433E-01    0.23       1.0  T
   6   -116.9758259 -0.181299E-01  0.121E-01    0.18       1.0  T
   7   -116.9725103  0.331561E-02  0.191E-01    0.17       1.0  T
   8   -116.9735487 -0.103844E-02  0.169E-01    0.20       1.0  T
   9   -116.9769623 -0.341360E-02  0.158E-02    0.18       1.0  T
  10   -116.9769413  0.210603E-04  0.178E-02    0.18       1.0  T
  11   -116.9769774 -0.361632E-04  0.630E-03    0.18       1.8  T
  12   -116.9769817 -0.425606E-05  0.124E-03    0.18       9.1  T
  13   -116.9769815  0.157822E-06  0.148E-03    0.18       7.6  T
  14   -116.9769817 -0.203076E-06  0.644E-04    0.18      17.5  T
  15   -116.9769818 -0.456110E-07  0.144E-04    0.18      78.0  T
  16   -116.9769818 -0.369667E-09  0.959E-05    0.18     117.3  T
     SCC iter.                  ...        0 min,  0.238 sec
     gradient                   ...        0 min,  0.073 sec
 * total energy  :  -115.0856830 Eh     change       -0.4041162E-01 Eh
   gradient norm :     0.0820002 Eh/α   predicted    -0.3736910E-01 (  -7.53%)
   displ. norm   :     0.7480969 α      lambda       -0.3693469E-01
   maximum displ.:     0.2872984 α      in ANC's #38, #127, #41, ...

........................................................................
.............................. CYCLE    6 ..............................
........................................................................

 iter      E             dE          RMSdq      gap      omega  full diag
   1   -116.9566414 -0.116957E+03  0.664E-01    0.19       0.0  T
   2   -116.7401280  0.216513E+00  0.161E+00    1.57       1.0  T
   3   -116.9124256 -0.172298E+00  0.905E-01    0.53       1.0  T
   4   -116.9876648 -0.752392E-01  0.320E-01    0.22       1.0  T
   5   -116.9888790 -0.121417E-02  0.298E-01    0.19       1.0  T
   6   -116.9958986 -0.701967E-02  0.130E-01    0.21       1.0  T
   7   -116.9586235  0.372751E-01  0.574E-01    0.19       1.0  T
   8   -116.9965301 -0.379066E-01  0.598E-02    0.21       1.0  T
   9   -116.9967952 -0.265091E-03  0.249E-02    0.20       1.0  T
  10   -116.9967221  0.731052E-04  0.338E-02    0.20       1.0  T
  11   -116.9968441 -0.121974E-03  0.116E-02    0.20       1.0  T
  12   -116.9968585 -0.144295E-04  0.236E-03    0.20       4.8  T
  13   -116.9968590 -0.461676E-06  0.764E-04    0.20      14.7  T
  14   -116.9968590 -0.423775E-07  0.196E-04    0.20      57.4  T
  15   -116.9968590  0.108770E-09  0.124E-04    0.20      90.7  T
     SCC iter.                  ...        0 min,  0.228 sec
     gradient                   ...        0 min,  0.067 sec
 * total energy  :  -115.1156898 Eh     change       -0.3000684E-01 Eh
   gradient norm :     0.0821614 Eh/α   predicted    -0.2880261E-01 (  -4.01%)
   displ. norm   :     0.7212418 α      lambda       -0.2861258E-01
   maximum displ.:     0.2952905 α      in ANC's #38, #41, #54, ...

........................................................................
.............................. CYCLE    7 ..............................
........................................................................

 iter      E             dE          RMSdq      gap      omega  full diag
   1   -116.9243137 -0.116924E+03  0.917E-01    0.23       0.0  T
   2   -116.5930749  0.331239E+00  0.214E+00    1.47       1.0  T
   3   -116.8691479 -0.276073E+00  0.123E+00    0.91       1.0  T
   4   -116.9271496 -0.580017E-01  0.910E-01    0.42       1.0  T
   5   -117.0033879 -0.762383E-01  0.381E-01    0.24       1.0  T
   6   -116.9576834  0.457045E-01  0.723E-01    0.23       1.0  T
   7   -116.9934036 -0.357202E-01  0.464E-01    0.27       1.0  T
   8   -117.0087936 -0.153901E-01  0.249E-01    0.24       1.0  T
   9   -117.0151993 -0.640567E-02  0.565E-02    0.23       1.0  T
  10   -117.0153754 -0.176130E-03  0.363E-02    0.23       1.0  T
  11   -117.0154245 -0.490549E-04  0.294E-02    0.23       1.0  T
  12   -117.0155166 -0.921211E-04  0.276E-03    0.22       4.1  T
  13   -117.0155163  0.330908E-06  0.298E-03    0.22       3.8  T
  14   -117.0155161  0.169243E-06  0.315E-03    0.22       3.6  T
  15   -117.0155172 -0.104451E-05  0.582E-04    0.22      19.3  T
  16   -117.0155172 -0.344885E-07  0.114E-04    0.22      99.1  T
  17   -117.0155172 -0.364167E-09  0.842E-05    0.22     133.6  T
     SCC iter.                  ...        0 min,  0.238 sec
     gradient                   ...        0 min,  0.067 sec
 * total energy  :  -115.1393941 Eh     change       -0.2370424E-01 Eh
   gradient norm :     0.0854805 Eh/α   predicted    -0.2174834E-01 (  -8.25%)
   displ. norm   :     0.7278921 α      lambda       -0.2979023E-01
   maximum displ.:     0.2903540 α      in ANC's #38, #41, #54, ...

........................................................................
.............................. CYCLE    8 ..............................
........................................................................

 iter      E             dE          RMSdq      gap      omega  full diag
   1   -116.9466420 -0.116947E+03  0.937E-01    0.21       0.0  T
   2   -116.6252521  0.321390E+00  0.213E+00    1.50       1.0  T
   3   -116.8741493 -0.248897E+00  0.132E+00    0.78       1.0  T
   4   -116.9814202 -0.107271E+00  0.710E-01    0.27       1.0  T
   5   -116.9456949  0.357254E-01  0.932E-01    0.22       1.0  T
   6   -117.0274535 -0.817587E-01  0.203E-01    0.20       1.0  T
   7   -117.0271525  0.301043E-03  0.205E-01    0.20       1.0  T
   8   -117.0242709  0.288158E-02  0.261E-01    0.21       1.0  T
   9   -117.0312055 -0.693454E-02  0.318E-02    0.20       1.0  T
  10   -117.0313052 -0.997013E-04  0.770E-03    0.20       1.5  T
  11   -117.0313053 -0.148643E-06  0.524E-03    0.20       2.1  T
  12   -117.0313077 -0.235621E-05  0.143E-03    0.20       7.9  T
  13   -117.0313075  0.195245E-06  0.185E-03    0.20       6.1  T
  14   -117.0313076 -0.144102E-06  0.134E-03    0.20       8.4  T
  15   -117.0313078 -0.175832E-06  0.116E-04    0.20      97.3  T
  16   -117.0313078 -0.364295E-09  0.574E-05    0.20     195.9  T
     SCC iter.                  ...        0 min,  0.245 sec
     gradient                   ...        0 min,  0.059 sec
 * total energy  :  -115.1629752 Eh     change       -0.2358114E-01 Eh
   gradient norm :     0.0721580 Eh/α   predicted    -0.2278696E-01 (  -3.37%)
   displ. norm   :     0.7237645 α      lambda       -0.2782940E-01
   maximum displ.:     0.2309930 α      in ANC's #38, #32, #41, ...

........................................................................
.............................. CYCLE    9 ..............................
........................................................................

 iter      E             dE          RMSdq      gap      omega  full diag
   1   -117.0604360 -0.117060E+03  0.364E-01    0.17       0.0  T
   2   -116.9456440  0.114792E+00  0.118E+00    0.36       1.0  T
   3   -116.9392064  0.643753E-02  0.110E+00    0.23       1.0  T
   4   -117.0119736 -0.727672E-01  0.705E-01    0.23       1.0  T
   5   -117.0613729 -0.493993E-01  0.163E-01    0.18       1.0  T
   6   -117.0590929  0.227996E-02  0.223E-01    0.17       1.0  T
   7   -117.0618581 -0.276520E-02  0.112E-01    0.18       1.0  T
   8   -117.0631648 -0.130666E-02  0.144E-02    0.18       1.0  T
   9   -117.0631697 -0.488742E-05  0.562E-03    0.18       2.0  T
  10   -117.0631696  0.736239E-07  0.295E-03    0.18       3.8  T
  11   -117.0631691  0.544217E-06  0.332E-03    0.18       3.4  T
  12   -117.0631699 -0.895105E-06  0.119E-03    0.18       9.5  T
  13   -117.0631701 -0.125416E-06  0.347E-04    0.18      32.4  T
  14   -117.0631701 -0.720858E-08  0.111E-04    0.18     101.0  T
     SCC iter.                  ...        0 min,  0.200 sec
     gradient                   ...        0 min,  0.061 sec
 * total energy  :  -115.1828786 Eh     change       -0.1990334E-01 Eh
   gradient norm :     0.0571006 Eh/α   predicted    -0.2120372E-01 (   6.53%)
   displ. norm   :     0.6627180 α      lambda       -0.1666182E-01
   maximum displ.:     0.1701846 α      in ANC's #41, #38, #29, ...

........................................................................
.............................. CYCLE   10 ..............................
........................................................................

 iter      E             dE          RMSdq      gap      omega  full diag
   1   -117.0431830 -0.117043E+03  0.699E-01    0.18       0.0  T
   2   -116.6761168  0.367066E+00  0.209E+00    1.63       1.0  T
   3   -116.9029961 -0.226879E+00  0.134E+00    0.28       1.0  T
   4   -117.0668074 -0.163811E+00  0.518E-01    0.17       1.0  T
   5   -117.0840082 -0.172008E-01  0.219E-01    0.16       1.0  T
   6   -117.0810525  0.295567E-02  0.275E-01    0.16       1.0  T
   7   -117.0651965  0.158560E-01  0.470E-01    0.15       1.0  T
   8   -117.0876222 -0.224257E-01  0.290E-02    0.15       1.0  T
   9   -117.0870967  0.525443E-03  0.750E-02    0.15       1.0  T
  10   -117.0876540 -0.557294E-03  0.150E-02    0.15       1.0  T
  11   -117.0876762 -0.221497E-04  0.294E-03    0.15       3.8  T
  12   -117.0876758  0.371233E-06  0.309E-03    0.15       3.6  T
  13   -117.0876756  0.189410E-06  0.334E-03    0.15       3.4  T
  14   -117.0876767 -0.107512E-05  0.654E-04    0.15      17.2  T
  15   -117.0876766  0.500865E-07  0.944E-04    0.15      11.9  T
  16   -117.0876767 -0.798749E-07  0.340E-04    0.15      33.1  T
  17   -117.0876767 -0.118917E-07  0.405E-05    0.15     277.7  T
     SCC iter.                  ...        0 min,  0.255 sec
     gradient                   ...        0 min,  0.063 sec
 * total energy  :  -115.1955989 Eh     change       -0.1272034E-01 Eh
   gradient norm :     0.0480721 Eh/α   predicted    -0.1198981E-01 (  -5.74%)
   displ. norm   :     0.6332588 α      lambda       -0.1228011E-01
   maximum displ.:     0.1864331 α      in ANC's #41, #29, #35, ...

........................................................................
.............................. CYCLE   11 ..............................
........................................................................

 iter      E             dE          RMSdq      gap      omega  full diag
   1   -117.0482927 -0.117048E+03  0.704E-01    0.18       0.0  T
   2   -116.6703786  0.377914E+00  0.213E+00    1.69       1.0  T
   3   -116.8843540 -0.213975E+00  0.144E+00    0.36       1.0  T
   4   -117.0665542 -0.182200E+00  0.543E-01    0.15       1.0  T
   5   -117.0485058  0.180484E-01  0.694E-01    0.19       1.0  T
   6   -117.0874073 -0.389015E-01  0.308E-01    0.15       1.0  T
   7   -117.0874900 -0.826660E-04  0.314E-01    0.14       1.0  T
   8   -117.0975144 -0.100245E-01  0.443E-02    0.14       1.0  T
   9   -117.0975756 -0.611347E-04  0.368E-02    0.14       1.0  T
  10   -117.0976487 -0.731469E-04  0.251E-02    0.14       1.0  T
  11   -117.0977157 -0.669630E-04  0.336E-03    0.14       3.3  T
  12   -117.0977123  0.341967E-05  0.637E-03    0.14       1.8  T
  13   -117.0977164 -0.418175E-05  0.629E-04    0.14      17.9  T
  14   -117.0977165 -0.318202E-07  0.206E-04    0.14      54.7  T
  15   -117.0977164  0.116348E-06  0.106E-03    0.14      10.6  T
  16   -117.0977165 -0.118198E-06  0.537E-05    0.14     209.4  T
     SCC iter.                  ...        0 min,  0.274 sec
     gradient                   ...        0 min,  0.068 sec
 * total energy  :  -115.2051310 Eh     change       -0.9532094E-02 Eh
   gradient norm :     0.0295225 Eh/α   predicted    -0.8602317E-02 (  -9.75%)
   displ. norm   :     0.6614994 α      lambda       -0.8818585E-02
   maximum displ.:     0.2135438 α      in ANC's #41, #29, #21, ...

........................................................................
.............................. CYCLE   12 ..............................
........................................................................

 iter      E             dE          RMSdq      gap      omega  full diag
   1   -117.1050459 -0.117105E+03  0.242E-01    0.13       0.0  T
   2   -116.9127871  0.192259E+00  0.135E+00    0.28       1.0  T
   3   -117.0612157 -0.148429E+00  0.704E-01    0.17       1.0  T
   4   -117.1017123 -0.404966E-01  0.238E-01    0.13       1.0  T
   5   -117.0977502  0.396208E-02  0.297E-01    0.13       1.0  T
   6   -117.1067030 -0.895279E-02  0.482E-02    0.13       1.0  T
   7   -117.1062833  0.419716E-03  0.738E-02    0.13       1.0  T
   8   -117.1066138 -0.330459E-03  0.505E-02    0.13       1.0  T
   9   -117.1068777 -0.263890E-03  0.997E-03    0.13       1.1  T
  10   -117.1068796 -0.189991E-05  0.772E-03    0.13       1.5  T
  11   -117.1068855 -0.590906E-05  0.842E-04    0.13      13.4  T
  12   -117.1068854  0.104759E-06  0.105E-03    0.13      10.7  T
  13   -117.1068854 -0.348266E-07  0.864E-04    0.13      13.0  T
  14   -117.1068854 -0.367474E-07  0.618E-04    0.13      18.2  T
  15   -117.1068855 -0.308452E-07  0.261E-04    0.13      43.0  T
  16   -117.1068855 -0.664255E-08  0.812E-05    0.13     138.5  T
     SCC iter.                  ...        0 min,  0.277 sec
     gradient                   ...        0 min,  0.075 sec
 * total energy  :  -115.2120991 Eh     change       -0.6968124E-02 Eh
   gradient norm :     0.0308970 Eh/α   predicted    -0.6338722E-02 (  -9.03%)
   displ. norm   :     0.6484767 α      lambda       -0.6667116E-02
   maximum displ.:     0.2341743 α      in ANC's #21, #41, #29, ...

........................................................................
.............................. CYCLE   13 ..............................
........................................................................

 iter      E             dE          RMSdq      gap      omega  full diag
   1   -117.1079869 -0.117108E+03  0.186E-01    0.13       0.0  T
   2   -116.9371598  0.170827E+00  0.125E+00    0.25       1.0  T
   3   -117.0985329 -0.161373E+00  0.341E-01    0.13       1.0  T
   4   -117.1064434 -0.791055E-02  0.182E-01    0.13       1.0  T
   5   -117.1059207  0.522739E-03  0.178E-01    0.12       1.0  T
   6   -117.1084273 -0.250663E-02  0.739E-02    0.12       1.0  T
   7   -117.1086016 -0.174290E-03  0.601E-02    0.13       1.0  T
   8   -117.1089595 -0.357856E-03  0.215E-02    0.12       1.0  T
   9   -117.1090046 -0.451751E-04  0.598E-03    0.12       1.9  T
  10   -117.1090064 -0.174300E-05  0.349E-03    0.12       3.2  T
  11   -117.1090074 -0.992007E-06  0.122E-03    0.12       9.2  T
  12   -117.1090075 -0.129716E-06  0.324E-04    0.12      34.7  T
  13   -117.1090075 -0.143048E-08  0.170E-04    0.12      66.3  T
     SCC iter.                  ...        0 min,  0.215 sec
     gradient                   ...        0 min,  0.073 sec
 * total energy  :  -115.2174404 Eh     change       -0.5341224E-02 Eh
   gradient norm :     0.0343361 Eh/α   predicted    -0.4735400E-02 ( -11.34%)
   displ. norm   :     0.6617075 α      lambda       -0.5628220E-02
   maximum displ.:     0.2592904 α      in ANC's #21, #29, #41, ...

........................................................................
.............................. CYCLE   14 ..............................
........................................................................

 iter      E             dE          RMSdq      gap      omega  full diag
   1   -117.1063819 -0.117106E+03  0.296E-01    0.13       0.0  T
   2   -116.9395433  0.166839E+00  0.130E+00    0.55       1.0  T
   3   -117.1112947 -0.171751E+00  0.122E-01    0.13       1.0  T
   4   -117.1097284  0.156628E-02  0.155E-01    0.13       1.0  T
   5   -117.1101867 -0.458247E-03  0.135E-01    0.13       1.0  T
   6   -117.1090794  0.110731E-02  0.158E-01    0.13       1.0  T
   7   -117.1086203  0.459052E-03  0.175E-01    0.13       1.0  T
   8   -117.1117812 -0.316091E-02  0.325E-02    0.13       1.0  T
   9   -117.1118418 -0.605451E-04  0.237E-02    0.13       1.0  T
  10   -117.1118987 -0.569661E-04  0.400E-03    0.13       2.8  T
  11   -117.1118995 -0.764908E-06  0.281E-03    0.13       4.0  T
  12   -117.1119003 -0.766438E-06  0.791E-04    0.13      14.2  T
  13   -117.1119002  0.427032E-07  0.968E-04    0.13      11.6  T
  14   -117.1119003 -0.870607E-07  0.402E-04    0.13      28.0  T
  15   -117.1119003 -0.695873E-08  0.307E-04    0.13      36.7  T
     SCC iter.                  ...        0 min,  0.254 sec
     gradient                   ...        0 min,  0.077 sec
 * total energy  :  -115.2220944 Eh     change       -0.4654055E-02 Eh
   gradient norm :     0.0361814 Eh/α   predicted    -0.4046299E-02 ( -13.06%)
   displ. norm   :     0.6554591 α      lambda       -0.5489144E-02
   maximum displ.:     0.3012684 α      in ANC's #21, #29, #41, ...

........................................................................
.............................. CYCLE   15 ..............................
........................................................................

 iter      E             dE          RMSdq      gap      omega  full diag
   1   -117.1079842 -0.117108E+03  0.318E-01    0.14       0.0  T
   2   -116.9318936  0.176091E+00  0.134E+00    0.58       1.0  T
   3   -117.1052827 -0.173389E+00  0.322E-01    0.15       1.0  T
   4   -117.1029161  0.236661E-02  0.343E-01    0.14       1.0  T
   5   -117.1155170 -0.126009E-01  0.756E-02    0.14       1.0  T
   6   -117.1153547  0.162261E-03  0.746E-02    0.14       1.0  T
   7   -117.1144223  0.932399E-03  0.112E-01    0.14       1.0  T
   8   -117.1153559 -0.933527E-03  0.623E-02    0.14       1.0  T
   9   -117.1157700 -0.414129E-03  0.132E-02    0.14       1.0  T
  10   -117.1157881 -0.180914E-04  0.156E-03    0.14       7.2  T
  11   -117.1157879  0.163973E-06  0.178E-03    0.14       6.3  T
  12   -117.1157882 -0.261552E-06  0.775E-04    0.14      14.5  T
  13   -117.1157882 -0.601497E-07  0.245E-04    0.14      45.9  T
  14   -117.1157882 -0.406995E-08  0.102E-04    0.14     109.8  T
     SCC iter.                  ...        0 min,  0.217 sec
     gradient                   ...        0 min,  0.065 sec
 * total energy  :  -115.2265649 Eh     change       -0.4470523E-02 Eh
   gradient norm :     0.0333994 Eh/α   predicted    -0.3923715E-02 ( -12.23%)
   displ. norm   :     0.6235264 α      lambda       -0.4946196E-02
   maximum displ.:     0.2557438 α      in ANC's #21, #29, #41, ...

........................................................................
.............................. CYCLE   16 ..............................
........................................................................

 iter      E             dE          RMSdq      gap      omega  full diag
   1   -117.1119250 -0.117112E+03  0.344E-01    0.16       0.0  T
   2   -116.9269197  0.185005E+00  0.138E+00    0.62       1.0  T
   3   -117.1001466 -0.173227E+00  0.452E-01    0.18       1.0  T
   4   -117.1160690 -0.159224E-01  0.239E-01    0.16       1.0  T
   5   -117.1182814 -0.221240E-02  0.198E-01    0.16       1.0  T
   6   -117.1201145 -0.183309E-02  0.138E-01    0.16       1.0  T
   7   -117.1218025 -0.168804E-02  0.405E-02    0.16       1.0  T
   8   -117.1217959  0.663544E-05  0.398E-02    0.16       1.0  T
   9   -117.1219677 -0.171794E-03  0.470E-03    0.16       2.4  T
  10   -117.1219698 -0.217002E-05  0.135E-03    0.16       8.3  T
  11   -117.1219698  0.271147E-07  0.897E-04    0.16      12.5  T
  12   -117.1219696  0.211275E-06  0.162E-03    0.16       6.9  T
  13   -117.1219699 -0.274902E-06  0.271E-04    0.16      41.5  T
  14   -117.1219699 -0.620729E-08  0.104E-04    0.16     108.3  T
     SCC iter.                  ...        0 min,  0.217 sec
     gradient                   ...        0 min,  0.069 sec
 * total energy  :  -115.2304126 Eh     change       -0.3847634E-02 Eh
   gradient norm :     0.0248355 Eh/α   predicted    -0.3434595E-02 ( -10.73%)
   displ. norm   :     0.5494950 α      lambda       -0.3682443E-02
   maximum displ.:     0.2219793 α      in ANC's #21, #20, #29, ...

........................................................................
.............................. CYCLE   17 ..............................
........................................................................

 iter      E             dE          RMSdq      gap      omega  full diag
   1   -117.1119037 -0.117112E+03  0.419E-01    0.17       0.0  T
   2   -116.9079221  0.203982E+00  0.149E+00    0.70       1.0  T
   3   -117.0675467 -0.159625E+00  0.755E-01    0.22       1.0  T
   4   -117.1277251 -0.601784E-01  0.135E-01    0.17       1.0  T
   5   -117.1271335  0.591550E-03  0.137E-01    0.17       1.0  T
   6   -117.1265030  0.630587E-03  0.149E-01    0.17       1.0  T
   7   -117.1268922 -0.389276E-03  0.134E-01    0.17       1.0  T
   8   -117.1287153 -0.182310E-02  0.242E-02    0.17       1.0  T
   9   -117.1287783 -0.630127E-04  0.324E-03    0.17       3.5  T
  10   -117.1287655  0.127927E-04  0.109E-02    0.17       1.0  T
  11   -117.1287740 -0.845798E-05  0.651E-03    0.17       1.7  T
  12   -117.1287786 -0.454858E-05  0.524E-04    0.17      21.5  T
  13   -117.1287786 -0.511722E-08  0.344E-04    0.17      32.8  T
  14   -117.1287786 -0.470692E-08  0.249E-04    0.17      45.2  T
     SCC iter.                  ...        0 min,  0.220 sec
     gradient                   ...        0 min,  0.068 sec
 * total energy  :  -115.2331049 Eh     change       -0.2692286E-02 Eh
   gradient norm :     0.0200454 Eh/α   predicted    -0.2397174E-02 ( -10.96%)
   displ. norm   :     0.4634565 α      lambda       -0.2353955E-02
   maximum displ.:     0.1600231 α      in ANC's #20, #21, #1, ...

........................................................................
.............................. CYCLE   18 ..............................
........................................................................

 iter      E             dE          RMSdq      gap      omega  full diag
   1   -117.1349578 -0.117135E+03  0.114E-01    0.18       0.0  T
   2   -117.1269637  0.799412E-02  0.287E-01    0.19       1.0  T
   3   -117.0897491  0.372146E-01  0.639E-01    0.21       1.0  T
   4   -117.1350486 -0.452995E-01  0.402E-02    0.18       1.0  T
   5   -117.1348982  0.150443E-03  0.450E-02    0.18       1.0  T
   6   -117.1349860 -0.878267E-04  0.322E-02    0.18       1.0  T
   7   -117.1350651 -0.790703E-04  0.939E-03    0.18       1.2  T
   8   -117.1350688 -0.375301E-05  0.662E-03    0.18       1.7  T
   9   -117.1350730 -0.419576E-05  0.178E-03    0.18       6.3  T
  10   -117.1350731 -0.888526E-07  0.741E-04    0.18      15.2  T
  11   -117.1350731  0.165056E-07  0.564E-04    0.18      19.9  T
  12   -117.1350731 -0.255343E-07  0.158E-04    0.18      71.4  T
  13   -117.1350731 -0.120781E-08  0.797E-05    0.18     141.2  T
     SCC iter.                  ...        0 min,  0.224 sec
     gradient                   ...        0 min,  0.073 sec
 * total energy  :  -115.2348617 Eh     change       -0.1756796E-02 Eh
   gradient norm :     0.0190406 Eh/α   predicted    -0.1429783E-02 ( -18.61%)
   displ. norm   :     0.4627382 α      lambda       -0.2075384E-02
   maximum displ.:     0.1645348 α      in ANC's #20, #1, #16, ...

........................................................................
.............................. CYCLE   19 ..............................
........................................................................

 iter      E             dE          RMSdq      gap      omega  full diag
   1   -117.1363560 -0.117136E+03  0.160E-01    0.19       0.0  T
   2   -117.0304271  0.105929E+00  0.989E-01    0.32       1.0  T
   3   -117.1316625 -0.101235E+00  0.238E-01    0.19       1.0  T
   4   -117.1356859 -0.402336E-02  0.147E-01    0.19       1.0  T
   5   -117.1367334 -0.104750E-02  0.876E-02    0.19       1.0  T
   6   -117.1371025 -0.369172E-03  0.558E-02    0.19       1.0  T
   7   -117.1374363 -0.333733E-03  0.507E-03    0.19       2.2  T
   8   -117.1374355  0.721843E-06  0.489E-03    0.19       2.3  T
   9   -117.1374366 -0.110561E-05  0.321E-03    0.19       3.5  T
  10   -117.1374376 -0.992464E-06  0.581E-04    0.19      19.4  T
  11   -117.1374375  0.100266E-06  0.990E-04    0.19      11.4  T
  12   -117.1374376 -0.208000E-07  0.889E-04    0.19      12.7  T
  13   -117.1374376 -0.881967E-07  0.814E-05    0.19     138.2  T
  14   -117.1374376 -0.384162E-09  0.380E-05    0.19     295.8  T
     SCC iter.                  ...        0 min,  0.239 sec
     gradient                   ...        0 min,  0.084 sec
 * total energy  :  -115.2363758 Eh     change       -0.1514126E-02 Eh
   gradient norm :     0.0167931 Eh/α   predicted    -0.1259892E-02 ( -16.79%)
   displ. norm   :     0.4901396 α      lambda       -0.1932516E-02
   maximum displ.:     0.1424887 α      in ANC's #20, #19, #1, ...

........................................................................
.............................. CYCLE   20 ..............................
........................................................................

 iter      E             dE          RMSdq      gap      omega  full diag
   1   -117.1326836 -0.117133E+03  0.296E-01    0.21       0.0  T
   2   -116.8992144  0.233469E+00  0.149E+00    0.80       1.0  T
   3   -117.1132492 -0.214035E+00  0.519E-01    0.22       1.0  T
   4   -117.1414652 -0.282160E-01  0.818E-02    0.20       1.0  T
   5   -117.1399801  0.148509E-02  0.129E-01    0.20       1.0  T
   6   -117.1409830 -0.100294E-02  0.889E-02    0.20       1.0  T
   7   -117.1407857  0.197313E-03  0.963E-02    0.20       1.0  T
   8   -117.1417196 -0.933889E-03  0.249E-02    0.20       1.0  T
   9   -117.1417819 -0.623477E-04  0.652E-03    0.20       1.7  T
  10   -117.1417858 -0.387722E-05  0.146E-03    0.20       7.7  T
  11   -117.1417855  0.262573E-06  0.192E-03    0.20       5.9  T
  12   -117.1417857 -0.107412E-06  0.154E-03    0.20       7.3  T
  13   -117.1417859 -0.243499E-06  0.240E-04    0.20      46.9  T
  14   -117.1417859 -0.516761E-08  0.797E-05    0.20     141.1  T
     SCC iter.                  ...        0 min,  0.256 sec
     gradient                   ...        0 min,  0.065 sec
 * total energy  :  -115.2376736 Eh     change       -0.1297817E-02 Eh
   gradient norm :     0.0165129 Eh/α   predicted    -0.1198394E-02 (  -7.66%)
   displ. norm   :     0.4166667 α      lambda       -0.1545929E-02
   maximum displ.:     0.1365415 α      in ANC's #1, #19, #5, ...
 * RMSD in coord.:     1.0333334 α      energy gain  -0.4704939E+00 Eh

generating ANC from exact Hessian ...
Using Lindh-Hessian (1995)
 Shifting diagonal of input Hessian by    1.4329385682214223E-002
 Lowest  eigenvalues of input Hessian
    0.010000    0.014199    0.000000    0.000000    0.000000    0.000000
    0.000000    0.000000    0.014377    0.014456    0.014499    0.014559
    0.014680    0.014720    0.014786    0.014928    0.014964    0.014971
 Highest eigenvalues
    2.004125    2.004240    2.005834    2.008126    2.098349    2.322948


........................................................................
.............................. CYCLE   21 ..............................
........................................................................

 iter      E             dE          RMSdq      gap      omega  full diag
   1   -117.1361966 -0.117136E+03  0.199E-01    0.22       0.0  T
   2   -116.9564312  0.179765E+00  0.129E+00    0.48       1.0  T
   3   -117.1388149 -0.182384E+00  0.958E-02    0.22       1.0  T
   4   -117.1370840  0.173090E-02  0.143E-01    0.22       1.0  T
   5   -117.1388877 -0.180378E-02  0.690E-02    0.22       1.0  T
   6   -117.1380287  0.859070E-03  0.101E-01    0.22       1.0  T
   7   -117.1391040 -0.107533E-02  0.303E-02    0.22       1.0  T
   8   -117.1391779 -0.739072E-04  0.120E-02    0.22       1.0  T
   9   -117.1391927 -0.147752E-04  0.316E-03    0.22       3.6  T
  10   -117.1391935 -0.831719E-06  0.116E-03    0.22       9.7  T
  11   -117.1391935 -0.476892E-08  0.624E-04    0.22      18.0  T
  12   -117.1391936 -0.323321E-07  0.188E-04    0.22      60.0  T
  13   -117.1391936 -0.122702E-08  0.791E-05    0.22     142.2  T
     SCC iter.                  ...        0 min,  0.233 sec
     gradient                   ...        0 min,  0.076 sec
 * total energy  :  -115.2387427 Eh     change       -0.1069076E-02 Eh
   gradient norm :     0.0134383 Eh/α   predicted     0.0000000E+00 (-100.00%)
   displ. norm   :     0.2056310 α      lambda       -0.1284454E-02
   maximum displ.:     0.0562013 α      in ANC's #39, #22, #33, ...

........................................................................
.............................. CYCLE   22 ..............................
........................................................................

 iter      E             dE          RMSdq      gap      omega  full diag
   1   -117.1393183 -0.117139E+03  0.132E-01    0.24       0.0  T
   2   -117.0118094  0.127509E+00  0.107E+00    0.36       1.0  T
   3   -117.1403661 -0.128557E+00  0.643E-02    0.24       1.0  T
   4   -117.1401178  0.248297E-03  0.753E-02    0.24       1.0  T
   5   -117.1404378 -0.320045E-03  0.437E-02    0.24       1.0  T
   6   -117.1404649 -0.270553E-04  0.315E-02    0.24       1.0  T
   7   -117.1405699 -0.105019E-03  0.735E-03    0.24       1.5  T
   8   -117.1405752 -0.532892E-05  0.158E-03    0.24       7.1  T
   9   -117.1405753 -0.498926E-07  0.111E-03    0.24      10.1  T
  10   -117.1405754 -0.600688E-07  0.408E-04    0.24      27.6  T
  11   -117.1405754 -0.290028E-08  0.221E-04    0.24      50.9  T
     SCC iter.                  ...        0 min,  0.187 sec
     gradient                   ...        0 min,  0.072 sec
 * total energy  :  -115.2397355 Eh     change       -0.9927873E-03 Eh
   gradient norm :     0.0077043 Eh/α   predicted    -0.6693852E-03 ( -32.58%)
   displ. norm   :     0.5416248 α      lambda       -0.2442528E-02
   maximum displ.:     0.1701856 α      in ANC's #24, #37, #21, ...

........................................................................
.............................. CYCLE   23 ..............................
........................................................................

 iter      E             dE          RMSdq      gap      omega  full diag
   1   -117.1268993 -0.117127E+03  0.322E-01    0.30       0.0  T
   2   -116.9093150  0.217584E+00  0.142E+00    0.69       1.0  T
   3   -117.1323454 -0.223030E+00  0.172E-01    0.30       1.0  T
   4   -117.1295449  0.280043E-02  0.215E-01    0.29       1.0  T
   5   -117.1319691 -0.242412E-02  0.145E-01    0.30       1.0  T
   6   -117.1330132 -0.104415E-02  0.788E-02    0.29       1.0  T
   7   -117.1336107 -0.597519E-03  0.277E-02    0.29       1.0  T
   8   -117.1336796 -0.688917E-04  0.877E-03    0.29       1.3  T
   9   -117.1336854 -0.583738E-05  0.284E-03    0.29       4.0  T
  10   -117.1336850  0.449459E-06  0.316E-03    0.29       3.6  T
  11   -117.1336858 -0.841041E-06  0.118E-03    0.29       9.5  T
  12   -117.1336860 -0.119629E-06  0.296E-04    0.29      38.0  T
  13   -117.1336860 -0.436360E-08  0.119E-04    0.29      94.8  T
     SCC iter.                  ...        0 min,  0.227 sec
     gradient                   ...        0 min,  0.076 sec
 * total energy  :  -115.2395956 Eh     change        0.1398622E-03 Eh
   gradient norm :     0.0328822 Eh/α   predicted    -0.1579532E-02 (*******%)
   displ. norm   :     0.2267705 α      lambda       -0.3253218E-02
   maximum displ.:     0.1125906 α      in ANC's #22, #1, #29, ...

........................................................................
.............................. CYCLE   24 ..............................
........................................................................

 iter      E             dE          RMSdq      gap      omega  full diag
   1   -117.1363514 -0.117136E+03  0.157E-01    0.31       0.0  T
   2   -117.0510946  0.852568E-01  0.882E-01    0.38       1.0  T
   3   -117.1358326 -0.847380E-01  0.143E-01    0.30       1.0  T
   4   -117.1356190  0.213580E-03  0.147E-01    0.30       1.0  T
   5   -117.1371441 -0.152505E-02  0.766E-02    0.30       1.0  T
   6   -117.1374223 -0.278250E-03  0.342E-02    0.30       1.0  T
   7   -117.1375344 -0.112090E-03  0.732E-03    0.30       1.5  T
   8   -117.1375311  0.336814E-05  0.668E-03    0.30       1.7  T
   9   -117.1375347 -0.359959E-05  0.235E-03    0.30       4.8  T
  10   -117.1375351 -0.448354E-06  0.689E-04    0.30      16.3  T
  11   -117.1375351 -0.181962E-07  0.384E-04    0.30      29.3  T
  12   -117.1375351 -0.574403E-08  0.157E-04    0.30      71.8  T
     SCC iter.                  ...        0 min,  0.203 sec
     gradient                   ...        0 min,  0.074 sec
 * total energy  :  -115.2408203 Eh     change       -0.1224715E-02 Eh
   gradient norm :     0.0178061 Eh/α   predicted    -0.1710261E-02 (  39.65%)
   displ. norm   :     0.1982050 α      lambda       -0.1109053E-02
   maximum displ.:     0.0908771 α      in ANC's #1, #14, #39, ...

........................................................................
.............................. CYCLE   25 ..............................
........................................................................

 iter      E             dE          RMSdq      gap      omega  full diag
   1   -117.1398724 -0.117140E+03  0.118E-01    0.29       0.0  T
   2   -117.0864315  0.534409E-01  0.703E-01    0.36       1.0  T
   3   -117.1404504 -0.540189E-01  0.640E-02    0.29       1.0  T
   4   -117.1398373  0.613099E-03  0.881E-02    0.29       1.0  T
   5   -117.1402507 -0.413471E-03  0.600E-02    0.29       1.0  T
   6   -117.1402467  0.401214E-05  0.501E-02    0.29       1.0  T
   7   -117.1405282 -0.281480E-03  0.599E-03    0.29       1.9  T
   8   -117.1405282  0.215557E-07  0.451E-03    0.29       2.5  T
   9   -117.1405301 -0.188114E-05  0.158E-03    0.29       7.1  T
  10   -117.1405302 -0.135121E-06  0.794E-04    0.29      14.2  T
  11   -117.1405302 -0.112962E-07  0.512E-04    0.29      22.0  T
  12   -117.1405302 -0.196314E-07  0.258E-04    0.29      43.6  T
  13   -117.1405302 -0.632021E-08  0.590E-05    0.29     190.7  T
     SCC iter.                  ...        0 min,  0.220 sec
     gradient                   ...        0 min,  0.067 sec
 * total energy  :  -115.2411514 Eh     change       -0.3310921E-03 Eh
   gradient norm :     0.0081109 Eh/α   predicted    -0.5763171E-03 (  74.07%)
   displ. norm   :     0.2035402 α      lambda       -0.6416060E-03
   maximum displ.:     0.0719816 α      in ANC's #12, #9, #3, ...

........................................................................
.............................. CYCLE   26 ..............................
........................................................................

 iter      E             dE          RMSdq      gap      omega  full diag
   1   -117.1387911 -0.117139E+03  0.121E-01    0.30       0.0  T
   2   -117.0345870  0.104204E+00  0.963E-01    0.40       1.0  T
   3   -117.1399566 -0.105370E+00  0.442E-02    0.30       1.0  T
   4   -117.1398171  0.139453E-03  0.518E-02    0.30       1.0  T
   5   -117.1399252 -0.108012E-03  0.348E-02    0.30       1.0  T
   6   -117.1399713 -0.461337E-04  0.194E-02    0.30       1.0  T
   7   -117.1400119 -0.405701E-04  0.355E-03    0.30       3.2  T
   8   -117.1400132 -0.129211E-05  0.100E-03    0.30      11.2  T
   9   -117.1400132 -0.304823E-07  0.501E-04    0.30      22.4  T
  10   -117.1400132 -0.302764E-08  0.189E-04    0.30      59.5  T
  11   -117.1400132 -0.299934E-09  0.116E-04    0.30      97.1  T
     SCC iter.                  ...        0 min,  0.205 sec
     gradient                   ...        0 min,  0.066 sec
 * total energy  :  -115.2416270 Eh     change       -0.4756191E-03 Eh
   gradient norm :     0.0041254 Eh/α   predicted    -0.3340931E-03 ( -29.76%)
   displ. norm   :     0.4401399 α      lambda       -0.7289106E-03
   maximum displ.:     0.1737716 α      in ANC's #9, #3, #12, ...

........................................................................
.............................. CYCLE   27 ..............................
........................................................................

 iter      E             dE          RMSdq      gap      omega  full diag
   1   -117.1329744 -0.117133E+03  0.229E-01    0.35       0.0  T
   2   -116.9534024  0.179572E+00  0.128E+00    0.60       1.0  T
   3   -117.1371779 -0.183776E+00  0.724E-02    0.34       1.0  T
   4   -117.1367055  0.472454E-03  0.869E-02    0.34       1.0  T
   5   -117.1368113 -0.105803E-03  0.729E-02    0.34       1.0  T
   6   -117.1370715 -0.260285E-03  0.397E-02    0.34       1.0  T
   7   -117.1372441 -0.172521E-03  0.683E-03    0.34       1.6  T
   8   -117.1372477 -0.366333E-05  0.223E-03    0.34       5.0  T
   9   -117.1372477  0.242585E-07  0.151E-03    0.34       7.5  T
  10   -117.1372478 -0.115740E-06  0.678E-04    0.34      16.6  T
  11   -117.1372479 -0.383386E-07  0.149E-04    0.34      75.4  T
  12   -117.1372479 -0.169607E-09  0.912E-05    0.34     123.4  T
     SCC iter.                  ...        0 min,  0.194 sec
     gradient                   ...        0 min,  0.068 sec
 * total energy  :  -115.2421375 Eh     change       -0.5105023E-03 Eh
   gradient norm :     0.0082847 Eh/α   predicted    -0.4350603E-03 ( -14.78%)
   displ. norm   :     0.4588965 α      lambda       -0.6591640E-03
   maximum displ.:     0.1905639 α      in ANC's #9, #3, #12, ...

........................................................................
.............................. CYCLE   28 ..............................
........................................................................

 iter      E             dE          RMSdq      gap      omega  full diag
   1   -117.1337864 -0.117134E+03  0.208E-01    0.37       0.0  T
   2   -116.9780613  0.155725E+00  0.118E+00    0.56       1.0  T
   3   -117.1370279 -0.158967E+00  0.690E-02    0.36       1.0  T
   4   -117.1370143  0.136757E-04  0.525E-02    0.36       1.0  T
   5   -117.1368106  0.203633E-03  0.543E-02    0.36       1.0  T
   6   -117.1370142 -0.203581E-03  0.279E-02    0.36       1.0  T
   7   -117.1370955 -0.812933E-04  0.453E-03    0.36       2.5  T
   8   -117.1370967 -0.123430E-05  0.196E-03    0.36       5.8  T
   9   -117.1370969 -0.198424E-06  0.612E-04    0.36      18.4  T
  10   -117.1370969  0.849141E-09  0.291E-04    0.36      38.7  T
  11   -117.1370969 -0.632265E-08  0.965E-05    0.36     116.6  T
     SCC iter.                  ...        0 min,  0.188 sec
     gradient                   ...        0 min,  0.073 sec
 * total energy  :  -115.2426324 Eh     change       -0.4949103E-03 Eh
   gradient norm :     0.0090782 Eh/α   predicted    -0.3989895E-03 ( -19.38%)
   displ. norm   :     0.5369493 α      lambda       -0.7948672E-03
   maximum displ.:     0.2339554 α      in ANC's #3, #9, #12, ...

........................................................................
.............................. CYCLE   29 ..............................
........................................................................

 iter      E             dE          RMSdq      gap      omega  full diag
   1   -117.1370631 -0.117137E+03  0.213E-01    0.40       0.0  T
   2   -117.0029082  0.134155E+00  0.110E+00    0.55       1.0  T
   3   -117.1389610 -0.136053E+00  0.115E-01    0.39       1.0  T
   4   -117.1390899 -0.128932E-03  0.982E-02    0.39       1.0  T
   5   -117.1393048 -0.214853E-03  0.798E-02    0.39       1.0  T
   6   -117.1397923 -0.487543E-03  0.198E-02    0.39       1.0  T
   7   -117.1398314 -0.390708E-04  0.382E-03    0.39       2.9  T
   8   -117.1398313  0.950113E-07  0.242E-03    0.39       4.6  T
   9   -117.1398317 -0.396030E-06  0.726E-04    0.39      15.5  T
  10   -117.1398317 -0.820748E-09  0.419E-04    0.39      26.8  T
  11   -117.1398317 -0.113235E-07  0.147E-04    0.39      76.7  T
     SCC iter.                  ...        0 min,  0.180 sec
     gradient                   ...        0 min,  0.073 sec
 * total energy  :  -115.2432457 Eh     change       -0.6132163E-03 Eh
   gradient norm :     0.0095963 Eh/α   predicted    -0.5120236E-03 ( -16.50%)
   displ. norm   :     0.5991394 α      lambda       -0.9518904E-03
   maximum displ.:     0.2734682 α      in ANC's #9, #3, #12, ...

........................................................................
.............................. CYCLE   30 ..............................
........................................................................

 iter      E             dE          RMSdq      gap      omega  full diag
   1   -117.1373461 -0.117137E+03  0.243E-01    0.44       0.0  T
   2   -116.9901577  0.147188E+00  0.115E+00    0.61       1.0  T
   3   -117.1404507 -0.150293E+00  0.111E-01    0.43       1.0  T
   4   -117.1407605 -0.309806E-03  0.733E-02    0.43       1.0  T
   5   -117.1409198 -0.159322E-03  0.392E-02    0.43       1.0  T
   6   -117.1410027 -0.828403E-04  0.242E-02    0.43       1.0  T
   7   -117.1410558 -0.530774E-04  0.488E-03    0.43       2.3  T
   8   -117.1410571 -0.136309E-05  0.214E-03    0.43       5.3  T
   9   -117.1410572 -0.109851E-06  0.708E-04    0.43      15.9  T
  10   -117.1410572  0.696195E-08  0.440E-04    0.43      25.6  T
  11   -117.1410572 -0.122324E-07  0.150E-04    0.43      75.0  T
     SCC iter.                  ...        0 min,  0.191 sec
     gradient                   ...        0 min,  0.068 sec
 * total energy  :  -115.2439428 Eh     change       -0.6971071E-03 Eh
   gradient norm :     0.0096406 Eh/α   predicted    -0.6467947E-03 (  -7.22%)
   displ. norm   :     0.5514155 α      lambda       -0.7711958E-03
   maximum displ.:     0.2562286 α      in ANC's #9, #3, #16, ...

........................................................................
.............................. CYCLE   31 ..............................
........................................................................

 iter      E             dE          RMSdq      gap      omega  full diag
   1   -117.1421932 -0.117142E+03  0.202E-01    0.49       0.0  T
   2   -117.0476165  0.945767E-01  0.925E-01    0.57       1.0  T
   3   -117.1437365 -0.961200E-01  0.107E-01    0.48       1.0  T
   4   -117.1439719 -0.235384E-03  0.802E-02    0.48       1.0  T
   5   -117.1444231 -0.451159E-03  0.131E-02    0.48       1.0  T
   6   -117.1444306 -0.757681E-05  0.553E-03    0.48       2.0  T
   7   -117.1444310 -0.363574E-06  0.271E-03    0.48       4.2  T
   8   -117.1444304  0.632338E-06  0.349E-03    0.48       3.2  T
   9   -117.1444313 -0.954831E-06  0.890E-04    0.48      12.6  T
  10   -117.1444314 -0.414311E-07  0.386E-04    0.48      29.1  T
  11   -117.1444314 -0.490830E-08  0.119E-04    0.48      94.8  T
     SCC iter.                  ...        0 min,  0.179 sec
     gradient                   ...        0 min,  0.074 sec
 * total energy  :  -115.2445687 Eh     change       -0.6258911E-03 Eh
   gradient norm :     0.0138485 Eh/α   predicted    -0.5028460E-03 ( -19.66%)
   displ. norm   :     0.6200111 α      lambda       -0.9628423E-03
   maximum displ.:     0.2978823 α      in ANC's #9, #3, #16, ...

........................................................................
.............................. CYCLE   32 ..............................
........................................................................

 iter      E             dE          RMSdq      gap      omega  full diag
   1   -117.1417573 -0.117142E+03  0.216E-01    0.58       0.0  T
   2   -117.0606400  0.811173E-01  0.861E-01    0.63       1.0  T
   3   -117.1436092 -0.829692E-01  0.109E-01    0.57       1.0  T
   4   -117.1434692  0.140000E-03  0.102E-01    0.57       1.0  T
   5   -117.1438934 -0.424231E-03  0.652E-02    0.56       1.0  T
   6   -117.1442542 -0.360743E-03  0.121E-02    0.56       1.0  T
   7   -117.1442648 -0.105687E-04  0.430E-03    0.56       2.6  T
   8   -117.1442652 -0.394440E-06  0.173E-03    0.56       6.5  T
   9   -117.1442650  0.112209E-06  0.134E-03    0.56       8.4  T
  10   -117.1442652 -0.142112E-06  0.473E-04    0.56      23.8  T
  11   -117.1442652 -0.635858E-08  0.121E-04    0.56      92.6  T
     SCC iter.                  ...        0 min,  0.192 sec
     gradient                   ...        0 min,  0.072 sec
 * total energy  :  -115.2453725 Eh     change       -0.8038393E-03 Eh
   gradient norm :     0.0141015 Eh/α   predicted    -0.6664857E-03 ( -17.09%)
   displ. norm   :     0.5403203 α      lambda       -0.1318482E-02
   maximum displ.:     0.2624965 α      in ANC's #16, #9, #3, ...

........................................................................
.............................. CYCLE   33 ..............................
........................................................................

 iter      E             dE          RMSdq      gap      omega  full diag
   1   -117.1558383 -0.117156E+03  0.162E-01    0.68       0.0  T
   2   -117.1458750  0.996337E-02  0.320E-01    0.65       1.0  T
   3   -117.1533835 -0.750857E-02  0.174E-01    0.67       1.0  T
   4   -117.1560097 -0.262611E-02  0.798E-02    0.66       1.0  T
   5   -117.1560443 -0.346234E-04  0.616E-02    0.65       1.0  T
   6   -117.1563448 -0.300505E-03  0.181E-02    0.66       1.0  T
   7   -117.1563696 -0.248507E-04  0.576E-03    0.66       2.0  T
   8   -117.1563707 -0.102429E-05  0.259E-03    0.66       4.3  T
   9   -117.1563709 -0.198992E-06  0.142E-03    0.66       7.9  T
  10   -117.1563710 -0.164385E-06  0.413E-04    0.66      27.3  T
  11   -117.1563710 -0.742334E-08  0.172E-04    0.66      65.4  T
     SCC iter.                  ...        0 min,  0.197 sec
     gradient                   ...        0 min,  0.068 sec
 * total energy  :  -115.2460550 Eh     change       -0.6825126E-03 Eh
   gradient norm :     0.0155770 Eh/α   predicted    -0.8517054E-03 (  24.79%)
   displ. norm   :     0.6647297 α      lambda       -0.1359994E-02
   maximum displ.:     0.3276084 α      in ANC's #9, #16, #3, ...

........................................................................
.............................. CYCLE   34 ..............................
........................................................................

 iter      E             dE          RMSdq      gap      omega  full diag
   1   -117.1360908 -0.117136E+03  0.228E-01    0.79       0.0  T
   2   -117.0943795  0.417113E-01  0.629E-01    0.76       1.0  T
   3   -117.1376346 -0.432551E-01  0.124E-01    0.76       1.0  T
   4   -117.1382321 -0.597461E-03  0.740E-02    0.75       1.0  T
   5   -117.1382910 -0.589357E-04  0.410E-02    0.75       1.0  T
   6   -117.1383994 -0.108334E-03  0.230E-02    0.75       1.0  T
   7   -117.1384413 -0.419399E-04  0.395E-03    0.75       2.8  T
   8   -117.1384423 -0.100920E-05  0.165E-03    0.75       6.8  T
   9   -117.1384423 -0.953563E-08  0.139E-03    0.75       8.1  T
  10   -117.1384424 -0.790028E-07  0.505E-04    0.75      22.3  T
  11   -117.1384424 -0.142776E-07  0.148E-04    0.75      76.2  T
  12   -117.1384424 -0.186304E-09  0.853E-05    0.75     131.8  T
     SCC iter.                  ...        0 min,  0.199 sec
     gradient                   ...        0 min,  0.079 sec
 * total energy  :  -115.2466885 Eh     change       -0.6335459E-03 Eh
   gradient norm :     0.0161614 Eh/α   predicted    -0.9804664E-03 (  54.76%)
   displ. norm   :     0.2062064 α      lambda       -0.7238055E-03
   maximum displ.:     0.0981579 α      in ANC's #7, #3, #8, ...

........................................................................
.............................. CYCLE   35 ..............................
........................................................................

 iter      E             dE          RMSdq      gap      omega  full diag
   1   -117.1411886 -0.117141E+03  0.806E-02    0.74       0.0  T
   2   -117.1338258  0.736280E-02  0.267E-01    0.78       1.0  T
   3   -117.1416549 -0.782912E-02  0.281E-02    0.75       1.0  T
   4   -117.1416274  0.275817E-04  0.228E-02    0.75       1.0  T
   5   -117.1416224  0.496126E-05  0.196E-02    0.75       1.0  T
   6   -117.1416563 -0.338971E-04  0.378E-03    0.75       3.0  T
   7   -117.1416574 -0.111115E-05  0.126E-03    0.75       8.9  T
   8   -117.1416574  0.505398E-08  0.846E-04    0.75      13.3  T
   9   -117.1416574 -0.268198E-07  0.358E-04    0.75      31.4  T
  10   -117.1416574  0.148565E-08  0.245E-04    0.75      45.9  T
     SCC iter.                  ...        0 min,  0.190 sec
     gradient                   ...        0 min,  0.079 sec
 * total energy  :  -115.2470909 Eh     change       -0.4023570E-03 Eh
   gradient norm :     0.0123272 Eh/α   predicted    -0.3772920E-03 (  -6.23%)
   displ. norm   :     0.4249458 α      lambda       -0.1084881E-02
   maximum displ.:     0.2036750 α      in ANC's #7, #16, #9, ...

........................................................................
.............................. CYCLE   36 ..............................
........................................................................

 iter      E             dE          RMSdq      gap      omega  full diag
   1   -117.1465236 -0.117147E+03  0.133E-01    0.80       0.0  T
   2   -117.1456621  0.861496E-03  0.127E-01    0.81       1.0  T
   3   -117.1438993  0.176283E-02  0.158E-01    0.78       1.0  T
   4   -117.1463159 -0.241664E-02  0.758E-02    0.80       1.0  T
   5   -117.1465796 -0.263717E-03  0.324E-02    0.80       1.0  T
   6   -117.1466360 -0.564096E-04  0.186E-02    0.79       1.0  T
   7   -117.1466687 -0.326956E-04  0.429E-03    0.80       2.6  T
   8   -117.1466691 -0.400978E-06  0.186E-03    0.80       6.1  T
   9   -117.1466692 -0.394607E-07  0.770E-04    0.80      14.6  T
  10   -117.1466692 -0.224409E-07  0.353E-04    0.80      31.9  T
  11   -117.1466692 -0.575412E-08  0.119E-04    0.80      94.4  T
     SCC iter.                  ...        0 min,  0.184 sec
     gradient                   ...        0 min,  0.082 sec
 * total energy  :  -115.2474731 Eh     change       -0.3821973E-03 Eh
   gradient norm :     0.0118310 Eh/α   predicted    -0.6403948E-03 (  67.56%)
   displ. norm   :     0.2290472 α      lambda       -0.6165397E-03
   maximum displ.:     0.1239590 α      in ANC's #7, #9, #16, ...

........................................................................
.............................. CYCLE   37 ..............................
........................................................................

 iter      E             dE          RMSdq      gap      omega  full diag
   1   -117.1449734 -0.117145E+03  0.716E-02    0.83       0.0  T
   2   -117.1438438  0.112956E-02  0.114E-01    0.81       1.0  T
   3   -117.1448387 -0.994900E-03  0.556E-02    0.83       1.0  T
   4   -117.1450483 -0.209537E-03  0.318E-02    0.82       1.0  T
   5   -117.1450636 -0.153936E-04  0.168E-02    0.82       1.0  T
   6   -117.1450797 -0.160615E-04  0.106E-02    0.82       1.1  T
   7   -117.1450885 -0.881181E-05  0.206E-03    0.82       5.4  T
   8   -117.1450887 -0.173759E-06  0.893E-04    0.82      12.6  T
   9   -117.1450887 -0.280150E-07  0.462E-04    0.82      24.4  T
  10   -117.1450887 -0.118350E-07  0.159E-04    0.82      70.6  T
     SCC iter.                  ...        0 min,  0.162 sec
     gradient                   ...        0 min,  0.078 sec
 * total energy  :  -115.2478211 Eh     change       -0.3479785E-03 Eh
   gradient norm :     0.0078058 Eh/α   predicted    -0.3244448E-03 (  -6.76%)
   displ. norm   :     0.2401546 α      lambda       -0.3198431E-03
   maximum displ.:     0.1324137 α      in ANC's #7, #9, #16, ...

........................................................................
.............................. CYCLE   38 ..............................
........................................................................

 iter      E             dE          RMSdq      gap      omega  full diag
   1   -117.1430564 -0.117143E+03  0.688E-02    0.85       0.0  T
   2   -117.1427130  0.343422E-03  0.713E-02    0.84       1.0  T
   3   -117.1425866  0.126344E-03  0.734E-02    0.85       1.0  T
   4   -117.1430719 -0.485243E-03  0.262E-02    0.84       1.0  T
   5   -117.1430755 -0.367411E-05  0.208E-02    0.85       1.0  T
   6   -117.1431099 -0.343618E-04  0.495E-03    0.84       2.3  T
   7   -117.1431113 -0.139614E-05  0.148E-03    0.84       7.6  T
   8   -117.1431114 -0.108074E-06  0.657E-04    0.84      17.1  T
   9   -117.1431114 -0.768107E-08  0.366E-04    0.84      30.8  T
  10   -117.1431114 -0.926656E-08  0.103E-04    0.84     109.3  T
     SCC iter.                  ...        0 min,  0.177 sec
     gradient                   ...        0 min,  0.070 sec
 * total energy  :  -115.2480015 Eh     change       -0.1804121E-03 Eh
   gradient norm :     0.0099848 Eh/α   predicted    -0.1691478E-03 (  -6.24%)
   displ. norm   :     0.2536142 α      lambda       -0.3881710E-03
   maximum displ.:     0.1846319 α      in ANC's #7, #18, #6, ...

........................................................................
.............................. CYCLE   39 ..............................
........................................................................

 iter      E             dE          RMSdq      gap      omega  full diag
   1   -117.1442511 -0.117144E+03  0.541E-02    0.83       0.0  T
   2   -117.1437557  0.495409E-03  0.750E-02    0.84       1.0  T
   3   -117.1441270 -0.371220E-03  0.460E-02    0.83       1.0  T
   4   -117.1442907 -0.163698E-03  0.816E-03    0.83       1.4  T
   5   -117.1442928 -0.213299E-05  0.601E-03    0.83       1.9  T
   6   -117.1442955 -0.275534E-05  0.182E-03    0.83       6.2  T
   7   -117.1442958 -0.210472E-06  0.762E-04    0.83      14.8  T
   8   -117.1442958 -0.178274E-07  0.372E-04    0.83      30.2  T
   9   -117.1442958 -0.463909E-08  0.143E-04    0.83      78.7  T
     SCC iter.                  ...        0 min,  0.153 sec
     gradient                   ...        0 min,  0.071 sec
 * total energy  :  -115.2482838 Eh     change       -0.2823486E-03 Eh
   gradient norm :     0.0102562 Eh/α   predicted    -0.2065713E-03 ( -26.84%)
   displ. norm   :     0.4101970 α      lambda       -0.4868427E-03
   maximum displ.:     0.3017809 α      in ANC's #7, #6, #9, ...

........................................................................
.............................. CYCLE   40 ..............................
........................................................................

 iter      E             dE          RMSdq      gap      omega  full diag
   1   -117.1440896 -0.117144E+03  0.905E-02    0.84       0.0  T
   2   -117.1440611  0.285340E-04  0.580E-02    0.84       1.0  T
   3   -117.1430837  0.977338E-03  0.101E-01    0.82       1.0  T
   4   -117.1439542 -0.870485E-03  0.421E-02    0.84       1.0  T
   5   -117.1440934 -0.139239E-03  0.122E-02    0.84       1.0  T
   6   -117.1441032 -0.973441E-05  0.632E-03    0.84       1.8  T
   7   -117.1441070 -0.383582E-05  0.960E-04    0.84      11.7  T
   8   -117.1441070 -0.118549E-07  0.715E-04    0.84      15.7  T
   9   -117.1441070 -0.359253E-08  0.301E-04    0.84      37.4  T
  10   -117.1441070 -0.216511E-08  0.121E-04    0.84      93.1  T
     SCC iter.                  ...        0 min,  0.156 sec
     gradient                   ...        0 min,  0.083 sec
 * total energy  :  -115.2486159 Eh     change       -0.3320452E-03 Eh
   gradient norm :     0.0092316 Eh/α   predicted    -0.2843811E-03 ( -14.35%)
   displ. norm   :     0.3997586 α      lambda       -0.3997243E-03
   maximum displ.:     0.2908006 α      in ANC's #7, #6, #9, ...

........................................................................
.............................. CYCLE   41 ..............................
........................................................................

 iter      E             dE          RMSdq      gap      omega  full diag
   1   -117.1431077 -0.117143E+03  0.898E-02    0.84       0.0  T
   2   -117.1428540  0.253670E-03  0.730E-02    0.83       1.0  T
   3   -117.1417967  0.105736E-02  0.114E-01    0.85       1.0  T
   4   -117.1430967 -0.130006E-02  0.287E-02    0.84       1.0  T
   5   -117.1431201 -0.233693E-04  0.148E-02    0.84       1.0  T
   6   -117.1431396 -0.195094E-04  0.294E-03    0.84       3.8  T
   7   -117.1431400 -0.402549E-06  0.923E-04    0.84      12.2  T
   8   -117.1431400  0.268041E-08  0.631E-04    0.84      17.8  T
   9   -117.1431400 -0.757269E-08  0.316E-04    0.84      35.6  T
  10   -117.1431400  0.985949E-10  0.133E-04    0.84      84.7  T
     SCC iter.                  ...        0 min,  0.162 sec
     gradient                   ...        0 min,  0.073 sec
 * total energy  :  -115.2488893 Eh     change       -0.2734418E-03 Eh
   gradient norm :     0.0079293 Eh/α   predicted    -0.2318047E-03 ( -15.23%)
   displ. norm   :     0.4324577 α      lambda       -0.4606369E-03
   maximum displ.:     0.3010054 α      in ANC's #7, #6, #18, ...

........................................................................
.............................. CYCLE   42 ..............................
........................................................................

 iter      E             dE          RMSdq      gap      omega  full diag
   1   -117.1446655 -0.117145E+03  0.934E-02    0.83       0.0  T
   2   -117.1446316  0.339450E-04  0.595E-02    0.83       1.0  T
   3   -117.1437616  0.869928E-03  0.987E-02    0.83       1.0  T
   4   -117.1445497 -0.788024E-03  0.361E-02    0.83       1.0  T
   5   -117.1446430 -0.932907E-04  0.191E-02    0.84       1.0  T
   6   -117.1446795 -0.365068E-04  0.360E-03    0.83       3.1  T
   7   -117.1446802 -0.750260E-06  0.132E-03    0.83       8.5  T
   8   -117.1446803 -0.580545E-07  0.581E-04    0.83      19.4  T
   9   -117.1446803 -0.120785E-08  0.317E-04    0.83      35.5  T
  10   -117.1446803 -0.580869E-09  0.105E-04    0.83     107.5  T
     SCC iter.                  ...        0 min,  0.166 sec
     gradient                   ...        0 min,  0.065 sec
 * total energy  :  -115.2492250 Eh     change       -0.3356970E-03 Eh
   gradient norm :     0.0074776 Eh/α   predicted    -0.2733961E-03 ( -18.56%)
   displ. norm   :     0.5683679 α      lambda       -0.5422482E-03
   maximum displ.:     0.3427545 α      in ANC's #7, #9, #6, ...
 * RMSD in coord.:     0.7128238 α      energy gain  -0.1155143E-01 Eh

generating ANC from exact Hessian ...
Using Lindh-Hessian (1995)
 Shifting diagonal of input Hessian by    1.0240863312917512E-002
 Lowest  eigenvalues of input Hessian
    0.010000    0.000000    0.000000    0.000000    0.000000    0.000000
    0.000000    0.010301    0.010373    0.010397    0.010438    0.010636
    0.010689    0.010730    0.010843    0.010881    0.010999    0.011116
 Highest eigenvalues
    1.999256    1.999739    2.002322    2.002802    2.084652    2.326782


........................................................................
.............................. CYCLE   43 ..............................
........................................................................

 iter      E             dE          RMSdq      gap      omega  full diag
   1   -117.1420845 -0.117142E+03  0.148E-01    0.86       0.0  T
   2   -117.1368323  0.525221E-02  0.241E-01    0.83       1.0  T
   3   -117.1419079 -0.507559E-02  0.102E-01    0.85       1.0  T
   4   -117.1421625 -0.254632E-03  0.754E-02    0.83       1.0  T
   5   -117.1425207 -0.358202E-03  0.276E-02    0.85       1.0  T
   6   -117.1425880 -0.672852E-04  0.308E-03    0.84       3.7  T
   7   -117.1425884 -0.318767E-06  0.153E-03    0.84       7.4  T
   8   -117.1425884 -0.485823E-07  0.895E-04    0.84      12.6  T
   9   -117.1425884 -0.132609E-08  0.365E-04    0.84      30.8  T
  10   -117.1425884 -0.134825E-08  0.150E-04    0.84      75.0  T
     SCC iter.                  ...        0 min,  0.170 sec
     gradient                   ...        0 min,  0.091 sec
 * total energy  :  -115.2496097 Eh     change       -0.3846275E-03 Eh
   gradient norm :     0.0096322 Eh/α   predicted     0.0000000E+00 (-100.00%)
   displ. norm   :     0.1187364 α      lambda       -0.3664236E-03
   maximum displ.:     0.0614699 α      in ANC's #7, #22, #14, ...

........................................................................
.............................. CYCLE   44 ..............................
........................................................................

 iter      E             dE          RMSdq      gap      omega  full diag
   1   -117.1469865 -0.117147E+03  0.350E-02    0.84       0.0  T
   2   -117.1469640  0.225056E-04  0.258E-02    0.84       1.0  T
   3   -117.1467729  0.191114E-03  0.471E-02    0.84       1.0  T
   4   -117.1469889 -0.216019E-03  0.100E-02    0.84       1.1  T
   5   -117.1469942 -0.529878E-05  0.317E-03    0.84       3.6  T
   6   -117.1469945 -0.280336E-06  0.137E-03    0.84       8.2  T
   7   -117.1469946 -0.104733E-06  0.497E-04    0.84      22.6  T
   8   -117.1469946  0.782052E-08  0.415E-04    0.84      27.1  T
     SCC iter.                  ...        0 min,  0.164 sec
     gradient                   ...        0 min,  0.071 sec
 * total energy  :  -115.2498846 Eh     change       -0.2749264E-03 Eh
   gradient norm :     0.0038842 Eh/α   predicted    -0.1857955E-03 ( -32.42%)
   displ. norm   :     0.2589863 α      lambda       -0.4094028E-03
   maximum displ.:     0.1560889 α      in ANC's #7, #22, #14, ...

........................................................................
.............................. CYCLE   45 ..............................
........................................................................

 iter      E             dE          RMSdq      gap      omega  full diag
   1   -117.1509018 -0.117151E+03  0.629E-02    0.84       0.0  T
   2   -117.1508991  0.267851E-05  0.421E-02    0.84       1.0  T
   3   -117.1508293  0.697902E-04  0.416E-02    0.84       1.0  T
   4   -117.1507848  0.445447E-04  0.390E-02    0.85       1.0  T
   5   -117.1509168 -0.132028E-03  0.760E-03    0.84       1.5  T
   6   -117.1509145  0.231361E-05  0.722E-03    0.84       1.6  T
   7   -117.1509196 -0.507544E-05  0.303E-03    0.84       3.7  T
   8   -117.1509204 -0.842907E-06  0.633E-04    0.84      17.8  T
   9   -117.1509204 -0.102085E-08  0.422E-04    0.84      26.7  T
  10   -117.1509204  0.143838E-08  0.247E-04    0.84      45.6  T
     SCC iter.                  ...        0 min,  0.178 sec
     gradient                   ...        0 min,  0.084 sec
 * total energy  :  -115.2501678 Eh     change       -0.2832675E-03 Eh
   gradient norm :     0.0045053 Eh/α   predicted    -0.2184504E-03 ( -22.88%)
   displ. norm   :     0.3510577 α      lambda       -0.3961644E-03
   maximum displ.:     0.2086415 α      in ANC's #7, #4, #14, ...

........................................................................
.............................. CYCLE   46 ..............................
........................................................................

 iter      E             dE          RMSdq      gap      omega  full diag
   1   -117.1510728 -0.117151E+03  0.853E-02    0.84       0.0  T
   2   -117.1510047  0.680200E-04  0.597E-02    0.83       1.0  T
   3   -117.1502362  0.768527E-03  0.909E-02    0.85       1.0  T
   4   -117.1509242 -0.688017E-03  0.492E-02    0.83       1.0  T
   5   -117.1510940 -0.169782E-03  0.118E-02    0.83       1.0  T
   6   -117.1510952 -0.123407E-05  0.877E-03    0.84       1.3  T
   7   -117.1511013 -0.604194E-05  0.264E-03    0.84       4.3  T
   8   -117.1511017 -0.434255E-06  0.909E-04    0.84      12.4  T
   9   -117.1511017 -0.162413E-07  0.482E-04    0.84      23.3  T
  10   -117.1511017 -0.549890E-08  0.187E-04    0.84      60.2  T
     SCC iter.                  ...        0 min,  0.184 sec
     gradient                   ...        0 min,  0.081 sec
 * total energy  :  -115.2503430 Eh     change       -0.1751894E-03 Eh
   gradient norm :     0.0097206 Eh/α   predicted    -0.2224944E-03 (  27.00%)
   displ. norm   :     0.3661634 α      lambda       -0.5378511E-03
   maximum displ.:     0.2314928 α      in ANC's #7, #4, #14, ...

........................................................................
.............................. CYCLE   47 ..............................
........................................................................

 iter      E             dE          RMSdq      gap      omega  full diag
   1   -117.1488658 -0.117149E+03  0.924E-02    0.85       0.0  T
   2   -117.1484239  0.441867E-03  0.941E-02    0.83       1.0  T
   3   -117.1482164  0.207528E-03  0.875E-02    0.84       1.0  T
   4   -117.1486736 -0.457185E-03  0.585E-02    0.84       1.0  T
   5   -117.1488262 -0.152641E-03  0.357E-02    0.85       1.0  T
   6   -117.1489434 -0.117215E-03  0.945E-03    0.84       1.2  T
   7   -117.1489473 -0.389144E-05  0.270E-03    0.84       4.2  T
   8   -117.1489476 -0.269729E-06  0.959E-04    0.84      11.7  T
   9   -117.1489476 -0.352833E-08  0.533E-04    0.84      21.1  T
  10   -117.1489476  0.554166E-09  0.247E-04    0.84      45.6  T
  11   -117.1489476 -0.220821E-08  0.963E-05    0.84     116.8  T
     SCC iter.                  ...        0 min,  0.217 sec
     gradient                   ...        0 min,  0.068 sec
 * total energy  :  -115.2506326 Eh     change       -0.2895728E-03 Eh
   gradient norm :     0.0099265 Eh/α   predicted    -0.3049842E-03 (   5.32%)
   displ. norm   :     0.2709433 α      lambda       -0.5011706E-03
   maximum displ.:     0.1750172 α      in ANC's #7, #4, #3, ...

........................................................................
.............................. CYCLE   48 ..............................
........................................................................

 iter      E             dE          RMSdq      gap      omega  full diag
   1   -117.1470788 -0.117147E+03  0.725E-02    0.85       0.0  T
   2   -117.1469557  0.123103E-03  0.590E-02    0.84       1.0  T
   3   -117.1464266  0.529114E-03  0.811E-02    0.86       1.0  T
   4   -117.1469720 -0.545354E-03  0.404E-02    0.84       1.0  T
   5   -117.1471024 -0.130389E-03  0.486E-03    0.85       2.3  T
   6   -117.1471005  0.190784E-05  0.586E-03    0.84       1.9  T
   7   -117.1471026 -0.210575E-05  0.259E-03    0.85       4.3  T
   8   -117.1471030 -0.413412E-06  0.122E-03    0.85       9.2  T
   9   -117.1471030 -0.301546E-07  0.638E-04    0.85      17.6  T
  10   -117.1471030 -0.147678E-07  0.207E-04    0.85      54.4  T
  11   -117.1471030 -0.903583E-09  0.109E-04    0.85     103.6  T
     SCC iter.                  ...        0 min,  0.200 sec
     gradient                   ...        0 min,  0.076 sec
 * total energy  :  -115.2509131 Eh     change       -0.2804426E-03 Eh
   gradient norm :     0.0075485 Eh/α   predicted    -0.2689845E-03 (  -4.09%)
   displ. norm   :     0.2760630 α      lambda       -0.4201888E-03
   maximum displ.:     0.1945446 α      in ANC's #7, #4, #3, ...

........................................................................
.............................. CYCLE   49 ..............................
........................................................................

 iter      E             dE          RMSdq      gap      omega  full diag
   1   -117.1470094 -0.117147E+03  0.595E-02    0.85       0.0  T
   2   -117.1468914  0.118039E-03  0.506E-02    0.84       1.0  T
   3   -117.1465142  0.377150E-03  0.717E-02    0.86       1.0  T
   4   -117.1469607 -0.446437E-03  0.287E-02    0.85       1.0  T
   5   -117.1469908 -0.301251E-04  0.200E-02    0.85       1.0  T
   6   -117.1470251 -0.342811E-04  0.210E-03    0.85       5.4  T
   7   -117.1470252 -0.865078E-07  0.129E-03    0.85       8.8  T
   8   -117.1470252 -0.258953E-07  0.601E-04    0.85      18.7  T
   9   -117.1470252 -0.144150E-07  0.283E-04    0.85      39.8  T
  10   -117.1470252 -0.153932E-09  0.100E-04    0.85     112.2  T
     SCC iter.                  ...        0 min,  0.184 sec
     gradient                   ...        0 min,  0.070 sec
 * total energy  :  -115.2512367 Eh     change       -0.3236780E-03 Eh
   gradient norm :     0.0053599 Eh/α   predicted    -0.2261063E-03 ( -30.14%)
   displ. norm   :     0.5211041 α      lambda       -0.6524186E-03
   maximum displ.:     0.3405792 α      in ANC's #7, #4, #3, ...

........................................................................
.............................. CYCLE   50 ..............................
........................................................................

 iter      E             dE          RMSdq      gap      omega  full diag
   1   -117.1458562 -0.117146E+03  0.107E-01    0.87       0.0  T
   2   -117.1443747  0.148143E-02  0.138E-01    0.84       1.0  T
   3   -117.1453038 -0.929020E-03  0.912E-02    0.86       1.0  T
   4   -117.1458917 -0.587957E-03  0.410E-02    0.86       1.0  T
   5   -117.1458397  0.520366E-04  0.431E-02    0.85       1.0  T
   6   -117.1459960 -0.156286E-03  0.505E-03    0.86       2.2  T
   7   -117.1459970 -0.100349E-05  0.223E-03    0.85       5.1  T
   8   -117.1459971 -0.106114E-06  0.867E-04    0.85      13.0  T
   9   -117.1459971 -0.709717E-08  0.494E-04    0.85      22.8  T
  10   -117.1459971 -0.187356E-08  0.235E-04    0.85      47.9  T
     SCC iter.                  ...        0 min,  0.183 sec
     gradient                   ...        0 min,  0.069 sec
 * total energy  :  -115.2516637 Eh     change       -0.4270147E-03 Eh
   gradient norm :     0.0098798 Eh/α   predicted    -0.4147941E-03 (  -2.86%)
   displ. norm   :     0.5325895 α      lambda       -0.5448252E-03
   maximum displ.:     0.3651050 α      in ANC's #7, #4, #3, ...

........................................................................
.............................. CYCLE   51 ..............................
........................................................................

 iter      E             dE          RMSdq      gap      omega  full diag
   1   -117.1440581 -0.117144E+03  0.107E-01    0.88       0.0  T
   2   -117.1427016  0.135655E-02  0.135E-01    0.86       1.0  T
   3   -117.1435415 -0.839953E-03  0.880E-02    0.88       1.0  T
   4   -117.1439735 -0.431987E-03  0.526E-02    0.87       1.0  T
   5   -117.1441157 -0.142246E-03  0.302E-02    0.87       1.0  T
   6   -117.1441836 -0.678291E-04  0.549E-03    0.87       2.0  T
   7   -117.1441851 -0.154763E-05  0.252E-03    0.87       4.5  T
   8   -117.1441852 -0.110641E-06  0.112E-03    0.87      10.0  T
   9   -117.1441853 -0.400832E-07  0.534E-04    0.87      21.1  T
  10   -117.1441853  0.903242E-09  0.238E-04    0.87      47.2  T
  11   -117.1441853 -0.190640E-08  0.910E-05    0.87     123.7  T
     SCC iter.                  ...        0 min,  0.185 sec
     gradient                   ...        0 min,  0.075 sec
 * total energy  :  -115.2521058 Eh     change       -0.4420449E-03 Eh
   gradient norm :     0.0130146 Eh/α   predicted    -0.3496884E-03 ( -20.89%)
   displ. norm   :     0.5753811 α      lambda       -0.8031226E-03
   maximum displ.:     0.3865254 α      in ANC's #7, #4, #3, ...

........................................................................
.............................. CYCLE   52 ..............................
........................................................................

 iter      E             dE          RMSdq      gap      omega  full diag
   1   -117.1478477 -0.117148E+03  0.104E-01    0.90       0.0  T
   2   -117.1471395  0.708257E-03  0.106E-01    0.88       1.0  T
   3   -117.1466609  0.478575E-03  0.114E-01    0.91       1.0  T
   4   -117.1477930 -0.113211E-02  0.412E-02    0.89       1.0  T
   5   -117.1478337 -0.406947E-04  0.331E-02    0.89       1.0  T
   6   -117.1479223 -0.885673E-04  0.351E-03    0.89       3.2  T
   7   -117.1479224 -0.143542E-06  0.236E-03    0.89       4.8  T
   8   -117.1479226 -0.202771E-06  0.965E-04    0.89      11.7  T
   9   -117.1479226 -0.212788E-08  0.529E-04    0.89      21.3  T
  10   -117.1479226  0.766249E-10  0.260E-04    0.89      43.3  T
  11   -117.1479226 -0.275806E-08  0.104E-04    0.89     108.6  T
     SCC iter.                  ...        0 min,  0.192 sec
     gradient                   ...        0 min,  0.075 sec
 * total energy  :  -115.2527881 Eh     change       -0.6823117E-03 Eh
   gradient norm :     0.0106750 Eh/α   predicted    -0.5345056E-03 ( -21.66%)
   displ. norm   :     0.7259422 α      lambda       -0.9726784E-03
   maximum displ.:     0.4936613 α      in ANC's #7, #4, #3, ...

........................................................................
.............................. CYCLE   53 ..............................
........................................................................

 iter      E             dE          RMSdq      gap      omega  full diag
   1   -117.1485460 -0.117149E+03  0.130E-01    0.93       0.0  T
   2   -117.1478981  0.647883E-03  0.116E-01    0.91       1.0  T
   3   -117.1461301  0.176795E-02  0.157E-01    0.94       1.0  T
   4   -117.1484462 -0.231605E-02  0.534E-02    0.92       1.0  T
   5   -117.1485643 -0.118140E-03  0.279E-02    0.92       1.0  T
   6   -117.1486162 -0.518653E-04  0.898E-03    0.92       1.3  T
   7   -117.1486215 -0.529906E-05  0.343E-03    0.92       3.3  T
   8   -117.1486219 -0.444182E-06  0.115E-03    0.92       9.8  T
   9   -117.1486220 -0.172411E-07  0.671E-04    0.92      16.8  T
  10   -117.1486220 -0.838520E-08  0.317E-04    0.92      35.5  T
  11   -117.1486220 -0.345776E-08  0.148E-04    0.92      76.2  T
     SCC iter.                  ...        0 min,  0.200 sec
     gradient                   ...        0 min,  0.068 sec
 * total energy  :  -115.2536531 Eh     change       -0.8650044E-03 Eh
   gradient norm :     0.0083444 Eh/α   predicted    -0.7426389E-03 ( -14.15%)
   displ. norm   :     0.7128829 α      lambda       -0.1118405E-02
   maximum displ.:     0.4628073 α      in ANC's #7, #4, #3, ...

........................................................................
.............................. CYCLE   54 ..............................
........................................................................

 iter      E             dE          RMSdq      gap      omega  full diag
   1   -117.1557427 -0.117156E+03  0.122E-01    0.96       0.0  T
   2   -117.1555797  0.163008E-03  0.850E-02    0.95       1.0  T
   3   -117.1543906  0.118917E-02  0.127E-01    0.97       1.0  T
   4   -117.1555087 -0.111813E-02  0.591E-02    0.95       1.0  T
   5   -117.1555183 -0.962402E-05  0.529E-02    0.96       1.0  T
   6   -117.1557920 -0.273712E-03  0.796E-03    0.96       1.4  T
   7   -117.1557946 -0.259620E-05  0.320E-03    0.96       3.5  T
   8   -117.1557948 -0.173712E-06  0.129E-03    0.96       8.8  T
   9   -117.1557948 -0.293068E-07  0.694E-04    0.96      16.2  T
  10   -117.1557948 -0.610146E-08  0.277E-04    0.96      40.6  T
  11   -117.1557948 -0.200806E-08  0.140E-04    0.96      80.1  T
     SCC iter.                  ...        0 min,  0.191 sec
     gradient                   ...        0 min,  0.066 sec
 * total energy  :  -115.2545160 Eh     change       -0.8628775E-03 Eh
   gradient norm :     0.0086824 Eh/α   predicted    -0.8433911E-03 (  -2.26%)
   displ. norm   :     0.9043357 α      lambda       -0.1197091E-02
   maximum displ.:     0.6380245 α      in ANC's #7, #4, #3, ...

........................................................................
.............................. CYCLE   55 ..............................
........................................................................

 iter      E             dE          RMSdq      gap      omega  full diag
   1   -117.1442376 -0.117144E+03  0.169E-01    0.98       0.0  T
   2   -117.1427540  0.148354E-02  0.166E-01    0.96       1.0  T
   3   -117.1416832  0.107087E-02  0.170E-01    1.00       1.0  T
   4   -117.1434123 -0.172914E-02  0.111E-01    0.96       1.0  T
   5   -117.1441790 -0.766693E-03  0.541E-02    0.97       1.0  T
   6   -117.1444203 -0.241309E-03  0.861E-03    0.97       1.3  T
   7   -117.1444227 -0.232860E-05  0.444E-03    0.97       2.5  T
   8   -117.1444233 -0.620452E-06  0.188E-03    0.97       6.0  T
   9   -117.1444234 -0.153815E-06  0.750E-04    0.97      15.0  T
  10   -117.1444234  0.196637E-08  0.406E-04    0.97      27.7  T
  11   -117.1444234 -0.693025E-08  0.165E-04    0.97      68.0  T
     SCC iter.                  ...        0 min,  0.177 sec
     gradient                   ...        0 min,  0.069 sec
 * total energy  :  -115.2554692 Eh     change       -0.9531876E-03 Eh
   gradient norm :     0.0120268 Eh/α   predicted    -0.1088050E-02 (  14.15%)
   displ. norm   :     0.6168904 α      lambda       -0.1056793E-02
   maximum displ.:     0.4198140 α      in ANC's #7, #4, #3, ...

........................................................................
.............................. CYCLE   56 ..............................
........................................................................

 iter      E             dE          RMSdq      gap      omega  full diag
   1   -117.1422832 -0.117142E+03  0.119E-01    0.99       0.0  T
   2   -117.1418247  0.458455E-03  0.104E-01    0.98       1.0  T
   3   -117.1415384  0.286309E-03  0.104E-01    0.99       1.0  T
   4   -117.1419988 -0.460400E-03  0.672E-02    0.98       1.0  T
   5   -117.1419824  0.164332E-04  0.629E-02    0.99       1.0  T
   6   -117.1423781 -0.395702E-03  0.555E-03    0.99       2.0  T
   7   -117.1423787 -0.665235E-06  0.267E-03    0.99       4.2  T
   8   -117.1423786  0.936737E-07  0.152E-03    0.99       7.4  T
   9   -117.1423788 -0.136907E-06  0.494E-04    0.99      22.8  T
  10   -117.1423788 -0.705431E-08  0.235E-04    0.99      47.8  T
     SCC iter.                  ...        0 min,  0.175 sec
     gradient                   ...        0 min,  0.069 sec
 * total energy  :  -115.2563302 Eh     change       -0.8610118E-03 Eh
   gradient norm :     0.0146423 Eh/α   predicted    -0.7294807E-03 ( -15.28%)
   displ. norm   :     0.5201812 α      lambda       -0.1513532E-02
   maximum displ.:     0.2922793 α      in ANC's #7, #4, #3, ...

........................................................................
.............................. CYCLE   57 ..............................
........................................................................

 iter      E             dE          RMSdq      gap      omega  full diag
   1   -117.1520733 -0.117152E+03  0.105E-01    1.00       0.0  T
   2   -117.1508791  0.119421E-02  0.130E-01    1.01       1.0  T
   3   -117.1515287 -0.649583E-03  0.938E-02    1.00       1.0  T
   4   -117.1518923 -0.363590E-03  0.681E-02    1.01       1.0  T
   5   -117.1521086 -0.216307E-03  0.393E-02    1.00       1.0  T
   6   -117.1522435 -0.134913E-03  0.691E-03    1.00       1.6  T
   7   -117.1522463 -0.281635E-05  0.298E-03    1.00       3.8  T
   8   -117.1522465 -0.247334E-06  0.113E-03    1.00       9.9  T
   9   -117.1522466 -0.299992E-07  0.443E-04    1.00      25.4  T
  10   -117.1522466 -0.848465E-08  0.205E-04    1.00      54.8  T
     SCC iter.                  ...        0 min,  0.170 sec
     gradient                   ...        0 min,  0.069 sec
 * total energy  :  -115.2572842 Eh     change       -0.9539829E-03 Eh
   gradient norm :     0.0132321 Eh/α   predicted    -0.9615383E-03 (   0.79%)
   displ. norm   :     0.7456698 α      lambda       -0.1131410E-02
   maximum displ.:     0.4863935 α      in ANC's #7, #4, #3, ...

........................................................................
.............................. CYCLE   58 ..............................
........................................................................

 iter      E             dE          RMSdq      gap      omega  full diag
   1   -117.1467014 -0.117147E+03  0.137E-01    0.98       0.0  T
   2   -117.1439289  0.277250E-02  0.179E-01    1.02       1.0  T
   3   -117.1454101 -0.148123E-02  0.141E-01    0.98       1.0  T
   4   -117.1463854 -0.975286E-03  0.851E-02    1.00       1.0  T
   5   -117.1469401 -0.554719E-03  0.299E-02    0.99       1.0  T
   6   -117.1470066 -0.664642E-04  0.647E-03    0.99       1.7  T
   7   -117.1470065  0.369351E-07  0.421E-03    0.99       2.7  T
   8   -117.1470073 -0.713528E-06  0.173E-03    0.99       6.5  T
   9   -117.1470073 -0.563143E-07  0.676E-04    0.99      16.6  T
  10   -117.1470073 -0.694702E-08  0.303E-04    0.99      37.1  T
  11   -117.1470073 -0.119941E-08  0.159E-04    0.99      70.9  T
     SCC iter.                  ...        0 min,  0.192 sec
     gradient                   ...        0 min,  0.073 sec
 * total energy  :  -115.2581021 Eh     change       -0.8179484E-03 Eh
   gradient norm :     0.0127665 Eh/α   predicted    -0.8802501E-03 (   7.62%)
   displ. norm   :     0.4318334 α      lambda       -0.1007332E-02
   maximum displ.:     0.2283489 α      in ANC's #7, #4, #3, ...

........................................................................
.............................. CYCLE   59 ..............................
........................................................................

 iter      E             dE          RMSdq      gap      omega  full diag
   1   -117.1557797 -0.117156E+03  0.776E-02    0.95       0.0  T
   2   -117.1553360  0.443753E-03  0.757E-02    0.97       1.0  T
   3   -117.1546933  0.642681E-03  0.113E-01    0.95       1.0  T
   4   -117.1558522 -0.115889E-02  0.271E-02    0.96       1.0  T
   5   -117.1558532 -0.967257E-06  0.135E-02    0.96       1.0  T
   6   -117.1558557 -0.257948E-05  0.747E-03    0.96       1.5  T
   7   -117.1558587 -0.297012E-05  0.460E-03    0.96       2.4  T
   8   -117.1558603 -0.153406E-05  0.161E-03    0.96       7.0  T
   9   -117.1558604 -0.110251E-06  0.603E-04    0.96      18.7  T
  10   -117.1558604 -0.416509E-08  0.317E-04    0.96      35.5  T
  11   -117.1558604 -0.332513E-08  0.108E-04    0.96     104.0  T
     SCC iter.                  ...        0 min,  0.193 sec
     gradient                   ...        0 min,  0.066 sec
 * total energy  :  -115.2586029 Eh     change       -0.5007920E-03 Eh
   gradient norm :     0.0120688 Eh/α   predicted    -0.5975896E-03 (  19.33%)
   displ. norm   :     0.6074355 α      lambda       -0.8589812E-03
   maximum displ.:     0.3841356 α      in ANC's #7, #4, #3, ...

........................................................................
.............................. CYCLE   60 ..............................
........................................................................

 iter      E             dE          RMSdq      gap      omega  full diag
   1   -117.1484257 -0.117148E+03  0.132E-01    0.93       0.0  T
   2   -117.1460586  0.236711E-02  0.178E-01    0.97       1.0  T
   3   -117.1471457 -0.108709E-02  0.135E-01    0.93       1.0  T
   4   -117.1483500 -0.120426E-02  0.723E-02    0.95       1.0  T
   5   -117.1483783 -0.283543E-04  0.594E-02    0.94       1.0  T
   6   -117.1487132 -0.334877E-03  0.853E-03    0.94       1.3  T
   7   -117.1487146 -0.140194E-05  0.262E-03    0.94       4.3  T
   8   -117.1487146 -0.281727E-07  0.113E-03    0.94      10.0  T
   9   -117.1487146 -0.276412E-08  0.492E-04    0.94      22.9  T
  10   -117.1487146 -0.463760E-08  0.251E-04    0.94      44.9  T
     SCC iter.                  ...        0 min,  0.161 sec
     gradient                   ...        0 min,  0.064 sec
 * total energy  :  -115.2588669 Eh     change       -0.2640040E-03 Eh
   gradient norm :     0.0163346 Eh/α   predicted    -0.5879683E-03 ( 122.71%)
   displ. norm   :     0.2296778 α      lambda       -0.7149829E-03
   maximum displ.:     0.1060568 α      in ANC's #7, #4, #3, ...

........................................................................
.............................. CYCLE   61 ..............................
........................................................................

 iter      E             dE          RMSdq      gap      omega  full diag
   1   -117.1510722 -0.117151E+03  0.829E-02    0.94       0.0  T
   2   -117.1469726  0.409954E-02  0.206E-01    0.98       1.0  T
   3   -117.1512468 -0.427422E-02  0.507E-02    0.94       1.0  T
   4   -117.1513418 -0.949355E-04  0.345E-02    0.95       1.0  T
   5   -117.1513326  0.919603E-05  0.295E-02    0.95       1.0  T
   6   -117.1514092 -0.765817E-04  0.315E-03    0.95       3.6  T
   7   -117.1514092 -0.567837E-07  0.147E-03    0.95       7.7  T
   8   -117.1514092 -0.173793E-07  0.638E-04    0.95      17.6  T
   9   -117.1514092 -0.679761E-08  0.328E-04    0.95      34.3  T
  10   -117.1514092 -0.160827E-08  0.156E-04    0.95      72.3  T
     SCC iter.                  ...        0 min,  0.155 sec
     gradient                   ...        0 min,  0.072 sec
 * total energy  :  -115.2591291 Eh     change       -0.2622236E-03 Eh
   gradient norm :     0.0132513 Eh/α   predicted    -0.3763512E-03 (  43.52%)
   displ. norm   :     0.1646810 α      lambda       -0.4978857E-03
   maximum displ.:     0.0804243 α      in ANC's #7, #3, #4, ...

........................................................................
.............................. CYCLE   62 ..............................
........................................................................

 iter      E             dE          RMSdq      gap      omega  full diag
   1   -117.1529674 -0.117153E+03  0.524E-02    0.95       0.0  T
   2   -117.1515906  0.137678E-02  0.119E-01    0.97       1.0  T
   3   -117.1529740 -0.138340E-02  0.361E-02    0.95       1.0  T
   4   -117.1530674 -0.933761E-04  0.143E-02    0.95       1.0  T
   5   -117.1530593  0.811595E-05  0.114E-02    0.95       1.0  T
   6   -117.1530699 -0.105935E-04  0.405E-03    0.95       2.8  T
   7   -117.1530711 -0.122452E-05  0.106E-03    0.95      10.6  T
   8   -117.1530711 -0.643438E-08  0.478E-04    0.95      23.6  T
   9   -117.1530711 -0.364398E-08  0.156E-04    0.95      72.2  T
     SCC iter.                  ...        0 min,  0.135 sec
     gradient                   ...        0 min,  0.069 sec
 * total energy  :  -115.2593647 Eh     change       -0.2355730E-03 Eh
   gradient norm :     0.0099339 Eh/α   predicted    -0.2556946E-03 (   8.54%)
   displ. norm   :     0.2726324 α      lambda       -0.4246782E-03
   maximum displ.:     0.1429706 α      in ANC's #4, #3, #7, ...

........................................................................
.............................. CYCLE   63 ..............................
........................................................................

 iter      E             dE          RMSdq      gap      omega  full diag
   1   -117.1571503 -0.117157E+03  0.490E-02    0.96       0.0  T
   2   -117.1570029  0.147442E-03  0.461E-02    0.95       1.0  T
   3   -117.1567506  0.252239E-03  0.665E-02    0.96       1.0  T
   4   -117.1571339 -0.383268E-03  0.199E-02    0.95       1.0  T
   5   -117.1571478 -0.138783E-04  0.146E-02    0.96       1.0  T
   6   -117.1571650 -0.172447E-04  0.365E-03    0.96       3.1  T
   7   -117.1571658 -0.756819E-06  0.134E-03    0.95       8.4  T
   8   -117.1571658 -0.132515E-07  0.538E-04    0.95      20.9  T
   9   -117.1571658 -0.268460E-08  0.232E-04    0.95      48.5  T
  10   -117.1571658 -0.101457E-08  0.831E-05    0.95     135.4  T
     SCC iter.                  ...        0 min,  0.141 sec
     gradient                   ...        0 min,  0.066 sec
 * total energy  :  -115.2595906 Eh     change       -0.2258591E-03 Eh
   gradient norm :     0.0100410 Eh/α   predicted    -0.2281245E-03 (   1.00%)
   displ. norm   :     0.5091948 α      lambda       -0.5030634E-03
   maximum displ.:     0.2744142 α      in ANC's #7, #4, #3, ...

........................................................................
.............................. CYCLE   64 ..............................
........................................................................

 iter      E             dE          RMSdq      gap      omega  full diag
   1   -117.1550392 -0.117155E+03  0.826E-02    0.96       0.0  T
   2   -117.1549804  0.587982E-04  0.573E-02    0.97       1.0  T
   3   -117.1547185  0.261948E-03  0.658E-02    0.96       1.0  T
   4   -117.1547785 -0.600536E-04  0.562E-02    0.97       1.0  T
   5   -117.1549554 -0.176864E-03  0.319E-02    0.96       1.0  T
   6   -117.1550561 -0.100714E-03  0.544E-03    0.97       2.1  T
   7   -117.1550574 -0.132728E-05  0.218E-03    0.96       5.2  T
   8   -117.1550575 -0.812555E-07  0.842E-04    0.96      13.4  T
   9   -117.1550575 -0.165656E-07  0.416E-04    0.96      27.0  T
  10   -117.1550575 -0.466521E-08  0.165E-04    0.96      68.2  T
     SCC iter.                  ...        0 min,  0.163 sec
     gradient                   ...        0 min,  0.063 sec
 * total energy  :  -115.2599157 Eh     change       -0.3251571E-03 Eh
   gradient norm :     0.0107412 Eh/α   predicted    -0.3167543E-03 (  -2.58%)
   displ. norm   :     0.5272539 α      lambda       -0.5232109E-03
   maximum displ.:     0.2797883 α      in ANC's #7, #4, #3, ...

........................................................................
.............................. CYCLE   65 ..............................
........................................................................

 iter      E             dE          RMSdq      gap      omega  full diag
   1   -117.1519749 -0.117152E+03  0.885E-02    0.99       0.0  T
   2   -117.1488710  0.310381E-02  0.184E-01    1.02       1.0  T
   3   -117.1521168 -0.324574E-02  0.513E-02    0.99       1.0  T
   4   -117.1521692 -0.524543E-04  0.399E-02    0.99       1.0  T
   5   -117.1521571  0.121084E-04  0.335E-02    0.99       1.0  T
   6   -117.1522568 -0.996471E-04  0.514E-03    0.99       2.2  T
   7   -117.1522582 -0.145981E-05  0.167E-03    0.99       6.7  T
   8   -117.1522583 -0.512733E-07  0.755E-04    0.99      14.9  T
   9   -117.1522583 -0.113651E-07  0.374E-04    0.99      30.1  T
  10   -117.1522583 -0.373532E-09  0.246E-04    0.99      45.7  T
     SCC iter.                  ...        0 min,  0.147 sec
     gradient                   ...        0 min,  0.080 sec
 * total energy  :  -115.2603070 Eh     change       -0.3912525E-03 Eh
   gradient norm :     0.0087654 Eh/α   predicted    -0.3343345E-03 ( -14.55%)
   displ. norm   :     0.5516346 α      lambda       -0.6031992E-03
   maximum displ.:     0.2899261 α      in ANC's #3, #4, #7, ...

........................................................................
.............................. CYCLE   66 ..............................
........................................................................

 iter      E             dE          RMSdq      gap      omega  full diag
   1   -117.1551771 -0.117155E+03  0.756E-02    1.05       0.0  T
   2   -117.1548480  0.329092E-03  0.798E-02    1.05       1.0  T
   3   -117.1547741  0.739091E-04  0.713E-02    1.04       1.0  T
   4   -117.1551665 -0.392489E-03  0.370E-02    1.05       1.0  T
   5   -117.1551878 -0.212971E-04  0.299E-02    1.04       1.0  T
   6   -117.1552616 -0.737458E-04  0.643E-03    1.04       1.7  T
   7   -117.1552646 -0.299513E-05  0.309E-03    1.04       3.6  T
   8   -117.1552648 -0.262083E-06  0.108E-03    1.04      10.5  T
   9   -117.1552649 -0.342886E-07  0.452E-04    1.04      24.9  T
  10   -117.1552649  0.181295E-08  0.311E-04    1.04      36.2  T
     SCC iter.                  ...        0 min,  0.180 sec
     gradient                   ...        0 min,  0.072 sec
 * total energy  :  -115.2606647 Eh     change       -0.3577670E-03 Eh
   gradient norm :     0.0097579 Eh/α   predicted    -0.3933804E-03 (   9.95%)
   displ. norm   :     0.6434204 α      lambda       -0.5475504E-03
   maximum displ.:     0.3289300 α      in ANC's #3, #7, #4, ...
 * RMSD in coord.:     1.1572633 α      energy gain  -0.1143972E-01 Eh

generating ANC from exact Hessian ...
Using Lindh-Hessian (1995)
 Shifting diagonal of input Hessian by    1.1719868488896565E-002
 Lowest  eigenvalues of input Hessian
    0.010000    0.011131    0.000000    0.000000    0.000000    0.000000
    0.000000    0.000000    0.011740    0.011851    0.011856    0.012009
    0.012043    0.012158    0.012207    0.012315    0.012414    0.012575
 Highest eigenvalues
    2.000596    2.000677    2.003401    2.005290    2.085736    2.317284


........................................................................
.............................. CYCLE   67 ..............................
........................................................................

 iter      E             dE          RMSdq      gap      omega  full diag
   1   -117.1526091 -0.117153E+03  0.840E-02    1.06       0.0  T
   2   -117.1521795  0.429631E-03  0.818E-02    1.05       1.0  T
   3   -117.1517878  0.391643E-03  0.963E-02    1.07       1.0  T
   4   -117.1526261 -0.838301E-03  0.192E-02    1.06       1.0  T
   5   -117.1526391 -0.129647E-04  0.142E-02    1.06       1.0  T
   6   -117.1526552 -0.161500E-04  0.295E-03    1.06       3.8  T
   7   -117.1526553 -0.107775E-06  0.231E-03    1.06       4.9  T
   8   -117.1526555 -0.175130E-06  0.940E-04    1.06      12.0  T
   9   -117.1526555 -0.297773E-07  0.441E-04    1.06      25.5  T
  10   -117.1526555 -0.525057E-08  0.157E-04    1.06      71.4  T
     SCC iter.                  ...        0 min,  0.161 sec
     gradient                   ...        0 min,  0.069 sec
 * total energy  :  -115.2610250 Eh     change       -0.3602291E-03 Eh
   gradient norm :     0.0122006 Eh/α   predicted     0.0000000E+00 (-100.00%)
   displ. norm   :     0.0945175 α      lambda       -0.3314816E-03
   maximum displ.:     0.0447572 α      in ANC's #6, #13, #14, ...

........................................................................
.............................. CYCLE   68 ..............................
........................................................................

 iter      E             dE          RMSdq      gap      omega  full diag
   1   -117.1563307 -0.117156E+03  0.360E-02    1.05       0.0  T
   2   -117.1562601  0.705563E-04  0.334E-02    1.05       1.0  T
   3   -117.1561586  0.101477E-03  0.448E-02    1.06       1.0  T
   4   -117.1563390 -0.180383E-03  0.116E-02    1.05       1.0  T
   5   -117.1563385  0.478648E-06  0.836E-03    1.05       1.3  T
   6   -117.1563426 -0.408661E-05  0.408E-03    1.05       2.8  T
   7   -117.1563439 -0.122374E-05  0.128E-03    1.05       8.8  T
   8   -117.1563439 -0.750234E-07  0.394E-04    1.05      28.5  T
   9   -117.1563439 -0.133657E-08  0.217E-04    1.05      51.9  T
     SCC iter.                  ...        0 min,  0.141 sec
     gradient                   ...        0 min,  0.066 sec
 * total energy  :  -115.2612227 Eh     change       -0.1977205E-03 Eh
   gradient norm :     0.0056767 Eh/α   predicted    -0.1672219E-03 ( -15.43%)
   displ. norm   :     0.2563892 α      lambda       -0.6275969E-03
   maximum displ.:     0.1177294 α      in ANC's #6, #13, #7, ...

........................................................................
.............................. CYCLE   69 ..............................
........................................................................

 iter      E             dE          RMSdq      gap      omega  full diag
   1   -117.1631433 -0.117163E+03  0.903E-02    1.04       0.0  T
   2   -117.1627626  0.380772E-03  0.839E-02    1.03       1.0  T
   3   -117.1622228  0.539726E-03  0.103E-01    1.05       1.0  T
   4   -117.1631312 -0.908353E-03  0.424E-02    1.04       1.0  T
   5   -117.1631714 -0.402089E-04  0.236E-02    1.04       1.0  T
   6   -117.1632026 -0.311864E-04  0.132E-02    1.04       1.0  T
   7   -117.1632160 -0.134022E-04  0.354E-03    1.04       3.2  T
   8   -117.1632162 -0.216688E-06  0.161E-03    1.04       7.0  T
   9   -117.1632162 -0.245373E-07  0.780E-04    1.04      14.4  T
  10   -117.1632162 -0.834375E-08  0.335E-04    1.04      33.6  T
  11   -117.1632162 -0.695593E-09  0.158E-04    1.04      71.4  T
     SCC iter.                  ...        0 min,  0.175 sec
     gradient                   ...        0 min,  0.084 sec
 * total energy  :  -115.2610203 Eh     change        0.2024324E-03 Eh
   gradient norm :     0.0180799 Eh/α   predicted    -0.3344379E-03 (-265.21%)
   displ. norm   :     0.0878038 α      lambda       -0.8040457E-03
   maximum displ.:     0.0545927 α      in ANC's #2, #39, #18, ...

........................................................................
.............................. CYCLE   70 ..............................
........................................................................

 iter      E             dE          RMSdq      gap      omega  full diag
   1   -117.1595507 -0.117160E+03  0.522E-02    1.04       0.0  T
   2   -117.1595068  0.439746E-04  0.434E-02    1.04       1.0  T
   3   -117.1594712  0.355897E-04  0.383E-02    1.04       1.0  T
   4   -117.1595118 -0.405809E-04  0.298E-02    1.04       1.0  T
   5   -117.1595263 -0.145415E-04  0.215E-02    1.04       1.0  T
   6   -117.1595673 -0.409888E-04  0.928E-03    1.04       1.2  T
   7   -117.1595744 -0.710477E-05  0.252E-03    1.04       4.5  T
   8   -117.1595745 -0.555907E-07  0.891E-04    1.04      12.6  T
   9   -117.1595745 -0.241734E-08  0.485E-04    1.04      23.2  T
  10   -117.1595745 -0.208230E-08  0.203E-04    1.04      55.5  T
     SCC iter.                  ...        0 min,  0.166 sec
     gradient                   ...        0 min,  0.074 sec
 * total energy  :  -115.2614657 Eh     change       -0.4454010E-03 Eh
   gradient norm :     0.0058766 Eh/α   predicted    -0.4051248E-03 (  -9.04%)
   displ. norm   :     0.1150685 α      lambda       -0.1699250E-03
   maximum displ.:     0.0642502 α      in ANC's #6, #2, #13, ...

........................................................................
.............................. CYCLE   71 ..............................
........................................................................

 iter      E             dE          RMSdq      gap      omega  full diag
   1   -117.1575448 -0.117158E+03  0.368E-02    1.04       0.0  T
   2   -117.1572291  0.315700E-03  0.601E-02    1.04       1.0  T
   3   -117.1575088 -0.279689E-03  0.295E-02    1.05       1.0  T
   4   -117.1575711 -0.622764E-04  0.126E-02    1.04       1.0  T
   5   -117.1575654  0.561518E-05  0.106E-02    1.04       1.1  T
   6   -117.1575747 -0.930239E-05  0.262E-03    1.04       4.3  T
   7   -117.1575752 -0.467199E-06  0.888E-04    1.04      12.7  T
   8   -117.1575752 -0.182644E-07  0.378E-04    1.04      29.7  T
   9   -117.1575752 -0.327159E-08  0.206E-04    1.04      54.5  T
     SCC iter.                  ...        0 min,  0.149 sec
     gradient                   ...        0 min,  0.083 sec
 * total energy  :  -115.2615528 Eh     change       -0.8715692E-04 Eh
   gradient norm :     0.0035098 Eh/α   predicted    -0.8608764E-04 (  -1.23%)
   displ. norm   :     0.2423311 α      lambda       -0.2381177E-03
   maximum displ.:     0.1400322 α      in ANC's #6, #13, #3, ...

........................................................................
.............................. CYCLE   72 ..............................
........................................................................

 iter      E             dE          RMSdq      gap      omega  full diag
   1   -117.1558898 -0.117156E+03  0.574E-02    1.05       0.0  T
   2   -117.1549253  0.964560E-03  0.101E-01    1.03       1.0  T
   3   -117.1558575 -0.932230E-03  0.424E-02    1.05       1.0  T
   4   -117.1559656 -0.108076E-03  0.207E-02    1.04       1.0  T
   5   -117.1559574  0.821621E-05  0.135E-02    1.04       1.0  T
   6   -117.1559727 -0.153653E-04  0.398E-03    1.04       2.8  T
   7   -117.1559738 -0.110635E-05  0.109E-03    1.04      10.4  T
   8   -117.1559738 -0.178620E-07  0.309E-04    1.04      36.4  T
   9   -117.1559738 -0.220619E-08  0.142E-04    1.04      79.0  T
     SCC iter.                  ...        0 min,  0.141 sec
     gradient                   ...        0 min,  0.078 sec
 * total energy  :  -115.2617432 Eh     change       -0.1904128E-03 Eh
   gradient norm :     0.0042623 Eh/α   predicted    -0.1260535E-03 ( -33.80%)
   displ. norm   :     0.4732073 α      lambda       -0.3762004E-03
   maximum displ.:     0.2687423 α      in ANC's #6, #3, #13, ...

........................................................................
.............................. CYCLE   73 ..............................
........................................................................

 iter      E             dE          RMSdq      gap      omega  full diag
   1   -117.1543346 -0.117154E+03  0.106E-01    1.05       0.0  T
   2   -117.1514456  0.288898E-02  0.177E-01    1.02       1.0  T
   3   -117.1541297 -0.268406E-02  0.815E-02    1.05       1.0  T
   4   -117.1544662 -0.336496E-03  0.485E-02    1.04       1.0  T
   5   -117.1544855 -0.193169E-04  0.337E-02    1.04       1.0  T
   6   -117.1545889 -0.103441E-03  0.292E-03    1.04       3.8  T
   7   -117.1545891 -0.131422E-06  0.145E-03    1.04       7.7  T
   8   -117.1545891 -0.267258E-07  0.571E-04    1.04      19.7  T
   9   -117.1545891 -0.420798E-09  0.324E-04    1.04      34.7  T
  10   -117.1545891 -0.115455E-08  0.127E-04    1.04      88.5  T
     SCC iter.                  ...        0 min,  0.193 sec
     gradient                   ...        0 min,  0.073 sec
 * total energy  :  -115.2620306 Eh     change       -0.2873969E-03 Eh
   gradient norm :     0.0064550 Eh/α   predicted    -0.2302173E-03 ( -19.90%)
   displ. norm   :     0.4944653 α      lambda       -0.3556859E-03
   maximum displ.:     0.2916417 α      in ANC's #6, #3, #7, ...

........................................................................
.............................. CYCLE   74 ..............................
........................................................................

 iter      E             dE          RMSdq      gap      omega  full diag
   1   -117.1542246 -0.117154E+03  0.106E-01    1.05       0.0  T
   2   -117.1518500  0.237453E-02  0.161E-01    1.02       1.0  T
   3   -117.1537862 -0.193613E-02  0.927E-02    1.05       1.0  T
   4   -117.1543439 -0.557748E-03  0.488E-02    1.04       1.0  T
   5   -117.1543535 -0.956688E-05  0.303E-02    1.04       1.0  T
   6   -117.1544370 -0.834880E-04  0.263E-03    1.04       4.3  T
   7   -117.1544371 -0.814469E-07  0.143E-03    1.04       7.9  T
   8   -117.1544371 -0.334436E-07  0.541E-04    1.04      20.8  T
   9   -117.1544371 -0.849795E-09  0.256E-04    1.04      43.9  T
  10   -117.1544371 -0.132854E-08  0.124E-04    1.04      90.5  T
     SCC iter.                  ...        0 min,  0.160 sec
     gradient                   ...        0 min,  0.072 sec
 * total energy  :  -115.2623195 Eh     change       -0.2888394E-03 Eh
   gradient norm :     0.0076753 Eh/α   predicted    -0.2213215E-03 ( -23.38%)
   displ. norm   :     0.5187857 α      lambda       -0.4680608E-03
   maximum displ.:     0.3205652 α      in ANC's #6, #3, #7, ...

........................................................................
.............................. CYCLE   75 ..............................
........................................................................

 iter      E             dE          RMSdq      gap      omega  full diag
   1   -117.1572775 -0.117157E+03  0.106E-01    1.05       0.0  T
   2   -117.1553705  0.190699E-02  0.146E-01    1.02       1.0  T
   3   -117.1566198 -0.124930E-02  0.102E-01    1.05       1.0  T
   4   -117.1573531 -0.733314E-03  0.502E-02    1.04       1.0  T
   5   -117.1573472  0.593587E-05  0.352E-02    1.04       1.0  T
   6   -117.1574601 -0.112928E-03  0.278E-03    1.04       4.1  T
   7   -117.1574604 -0.233684E-06  0.155E-03    1.04       7.3  T
   8   -117.1574604 -0.272748E-07  0.638E-04    1.04      17.6  T
   9   -117.1574604 -0.576499E-08  0.271E-04    1.04      41.5  T
  10   -117.1574604  0.105729E-10  0.139E-04    1.04      80.7  T
     SCC iter.                  ...        0 min,  0.167 sec
     gradient                   ...        0 min,  0.076 sec
 * total energy  :  -115.2627134 Eh     change       -0.3939603E-03 Eh
   gradient norm :     0.0058516 Eh/α   predicted    -0.2970134E-03 ( -24.61%)
   displ. norm   :     0.6206478 α      lambda       -0.5370393E-03
   maximum displ.:     0.3904861 α      in ANC's #6, #3, #7, ...

........................................................................
.............................. CYCLE   76 ..............................
........................................................................

 iter      E             dE          RMSdq      gap      omega  full diag
   1   -117.1598432 -0.117160E+03  0.120E-01    1.04       0.0  T
   2   -117.1576698  0.217347E-02  0.158E-01    1.02       1.0  T
   3   -117.1590060 -0.133624E-02  0.114E-01    1.05       1.0  T
   4   -117.1598700 -0.864050E-03  0.611E-02    1.03       1.0  T
   5   -117.1599219 -0.518099E-04  0.401E-02    1.03       1.0  T
   6   -117.1600651 -0.143202E-03  0.318E-03    1.03       3.5  T
   7   -117.1600656 -0.507490E-06  0.168E-03    1.03       6.7  T
   8   -117.1600656 -0.437839E-07  0.647E-04    1.03      17.4  T
   9   -117.1600656 -0.349887E-08  0.312E-04    1.03      36.1  T
  10   -117.1600656 -0.113181E-08  0.140E-04    1.03      80.6  T
     SCC iter.                  ...        0 min,  0.160 sec
     gradient                   ...        0 min,  0.069 sec
 * total energy  :  -115.2631761 Eh     change       -0.4626656E-03 Eh
   gradient norm :     0.0036882 Eh/α   predicted    -0.3719471E-03 ( -19.61%)
   displ. norm   :     0.7478914 α      lambda       -0.5404409E-03
   maximum displ.:     0.4735014 α      in ANC's #6, #3, #7, ...

........................................................................
.............................. CYCLE   77 ..............................
........................................................................

 iter      E             dE          RMSdq      gap      omega  full diag
   1   -117.1588293 -0.117159E+03  0.139E-01    1.03       0.0  T
   2   -117.1555814  0.324791E-02  0.192E-01    1.00       1.0  T
   3   -117.1578813 -0.229995E-02  0.126E-01    1.04       1.0  T
   4   -117.1589054 -0.102404E-02  0.687E-02    1.02       1.0  T
   5   -117.1589634 -0.579880E-04  0.450E-02    1.02       1.0  T
   6   -117.1591460 -0.182650E-03  0.382E-03    1.02       2.9  T
   7   -117.1591468 -0.744493E-06  0.166E-03    1.02       6.8  T
   8   -117.1591468 -0.303054E-07  0.818E-04    1.02      13.8  T
   9   -117.1591468 -0.609263E-08  0.376E-04    1.02      29.9  T
  10   -117.1591468  0.195243E-09  0.154E-04    1.02      73.1  T
     SCC iter.                  ...        0 min,  0.171 sec
     gradient                   ...        0 min,  0.068 sec
 * total energy  :  -115.2636313 Eh     change       -0.4551628E-03 Eh
   gradient norm :     0.0045837 Eh/α   predicted    -0.4213571E-03 (  -7.43%)
   displ. norm   :     0.6594480 α      lambda       -0.5626481E-03
   maximum displ.:     0.4175211 α      in ANC's #6, #3, #7, ...

........................................................................
.............................. CYCLE   78 ..............................
........................................................................

 iter      E             dE          RMSdq      gap      omega  full diag
   1   -117.1662040 -0.117166E+03  0.992E-02    1.02       0.0  T
   2   -117.1660740  0.130017E-03  0.705E-02    1.01       1.0  T
   3   -117.1653266  0.747443E-03  0.104E-01    1.03       1.0  T
   4   -117.1660064 -0.679802E-03  0.539E-02    1.01       1.0  T
   5   -117.1661682 -0.161787E-03  0.274E-02    1.02       1.0  T
   6   -117.1662411 -0.728851E-04  0.510E-03    1.02       2.2  T
   7   -117.1662436 -0.249602E-05  0.128E-03    1.02       8.8  T
   8   -117.1662436 -0.529987E-07  0.594E-04    1.02      18.9  T
   9   -117.1662436 -0.210638E-08  0.305E-04    1.02      36.9  T
  10   -117.1662436 -0.210137E-08  0.146E-04    1.02      77.3  T
     SCC iter.                  ...        0 min,  0.181 sec
     gradient                   ...        0 min,  0.076 sec
 * total energy  :  -115.2639693 Eh     change       -0.3380202E-03 Eh
   gradient norm :     0.0082476 Eh/α   predicted    -0.4036545E-03 (  19.42%)
   displ. norm   :     0.7400300 α      lambda       -0.5878253E-03
   maximum displ.:     0.4671491 α      in ANC's #6, #3, #7, ...

........................................................................
.............................. CYCLE   79 ..............................
........................................................................

 iter      E             dE          RMSdq      gap      omega  full diag
   1   -117.1587143 -0.117159E+03  0.128E-01    1.02       0.0  T
   2   -117.1565639  0.215035E-02  0.160E-01    0.99       1.0  T
   3   -117.1577686 -0.120462E-02  0.118E-01    1.02       1.0  T
   4   -117.1586903 -0.921704E-03  0.587E-02    1.00       1.0  T
   5   -117.1588589 -0.168614E-03  0.271E-02    1.01       1.0  T
   6   -117.1589209 -0.620429E-04  0.389E-03    1.00       2.9  T
   7   -117.1589218 -0.872738E-06  0.153E-03    1.00       7.4  T
   8   -117.1589219 -0.114443E-06  0.639E-04    1.00      17.6  T
   9   -117.1589219 -0.572358E-08  0.426E-04    1.00      26.4  T
  10   -117.1589219 -0.284832E-08  0.170E-04    1.00      66.2  T
     SCC iter.                  ...        0 min,  0.155 sec
     gradient                   ...        0 min,  0.067 sec
 * total energy  :  -115.2643914 Eh     change       -0.4221323E-03 Eh
   gradient norm :     0.0080534 Eh/α   predicted    -0.4548647E-03 (   7.75%)
   displ. norm   :     0.5311147 α      lambda       -0.4603513E-03
   maximum displ.:     0.3411609 α      in ANC's #6, #3, #7, ...

........................................................................
.............................. CYCLE   80 ..............................
........................................................................

 iter      E             dE          RMSdq      gap      omega  full diag
   1   -117.1575423 -0.117158E+03  0.760E-02    1.01       0.0  T
   2   -117.1575210  0.213101E-04  0.476E-02    1.01       1.0  T
   3   -117.1570138  0.507217E-03  0.773E-02    1.00       1.0  T
   4   -117.1575030 -0.489269E-03  0.238E-02    1.01       1.0  T
   5   -117.1575146 -0.115644E-04  0.185E-02    1.01       1.0  T
   6   -117.1575500 -0.354280E-04  0.253E-03    1.01       4.4  T
   7   -117.1575503 -0.313679E-06  0.104E-03    1.01      10.8  T
   8   -117.1575504 -0.296612E-07  0.438E-04    1.01      25.7  T
   9   -117.1575504 -0.231117E-08  0.177E-04    1.01      63.4  T
     SCC iter.                  ...        0 min,  0.137 sec
     gradient                   ...        0 min,  0.068 sec
 * total energy  :  -115.2648001 Eh     change       -0.4086824E-03 Eh
   gradient norm :     0.0092663 Eh/α   predicted    -0.2951003E-03 ( -27.79%)
   displ. norm   :     0.5470621 α      lambda       -0.1044473E-02
   maximum displ.:     0.2971408 α      in ANC's #6, #3, #8, ...

........................................................................
.............................. CYCLE   81 ..............................
........................................................................

 iter      E             dE          RMSdq      gap      omega  full diag
   1   -117.1638411 -0.117164E+03  0.137E-01    1.02       0.0  T
   2   -117.1529643  0.108768E-01  0.338E-01    1.10       1.0  T
   3   -117.1650175 -0.120532E-01  0.553E-02    1.03       1.0  T
   4   -117.1649704  0.471183E-04  0.515E-02    1.04       1.0  T
   5   -117.1649933 -0.228771E-04  0.409E-02    1.04       1.0  T
   6   -117.1651285 -0.135267E-03  0.605E-03    1.04       1.9  T
   7   -117.1651293 -0.805683E-06  0.347E-03    1.04       3.2  T
   8   -117.1651297 -0.358263E-06  0.140E-03    1.04       8.0  T
   9   -117.1651298 -0.619690E-07  0.602E-04    1.04      18.7  T
  10   -117.1651298  0.507096E-08  0.362E-04    1.04      31.1  T
  11   -117.1651298 -0.774607E-08  0.118E-04    1.04      95.3  T
     SCC iter.                  ...        0 min,  0.171 sec
     gradient                   ...        0 min,  0.072 sec
 * total energy  :  -115.2654182 Eh     change       -0.6181077E-03 Eh
   gradient norm :     0.0080209 Eh/α   predicted    -0.6785205E-03 (   9.77%)
   displ. norm   :     0.8217637 α      lambda       -0.7233390E-03
   maximum displ.:     0.5332169 α      in ANC's #6, #3, #7, ...

........................................................................
.............................. CYCLE   82 ..............................
........................................................................

 iter      E             dE          RMSdq      gap      omega  full diag
   1   -117.1593906 -0.117159E+03  0.116E-01    1.05       0.0  T
   2   -117.1592080  0.182602E-03  0.793E-02    1.04       1.0  T
   3   -117.1566132  0.259474E-02  0.162E-01    1.07       1.0  T
   4   -117.1593682 -0.275499E-02  0.264E-02    1.04       1.0  T
   5   -117.1593991 -0.308423E-04  0.168E-02    1.05       1.0  T
   6   -117.1594217 -0.226254E-04  0.517E-03    1.05       2.2  T
   7   -117.1594238 -0.214601E-05  0.174E-03    1.05       6.5  T
   8   -117.1594239 -0.376421E-07  0.893E-04    1.05      12.6  T
   9   -117.1594239 -0.359367E-08  0.467E-04    1.05      24.1  T
  10   -117.1594239 -0.789626E-08  0.153E-04    1.05      73.4  T
     SCC iter.                  ...        0 min,  0.141 sec
     gradient                   ...        0 min,  0.068 sec
 * total energy  :  -115.2660276 Eh     change       -0.6093813E-03 Eh
   gradient norm :     0.0101752 Eh/α   predicted    -0.6058952E-03 (  -0.57%)
   displ. norm   :     0.7611543 α      lambda       -0.6643688E-03
   maximum displ.:     0.5055279 α      in ANC's #6, #3, #7, ...

........................................................................
.............................. CYCLE   83 ..............................
........................................................................

 iter      E             dE          RMSdq      gap      omega  full diag
   1   -117.1554015 -0.117155E+03  0.104E-01    1.07       0.0  T
   2   -117.1554014  0.212340E-07  0.609E-02    1.07       1.0  T
   3   -117.1550336  0.367820E-03  0.606E-02    1.08       1.0  T
   4   -117.1553057 -0.272039E-03  0.322E-02    1.07       1.0  T
   5   -117.1554070 -0.101301E-03  0.697E-03    1.07       1.6  T
   6   -117.1554077 -0.765541E-06  0.565E-03    1.07       2.0  T
   7   -117.1554106 -0.285693E-05  0.150E-03    1.07       7.5  T
   8   -117.1554107 -0.717141E-07  0.650E-04    1.07      17.3  T
   9   -117.1554107 -0.229856E-08  0.319E-04    1.07      35.3  T
  10   -117.1554107 -0.414448E-08  0.117E-04    1.07      96.0  T
     SCC iter.                  ...        0 min,  0.157 sec
     gradient                   ...        0 min,  0.068 sec
 * total energy  :  -115.2666164 Eh     change       -0.5888281E-03 Eh
   gradient norm :     0.0111741 Eh/α   predicted    -0.5246348E-03 ( -10.90%)
   displ. norm   :     0.6482804 α      lambda       -0.8863300E-03
   maximum displ.:     0.4397604 α      in ANC's #6, #3, #8, ...

........................................................................
.............................. CYCLE   84 ..............................
........................................................................

 iter      E             dE          RMSdq      gap      omega  full diag
   1   -117.1598459 -0.117160E+03  0.904E-02    1.12       0.0  T
   2   -117.1598406  0.523051E-05  0.572E-02    1.12       1.0  T
   3   -117.1595293  0.311349E-03  0.691E-02    1.12       1.0  T
   4   -117.1597006 -0.171282E-03  0.426E-02    1.12       1.0  T
   5   -117.1598561 -0.155504E-03  0.111E-02    1.12       1.0  T
   6   -117.1598634 -0.732030E-05  0.821E-03    1.12       1.4  T
   7   -117.1598695 -0.613431E-05  0.164E-03    1.12       6.9  T
   8   -117.1598696 -0.787181E-07  0.758E-04    1.12      14.9  T
   9   -117.1598696  0.968384E-09  0.451E-04    1.12      24.9  T
  10   -117.1598696 -0.727374E-08  0.159E-04    1.12      70.8  T
     SCC iter.                  ...        0 min,  0.134 sec
     gradient                   ...        0 min,  0.059 sec
 * total energy  :  -115.2671900 Eh     change       -0.5736309E-03 Eh
   gradient norm :     0.0108414 Eh/α   predicted    -0.6294076E-03 (   9.72%)
   displ. norm   :     0.7578817 α      lambda       -0.8285386E-03
   maximum displ.:     0.5184715 α      in ANC's #6, #3, #8, ...

........................................................................
.............................. CYCLE   85 ..............................
........................................................................

 iter      E             dE          RMSdq      gap      omega  full diag
   1   -117.1561434 -0.117156E+03  0.113E-01    1.14       0.0  T
   2   -117.1561087  0.346410E-04  0.683E-02    1.14       1.0  T
   3   -117.1549889  0.111986E-02  0.108E-01    1.16       1.0  T
   4   -117.1560663 -0.107742E-02  0.347E-02    1.14       1.0  T
   5   -117.1561482 -0.819444E-04  0.984E-03    1.14       1.1  T
   6   -117.1561550 -0.674707E-05  0.387E-03    1.14       2.9  T
   7   -117.1561563 -0.133391E-05  0.121E-03    1.14       9.3  T
   8   -117.1561564 -0.499233E-07  0.553E-04    1.14      20.3  T
   9   -117.1561564 -0.277436E-08  0.294E-04    1.14      38.2  T
  10   -117.1561564 -0.191751E-08  0.933E-05    1.14     120.5  T
     SCC iter.                  ...        0 min,  0.147 sec
     gradient                   ...        0 min,  0.062 sec
 * total energy  :  -115.2678134 Eh     change       -0.6233808E-03 Eh
   gradient norm :     0.0117939 Eh/α   predicted    -0.6522174E-03 (   4.63%)
   displ. norm   :     0.7115812 α      lambda       -0.7865772E-03
   maximum displ.:     0.4881782 α      in ANC's #6, #3, #8, ...

........................................................................
.............................. CYCLE   86 ..............................
........................................................................

 iter      E             dE          RMSdq      gap      omega  full diag
   1   -117.1542443 -0.117154E+03  0.107E-01    1.16       0.0  T
   2   -117.1542478 -0.350441E-05  0.636E-02    1.16       1.0  T
   3   -117.1538872  0.360579E-03  0.619E-02    1.15       1.0  T
   4   -117.1542068 -0.319610E-03  0.241E-02    1.16       1.0  T
   5   -117.1542523 -0.454818E-04  0.809E-03    1.16       1.4  T
   6   -117.1542564 -0.406778E-05  0.436E-03    1.16       2.6  T
   7   -117.1542580 -0.167241E-05  0.200E-03    1.16       5.6  T
   8   -117.1542582 -0.209311E-06  0.612E-04    1.16      18.4  T
   9   -117.1542582  0.157910E-08  0.284E-04    1.16      39.7  T
  10   -117.1542582 -0.236209E-08  0.122E-04    1.16      92.0  T
     SCC iter.                  ...        0 min,  0.143 sec
     gradient                   ...        0 min,  0.058 sec
 * total energy  :  -115.2684324 Eh     change       -0.6189465E-03 Eh
   gradient norm :     0.0132362 Eh/α   predicted    -0.5924263E-03 (  -4.28%)
   displ. norm   :     0.5249457 α      lambda       -0.1102395E-02
   maximum displ.:     0.3573505 α      in ANC's #6, #3, #8, ...

........................................................................
.............................. CYCLE   87 ..............................
........................................................................

 iter      E             dE          RMSdq      gap      omega  full diag
   1   -117.1689999 -0.117169E+03  0.100E-01    1.15       0.0  T
   2   -117.1683768  0.623129E-03  0.102E-01    1.16       1.0  T
   3   -117.1684754 -0.986730E-04  0.836E-02    1.15       1.0  T
   4   -117.1690731 -0.597614E-03  0.234E-02    1.16       1.0  T
   5   -117.1690764 -0.336136E-05  0.149E-02    1.16       1.0  T
   6   -117.1690934 -0.170173E-04  0.509E-03    1.16       2.2  T
   7   -117.1690954 -0.199864E-05  0.185E-03    1.16       6.1  T
   8   -117.1690955 -0.541705E-07  0.900E-04    1.16      12.5  T
   9   -117.1690955 -0.201426E-07  0.330E-04    1.16      34.0  T
  10   -117.1690955 -0.221141E-08  0.137E-04    1.16      82.3  T
     SCC iter.                  ...        0 min,  0.161 sec
     gradient                   ...        0 min,  0.068 sec
 * total energy  :  -115.2690408 Eh     change       -0.6084497E-03 Eh
   gradient norm :     0.0135184 Eh/α   predicted    -0.7030837E-03 (  15.55%)
   displ. norm   :     0.6993892 α      lambda       -0.1086322E-02
   maximum displ.:     0.4950761 α      in ANC's #6, #3, #8, ...

........................................................................
.............................. CYCLE   88 ..............................
........................................................................

 iter      E             dE          RMSdq      gap      omega  full diag
   1   -117.1655800 -0.117166E+03  0.135E-01    1.20       0.0  T
   2   -117.1641595  0.142057E-02  0.136E-01    1.18       1.0  T
   3   -117.1644331 -0.273654E-03  0.129E-01    1.20       1.0  T
   4   -117.1658119 -0.137875E-02  0.405E-02    1.19       1.0  T
   5   -117.1658022  0.971867E-05  0.270E-02    1.19       1.0  T
   6   -117.1658575 -0.553865E-04  0.104E-02    1.19       1.1  T
   7   -117.1658668 -0.926349E-05  0.208E-03    1.19       5.4  T
   8   -117.1658669 -0.138659E-06  0.922E-04    1.19      12.2  T
   9   -117.1658669 -0.689091E-08  0.466E-04    1.19      24.2  T
  10   -117.1658670 -0.397615E-08  0.198E-04    1.19      56.7  T
     SCC iter.                  ...        0 min,  0.159 sec
     gradient                   ...        0 min,  0.071 sec
 * total energy  :  -115.2698606 Eh     change       -0.8197561E-03 Eh
   gradient norm :     0.0159991 Eh/α   predicted    -0.8088425E-03 (  -1.33%)
   displ. norm   :     0.6548898 α      lambda       -0.1238168E-02
   maximum displ.:     0.4712848 α      in ANC's #6, #3, #8, ...

........................................................................
.............................. CYCLE   89 ..............................
........................................................................

 iter      E             dE          RMSdq      gap      omega  full diag
   1   -117.1606047 -0.117161E+03  0.141E-01    1.23       0.0  T
   2   -117.1601930  0.411698E-03  0.989E-02    1.22       1.0  T
   3   -117.1588914  0.130164E-02  0.141E-01    1.23       1.0  T
   4   -117.1606898 -0.179842E-02  0.448E-02    1.22       1.0  T
   5   -117.1607136 -0.237576E-04  0.165E-02    1.22       1.0  T
   6   -117.1607184 -0.480029E-05  0.136E-02    1.22       1.0  T
   7   -117.1607352 -0.168043E-04  0.238E-03    1.22       4.7  T
   8   -117.1607353 -0.103267E-06  0.100E-03    1.22      11.3  T
   9   -117.1607353 -0.173472E-07  0.494E-04    1.22      22.8  T
  10   -117.1607353 -0.438557E-08  0.189E-04    1.22      59.5  T
     SCC iter.                  ...        0 min,  0.213 sec
     gradient                   ...        0 min,  0.088 sec
 * total energy  :  -115.2707843 Eh     change       -0.9237735E-03 Eh
   gradient norm :     0.0167287 Eh/α   predicted    -0.8845917E-03 (  -4.24%)
   displ. norm   :     0.6811942 α      lambda       -0.1315644E-02
   maximum displ.:     0.4823946 α      in ANC's #6, #3, #8, ...

........................................................................
.............................. CYCLE   90 ..............................
........................................................................

 iter      E             dE          RMSdq      gap      omega  full diag
   1   -117.1582410 -0.117158E+03  0.151E-01    1.28       0.0  T
   2   -117.1582833 -0.422623E-04  0.923E-02    1.28       1.0  T
   3   -117.1575590  0.724323E-03  0.986E-02    1.28       1.0  T
   4   -117.1580008 -0.441843E-03  0.592E-02    1.28       1.0  T
   5   -117.1583362 -0.335433E-03  0.108E-02    1.28       1.0  T
   6   -117.1583390 -0.277520E-05  0.815E-03    1.28       1.4  T
   7   -117.1583436 -0.455688E-05  0.344E-03    1.28       3.3  T
   8   -117.1583445 -0.960186E-06  0.107E-03    1.28      10.5  T
   9   -117.1583445 -0.626281E-08  0.597E-04    1.28      18.9  T
  10   -117.1583445 -0.527294E-08  0.210E-04    1.28      53.7  T
  11   -117.1583446 -0.348834E-09  0.113E-04    1.28      99.6  T
     SCC iter.                  ...        0 min,  0.176 sec
     gradient                   ...        0 min,  0.077 sec
 * total energy  :  -115.2719659 Eh     change       -0.1181545E-02 Eh
   gradient norm :     0.0214760 Eh/α   predicted    -0.9630615E-03 ( -18.49%)
   displ. norm   :     0.6657455 α      lambda       -0.2733161E-02
   maximum displ.:     0.3377613 α      in ANC's #6, #9, #17, ...

........................................................................
.............................. CYCLE   91 ..............................
........................................................................

 iter      E             dE          RMSdq      gap      omega  full diag
   1   -117.1747515 -0.117175E+03  0.248E-01    1.45       0.0  T
   2   -117.1744060  0.345481E-03  0.181E-01    1.46       1.0  T
   3   -117.1729401  0.146592E-02  0.163E-01    1.45       1.0  T
   4   -117.1749352 -0.199519E-02  0.797E-02    1.46       1.0  T
   5   -117.1753252 -0.389952E-03  0.161E-02    1.45       1.0  T
   6   -117.1753270 -0.177641E-05  0.941E-03    1.45       1.2  T
   7   -117.1753261  0.916220E-06  0.683E-03    1.45       1.6  T
   8   -117.1753293 -0.328011E-05  0.300E-03    1.45       3.7  T
   9   -117.1753299 -0.523780E-06  0.991E-04    1.45      11.4  T
  10   -117.1753299 -0.226446E-07  0.357E-04    1.45      31.5  T
  11   -117.1753299 -0.184257E-08  0.208E-04    1.45      54.0  T
     SCC iter.                  ...        0 min,  0.196 sec
     gradient                   ...        0 min,  0.083 sec
 * total energy  :  -115.2741620 Eh     change       -0.2196063E-02 Eh
   gradient norm :     0.0392683 Eh/α   predicted    -0.1972236E-02 ( -10.19%)
   displ. norm   :     0.7315298 α      lambda       -0.4153932E-02
   maximum displ.:     0.3323921 α      in ANC's #6, #17, #8, ...

........................................................................
.............................. CYCLE   92 ..............................
........................................................................

 iter      E             dE          RMSdq      gap      omega  full diag
   1   -117.1911231 -0.117191E+03  0.327E-01    1.75       0.0  T
   2   -117.1915607 -0.437572E-03  0.201E-01    1.75       1.0  T
   3   -117.1899763  0.158440E-02  0.164E-01    1.74       1.0  T
   4   -117.1914133 -0.143698E-02  0.910E-02    1.75       1.0  T
   5   -117.1917199 -0.306686E-03  0.567E-02    1.74       1.0  T
   6   -117.1919709 -0.250927E-03  0.205E-02    1.74       1.0  T
   7   -117.1920010 -0.301520E-04  0.658E-03    1.74       1.7  T
   8   -117.1920013 -0.312627E-06  0.292E-03    1.74       3.9  T
   9   -117.1920014 -0.408532E-07  0.110E-03    1.74      10.3  T
  10   -117.1920014 -0.368354E-07  0.388E-04    1.74      29.0  T
  11   -117.1920014 -0.272099E-08  0.185E-04    1.74      60.8  T
     SCC iter.                  ...        0 min,  0.186 sec
     gradient                   ...        0 min,  0.071 sec
 * total energy  :  -115.2783399 Eh     change       -0.4177963E-02 Eh
   gradient norm :     0.0714150 Eh/α   predicted    -0.3188347E-02 ( -23.69%)
   displ. norm   :     0.7295413 α      lambda       -0.1087391E-01
   maximum displ.:     0.2104804 α      in ANC's #13, #135, #47, ...
 * RMSD in coord.:     1.4100711 α      energy gain  -0.1767517E-01 Eh

generating ANC from exact Hessian ...
Using Lindh-Hessian (1995)
 Shifting diagonal of input Hessian by    1.0103959904038302E-002
 Lowest  eigenvalues of input Hessian
    0.010000    0.000000    0.000000    0.000000    0.000000    0.000000
    0.000000    0.010149    0.010256    0.010334    0.010483    0.010508
    0.010621    0.010690    0.010822    0.010925    0.011024    0.011042
 Highest eigenvalues
    2.052005    2.059961    2.062994    2.070601    2.094383    2.334850


........................................................................
.............................. CYCLE   93 ..............................
........................................................................

 iter      E             dE          RMSdq      gap      omega  full diag
   1   -117.2484252 -0.117248E+03  0.444E-01    1.96       0.0  T
   2   -117.2492654 -0.840263E-03  0.249E-01    1.97       1.0  T
   3   -117.2479753  0.129008E-02  0.181E-01    1.93       1.0  T
   4   -117.2493984 -0.142301E-02  0.797E-02    1.98       1.0  T
   5   -117.2494317 -0.333663E-04  0.653E-02    1.93       1.0  T
   6   -117.2497549 -0.323151E-03  0.238E-02    1.96       1.0  T
   7   -117.2497887 -0.338593E-04  0.995E-03    1.95       1.1  T
   8   -117.2497901 -0.137614E-05  0.365E-03    1.95       3.1  T
   9   -117.2497902 -0.996265E-07  0.144E-03    1.95       7.8  T
  10   -117.2497902 -0.256097E-07  0.619E-04    1.95      18.2  T
  11   -117.2497902 -0.117346E-07  0.253E-04    1.95      44.5  T
  12   -117.2497902 -0.732328E-09  0.121E-04    1.95      93.0  T
     SCC iter.                  ...        0 min,  0.197 sec
     gradient                   ...        0 min,  0.069 sec
 * total energy  :  -115.2796606 Eh     change       -0.1320687E-02 Eh
   gradient norm :     0.1290673 Eh/α   predicted     0.0000000E+00 (-100.00%)
   displ. norm   :     0.4166301 α      lambda       -0.3696990E-01
   maximum displ.:     0.1422393 α      in ANC's #82, #131, #35, ...

........................................................................
.............................. CYCLE   94 ..............................
........................................................................

 iter      E             dE          RMSdq      gap      omega  full diag
   1   -117.2292035 -0.117229E+03  0.261E-01    1.97       0.0  T
   2   -117.2293035 -0.100009E-03  0.173E-01    1.99       1.0  T
   3   -117.2294315 -0.128014E-03  0.128E-01    1.97       1.0  T
   4   -117.2293530  0.784987E-04  0.921E-02    2.02       1.0  T
   5   -117.2297541 -0.401140E-03  0.555E-02    1.97       1.0  T
   6   -117.2299989 -0.244745E-03  0.114E-02    1.99       1.0  T
   7   -117.2299999 -0.105376E-05  0.522E-03    1.99       2.2  T
   8   -117.2300005 -0.551185E-06  0.227E-03    1.99       5.0  T
   9   -117.2300005 -0.634438E-07  0.105E-03    1.99      10.7  T
  10   -117.2300006 -0.265495E-07  0.382E-04    1.99      29.4  T
  11   -117.2300006 -0.171306E-08  0.220E-04    1.99      51.1  T
     SCC iter.                  ...        0 min,  0.189 sec
     gradient                   ...        0 min,  0.073 sec
 * total energy  :  -115.3052873 Eh     change       -0.2562674E-01 Eh
   gradient norm :     0.0614878 Eh/α   predicted    -0.2170005E-01 ( -15.32%)
   displ. norm   :     0.4856898 α      lambda       -0.1897020E-01
   maximum displ.:     0.1722852 α      in ANC's #42, #38, #34, ...

........................................................................
.............................. CYCLE   95 ..............................
........................................................................

 iter      E             dE          RMSdq      gap      omega  full diag
   1   -117.2115476 -0.117212E+03  0.292E-01    2.04       0.0  T
   2   -117.2096017  0.194598E-02  0.254E-01    2.09       1.0  T
   3   -117.2091448  0.456837E-03  0.218E-01    1.96       1.0  T
   4   -117.2112444 -0.209957E-02  0.142E-01    2.09       1.0  T
   5   -117.2124923 -0.124791E-02  0.215E-02    2.03       1.0  T
   6   -117.2125063 -0.139707E-04  0.901E-03    2.03       1.2  T
   7   -117.2125072 -0.943546E-06  0.422E-03    2.03       2.7  T
   8   -117.2125074 -0.165615E-06  0.265E-03    2.03       4.3  T
   9   -117.2125075 -0.173064E-06  0.111E-03    2.03      10.2  T
  10   -117.2125076 -0.971600E-08  0.468E-04    2.03      24.0  T
  11   -117.2125076 -0.385639E-08  0.222E-04    2.03      50.6  T
     SCC iter.                  ...        0 min,  0.189 sec
     gradient                   ...        0 min,  0.067 sec
 * total energy  :  -115.3143932 Eh     change       -0.9105857E-02 Eh
   gradient norm :     0.0578115 Eh/α   predicted    -0.1172265E-01 (  28.74%)
   displ. norm   :     0.5560224 α      lambda       -0.1678362E-01
   maximum displ.:     0.2162185 α      in ANC's #35, #42, #38, ...

........................................................................
.............................. CYCLE   96 ..............................
........................................................................

 iter      E             dE          RMSdq      gap      omega  full diag
   1   -117.2160793 -0.117216E+03  0.319E-01    2.02       0.0  T
   2   -117.2080861  0.799322E-02  0.357E-01    1.88       1.0  T
   3   -117.2140358 -0.594970E-02  0.253E-01    2.09       1.0  T
   4   -117.2174909 -0.345512E-02  0.122E-01    1.98       1.0  T
   5   -117.2177900 -0.299142E-03  0.430E-02    2.01       1.0  T
   6   -117.2178973 -0.107255E-03  0.113E-02    2.01       1.0  T
   7   -117.2178981 -0.877582E-06  0.574E-03    2.00       2.0  T
   8   -117.2178990 -0.844090E-06  0.252E-03    2.00       4.5  T
   9   -117.2178991 -0.715098E-07  0.101E-03    2.00      11.2  T
  10   -117.2178991 -0.183275E-07  0.445E-04    2.00      25.3  T
  11   -117.2178991 -0.174839E-08  0.251E-04    2.00      44.8  T
     SCC iter.                  ...        0 min,  0.170 sec
     gradient                   ...        0 min,  0.070 sec
 * total energy  :  -115.3197666 Eh     change       -0.5373439E-02 Eh
   gradient norm :     0.0577872 Eh/α   predicted    -0.1098623E-01 ( 104.45%)
   displ. norm   :     0.3259502 α      lambda       -0.7302828E-02
   maximum displ.:     0.1275774 α      in ANC's #34, #42, #16, ...

........................................................................
.............................. CYCLE   97 ..............................
........................................................................

 iter      E             dE          RMSdq      gap      omega  full diag
   1   -117.2415049 -0.117242E+03  0.129E-01    2.04       0.0  T
   2   -117.2412219  0.283009E-03  0.109E-01    1.99       1.0  T
   3   -117.2411162  0.105712E-03  0.937E-02    2.06       1.0  T
   4   -117.2414274 -0.311215E-03  0.613E-02    2.01       1.0  T
   5   -117.2416259 -0.198479E-03  0.173E-02    2.03       1.0  T
   6   -117.2416413 -0.153968E-04  0.335E-03    2.03       3.4  T
   7   -117.2416415 -0.237674E-06  0.173E-03    2.02       6.5  T
   8   -117.2416416 -0.994379E-07  0.816E-04    2.02      13.8  T
   9   -117.2416416 -0.750603E-08  0.362E-04    2.02      31.1  T
  10   -117.2416416 -0.429402E-08  0.146E-04    2.02      77.2  T
     SCC iter.                  ...        0 min,  0.186 sec
     gradient                   ...        0 min,  0.088 sec
 * total energy  :  -115.3249694 Eh     change       -0.5202721E-02 Eh
   gradient norm :     0.0337066 Eh/α   predicted    -0.4039395E-02 ( -22.36%)
   displ. norm   :     0.5073755 α      lambda       -0.5492632E-02
   maximum displ.:     0.2227020 α      in ANC's #38, #34, #16, ...

........................................................................
.............................. CYCLE   98 ..............................
........................................................................

 iter      E             dE          RMSdq      gap      omega  full diag
   1   -117.2524275 -0.117252E+03  0.130E-01    2.06       0.0  T
   2   -117.2516856  0.741959E-03  0.122E-01    2.11       1.0  T
   3   -117.2518069 -0.121346E-03  0.107E-01    2.03       1.0  T
   4   -117.2526011 -0.794202E-03  0.411E-02    2.07       1.0  T
   5   -117.2526082 -0.707033E-05  0.177E-02    2.06       1.0  T
   6   -117.2526217 -0.134982E-04  0.511E-03    2.07       2.2  T
   7   -117.2526218 -0.100562E-06  0.212E-03    2.07       5.3  T
   8   -117.2526218 -0.366414E-07  0.100E-03    2.07      11.2  T
   9   -117.2526218 -0.551088E-08  0.390E-04    2.07      28.9  T
  10   -117.2526218 -0.119121E-08  0.234E-04    2.07      48.1  T
     SCC iter.                  ...        0 min,  0.178 sec
     gradient                   ...        0 min,  0.097 sec
 * total energy  :  -115.3284061 Eh     change       -0.3436720E-02 Eh
   gradient norm :     0.0147612 Eh/α   predicted    -0.3453300E-02 (   0.48%)
   displ. norm   :     0.5026709 α      lambda       -0.2678636E-02
   maximum displ.:     0.1441702 α      in ANC's #38, #11, #16, ...

........................................................................
.............................. CYCLE   99 ..............................
........................................................................

 iter      E             dE          RMSdq      gap      omega  full diag
   1   -117.2558327 -0.117256E+03  0.940E-02    2.09       0.0  T
   2   -117.2558232  0.948382E-05  0.546E-02    2.06       1.0  T
   3   -117.2556879  0.135224E-03  0.574E-02    2.10       1.0  T
   4   -117.2557490 -0.610431E-04  0.396E-02    2.06       1.0  T
   5   -117.2558611 -0.112099E-03  0.140E-02    2.08       1.0  T
   6   -117.2558692 -0.814102E-05  0.269E-03    2.07       4.2  T
   7   -117.2558692 -0.130281E-07  0.100E-03    2.07      11.3  T
   8   -117.2558692  0.178152E-08  0.655E-04    2.07      17.2  T
   9   -117.2558693 -0.121880E-07  0.294E-04    2.07      38.3  T
  10   -117.2558693 -0.106679E-08  0.127E-04    2.07      88.7  T
     SCC iter.                  ...        0 min,  0.197 sec
     gradient                   ...        0 min,  0.067 sec
 * total energy  :  -115.3303073 Eh     change       -0.1901266E-02 Eh
   gradient norm :     0.0203248 Eh/α   predicted    -0.1677734E-02 ( -11.76%)
   displ. norm   :     0.5782211 α      lambda       -0.2434881E-02
   maximum displ.:     0.1835154 α      in ANC's #21, #11, #38, ...

........................................................................
.............................. CYCLE  100 ..............................
........................................................................

 iter      E             dE          RMSdq      gap      omega  full diag
   1   -117.2563771 -0.117256E+03  0.950E-02    2.07       0.0  T
   2   -117.2560115  0.365649E-03  0.857E-02    2.03       1.0  T
   3   -117.2559958  0.156915E-04  0.848E-02    2.09       1.0  T
   4   -117.2564701 -0.474359E-03  0.247E-02    2.05       1.0  T
   5   -117.2564842 -0.141004E-04  0.135E-02    2.06       1.0  T
   6   -117.2564912 -0.693864E-05  0.348E-03    2.06       3.2  T
   7   -117.2564912 -0.258757E-07  0.143E-03    2.06       7.9  T
   8   -117.2564913 -0.789150E-07  0.586E-04    2.06      19.2  T
   9   -117.2564913 -0.146429E-08  0.277E-04    2.06      40.7  T
  10   -117.2564913  0.741949E-10  0.157E-04    2.06      71.5  T
     SCC iter.                  ...        0 min,  0.157 sec
     gradient                   ...        0 min,  0.067 sec
 * total energy  :  -115.3321167 Eh     change       -0.1809362E-02 Eh
   gradient norm :     0.0159613 Eh/α   predicted    -0.1624480E-02 ( -10.22%)
   displ. norm   :     0.6299839 α      lambda       -0.2181673E-02
   maximum displ.:     0.2001921 α      in ANC's #38, #18, #11, ...

........................................................................
.............................. CYCLE  101 ..............................
........................................................................

 iter      E             dE          RMSdq      gap      omega  full diag
   1   -117.2520636 -0.117252E+03  0.100E-01    2.05       0.0  T
   2   -117.2520635  0.808190E-07  0.685E-02    2.06       1.0  T
   3   -117.2520166  0.469114E-04  0.500E-02    2.08       1.0  T
   4   -117.2518650  0.151592E-03  0.553E-02    2.04       1.0  T
   5   -117.2521043 -0.239264E-03  0.137E-02    2.07       1.0  T
   6   -117.2521104 -0.610032E-05  0.475E-03    2.07       2.4  T
   7   -117.2521107 -0.341094E-06  0.160E-03    2.07       7.1  T
   8   -117.2521108 -0.530306E-07  0.745E-04    2.07      15.1  T
   9   -117.2521108 -0.353931E-08  0.335E-04    2.07      33.6  T
  10   -117.2521108 -0.211315E-09  0.157E-04    2.07      71.9  T
     SCC iter.                  ...        0 min,  0.168 sec
     gradient                   ...        0 min,  0.069 sec
 * total energy  :  -115.3335560 Eh     change       -0.1439250E-02 Eh
   gradient norm :     0.0133916 Eh/α   predicted    -0.1523772E-02 (   5.87%)
   displ. norm   :     0.5653927 α      lambda       -0.1404344E-02
   maximum displ.:     0.1709072 α      in ANC's #11, #21, #10, ...

........................................................................
.............................. CYCLE  102 ..............................
........................................................................

 iter      E             dE          RMSdq      gap      omega  full diag
   1   -117.2496527 -0.117250E+03  0.927E-02    2.07       0.0  T
   2   -117.2495452  0.107548E-03  0.688E-02    2.08       1.0  T
   3   -117.2492594  0.285806E-03  0.758E-02    2.04       1.0  T
   4   -117.2496166 -0.357173E-03  0.366E-02    2.08       1.0  T
   5   -117.2496952 -0.786289E-04  0.492E-03    2.07       2.3  T
   6   -117.2496955 -0.276517E-06  0.268E-03    2.07       4.2  T
   7   -117.2496956 -0.166788E-06  0.116E-03    2.07       9.7  T
   8   -117.2496956 -0.909878E-08  0.625E-04    2.07      18.0  T
   9   -117.2496957 -0.948327E-08  0.284E-04    2.07      39.6  T
  10   -117.2496957 -0.176499E-08  0.162E-04    2.07      69.5  T
     SCC iter.                  ...        0 min,  0.165 sec
     gradient                   ...        0 min,  0.068 sec
 * total energy  :  -115.3345497 Eh     change       -0.9937319E-03 Eh
   gradient norm :     0.0114929 Eh/α   predicted    -0.9266376E-03 (  -6.75%)
   displ. norm   :     0.5258031 α      lambda       -0.9711704E-03
   maximum displ.:     0.1736751 α      in ANC's #10, #11, #4, ...

........................................................................
.............................. CYCLE  103 ..............................
........................................................................

 iter      E             dE          RMSdq      gap      omega  full diag
   1   -117.2535082 -0.117254E+03  0.794E-02    2.06       0.0  T
   2   -117.2534341  0.740757E-04  0.562E-02    2.07       1.0  T
   3   -117.2530458  0.388286E-03  0.776E-02    2.03       1.0  T
   4   -117.2535096 -0.463754E-03  0.228E-02    2.07       1.0  T
   5   -117.2535306 -0.210141E-04  0.646E-03    2.06       1.7  T
   6   -117.2535308 -0.200120E-06  0.171E-03    2.06       6.6  T
   7   -117.2535308 -0.246878E-07  0.734E-04    2.06      15.3  T
   8   -117.2535308 -0.208601E-08  0.344E-04    2.06      32.7  T
   9   -117.2535308 -0.317165E-08  0.174E-04    2.06      64.5  T
     SCC iter.                  ...        0 min,  0.158 sec
     gradient                   ...        0 min,  0.069 sec
 * total energy  :  -115.3350985 Eh     change       -0.5487685E-03 Eh
   gradient norm :     0.0161675 Eh/α   predicted    -0.6198382E-03 (  12.95%)
   displ. norm   :     0.5175056 α      lambda       -0.9171015E-03
   maximum displ.:     0.1813296 α      in ANC's #10, #4, #3, ...

........................................................................
.............................. CYCLE  104 ..............................
........................................................................

 iter      E             dE          RMSdq      gap      omega  full diag
   1   -117.2527901 -0.117253E+03  0.797E-02    2.07       0.0  T
   2   -117.2527807  0.942403E-05  0.498E-02    2.06       1.0  T
   3   -117.2525106  0.270057E-03  0.620E-02    2.09       1.0  T
   4   -117.2527422 -0.231608E-03  0.273E-02    2.05       1.0  T
   5   -117.2528008 -0.585323E-04  0.367E-03    2.07       3.1  T
   6   -117.2528012 -0.398751E-06  0.201E-03    2.07       5.6  T
   7   -117.2528012 -0.296857E-07  0.122E-03    2.07       9.2  T
   8   -117.2528013 -0.532466E-07  0.635E-04    2.07      17.7  T
   9   -117.2528013 -0.505472E-08  0.225E-04    2.07      50.1  T
  10   -117.2528013 -0.831491E-09  0.883E-05    2.07     127.4  T
     SCC iter.                  ...        0 min,  0.167 sec
     gradient                   ...        0 min,  0.072 sec
 * total energy  :  -115.3356222 Eh     change       -0.5237757E-03 Eh
   gradient norm :     0.0119922 Eh/α   predicted    -0.5813609E-03 (  10.99%)
   displ. norm   :     0.3396537 α      lambda       -0.4353555E-03
   maximum displ.:     0.1407665 α      in ANC's #10, #3, #4, ...

........................................................................
.............................. CYCLE  105 ..............................
........................................................................

 iter      E             dE          RMSdq      gap      omega  full diag
   1   -117.2549121 -0.117255E+03  0.606E-02    2.07       0.0  T
   2   -117.2549142 -0.204591E-05  0.360E-02    2.08       1.0  T
   3   -117.2549028  0.113876E-04  0.252E-02    2.07       1.0  T
   4   -117.2548907  0.120783E-04  0.184E-02    2.08       1.0  T
   5   -117.2549155 -0.247619E-04  0.638E-03    2.07       1.8  T
   6   -117.2549185 -0.306552E-05  0.163E-03    2.08       6.9  T
   7   -117.2549186 -0.210698E-07  0.590E-04    2.08      19.1  T
   8   -117.2549186 -0.103132E-07  0.309E-04    2.08      36.4  T
   9   -117.2549186 -0.271601E-08  0.954E-05    2.08     117.9  T
     SCC iter.                  ...        0 min,  0.150 sec
     gradient                   ...        0 min,  0.065 sec
 * total energy  :  -115.3359333 Eh     change       -0.3111014E-03 Eh
   gradient norm :     0.0074521 Eh/α   predicted    -0.2427910E-03 ( -21.96%)
   displ. norm   :     0.4581719 α      lambda       -0.4877060E-03
   maximum displ.:     0.2248349 α      in ANC's #10, #3, #4, ...

........................................................................
.............................. CYCLE  106 ..............................
........................................................................

 iter      E             dE          RMSdq      gap      omega  full diag
   1   -117.2575824 -0.117258E+03  0.856E-02    2.08       0.0  T
   2   -117.2575804  0.198787E-05  0.512E-02    2.09       1.0  T
   3   -117.2574869  0.934757E-04  0.444E-02    2.07       1.0  T
   4   -117.2574645  0.224647E-04  0.375E-02    2.10       1.0  T
   5   -117.2575908 -0.126374E-03  0.638E-03    2.08       1.8  T
   6   -117.2575931 -0.226546E-05  0.148E-03    2.08       7.6  T
   7   -117.2575931  0.326838E-08  0.873E-04    2.08      12.9  T
   8   -117.2575931 -0.150968E-07  0.252E-04    2.08      44.7  T
   9   -117.2575931 -0.109712E-08  0.101E-04    2.08     111.3  T
     SCC iter.                  ...        0 min,  0.135 sec
     gradient                   ...        0 min,  0.070 sec
 * total energy  :  -115.3362787 Eh     change       -0.3453976E-03 Eh
   gradient norm :     0.0045749 Eh/α   predicted    -0.2950481E-03 ( -14.58%)
   displ. norm   :     0.4635038 α      lambda       -0.3655642E-03
   maximum displ.:     0.2427969 α      in ANC's #10, #3, #4, ...

........................................................................
.............................. CYCLE  107 ..............................
........................................................................

 iter      E             dE          RMSdq      gap      omega  full diag
   1   -117.2575274 -0.117258E+03  0.873E-02    2.09       0.0  T
   2   -117.2575276 -0.162675E-06  0.523E-02    2.09       1.0  T
   3   -117.2574748  0.528063E-04  0.373E-02    2.08       1.0  T
   4   -117.2574472  0.275954E-04  0.304E-02    2.10       1.0  T
   5   -117.2575324 -0.852212E-04  0.302E-03    2.09       3.7  T
   6   -117.2575328 -0.392394E-06  0.125E-03    2.09       9.0  T
   7   -117.2575328 -0.953348E-08  0.823E-04    2.09      13.7  T
   8   -117.2575328 -0.110975E-07  0.246E-04    2.09      45.8  T
   9   -117.2575328 -0.767614E-09  0.109E-04    2.09     103.2  T
     SCC iter.                  ...        0 min,  0.151 sec
     gradient                   ...        0 min,  0.070 sec
 * total energy  :  -115.3365761 Eh     change       -0.2973789E-03 Eh
   gradient norm :     0.0057774 Eh/α   predicted    -0.2220521E-03 ( -25.33%)
   displ. norm   :     0.5460550 α      lambda       -0.4718947E-03
   maximum displ.:     0.2957846 α      in ANC's #10, #3, #4, ...

........................................................................
.............................. CYCLE  108 ..............................
........................................................................

 iter      E             dE          RMSdq      gap      omega  full diag
   1   -117.2585844 -0.117259E+03  0.110E-01    2.10       0.0  T
   2   -117.2585773  0.710148E-05  0.676E-02    2.10       1.0  T
   3   -117.2583801  0.197207E-03  0.622E-02    2.08       1.0  T
   4   -117.2583713  0.874846E-05  0.496E-02    2.12       1.0  T
   5   -117.2585953 -0.224007E-03  0.391E-03    2.10       2.9  T
   6   -117.2585958 -0.526651E-06  0.191E-03    2.10       5.9  T
   7   -117.2585959 -0.315254E-07  0.998E-04    2.10      11.3  T
   8   -117.2585959 -0.154680E-07  0.402E-04    2.10      28.0  T
   9   -117.2585959 -0.287838E-08  0.147E-04    2.10      76.6  T
     SCC iter.                  ...        0 min,  0.136 sec
     gradient                   ...        0 min,  0.065 sec
 * total energy  :  -115.3369549 Eh     change       -0.3787437E-03 Eh
   gradient norm :     0.0070203 Eh/α   predicted    -0.3063059E-03 ( -19.13%)
   displ. norm   :     0.5829800 α      lambda       -0.5155847E-03
   maximum displ.:     0.3188234 α      in ANC's #10, #3, #23, ...

........................................................................
.............................. CYCLE  109 ..............................
........................................................................

 iter      E             dE          RMSdq      gap      omega  full diag
   1   -117.2568764 -0.117257E+03  0.115E-01    2.11       0.0  T
   2   -117.2568741  0.232768E-05  0.682E-02    2.11       1.0  T
   3   -117.2566373  0.236773E-03  0.549E-02    2.13       1.0  T
   4   -117.2567654 -0.128163E-03  0.387E-02    2.09       1.0  T
   5   -117.2568836 -0.118172E-03  0.304E-03    2.11       3.7  T
   6   -117.2568839 -0.319941E-06  0.168E-03    2.11       6.7  T
   7   -117.2568840 -0.328028E-07  0.104E-03    2.11      10.8  T
   8   -117.2568840 -0.218126E-07  0.345E-04    2.11      32.6  T
   9   -117.2568840 -0.257657E-09  0.143E-04    2.11      78.9  T
     SCC iter.                  ...        0 min,  0.140 sec
     gradient                   ...        0 min,  0.072 sec
 * total energy  :  -115.3373527 Eh     change       -0.3978711E-03 Eh
   gradient norm :     0.0072450 Eh/α   predicted    -0.3454117E-03 ( -13.19%)
   displ. norm   :     0.5454853 α      lambda       -0.4855366E-03
   maximum displ.:     0.2758672 α      in ANC's #10, #3, #23, ...

........................................................................
.............................. CYCLE  110 ..............................
........................................................................

 iter      E             dE          RMSdq      gap      omega  full diag
   1   -117.2588893 -0.117259E+03  0.108E-01    2.12       0.0  T
   2   -117.2588734  0.158983E-04  0.663E-02    2.11       1.0  T
   3   -117.2583515  0.521941E-03  0.818E-02    2.15       1.0  T
   4   -117.2588305 -0.478966E-03  0.316E-02    2.11       1.0  T
   5   -117.2588987 -0.682688E-04  0.315E-03    2.12       3.6  T
   6   -117.2588991 -0.335933E-06  0.161E-03    2.12       7.0  T
   7   -117.2588991 -0.418409E-07  0.758E-04    2.12      14.8  T
   8   -117.2588991 -0.650280E-08  0.355E-04    2.12      31.7  T
   9   -117.2588991 -0.435723E-08  0.172E-04    2.12      65.5  T
     SCC iter.                  ...        0 min,  0.158 sec
     gradient                   ...        0 min,  0.071 sec
 * total energy  :  -115.3376983 Eh     change       -0.3456112E-03 Eh
   gradient norm :     0.0066999 Eh/α   predicted    -0.3150068E-03 (  -8.86%)
   displ. norm   :     0.5495776 α      lambda       -0.4292110E-03
   maximum displ.:     0.3038233 α      in ANC's #10, #3, #23, ...

........................................................................
.............................. CYCLE  111 ..............................
........................................................................

 iter      E             dE          RMSdq      gap      omega  full diag
   1   -117.2527992 -0.117253E+03  0.114E-01    2.13       0.0  T
   2   -117.2528018 -0.259984E-05  0.680E-02    2.13       1.0  T
   3   -117.2527246  0.772230E-04  0.405E-02    2.12       1.0  T
   4   -117.2527331 -0.851661E-05  0.290E-02    2.14       1.0  T
   5   -117.2528064 -0.733129E-04  0.408E-03    2.13       2.8  T
   6   -117.2528072 -0.828689E-06  0.206E-03    2.13       5.5  T
   7   -117.2528074 -0.144983E-06  0.106E-03    2.13      10.6  T
   8   -117.2528074 -0.832331E-08  0.559E-04    2.13      20.1  T
   9   -117.2528074 -0.328330E-08  0.154E-04    2.13      73.2  T
  10   -117.2528074 -0.110887E-09  0.787E-05    2.13     142.9  T
     SCC iter.                  ...        0 min,  0.161 sec
     gradient                   ...        0 min,  0.073 sec
 * total energy  :  -115.3379417 Eh     change       -0.2433329E-03 Eh
   gradient norm :     0.0088271 Eh/α   predicted    -0.2794295E-03 (  14.83%)
   displ. norm   :     0.3643631 α      lambda       -0.4120402E-03
   maximum displ.:     0.1773576 α      in ANC's #10, #3, #23, ...

........................................................................
.............................. CYCLE  112 ..............................
........................................................................

 iter      E             dE          RMSdq      gap      omega  full diag
   1   -117.2569765 -0.117257E+03  0.811E-02    2.13       0.0  T
   2   -117.2569288  0.477732E-04  0.532E-02    2.12       1.0  T
   3   -117.2562893  0.639460E-03  0.915E-02    2.17       1.0  T
   4   -117.2569869 -0.697564E-03  0.111E-02    2.13       1.0  T
   5   -117.2569889 -0.207939E-05  0.311E-03    2.14       3.6  T
   6   -117.2569895 -0.590801E-06  0.122E-03    2.13       9.2  T
   7   -117.2569895 -0.751517E-08  0.696E-04    2.13      16.2  T
   8   -117.2569895 -0.399261E-08  0.303E-04    2.13      37.2  T
   9   -117.2569895 -0.289617E-09  0.135E-04    2.13      83.5  T
     SCC iter.                  ...        0 min,  0.142 sec
     gradient                   ...        0 min,  0.073 sec
 * total energy  :  -115.3382258 Eh     change       -0.2840817E-03 Eh
   gradient norm :     0.0060309 Eh/α   predicted    -0.2333742E-03 ( -17.85%)
   displ. norm   :     0.4779202 α      lambda       -0.3698816E-03
   maximum displ.:     0.2763187 α      in ANC's #10, #3, #19, ...

........................................................................
.............................. CYCLE  113 ..............................
........................................................................

 iter      E             dE          RMSdq      gap      omega  full diag
   1   -117.2564332 -0.117256E+03  0.105E-01    2.14       0.0  T
   2   -117.2564301  0.307216E-05  0.620E-02    2.13       1.0  T
   3   -117.2561561  0.274002E-03  0.553E-02    2.16       1.0  T
   4   -117.2564220 -0.265824E-03  0.149E-02    2.13       1.0  T
   5   -117.2564380 -0.160871E-04  0.278E-03    2.14       4.0  T
   6   -117.2564384 -0.332300E-06  0.147E-03    2.14       7.6  T
   7   -117.2564384 -0.884614E-08  0.831E-04    2.14      13.5  T
   8   -117.2564384 -0.805450E-08  0.275E-04    2.14      40.9  T
   9   -117.2564384 -0.790408E-10  0.123E-04    2.14      91.7  T
     SCC iter.                  ...        0 min,  0.169 sec
     gradient                   ...        0 min,  0.067 sec
 * total energy  :  -115.3385147 Eh     change       -0.2889393E-03 Eh
   gradient norm :     0.0067981 Eh/α   predicted    -0.2271880E-03 ( -21.37%)
   displ. norm   :     0.5133794 α      lambda       -0.4904389E-03
   maximum displ.:     0.2324020 α      in ANC's #10, #3, #19, ...

........................................................................
.............................. CYCLE  114 ..............................
........................................................................

 iter      E             dE          RMSdq      gap      omega  full diag
   1   -117.2637104 -0.117264E+03  0.117E-01    2.15       0.0  T
   2   -117.2636731  0.373515E-04  0.718E-02    2.14       1.0  T
   3   -117.2625012  0.117189E-02  0.117E-01    2.20       1.0  T
   4   -117.2637138 -0.121259E-02  0.159E-02    2.14       1.0  T
   5   -117.2637253 -0.114822E-04  0.515E-03    2.15       2.2  T
   6   -117.2637261 -0.873537E-06  0.189E-03    2.15       6.0  T
   7   -117.2637261  0.141132E-08  0.950E-04    2.15      11.8  T
   8   -117.2637262 -0.247198E-07  0.380E-04    2.15      29.6  T
   9   -117.2637262 -0.346505E-08  0.163E-04    2.15      69.2  T
     SCC iter.                  ...        0 min,  0.142 sec
     gradient                   ...        0 min,  0.068 sec
 * total energy  :  -115.3388299 Eh     change       -0.3151831E-03 Eh
   gradient norm :     0.0086037 Eh/α   predicted    -0.3098496E-03 (  -1.69%)
   displ. norm   :     0.6306810 α      lambda       -0.3819078E-03
   maximum displ.:     0.3615324 α      in ANC's #10, #3, #19, ...

........................................................................
.............................. CYCLE  115 ..............................
........................................................................

 iter      E             dE          RMSdq      gap      omega  full diag
   1   -117.2556055 -0.117256E+03  0.138E-01    2.15       0.0  T
   2   -117.2556085 -0.299518E-05  0.815E-02    2.15       1.0  T
   3   -117.2555756  0.329468E-04  0.428E-02    2.15       1.0  T
   4   -117.2555992 -0.236418E-04  0.138E-02    2.15       1.0  T
   5   -117.2556062 -0.694766E-05  0.888E-03    2.15       1.3  T
   6   -117.2556126 -0.639558E-05  0.170E-03    2.15       6.6  T
   7   -117.2556126  0.676233E-08  0.846E-04    2.15      13.3  T
   8   -117.2556126 -0.869701E-08  0.436E-04    2.15      25.8  T
   9   -117.2556126 -0.568302E-08  0.147E-04    2.15      76.6  T
     SCC iter.                  ...        0 min,  0.154 sec
     gradient                   ...        0 min,  0.076 sec
 * total energy  :  -115.3390964 Eh     change       -0.2665558E-03 Eh
   gradient norm :     0.0082702 Eh/α   predicted    -0.2669077E-03 (   0.13%)
   displ. norm   :     0.4078116 α      lambda       -0.3446239E-03
   maximum displ.:     0.1925458 α      in ANC's #3, #10, #19, ...

........................................................................
.............................. CYCLE  116 ..............................
........................................................................

 iter      E             dE          RMSdq      gap      omega  full diag
   1   -117.2574377 -0.117257E+03  0.896E-02    2.16       0.0  T
   2   -117.2574383 -0.574416E-06  0.536E-02    2.16       1.0  T
   3   -117.2573967  0.416451E-04  0.384E-02    2.15       1.0  T
   4   -117.2573827  0.139386E-04  0.252E-02    2.17       1.0  T
   5   -117.2574412 -0.584624E-04  0.276E-03    2.16       4.1  T
   6   -117.2574413 -0.819736E-07  0.118E-03    2.16       9.5  T
   7   -117.2574413  0.107768E-08  0.539E-04    2.16      20.9  T
   8   -117.2574413 -0.456808E-08  0.240E-04    2.16      46.9  T
   9   -117.2574413 -0.371088E-09  0.893E-05    2.16     125.9  T
     SCC iter.                  ...        0 min,  0.141 sec
     gradient                   ...        0 min,  0.070 sec
 * total energy  :  -115.3393529 Eh     change       -0.2564354E-03 Eh
   gradient norm :     0.0056518 Eh/α   predicted    -0.2009733E-03 ( -21.63%)
   displ. norm   :     0.5112327 α      lambda       -0.3647549E-03
   maximum displ.:     0.2415219 α      in ANC's #3, #10, #19, ...

........................................................................
.............................. CYCLE  117 ..............................
........................................................................

 iter      E             dE          RMSdq      gap      omega  full diag
   1   -117.2596255 -0.117260E+03  0.116E-01    2.17       0.0  T
   2   -117.2596086  0.169440E-04  0.695E-02    2.16       1.0  T
   3   -117.2588482  0.760372E-03  0.942E-02    2.21       1.0  T
   4   -117.2596244 -0.776196E-03  0.173E-02    2.16       1.0  T
   5   -117.2596335 -0.908552E-05  0.441E-03    2.17       2.6  T
   6   -117.2596343 -0.834709E-06  0.138E-03    2.17       8.2  T
   7   -117.2596343 -0.855252E-09  0.676E-04    2.17      16.6  T
   8   -117.2596343 -0.412106E-08  0.318E-04    2.17      35.4  T
   9   -117.2596343 -0.804462E-09  0.126E-04    2.17      89.6  T
     SCC iter.                  ...        0 min,  0.155 sec
     gradient                   ...        0 min,  0.077 sec
 * total energy  :  -115.3396215 Eh     change       -0.2686335E-03 Eh
   gradient norm :     0.0053616 Eh/α   predicted    -0.2300462E-03 ( -14.36%)
   displ. norm   :     0.4870024 α      lambda       -0.2885707E-03
   maximum displ.:     0.2326814 α      in ANC's #3, #10, #19, ...

........................................................................
.............................. CYCLE  118 ..............................
........................................................................

 iter      E             dE          RMSdq      gap      omega  full diag
   1   -117.2613460 -0.117261E+03  0.110E-01    2.17       0.0  T
   2   -117.2613488 -0.283919E-05  0.649E-02    2.17       1.0  T
   3   -117.2613375  0.113247E-04  0.353E-02    2.17       1.0  T
   4   -117.2613391 -0.160795E-05  0.121E-02    2.18       1.0  T
   5   -117.2613501 -0.109639E-04  0.403E-03    2.17       2.8  T
   6   -117.2613510 -0.925407E-06  0.152E-03    2.17       7.4  T
   7   -117.2613510 -0.453658E-07  0.645E-04    2.17      17.4  T
   8   -117.2613510 -0.543086E-08  0.296E-04    2.17      38.0  T
   9   -117.2613510 -0.670937E-09  0.120E-04    2.17      94.1  T
     SCC iter.                  ...        0 min,  0.153 sec
     gradient                   ...        0 min,  0.072 sec
 * total energy  :  -115.3398270 Eh     change       -0.2055257E-03 Eh
   gradient norm :     0.0053593 Eh/α   predicted    -0.1785086E-03 ( -13.15%)
   displ. norm   :     0.5294396 α      lambda       -0.2373459E-03
   maximum displ.:     0.2627492 α      in ANC's #3, #10, #19, ...

........................................................................
.............................. CYCLE  119 ..............................
........................................................................

 iter      E             dE          RMSdq      gap      omega  full diag
   1   -117.2602730 -0.117260E+03  0.116E-01    2.17       0.0  T
   2   -117.2602749 -0.190587E-05  0.681E-02    2.18       1.0  T
   3   -117.2602499  0.250366E-04  0.297E-02    2.17       1.0  T
   4   -117.2602517 -0.187879E-05  0.166E-02    2.18       1.0  T
   5   -117.2602770 -0.252347E-04  0.256E-03    2.17       4.4  T
   6   -117.2602771 -0.172896E-06  0.126E-03    2.17       8.9  T
   7   -117.2602771 -0.974015E-08  0.628E-04    2.17      17.9  T
   8   -117.2602772 -0.499438E-08  0.322E-04    2.17      35.0  T
   9   -117.2602772 -0.593275E-09  0.140E-04    2.17      80.3  T
     SCC iter.                  ...        0 min,  0.151 sec
     gradient                   ...        0 min,  0.078 sec
 * total energy  :  -115.3400000 Eh     change       -0.1730156E-03 Eh
   gradient norm :     0.0063629 Eh/α   predicted    -0.1519414E-03 ( -12.18%)
   displ. norm   :     0.3802560 α      lambda       -0.2408444E-03
   maximum displ.:     0.1694417 α      in ANC's #3, #12, #19, ...

........................................................................
.............................. CYCLE  120 ..............................
........................................................................

 iter      E             dE          RMSdq      gap      omega  full diag
   1   -117.2683960 -0.117268E+03  0.841E-02    2.18       0.0  T
   2   -117.2683978 -0.186812E-05  0.496E-02    2.18       1.0  T
   3   -117.2683866  0.112436E-04  0.257E-02    2.18       1.0  T
   4   -117.2683881 -0.153317E-05  0.115E-02    2.19       1.0  T
   5   -117.2683992 -0.110646E-04  0.279E-03    2.18       4.0  T
   6   -117.2683995 -0.346934E-06  0.106E-03    2.18      10.6  T
   7   -117.2683995 -0.243590E-07  0.445E-04    2.18      25.3  T
   8   -117.2683995  0.512912E-09  0.217E-04    2.18      51.8  T
     SCC iter.                  ...        0 min,  0.135 sec
     gradient                   ...        0 min,  0.066 sec
 * total energy  :  -115.3401196 Eh     change       -0.1195351E-03 Eh
   gradient norm :     0.0077516 Eh/α   predicted    -0.1378381E-03 (  15.31%)
   displ. norm   :     0.5666168 α      lambda       -0.2809380E-03
   maximum displ.:     0.2847600 α      in ANC's #3, #10, #19, ...
 * RMSD in coord.:     1.1186875 α      energy gain  -0.6177966E-01 Eh

generating ANC from exact Hessian ...
Using Lindh-Hessian (1995)
 Shifting diagonal of input Hessian by    1.0429498614413923E-002
 Lowest  eigenvalues of input Hessian
    0.010000    0.010314    0.010358    0.000000    0.000000    0.000000
    0.000000    0.000000    0.000000    0.010529    0.010608    0.010691
    0.010731    0.010804    0.010944    0.010979    0.011061    0.011190
 Highest eigenvalues
    2.000365    2.001380    2.004846    2.012240    2.019988    2.326949


........................................................................
.............................. CYCLE  121 ..............................
........................................................................

 iter      E             dE          RMSdq      gap      omega  full diag
   1   -117.2588987 -0.117259E+03  0.128E-01    2.18       0.0  T
   2   -117.2588986  0.161431E-06  0.755E-02    2.18       1.0  T
   3   -117.2587355  0.163065E-03  0.466E-02    2.20       1.0  T
   4   -117.2588762 -0.140677E-03  0.187E-02    2.17       1.0  T
   5   -117.2589033 -0.271387E-04  0.278E-03    2.18       4.1  T
   6   -117.2589034 -0.131321E-06  0.159E-03    2.18       7.1  T
   7   -117.2589035 -0.117069E-07  0.624E-04    2.18      18.0  T
   8   -117.2589034  0.565734E-09  0.360E-04    2.18      31.3  T
   9   -117.2589035 -0.323658E-08  0.133E-04    2.18      84.7  T
     SCC iter.                  ...        0 min,  0.163 sec
     gradient                   ...        0 min,  0.078 sec
 * total energy  :  -115.3402472 Eh     change       -0.1276346E-03 Eh
   gradient norm :     0.0068959 Eh/α   predicted     0.0000000E+00 (-100.00%)
   displ. norm   :     0.0742987 α      lambda       -0.1849772E-03
   maximum displ.:     0.0358381 α      in ANC's #12, #29, #47, ...

........................................................................
.............................. CYCLE  122 ..............................
........................................................................

 iter      E             dE          RMSdq      gap      omega  full diag
   1   -117.2625022 -0.117263E+03  0.242E-02    2.18       0.0  T
   2   -117.2625013  0.899019E-06  0.149E-02    2.19       1.0  T
   3   -117.2624855  0.158542E-04  0.165E-02    2.18       1.0  T
   4   -117.2624952 -0.973457E-05  0.112E-02    2.19       1.0  T
   5   -117.2625040 -0.879897E-05  0.132E-03    2.18       8.5  T
   6   -117.2625041 -0.495576E-07  0.611E-04    2.18      18.4  T
   7   -117.2625041 -0.522382E-08  0.254E-04    2.18      44.2  T
   8   -117.2625041 -0.704574E-09  0.139E-04    2.18      80.8  T
     SCC iter.                  ...        0 min,  0.144 sec
     gradient                   ...        0 min,  0.070 sec
 * total energy  :  -115.3403825 Eh     change       -0.1352513E-03 Eh
   gradient norm :     0.0026864 Eh/α   predicted    -0.9300063E-04 ( -31.24%)
   displ. norm   :     0.1535462 α      lambda       -0.1782932E-03
   maximum displ.:     0.0791791 α      in ANC's #12, #29, #24, ...

........................................................................
.............................. CYCLE  123 ..............................
........................................................................

 iter      E             dE          RMSdq      gap      omega  full diag
   1   -117.2653279 -0.117265E+03  0.399E-02    2.19       0.0  T
   2   -117.2653296 -0.163976E-05  0.251E-02    2.19       1.0  T
   3   -117.2653036  0.259620E-04  0.224E-02    2.18       1.0  T
   4   -117.2652975  0.609879E-05  0.214E-02    2.20       1.0  T
   5   -117.2653350 -0.374628E-04  0.333E-03    2.19       3.4  T
   6   -117.2653355 -0.491346E-06  0.146E-03    2.19       7.7  T
   7   -117.2653355 -0.774843E-07  0.823E-04    2.19      13.7  T
   8   -117.2653356 -0.107196E-07  0.396E-04    2.19      28.4  T
   9   -117.2653356 -0.650090E-09  0.150E-04    2.19      75.2  T
     SCC iter.                  ...        0 min,  0.153 sec
     gradient                   ...        0 min,  0.075 sec
 * total energy  :  -115.3404475 Eh     change       -0.6502805E-04 Eh
   gradient norm :     0.0052088 Eh/α   predicted    -0.9126146E-04 (  40.34%)
   displ. norm   :     0.1337162 α      lambda       -0.1497247E-03
   maximum displ.:     0.0723796 α      in ANC's #12, #29, #17, ...

........................................................................
.............................. CYCLE  124 ..............................
........................................................................

 iter      E             dE          RMSdq      gap      omega  full diag
   1   -117.2650578 -0.117265E+03  0.431E-02    2.19       0.0  T
   2   -117.2650609 -0.306099E-05  0.273E-02    2.19       1.0  T
   3   -117.2650616 -0.756505E-06  0.162E-02    2.19       1.0  T
   4   -117.2650470  0.146895E-04  0.155E-02    2.19       1.0  T
   5   -117.2650611 -0.141841E-04  0.571E-03    2.19       2.0  T
   6   -117.2650634 -0.223438E-05  0.234E-03    2.19       4.8  T
   7   -117.2650636 -0.231292E-06  0.440E-04    2.19      25.6  T
   8   -117.2650636 -0.115307E-09  0.323E-04    2.19      34.8  T
     SCC iter.                  ...        0 min,  0.135 sec
     gradient                   ...        0 min,  0.068 sec
 * total energy  :  -115.3405038 Eh     change       -0.5629299E-04 Eh
   gradient norm :     0.0059308 Eh/α   predicted    -0.7620104E-04 (  35.37%)
   displ. norm   :     0.0490715 α      lambda       -0.7888624E-04
   maximum displ.:     0.0241747 α      in ANC's #12, #18, #14, ...

........................................................................
.............................. CYCLE  125 ..............................
........................................................................

 iter      E             dE          RMSdq      gap      omega  full diag
   1   -117.2641398 -0.117264E+03  0.158E-02    2.19       0.0  T
   2   -117.2641400 -0.248693E-06  0.106E-02    2.19       1.1  T
   3   -117.2641397  0.261760E-06  0.818E-03    2.19       1.4  T
   4   -117.2641387  0.105418E-05  0.469E-03    2.19       2.4  T
   5   -117.2641401 -0.144135E-05  0.208E-03    2.19       5.4  T
   6   -117.2641405 -0.351224E-06  0.467E-04    2.19      24.1  T
   7   -117.2641405 -0.554842E-08  0.213E-04    2.19      52.9  T
     SCC iter.                  ...        0 min,  0.119 sec
     gradient                   ...        0 min,  0.069 sec
 * total energy  :  -115.3405594 Eh     change       -0.5564207E-04 Eh
   gradient norm :     0.0028884 Eh/α   predicted    -0.3954161E-04 ( -28.94%)
   displ. norm   :     0.1895095 α      lambda       -0.1657169E-03
   maximum displ.:     0.1057537 α      in ANC's #12, #6, #19, ...

........................................................................
.............................. CYCLE  126 ..............................
........................................................................

 iter      E             dE          RMSdq      gap      omega  full diag
   1   -117.2614336 -0.117261E+03  0.514E-02    2.18       0.0  T
   2   -117.2614359 -0.229318E-05  0.315E-02    2.19       1.0  T
   3   -117.2614267  0.921091E-05  0.245E-02    2.18       1.0  T
   4   -117.2614235  0.314675E-05  0.140E-02    2.18       1.0  T
   5   -117.2614348 -0.113287E-04  0.738E-03    2.19       1.5  T
   6   -117.2614390 -0.412175E-05  0.184E-03    2.18       6.1  T
   7   -117.2614390 -0.742130E-07  0.688E-04    2.19      16.4  T
   8   -117.2614390 -0.183877E-08  0.405E-04    2.19      27.8  T
   9   -117.2614390 -0.199425E-08  0.133E-04    2.18      84.7  T
     SCC iter.                  ...        0 min,  0.144 sec
     gradient                   ...        0 min,  0.072 sec
 * total energy  :  -115.3405722 Eh     change       -0.1273256E-04 Eh
   gradient norm :     0.0068229 Eh/α   predicted    -0.8583814E-04 ( 574.16%)
   displ. norm   :     0.1342237 α      lambda       -0.1626825E-03
   maximum displ.:     0.0742542 α      in ANC's #12, #29, #18, ...

........................................................................
.............................. CYCLE  127 ..............................
........................................................................

 iter      E             dE          RMSdq      gap      omega  full diag
   1   -117.2619984 -0.117262E+03  0.334E-02    2.19       0.0  T
   2   -117.2619998 -0.145071E-05  0.202E-02    2.19       1.0  T
   3   -117.2619974  0.235966E-05  0.148E-02    2.19       1.0  T
   4   -117.2619932  0.429026E-05  0.102E-02    2.19       1.1  T
   5   -117.2619993 -0.613122E-05  0.480E-03    2.19       2.3  T
   6   -117.2620009 -0.162031E-05  0.128E-03    2.19       8.8  T
   7   -117.2620009 -0.378430E-07  0.518E-04    2.19      21.7  T
   8   -117.2620009 -0.111493E-08  0.298E-04    2.19      37.7  T
   9   -117.2620009 -0.168079E-08  0.876E-05    2.19     128.4  T
     SCC iter.                  ...        0 min,  0.150 sec
     gradient                   ...        0 min,  0.075 sec
 * total energy  :  -115.3406694 Eh     change       -0.9722391E-04 Eh
   gradient norm :     0.0034706 Eh/α   predicted    -0.8280981E-04 ( -14.83%)
   displ. norm   :     0.1341227 α      lambda       -0.5321749E-04
   maximum displ.:     0.0802727 α      in ANC's #12, #7, #18, ...

........................................................................
.............................. CYCLE  128 ..............................
........................................................................

 iter      E             dE          RMSdq      gap      omega  full diag
   1   -117.2625611 -0.117263E+03  0.297E-02    2.19       0.0  T
   2   -117.2625575  0.358076E-05  0.188E-02    2.19       1.0  T
   3   -117.2625011  0.563845E-04  0.272E-02    2.18       1.0  T
   4   -117.2625587 -0.575610E-04  0.843E-03    2.19       1.3  T
   5   -117.2625624 -0.372387E-05  0.103E-03    2.19      10.9  T
   6   -117.2625624 -0.225123E-07  0.646E-04    2.19      17.4  T
   7   -117.2625624 -0.276469E-08  0.223E-04    2.19      50.5  T
   8   -117.2625624 -0.138483E-08  0.104E-04    2.19     108.4  T
     SCC iter.                  ...        0 min,  0.139 sec
     gradient                   ...        0 min,  0.068 sec
 * total energy  :  -115.3407109 Eh     change       -0.4151083E-04 Eh
   gradient norm :     0.0019436 Eh/α   predicted    -0.2708789E-04 ( -34.75%)
   displ. norm   :     0.3123998 α      lambda       -0.6952962E-04
   maximum displ.:     0.1815402 α      in ANC's #12, #18, #7, ...

........................................................................
.............................. CYCLE  129 ..............................
........................................................................

 iter      E             dE          RMSdq      gap      omega  full diag
   1   -117.2638233 -0.117264E+03  0.697E-02    2.19       0.0  T
   2   -117.2638201  0.321804E-05  0.421E-02    2.20       1.0  T
   3   -117.2637121  0.107937E-03  0.421E-02    2.18       1.0  T
   4   -117.2637690 -0.568830E-04  0.266E-02    2.21       1.0  T
   5   -117.2638263 -0.572602E-04  0.336E-03    2.19       3.3  T
   6   -117.2638266 -0.353001E-06  0.959E-04    2.20      11.7  T
   7   -117.2638266 -0.187683E-08  0.426E-04    2.20      26.4  T
   8   -117.2638266 -0.921602E-09  0.204E-04    2.20      55.2  T
     SCC iter.                  ...        0 min,  0.146 sec
     gradient                   ...        0 min,  0.086 sec
 * total energy  :  -115.3407825 Eh     change       -0.7165272E-04 Eh
   gradient norm :     0.0021625 Eh/α   predicted    -0.3627353E-04 ( -49.38%)
   displ. norm   :     0.2297058 α      lambda       -0.6473612E-04
   maximum displ.:     0.1301699 α      in ANC's #12, #18, #19, ...

........................................................................
.............................. CYCLE  130 ..............................
........................................................................

 iter      E             dE          RMSdq      gap      omega  full diag
   1   -117.2637087 -0.117264E+03  0.516E-02    2.20       0.0  T
   2   -117.2637088 -0.580032E-07  0.304E-02    2.20       1.0  T
   3   -117.2636849  0.238808E-04  0.185E-02    2.19       1.0  T
   4   -117.2637017 -0.168399E-04  0.974E-03    2.20       1.2  T
   5   -117.2637098 -0.807471E-05  0.109E-03    2.20      10.3  T
   6   -117.2637098 -0.170415E-07  0.684E-04    2.20      16.5  T
   7   -117.2637098 -0.538984E-08  0.315E-04    2.20      35.7  T
   8   -117.2637098 -0.481037E-09  0.168E-04    2.20      66.9  T
     SCC iter.                  ...        0 min,  0.135 sec
     gradient                   ...        0 min,  0.079 sec
 * total energy  :  -115.3408332 Eh     change       -0.5060661E-04 Eh
   gradient norm :     0.0020927 Eh/α   predicted    -0.3407958E-04 ( -32.66%)
   displ. norm   :     0.3432285 α      lambda       -0.8553251E-04
   maximum displ.:     0.1920779 α      in ANC's #12, #18, #19, ...

........................................................................
.............................. CYCLE  131 ..............................
........................................................................

 iter      E             dE          RMSdq      gap      omega  full diag
   1   -117.2631831 -0.117263E+03  0.785E-02    2.20       0.0  T
   2   -117.2631842 -0.101275E-05  0.463E-02    2.20       1.0  T
   3   -117.2631741  0.100513E-04  0.215E-02    2.20       1.0  T
   4   -117.2631855 -0.113675E-04  0.277E-03    2.20       4.1  T
   5   -117.2631854  0.286357E-07  0.165E-03    2.20       6.8  T
   6   -117.2631855 -0.339114E-07  0.141E-03    2.20       8.0  T
   7   -117.2631856 -0.136977E-06  0.349E-04    2.20      32.2  T
   8   -117.2631856 -0.239297E-09  0.192E-04    2.20      58.5  T
     SCC iter.                  ...        0 min,  0.130 sec
     gradient                   ...        0 min,  0.071 sec
 * total energy  :  -115.3408947 Eh     change       -0.6156809E-04 Eh
   gradient norm :     0.0021435 Eh/α   predicted    -0.4780879E-04 ( -22.35%)
   displ. norm   :     0.2950808 α      lambda       -0.6375492E-04
   maximum displ.:     0.1591121 α      in ANC's #12, #18, #19, ...

........................................................................
.............................. CYCLE  132 ..............................
........................................................................

 iter      E             dE          RMSdq      gap      omega  full diag
   1   -117.2632405 -0.117263E+03  0.681E-02    2.20       0.0  T
   2   -117.2632405 -0.467057E-07  0.404E-02    2.20       1.0  T
   3   -117.2631907  0.498512E-04  0.313E-02    2.21       1.0  T
   4   -117.2632271 -0.364684E-04  0.139E-02    2.20       1.0  T
   5   -117.2632424 -0.152194E-04  0.257E-03    2.20       4.4  T
   6   -117.2632429 -0.501286E-06  0.686E-04    2.20      16.4  T
   7   -117.2632429 -0.114206E-08  0.339E-04    2.20      33.1  T
   8   -117.2632429 -0.169770E-08  0.152E-04    2.20      74.0  T
     SCC iter.                  ...        0 min,  0.133 sec
     gradient                   ...        0 min,  0.070 sec
 * total energy  :  -115.3409411 Eh     change       -0.4635042E-04 Eh
   gradient norm :     0.0024388 Eh/α   predicted    -0.3465485E-04 ( -25.23%)
   displ. norm   :     0.2964992 α      lambda       -0.6575333E-04
   maximum displ.:     0.1534884 α      in ANC's #12, #11, #18, ...

........................................................................
.............................. CYCLE  133 ..............................
........................................................................

 iter      E             dE          RMSdq      gap      omega  full diag
   1   -117.2633468 -0.117263E+03  0.680E-02    2.21       0.0  T
   2   -117.2633473 -0.546331E-06  0.400E-02    2.21       1.0  T
   3   -117.2633342  0.131316E-04  0.181E-02    2.20       1.0  T
   4   -117.2633393 -0.514710E-05  0.994E-03    2.21       1.1  T
   5   -117.2633482 -0.883101E-05  0.118E-03    2.21       9.6  T
   6   -117.2633482 -0.177766E-07  0.722E-04    2.21      15.6  T
   7   -117.2633482 -0.765276E-08  0.398E-04    2.21      28.3  T
   8   -117.2633482 -0.249393E-08  0.203E-04    2.21      55.5  T
     SCC iter.                  ...        0 min,  0.128 sec
     gradient                   ...        0 min,  0.067 sec
 * total energy  :  -115.3409866 Eh     change       -0.4551399E-04 Eh
   gradient norm :     0.0024053 Eh/α   predicted    -0.3577216E-04 ( -21.40%)
   displ. norm   :     0.2343937 α      lambda       -0.5840255E-04
   maximum displ.:     0.1102957 α      in ANC's #12, #11, #19, ...

........................................................................
.............................. CYCLE  134 ..............................
........................................................................

 iter      E             dE          RMSdq      gap      omega  full diag
   1   -117.2638248 -0.117264E+03  0.537E-02    2.21       0.0  T
   2   -117.2638246  0.228889E-06  0.317E-02    2.21       1.0  T
   3   -117.2637835  0.410449E-04  0.262E-02    2.22       1.0  T
   4   -117.2638171 -0.335385E-04  0.105E-02    2.20       1.1  T
   5   -117.2638258 -0.873781E-05  0.142E-03    2.21       7.9  T
   6   -117.2638259 -0.106114E-06  0.552E-04    2.21      20.4  T
   7   -117.2638259 -0.407653E-09  0.315E-04    2.21      35.7  T
   8   -117.2638259 -0.159781E-08  0.128E-04    2.21      88.0  T
     SCC iter.                  ...        0 min,  0.140 sec
     gradient                   ...        0 min,  0.078 sec
 * total energy  :  -115.3410267 Eh     change       -0.4009173E-04 Eh
   gradient norm :     0.0020551 Eh/α   predicted    -0.3080633E-04 ( -23.16%)
   displ. norm   :     0.2161754 α      lambda       -0.4546916E-04
   maximum displ.:     0.1029814 α      in ANC's #12, #11, #4, ...

........................................................................
.............................. CYCLE  135 ..............................
........................................................................

 iter      E             dE          RMSdq      gap      omega  full diag
   1   -117.2635118 -0.117264E+03  0.502E-02    2.21       0.0  T
   2   -117.2635123 -0.479861E-06  0.294E-02    2.20       1.0  T
   3   -117.2635037  0.857375E-05  0.143E-02    2.21       1.0  T
   4   -117.2635013  0.240938E-05  0.114E-02    2.20       1.0  T
   5   -117.2635127 -0.114030E-04  0.172E-03    2.21       6.5  T
   6   -117.2635129 -0.138945E-06  0.567E-04    2.21      19.8  T
   7   -117.2635129 -0.100404E-08  0.262E-04    2.21      42.9  T
   8   -117.2635129 -0.399467E-09  0.113E-04    2.21      99.7  T
     SCC iter.                  ...        0 min,  0.131 sec
     gradient                   ...        0 min,  0.064 sec
 * total energy  :  -115.3410587 Eh     change       -0.3204868E-04 Eh
   gradient norm :     0.0018070 Eh/α   predicted    -0.2380100E-04 ( -25.73%)
   displ. norm   :     0.2317706 α      lambda       -0.4134329E-04
   maximum displ.:     0.0841238 α      in ANC's #26, #16, #12, ...

........................................................................
.............................. CYCLE  136 ..............................
........................................................................

 iter      E             dE          RMSdq      gap      omega  full diag
   1   -117.2654309 -0.117265E+03  0.524E-02    2.20       0.0  T
   2   -117.2654295  0.132949E-05  0.312E-02    2.20       1.0  T
   3   -117.2653471  0.824355E-04  0.328E-02    2.22       1.0  T
   4   -117.2654152 -0.681212E-04  0.150E-02    2.20       1.0  T
   5   -117.2654338 -0.185949E-04  0.251E-03    2.20       4.5  T
   6   -117.2654341 -0.229742E-06  0.930E-04    2.20      12.1  T
   7   -117.2654341 -0.156834E-08  0.516E-04    2.20      21.8  T
   8   -117.2654341 -0.177819E-08  0.191E-04    2.20      58.8  T
   9   -117.2654341 -0.439144E-09  0.833E-05    2.20     135.1  T
     SCC iter.                  ...        0 min,  0.167 sec
     gradient                   ...        0 min,  0.078 sec
 * total energy  :  -115.3410902 Eh     change       -0.3152024E-04 Eh
   gradient norm :     0.0025635 Eh/α   predicted    -0.2116797E-04 ( -32.84%)
   displ. norm   :     0.2178515 α      lambda       -0.4162081E-04
   maximum displ.:     0.1174209 α      in ANC's #12, #4, #14, ...

........................................................................
.............................. CYCLE  137 ..............................
........................................................................

 iter      E             dE          RMSdq      gap      omega  full diag
   1   -117.2626501 -0.117263E+03  0.498E-02    2.20       0.0  T
   2   -117.2626490  0.117026E-05  0.297E-02    2.20       1.0  T
   3   -117.2625730  0.760170E-04  0.314E-02    2.21       1.0  T
   4   -117.2626467 -0.737727E-04  0.808E-03    2.20       1.4  T
   5   -117.2626513 -0.454294E-05  0.122E-03    2.20       9.3  T
   6   -117.2626513 -0.226136E-07  0.490E-04    2.20      23.0  T
   7   -117.2626513 -0.117507E-08  0.203E-04    2.20      55.3  T
     SCC iter.                  ...        0 min,  0.118 sec
     gradient                   ...        0 min,  0.068 sec
 * total energy  :  -115.3411126 Eh     change       -0.2236609E-04 Eh
   gradient norm :     0.0023809 Eh/α   predicted    -0.2179854E-04 (  -2.54%)
   displ. norm   :     0.1002369 α      lambda       -0.4516358E-04
   maximum displ.:     0.0396330 α      in ANC's #17, #20, #29, ...

........................................................................
.............................. CYCLE  138 ..............................
........................................................................

 iter      E             dE          RMSdq      gap      omega  full diag
   1   -117.2635472 -0.117264E+03  0.204E-02    2.20       0.0  T
   2   -117.2635453  0.189737E-05  0.129E-02    2.20       1.0  T
   3   -117.2635092  0.360584E-04  0.210E-02    2.21       1.0  T
   4   -117.2635474 -0.382261E-04  0.389E-03    2.20       2.9  T
   5   -117.2635481 -0.652584E-06  0.955E-04    2.20      11.8  T
   6   -117.2635481 -0.439474E-07  0.526E-04    2.20      21.4  T
   7   -117.2635481 -0.428676E-08  0.231E-04    2.20      48.8  T
   8   -117.2635481 -0.591768E-09  0.109E-04    2.20     102.9  T
     SCC iter.                  ...        0 min,  0.145 sec
     gradient                   ...        0 min,  0.075 sec
 * total energy  :  -115.3411460 Eh     change       -0.3337423E-04 Eh
   gradient norm :     0.0021212 Eh/α   predicted    -0.2280913E-04 ( -31.66%)
   displ. norm   :     0.1912288 α      lambda       -0.4966383E-04
   maximum displ.:     0.0684538 α      in ANC's #4, #12, #17, ...

........................................................................
.............................. CYCLE  139 ..............................
........................................................................

 iter      E             dE          RMSdq      gap      omega  full diag
   1   -117.2636270 -0.117264E+03  0.387E-02    2.20       0.0  T
   2   -117.2636269  0.308452E-07  0.226E-02    2.20       1.0  T
   3   -117.2636021  0.247956E-04  0.174E-02    2.20       1.0  T
   4   -117.2636239 -0.217929E-04  0.715E-03    2.21       1.6  T
   5   -117.2636277 -0.373440E-05  0.108E-03    2.20      10.5  T
   6   -117.2636277 -0.695285E-07  0.566E-04    2.20      19.9  T
   7   -117.2636277 -0.611487E-08  0.269E-04    2.20      41.8  T
   8   -117.2636277 -0.412598E-09  0.122E-04    2.20      92.0  T
     SCC iter.                  ...        0 min,  0.132 sec
     gradient                   ...        0 min,  0.076 sec
 * total energy  :  -115.3411797 Eh     change       -0.3370383E-04 Eh
   gradient norm :     0.0022426 Eh/α   predicted    -0.2574223E-04 ( -23.62%)
   displ. norm   :     0.2086097 α      lambda       -0.3009686E-04
   maximum displ.:     0.0876464 α      in ANC's #12, #4, #26, ...

........................................................................
.............................. CYCLE  140 ..............................
........................................................................

 iter      E             dE          RMSdq      gap      omega  full diag
   1   -117.2635124 -0.117264E+03  0.424E-02    2.20       0.0  T
   2   -117.2635119  0.505369E-06  0.250E-02    2.21       1.0  T
   3   -117.2634686  0.433249E-04  0.220E-02    2.19       1.0  T
   4   -117.2635127 -0.440943E-04  0.201E-03    2.20       5.6  T
   5   -117.2635129 -0.193384E-06  0.476E-04    2.20      23.6  T
   6   -117.2635129 -0.550102E-09  0.280E-04    2.20      40.2  T
     SCC iter.                  ...        0 min,  0.106 sec
     gradient                   ...        0 min,  0.072 sec
 * total energy  :  -115.3412019 Eh     change       -0.2222450E-04 Eh
   gradient norm :     0.0020810 Eh/α   predicted    -0.1570556E-04 ( -29.33%)
   displ. norm   :     0.2080065 α      lambda       -0.2890122E-04
   maximum displ.:     0.0905023 α      in ANC's #12, #4, #3, ...

........................................................................
.............................. CYCLE  141 ..............................
........................................................................

 iter      E             dE          RMSdq      gap      omega  full diag
   1   -117.2637442 -0.117264E+03  0.412E-02    2.21       0.0  T
   2   -117.2637421  0.216930E-05  0.247E-02    2.21       1.0  T
   3   -117.2636358  0.106293E-03  0.346E-02    2.19       1.0  T
   4   -117.2637446 -0.108828E-03  0.348E-03    2.21       3.2  T
   5   -117.2637451 -0.469854E-06  0.812E-04    2.21      13.9  T
   6   -117.2637451 -0.179967E-07  0.431E-04    2.21      26.1  T
   7   -117.2637451 -0.122496E-08  0.205E-04    2.21      55.0  T
     SCC iter.                  ...        0 min,  0.119 sec
     gradient                   ...        0 min,  0.069 sec
 * total energy  :  -115.3412222 Eh     change       -0.2024311E-04 Eh
   gradient norm :     0.0013074 Eh/α   predicted    -0.1507746E-04 ( -25.52%)
   displ. norm   :     0.2683863 α      lambda       -0.1636788E-04
   maximum displ.:     0.1276262 α      in ANC's #12, #4, #3, ...

........................................................................
.............................. CYCLE  142 ..............................
........................................................................

 iter      E             dE          RMSdq      gap      omega  full diag
   1   -117.2633030 -0.117263E+03  0.541E-02    2.21       0.0  T
   2   -117.2633022  0.840319E-06  0.320E-02    2.21       1.0  T
   3   -117.2632367  0.654138E-04  0.279E-02    2.19       1.0  T
   4   -117.2632973 -0.605991E-04  0.953E-03    2.21       1.2  T
   5   -117.2633040 -0.661778E-05  0.776E-04    2.21      14.5  T
   6   -117.2633040 -0.103256E-07  0.539E-04    2.21      20.9  T
   7   -117.2633040 -0.631982E-08  0.273E-04    2.21      41.3  T
   8   -117.2633040 -0.141540E-09  0.124E-04    2.21      90.5  T
     SCC iter.                  ...        0 min,  0.124 sec
     gradient                   ...        0 min,  0.070 sec
 * total energy  :  -115.3412350 Eh     change       -0.1287195E-04 Eh
   gradient norm :     0.0013238 Eh/α   predicted    -0.8451077E-05 ( -34.34%)
   displ. norm   :     0.0414187 α      lambda       -0.7207810E-05
   maximum displ.:     0.0152795 α      in ANC's #10, #13, #9, ...

........................................................................
.............................. CYCLE  143 ..............................
........................................................................

 iter      E             dE          RMSdq      gap      omega  full diag
   1   -117.2648747 -0.117265E+03  0.113E-02    2.21       0.0  T
   2   -117.2648748 -0.812590E-07  0.665E-03    2.21       1.7  T
   3   -117.2648747  0.319271E-07  0.359E-03    2.21       3.1  T
   4   -117.2648748 -0.552467E-07  0.856E-04    2.21      13.1  T
   5   -117.2648748 -0.102612E-07  0.293E-04    2.21      38.4  T
   6   -117.2648748  0.415584E-08  0.312E-04    2.21      36.0  T
     SCC iter.                  ...        0 min,  0.104 sec
     gradient                   ...        0 min,  0.073 sec
 * total energy  :  -115.3412408 Eh     change       -0.5753808E-05 Eh
   gradient norm :     0.0013926 Eh/α   predicted    -0.3610403E-05 ( -37.25%)
   displ. norm   :     0.1381702 α      lambda       -0.9752048E-05
   maximum displ.:     0.0713465 α      in ANC's #12, #3, #4, ...

........................................................................
.............................. CYCLE  144 ..............................
........................................................................

 iter      E             dE          RMSdq      gap      omega  full diag
   1   -117.2643111 -0.117264E+03  0.274E-02    2.21       0.0  T
   2   -117.2643109  0.242211E-06  0.163E-02    2.20       1.0  T
   3   -117.2642969  0.139607E-04  0.146E-02    2.21       1.0  T
   4   -117.2643047 -0.778971E-05  0.888E-03    2.20       1.3  T
   5   -117.2643115 -0.680905E-05  0.922E-04    2.21      12.2  T
   6   -117.2643115 -0.146114E-07  0.293E-04    2.21      38.4  T
   7   -117.2643115 -0.450825E-09  0.132E-04    2.21      85.5  T
     SCC iter.                  ...        0 min,  0.113 sec
     gradient                   ...        0 min,  0.065 sec
 * total energy  :  -115.3412501 Eh     change       -0.9348120E-05 Eh
   gradient norm :     0.0010134 Eh/α   predicted    -0.4919924E-05 ( -47.37%)
   displ. norm   :     0.1205501 α      lambda       -0.6717007E-05
   maximum displ.:     0.0521730 α      in ANC's #12, #13, #3, ...

........................................................................
.............................. CYCLE  145 ..............................
........................................................................

 iter      E             dE          RMSdq      gap      omega  full diag
   1   -117.2644132 -0.117264E+03  0.225E-02    2.21       0.0  T
   2   -117.2644132  0.270237E-07  0.133E-02    2.21       1.0  T
   3   -117.2644083  0.483485E-05  0.917E-03    2.20       1.2  T
   4   -117.2644087 -0.350841E-06  0.739E-03    2.21       1.5  T
   5   -117.2644134 -0.469940E-05  0.498E-04    2.21      22.6  T
   6   -117.2644134 -0.119627E-07  0.267E-04    2.21      42.2  T
   7   -117.2644134 -0.969848E-09  0.947E-05    2.21     118.8  T
     SCC iter.                  ...        0 min,  0.119 sec
     gradient                   ...        0 min,  0.066 sec
 * total energy  :  -115.3412578 Eh     change       -0.7689891E-05 Eh
   gradient norm :     0.0009447 Eh/α   predicted    -0.3381155E-05 ( -56.03%)
   displ. norm   :     0.1747033 α      lambda       -0.9349162E-05
   maximum displ.:     0.0696726 α      in ANC's #13, #12, #3, ...

........................................................................
.............................. CYCLE  146 ..............................
........................................................................

 iter      E             dE          RMSdq      gap      omega  full diag
   1   -117.2642609 -0.117264E+03  0.319E-02    2.21       0.0  T
   2   -117.2642611 -0.152962E-06  0.188E-02    2.21       1.0  T
   3   -117.2642580  0.304022E-05  0.936E-03    2.20       1.2  T
   4   -117.2642567  0.131327E-05  0.725E-03    2.21       1.6  T
   5   -117.2642613 -0.454317E-05  0.818E-04    2.21      13.8  T
   6   -117.2642613 -0.403865E-07  0.345E-04    2.21      32.6  T
   7   -117.2642613 -0.121037E-08  0.158E-04    2.21      71.0  T
     SCC iter.                  ...        0 min,  0.091 sec
     gradient                   ...        0 min,  0.059 sec
 * total energy  :  -115.3412673 Eh     change       -0.9513902E-05 Eh
   gradient norm :     0.0011614 Eh/α   predicted    -0.4741101E-05 ( -50.17%)
   displ. norm   :     0.1631855 α      lambda       -0.9267722E-05
   maximum displ.:     0.0752450 α      in ANC's #13, #3, #2, ...

........................................................................
.............................. CYCLE  147 ..............................
........................................................................

 iter      E             dE          RMSdq      gap      omega  full diag
   1   -117.2644610 -0.117264E+03  0.306E-02    2.21       0.0  T
   2   -117.2644611 -0.164347E-06  0.180E-02    2.21       1.0  T
   3   -117.2644604  0.721298E-06  0.647E-03    2.21       1.7  T
   4   -117.2644611 -0.679667E-06  0.198E-03    2.21       5.7  T
   5   -117.2644612 -0.108716E-06  0.942E-04    2.21      11.9  T
   6   -117.2644613 -0.627247E-07  0.403E-04    2.21      27.9  T
   7   -117.2644613 -0.671706E-08  0.135E-04    2.21      83.1  T
     SCC iter.                  ...        0 min,  0.100 sec
     gradient                   ...        0 min,  0.060 sec
 * total energy  :  -115.3412760 Eh     change       -0.8709610E-05 Eh
   gradient norm :     0.0012315 Eh/α   predicted    -0.4690731E-05 ( -46.14%)
   displ. norm   :     0.1224705 α      lambda       -0.6475018E-05
   maximum displ.:     0.0608134 α      in ANC's #13, #3, #2, ...

........................................................................
.............................. CYCLE  148 ..............................
........................................................................

 iter      E             dE          RMSdq      gap      omega  full diag
   1   -117.2645768 -0.117265E+03  0.236E-02    2.21       0.0  T
   2   -117.2645769 -0.927636E-07  0.139E-02    2.20       1.0  T
   3   -117.2645766  0.232108E-06  0.318E-03    2.21       3.5  T
   4   -117.2645769 -0.272784E-06  0.572E-04    2.20      19.7  T
   5   -117.2645769  0.598264E-08  0.535E-04    2.21      21.0  T
   6   -117.2645769 -0.149009E-07  0.291E-04    2.20      38.7  T
   7   -117.2645769 -0.543901E-08  0.765E-05    2.21     147.0  T
     SCC iter.                  ...        0 min,  0.109 sec
     gradient                   ...        0 min,  0.062 sec
 * total energy  :  -115.3412834 Eh     change       -0.7362283E-05 Eh
   gradient norm :     0.0009467 Eh/α   predicted    -0.3261632E-05 ( -55.70%)
   displ. norm   :     0.1545519 α      lambda       -0.8053709E-05
   maximum displ.:     0.0803603 α      in ANC's #13, #2, #3, ...

........................................................................
.............................. CYCLE  149 ..............................
........................................................................

 iter      E             dE          RMSdq      gap      omega  full diag
   1   -117.2642453 -0.117264E+03  0.302E-02    2.20       0.0  T
   2   -117.2642454 -0.129687E-06  0.178E-02    2.20       1.0  T
   3   -117.2642428  0.260241E-05  0.742E-03    2.20       1.5  T
   4   -117.2642432 -0.386133E-06  0.512E-03    2.20       2.2  T
   5   -117.2642455 -0.236284E-05  0.539E-04    2.20      20.9  T
   6   -117.2642455 -0.109649E-07  0.261E-04    2.20      43.2  T
   7   -117.2642455 -0.216896E-08  0.136E-04    2.20      83.0  T
     SCC iter.                  ...        0 min,  0.092 sec
     gradient                   ...        0 min,  0.060 sec
 * total energy  :  -115.3412916 Eh     change       -0.8219360E-05 Eh
   gradient norm :     0.0008240 Eh/α   predicted    -0.4073495E-05 ( -50.44%)
   displ. norm   :     0.1338673 α      lambda       -0.5982703E-05
   maximum displ.:     0.0711646 α      in ANC's #13, #9, #2, ...

........................................................................
.............................. CYCLE  150 ..............................
........................................................................

 iter      E             dE          RMSdq      gap      omega  full diag
   1   -117.2641427 -0.117264E+03  0.272E-02    2.20       0.0  T
   2   -117.2641428 -0.122189E-06  0.161E-02    2.20       1.0  T
   3   -117.2641418  0.995416E-06  0.644E-03    2.20       1.7  T
   4   -117.2641419 -0.543995E-07  0.344E-03    2.20       3.3  T
   5   -117.2641429 -0.103044E-05  0.600E-04    2.20      18.7  T
   6   -117.2641429 -0.206276E-07  0.266E-04    2.20      42.3  T
   7   -117.2641429 -0.304048E-08  0.132E-04    2.20      85.3  T
     SCC iter.                  ...        0 min,  0.113 sec
     gradient                   ...        0 min,  0.081 sec
 * total energy  :  -115.3412973 Eh     change       -0.5640071E-05 Eh
   gradient norm :     0.0009847 Eh/α   predicted    -0.3016187E-05 ( -46.52%)
   displ. norm   :     0.1227979 α      lambda       -0.5030192E-05
   maximum displ.:     0.0643054 α      in ANC's #13, #9, #2, ...
 * RMSD in coord.:     0.4544890 α      energy gain  -0.1177690E-02 Eh

generating ANC from exact Hessian ...
Using Lindh-Hessian (1995)
 Shifting diagonal of input Hessian by    1.0224638741896035E-002
 Lowest  eigenvalues of input Hessian
    0.010000    0.010134    0.000000    0.000000    0.000000    0.000000
    0.000000    0.000000    0.010322    0.010344    0.010432    0.010536
    0.010594    0.010645    0.010747    0.010760    0.010878    0.010978
 Highest eigenvalues
    2.003504    2.005299    2.007869    2.011120    2.028104    2.325661


........................................................................
.............................. CYCLE  151 ..............................
........................................................................

 iter      E             dE          RMSdq      gap      omega  full diag
   1   -117.2642540 -0.117264E+03  0.250E-02    2.20       0.0  T
   2   -117.2642541 -0.915344E-07  0.147E-02    2.20       1.0  T
   3   -117.2642525  0.162078E-05  0.683E-03    2.20       1.6  T
   4   -117.2642524  0.135240E-06  0.458E-03    2.20       2.5  T
   5   -117.2642542 -0.185900E-05  0.527E-04    2.20      21.3  T
   6   -117.2642542 -0.153147E-07  0.242E-04    2.20      46.5  T
   7   -117.2642542 -0.233408E-08  0.126E-04    2.20      89.1  T
     SCC iter.                  ...        0 min,  0.109 sec
     gradient                   ...        0 min,  0.073 sec
 * total energy  :  -115.3413022 Eh     change       -0.4931252E-05 Eh
   gradient norm :     0.0008679 Eh/α   predicted     0.0000000E+00 (-100.00%)
   displ. norm   :     0.0412975 α      lambda       -0.9029318E-05
   maximum displ.:     0.0240075 α      in ANC's #4, #1, #5, ...

........................................................................
.............................. CYCLE  152 ..............................
........................................................................

 iter      E             dE          RMSdq      gap      omega  full diag
   1   -117.2643854 -0.117264E+03  0.931E-03    2.20       0.0  T
   2   -117.2643841  0.130719E-05  0.679E-03    2.20       1.7  T
   3   -117.2643823  0.179357E-05  0.711E-03    2.20       1.6  T
   4   -117.2643853 -0.301501E-05  0.342E-03    2.20       3.3  T
   5   -117.2643859 -0.629891E-06  0.103E-03    2.20      10.9  T
   6   -117.2643859 -0.217984E-07  0.298E-04    2.20      37.7  T
   7   -117.2643859 -0.497380E-12  0.123E-04    2.20      91.7  T
     SCC iter.                  ...        0 min,  0.119 sec
     gradient                   ...        0 min,  0.091 sec
 * total energy  :  -115.3413112 Eh     change       -0.8956545E-05 Eh
   gradient norm :     0.0005669 Eh/α   predicted    -0.4541723E-05 ( -49.29%)
   displ. norm   :     0.1138246 α      lambda       -0.2036529E-04
   maximum displ.:     0.0681016 α      in ANC's #1, #4, #2, ...

........................................................................
.............................. CYCLE  153 ..............................
........................................................................

 iter      E             dE          RMSdq      gap      omega  full diag
   1   -117.2645817 -0.117265E+03  0.218E-02    2.20       0.0  T
   2   -117.2645763  0.536859E-05  0.151E-02    2.19       1.0  T
   3   -117.2645560  0.203295E-04  0.194E-02    2.21       1.0  T
   4   -117.2645799 -0.239164E-04  0.743E-03    2.20       1.5  T
   5   -117.2645832 -0.328309E-05  0.102E-03    2.20      11.0  T
   6   -117.2645832 -0.124846E-07  0.628E-04    2.20      17.9  T
   7   -117.2645832 -0.345149E-08  0.211E-04    2.20      53.4  T
   8   -117.2645832 -0.162686E-09  0.104E-04    2.20     108.6  T
     SCC iter.                  ...        0 min,  0.153 sec
     gradient                   ...        0 min,  0.084 sec
 * total energy  :  -115.3413289 Eh     change       -0.1770487E-04 Eh
   gradient norm :     0.0017428 Eh/α   predicted    -0.1024454E-04 ( -42.14%)
   displ. norm   :     0.2549464 α      lambda       -0.4581815E-04
   maximum displ.:     0.1416655 α      in ANC's #1, #4, #2, ...

........................................................................
.............................. CYCLE  154 ..............................
........................................................................

 iter      E             dE          RMSdq      gap      omega  full diag
   1   -117.2643710 -0.117264E+03  0.475E-02    2.20       0.0  T
   2   -117.2643540  0.169346E-04  0.317E-02    2.19       1.0  T
   3   -117.2642289  0.125124E-03  0.450E-02    2.22       1.0  T
   4   -117.2643677 -0.138754E-03  0.133E-02    2.20       1.0  T
   5   -117.2643781 -0.104426E-04  0.408E-03    2.20       2.8  T
   6   -117.2643784 -0.334042E-06  0.175E-03    2.20       6.4  T
   7   -117.2643785 -0.189839E-07  0.704E-04    2.20      16.0  T
   8   -117.2643785  0.816598E-09  0.402E-04    2.20      28.0  T
   9   -117.2643785 -0.196856E-08  0.165E-04    2.20      68.3  T
     SCC iter.                  ...        0 min,  0.182 sec
     gradient                   ...        0 min,  0.105 sec
 * total energy  :  -115.3412635 Eh     change        0.6533422E-04 Eh
   gradient norm :     0.0065968 Eh/α   predicted    -0.2357393E-04 (-136.08%)
   displ. norm   :     0.0458843 α      lambda       -0.1344918E-03
   maximum displ.:     0.0292352 α      in ANC's #4, #7, #5, ...

........................................................................
.............................. CYCLE  155 ..............................
........................................................................

 iter      E             dE          RMSdq      gap      omega  full diag
   1   -117.2643051 -0.117264E+03  0.184E-02    2.20       0.0  T
   2   -117.2643061 -0.991253E-06  0.117E-02    2.20       1.0  T
   3   -117.2643051  0.960037E-06  0.779E-03    2.20       1.4  T
   4   -117.2642977  0.743777E-05  0.107E-02    2.20       1.0  T
   5   -117.2643068 -0.916579E-05  0.228E-03    2.20       4.9  T
   6   -117.2643070 -0.136946E-06  0.905E-04    2.20      12.4  T
   7   -117.2643070 -0.440904E-07  0.393E-04    2.20      28.6  T
   8   -117.2643070 -0.673609E-09  0.233E-04    2.20      48.3  T
     SCC iter.                  ...        0 min,  0.153 sec
     gradient                   ...        0 min,  0.094 sec
 * total energy  :  -115.3413498 Eh     change       -0.8629319E-04 Eh
   gradient norm :     0.0029736 Eh/α   predicted    -0.6738841E-04 ( -21.91%)
   displ. norm   :     0.0556109 α      lambda       -0.7158193E-04
   maximum displ.:     0.0309570 α      in ANC's #22, #40, #4, ...

........................................................................
.............................. CYCLE  156 ..............................
........................................................................

 iter      E             dE          RMSdq      gap      omega  full diag
   1   -117.2643947 -0.117264E+03  0.244E-02    2.20       0.0  T
   2   -117.2643939  0.755081E-06  0.143E-02    2.20       1.0  T
   3   -117.2643787  0.152353E-04  0.158E-02    2.19       1.0  T
   4   -117.2643878 -0.912817E-05  0.104E-02    2.20       1.1  T
   5   -117.2643958 -0.802503E-05  0.159E-03    2.20       7.1  T
   6   -117.2643959 -0.867103E-07  0.903E-04    2.20      12.5  T
   7   -117.2643959 -0.199066E-07  0.372E-04    2.20      30.2  T
   8   -117.2643959 -0.213021E-09  0.197E-04    2.20      57.2  T
     SCC iter.                  ...        0 min,  0.168 sec
     gradient                   ...        0 min,  0.092 sec
 * total energy  :  -115.3413667 Eh     change       -0.1684623E-04 Eh
   gradient norm :     0.0018104 Eh/α   predicted    -0.3590623E-04 ( 113.14%)
   displ. norm   :     0.1060589 α      lambda       -0.3204745E-04
   maximum displ.:     0.0647781 α      in ANC's #4, #1, #2, ...

........................................................................
.............................. CYCLE  157 ..............................
........................................................................

 iter      E             dE          RMSdq      gap      omega  full diag
   1   -117.2644970 -0.117264E+03  0.223E-02    2.20       0.0  T
   2   -117.2644963  0.749552E-06  0.134E-02    2.19       1.0  T
   3   -117.2644794  0.168509E-04  0.164E-02    2.20       1.0  T
   4   -117.2644931 -0.136344E-04  0.808E-03    2.19       1.4  T
   5   -117.2644980 -0.493149E-05  0.154E-03    2.20       7.3  T
   6   -117.2644981 -0.112133E-06  0.523E-04    2.20      21.5  T
   7   -117.2644981 -0.729422E-08  0.203E-04    2.19      55.3  T
   8   -117.2644981 -0.502496E-10  0.143E-04    2.20      78.8  T
     SCC iter.                  ...        0 min,  0.153 sec
     gradient                   ...        0 min,  0.090 sec
 * total energy  :  -115.3413875 Eh     change       -0.2087222E-04 Eh
   gradient norm :     0.0016697 Eh/α   predicted    -0.1610401E-04 ( -22.84%)
   displ. norm   :     0.1045249 α      lambda       -0.1509302E-04
   maximum displ.:     0.0695526 α      in ANC's #4, #1, #8, ...

........................................................................
.............................. CYCLE  158 ..............................
........................................................................

 iter      E             dE          RMSdq      gap      omega  full diag
   1   -117.2644320 -0.117264E+03  0.151E-02    2.19       0.0  T
   2   -117.2644320  0.706306E-07  0.908E-03    2.19       1.2  T
   3   -117.2644273  0.463379E-05  0.923E-03    2.20       1.2  T
   4   -117.2644292 -0.184536E-05  0.616E-03    2.19       1.8  T
   5   -117.2644324 -0.318857E-05  0.978E-04    2.20      11.5  T
   6   -117.2644324 -0.469342E-07  0.343E-04    2.20      32.8  T
   7   -117.2644324 -0.356916E-08  0.200E-04    2.20      56.2  T
     SCC iter.                  ...        0 min,  0.129 sec
     gradient                   ...        0 min,  0.079 sec
 * total energy  :  -115.3414047 Eh     change       -0.1719765E-04 Eh
   gradient norm :     0.0009929 Eh/α   predicted    -0.7584962E-05 ( -55.90%)
   displ. norm   :     0.3347112 α      lambda       -0.3943429E-04
   maximum displ.:     0.2205092 α      in ANC's #4, #1, #8, ...

........................................................................
.............................. CYCLE  159 ..............................
........................................................................

 iter      E             dE          RMSdq      gap      omega  full diag
   1   -117.2639691 -0.117264E+03  0.463E-02    2.19       0.0  T
   2   -117.2639694 -0.279983E-06  0.280E-02    2.20       1.0  T
   3   -117.2639522  0.172261E-04  0.230E-02    2.20       1.0  T
   4   -117.2639323  0.199025E-04  0.210E-02    2.19       1.0  T
   5   -117.2639722 -0.399252E-04  0.328E-03    2.20       3.4  T
   6   -117.2639726 -0.413361E-06  0.776E-04    2.20      14.5  T
   7   -117.2639726 -0.376735E-08  0.374E-04    2.20      30.1  T
   8   -117.2639726 -0.870017E-09  0.216E-04    2.20      52.0  T
     SCC iter.                  ...        0 min,  0.141 sec
     gradient                   ...        0 min,  0.075 sec
 * total energy  :  -115.3414399 Eh     change       -0.3513319E-04 Eh
   gradient norm :     0.0016110 Eh/α   predicted    -0.2069940E-04 ( -41.08%)
   displ. norm   :     0.3300440 α      lambda       -0.2443398E-04
   maximum displ.:     0.2272494 α      in ANC's #4, #1, #8, ...

........................................................................
.............................. CYCLE  160 ..............................
........................................................................

 iter      E             dE          RMSdq      gap      omega  full diag
   1   -117.2637004 -0.117264E+03  0.427E-02    2.20       0.0  T
   2   -117.2637011 -0.638950E-06  0.250E-02    2.20       1.0  T
   3   -117.2637006  0.466071E-06  0.113E-02    2.20       1.0  T
   4   -117.2637013 -0.716506E-06  0.223E-03    2.20       5.0  T
   5   -117.2637013 -0.138811E-07  0.103E-03    2.20      10.9  T
   6   -117.2637013  0.667877E-07  0.110E-03    2.19      10.3  T
   7   -117.2637014 -0.895935E-07  0.425E-04    2.20      26.5  T
   8   -117.2637014 -0.703994E-08  0.154E-04    2.20      72.9  T
     SCC iter.                  ...        0 min,  0.148 sec
     gradient                   ...        0 min,  0.068 sec
 * total energy  :  -115.3414614 Eh     change       -0.2152169E-04 Eh
   gradient norm :     0.0017269 Eh/α   predicted    -0.1280961E-04 ( -40.48%)
   displ. norm   :     0.1354192 α      lambda       -0.1456376E-04
   maximum displ.:     0.0936958 α      in ANC's #4, #1, #8, ...

........................................................................
.............................. CYCLE  161 ..............................
........................................................................

 iter      E             dE          RMSdq      gap      omega  full diag
   1   -117.2645348 -0.117265E+03  0.203E-02    2.20       0.0  T
   2   -117.2645306  0.416546E-05  0.142E-02    2.19       1.0  T
   3   -117.2645071  0.234533E-04  0.196E-02    2.20       1.0  T
   4   -117.2645348 -0.276188E-04  0.621E-03    2.19       1.8  T
   5   -117.2645364 -0.166968E-05  0.207E-03    2.20       5.4  T
   6   -117.2645365 -0.109716E-06  0.505E-04    2.20      22.3  T
   7   -117.2645365 -0.121354E-08  0.233E-04    2.20      48.4  T
   8   -117.2645365 -0.924317E-09  0.115E-04    2.20      98.2  T
     SCC iter.                  ...        0 min,  0.136 sec
     gradient                   ...        0 min,  0.070 sec
 * total energy  :  -115.3414767 Eh     change       -0.1529618E-04 Eh
   gradient norm :     0.0008904 Eh/α   predicted    -0.7344140E-05 ( -51.99%)
   displ. norm   :     0.1672383 α      lambda       -0.1627187E-04
   maximum displ.:     0.1137516 α      in ANC's #4, #8, #1, ...

........................................................................
.............................. CYCLE  162 ..............................
........................................................................

 iter      E             dE          RMSdq      gap      omega  full diag
   1   -117.2654338 -0.117265E+03  0.262E-02    2.20       0.0  T
   2   -117.2654338  0.170866E-07  0.155E-02    2.20       1.0  T
   3   -117.2654267  0.708764E-05  0.121E-02    2.20       1.0  T
   4   -117.2654222  0.447143E-05  0.117E-02    2.19       1.0  T
   5   -117.2654346 -0.123675E-04  0.115E-03    2.20       9.8  T
   6   -117.2654346 -0.579164E-07  0.588E-04    2.20      19.1  T
   7   -117.2654347 -0.860378E-08  0.251E-04    2.20      44.9  T
   8   -117.2654347 -0.515854E-10  0.969E-05    2.20     116.1  T
     SCC iter.                  ...        0 min,  0.135 sec
     gradient                   ...        0 min,  0.074 sec
 * total energy  :  -115.3414913 Eh     change       -0.1465304E-04 Eh
   gradient norm :     0.0015067 Eh/α   predicted    -0.8238405E-05 ( -43.78%)
   displ. norm   :     0.1694704 α      lambda       -0.1293689E-04
   maximum displ.:     0.1165498 α      in ANC's #4, #8, #6, ...

........................................................................
.............................. CYCLE  163 ..............................
........................................................................

 iter      E             dE          RMSdq      gap      omega  full diag
   1   -117.2650692 -0.117265E+03  0.261E-02    2.20       0.0  T
   2   -117.2650694 -0.224807E-06  0.154E-02    2.20       1.0  T
   3   -117.2650682  0.118178E-05  0.898E-03    2.20       1.3  T
   4   -117.2650695 -0.127668E-05  0.334E-03    2.20       3.4  T
   5   -117.2650696 -0.129940E-06  0.118E-03    2.20       9.6  T
   6   -117.2650697 -0.430625E-07  0.957E-04    2.20      11.8  T
   7   -117.2650697 -0.696194E-07  0.202E-04    2.20      55.7  T
   8   -117.2650697 -0.907221E-09  0.936E-05    2.20     120.2  T
     SCC iter.                  ...        0 min,  0.143 sec
     gradient                   ...        0 min,  0.069 sec
 * total energy  :  -115.3415043 Eh     change       -0.1294167E-04 Eh
   gradient norm :     0.0011732 Eh/α   predicted    -0.6554879E-05 ( -49.35%)
   displ. norm   :     0.1142544 α      lambda       -0.8374231E-05
   maximum displ.:     0.0771305 α      in ANC's #4, #8, #6, ...

........................................................................
.............................. CYCLE  164 ..............................
........................................................................

 iter      E             dE          RMSdq      gap      omega  full diag
   1   -117.2645428 -0.117265E+03  0.200E-02    2.20       0.0  T
   2   -117.2645421  0.706044E-06  0.121E-02    2.20       1.0  T
   3   -117.2645211  0.209849E-04  0.161E-02    2.20       1.0  T
   4   -117.2645416 -0.205487E-04  0.527E-03    2.20       2.1  T
   5   -117.2645432 -0.151543E-05  0.717E-04    2.20      15.7  T
   6   -117.2645432 -0.175845E-07  0.330E-04    2.20      34.1  T
   7   -117.2645432 -0.187234E-08  0.128E-04    2.20      87.6  T
     SCC iter.                  ...        0 min,  0.123 sec
     gradient                   ...        0 min,  0.071 sec
 * total energy  :  -115.3415137 Eh     change       -0.9409174E-05 Eh
   gradient norm :     0.0007582 Eh/α   predicted    -0.4212345E-05 ( -55.23%)
   displ. norm   :     0.1530750 α      lambda       -0.9373990E-05
   maximum displ.:     0.1026003 α      in ANC's #4, #6, #8, ...

........................................................................
.............................. CYCLE  165 ..............................
........................................................................

 iter      E             dE          RMSdq      gap      omega  full diag
   1   -117.2642704 -0.117264E+03  0.266E-02    2.20       0.0  T
   2   -117.2642695  0.859094E-06  0.160E-02    2.21       1.0  T
   3   -117.2642472  0.223199E-04  0.173E-02    2.20       1.0  T
   4   -117.2642629 -0.156939E-04  0.107E-02    2.21       1.0  T
   5   -117.2642711 -0.822978E-05  0.118E-03    2.21       9.6  T
   6   -117.2642712 -0.689119E-07  0.352E-04    2.21      32.0  T
   7   -117.2642712 -0.151914E-08  0.212E-04    2.21      53.0  T
     SCC iter.                  ...        0 min,  0.120 sec
     gradient                   ...        0 min,  0.076 sec
 * total energy  :  -115.3415228 Eh     change       -0.9069893E-05 Eh
   gradient norm :     0.0007074 Eh/α   predicted    -0.4737712E-05 ( -47.76%)
   displ. norm   :     0.1209319 α      lambda       -0.5491264E-05
   maximum displ.:     0.0849071 α      in ANC's #4, #6, #7, ...

........................................................................
.............................. CYCLE  166 ..............................
........................................................................

 iter      E             dE          RMSdq      gap      omega  full diag
   1   -117.2641628 -0.117264E+03  0.202E-02    2.21       0.0  T
   2   -117.2641627  0.326844E-07  0.122E-02    2.21       1.0  T
   3   -117.2641575  0.525198E-05  0.101E-02    2.20       1.1  T
   4   -117.2641574  0.969088E-07  0.841E-03    2.21       1.3  T
   5   -117.2641632 -0.578934E-05  0.116E-03    2.21       9.7  T
   6   -117.2641632 -0.736120E-07  0.301E-04    2.21      37.4  T
   7   -117.2641632 -0.145063E-08  0.137E-04    2.21      82.4  T
     SCC iter.                  ...        0 min,  0.119 sec
     gradient                   ...        0 min,  0.070 sec
 * total energy  :  -115.3415287 Eh     change       -0.5959631E-05 Eh
   gradient norm :     0.0007054 Eh/α   predicted    -0.2765349E-05 ( -53.60%)
   displ. norm   :     0.0878248 α      lambda       -0.5136883E-05
   maximum displ.:     0.0579959 α      in ANC's #4, #7, #6, ...

........................................................................
.............................. CYCLE  167 ..............................
........................................................................

 iter      E             dE          RMSdq      gap      omega  full diag
   1   -117.2644671 -0.117264E+03  0.144E-02    2.21       0.0  T
   2   -117.2644670  0.747453E-07  0.880E-03    2.21       1.3  T
   3   -117.2644636  0.341813E-05  0.826E-03    2.21       1.4  T
   4   -117.2644643 -0.718586E-06  0.580E-03    2.20       1.9  T
   5   -117.2644674 -0.303074E-05  0.927E-04    2.21      12.1  T
   6   -117.2644674 -0.398494E-07  0.251E-04    2.21      44.8  T
   7   -117.2644674 -0.146669E-08  0.140E-04    2.21      80.2  T
     SCC iter.                  ...        0 min,  0.103 sec
     gradient                   ...        0 min,  0.066 sec
 * total energy  :  -115.3415348 Eh     change       -0.6113534E-05 Eh
   gradient norm :     0.0005275 Eh/α   predicted    -0.2580974E-05 ( -57.78%)
   displ. norm   :     0.1306550 α      lambda       -0.6566482E-05
   maximum displ.:     0.0838257 α      in ANC's #4, #7, #6, ...

........................................................................
.............................. CYCLE  168 ..............................
........................................................................

 iter      E             dE          RMSdq      gap      omega  full diag
   1   -117.2646589 -0.117265E+03  0.219E-02    2.21       0.0  T
   2   -117.2646591 -0.150384E-06  0.133E-02    2.21       1.0  T
   3   -117.2646572  0.190789E-05  0.989E-03    2.21       1.1  T
   4   -117.2646581 -0.895077E-06  0.388E-03    2.21       2.9  T
   5   -117.2646592 -0.112386E-05  0.168E-03    2.21       6.7  T
   6   -117.2646594 -0.209975E-06  0.347E-04    2.21      32.4  T
   7   -117.2646594 -0.264592E-09  0.177E-04    2.21      63.5  T
     SCC iter.                  ...        0 min,  0.111 sec
     gradient                   ...        0 min,  0.069 sec
 * total energy  :  -115.3415417 Eh     change       -0.6879268E-05 Eh
   gradient norm :     0.0004559 Eh/α   predicted    -0.3310376E-05 ( -51.88%)
   displ. norm   :     0.1165696 α      lambda       -0.4511096E-05
   maximum displ.:     0.0752872 α      in ANC's #4, #7, #6, ...

........................................................................
.............................. CYCLE  169 ..............................
........................................................................

 iter      E             dE          RMSdq      gap      omega  full diag
   1   -117.2647438 -0.117265E+03  0.200E-02    2.21       0.0  T
   2   -117.2647434  0.394050E-06  0.120E-02    2.21       1.0  T
   3   -117.2647269  0.165110E-04  0.150E-02    2.21       1.0  T
   4   -117.2647426 -0.157088E-04  0.448E-03    2.20       2.5  T
   5   -117.2647441 -0.143395E-05  0.844E-04    2.21      13.3  T
   6   -117.2647441 -0.190388E-07  0.327E-04    2.21      34.4  T
   7   -117.2647441 -0.200519E-08  0.148E-04    2.21      75.8  T
     SCC iter.                  ...        0 min,  0.131 sec
     gradient                   ...        0 min,  0.073 sec
 * total energy  :  -115.3415468 Eh     change       -0.5059417E-05 Eh
   gradient norm :     0.0004964 Eh/α   predicted    -0.2271076E-05 ( -55.11%)
   displ. norm   :     0.1365074 α      lambda       -0.5126905E-05
   maximum displ.:     0.0877457 α      in ANC's #4, #7, #6, ...

........................................................................
.............................. CYCLE  170 ..............................
........................................................................

 iter      E             dE          RMSdq      gap      omega  full diag
   1   -117.2647906 -0.117265E+03  0.243E-02    2.21       0.0  T
   2   -117.2647906 -0.200124E-07  0.145E-02    2.21       1.0  T
   3   -117.2647856  0.500319E-05  0.117E-02    2.21       1.0  T
   4   -117.2647884 -0.284879E-05  0.538E-03    2.21       2.1  T
   5   -117.2647908 -0.236749E-05  0.114E-03    2.21       9.9  T
   6   -117.2647909 -0.778167E-07  0.347E-04    2.21      32.4  T
   7   -117.2647909 -0.264578E-09  0.176E-04    2.21      63.8  T
     SCC iter.                  ...        0 min,  0.122 sec
     gradient                   ...        0 min,  0.072 sec
 * total energy  :  -115.3415527 Eh     change       -0.5933144E-05 Eh
   gradient norm :     0.0004549 Eh/α   predicted    -0.2588140E-05 ( -56.38%)
   displ. norm   :     0.1643271 α      lambda       -0.5690906E-05
   maximum displ.:     0.1059176 α      in ANC's #4, #7, #6, ...

........................................................................
.............................. CYCLE  171 ..............................
........................................................................

 iter      E             dE          RMSdq      gap      omega  full diag
   1   -117.2646236 -0.117265E+03  0.300E-02    2.21       0.0  T
   2   -117.2646230  0.636212E-06  0.180E-02    2.21       1.0  T
   3   -117.2645960  0.270072E-04  0.197E-02    2.22       1.0  T
   4   -117.2646187 -0.226682E-04  0.842E-03    2.20       1.3  T
   5   -117.2646242 -0.553156E-05  0.133E-03    2.21       8.5  T
   6   -117.2646242 -0.467857E-07  0.413E-04    2.21      27.2  T
   7   -117.2646242 -0.856915E-09  0.188E-04    2.21      59.9  T
     SCC iter.                  ...        0 min,  0.124 sec
     gradient                   ...        0 min,  0.082 sec
 * total energy  :  -115.3415585 Eh     change       -0.5830857E-05 Eh
   gradient norm :     0.0004983 Eh/α   predicted    -0.2883581E-05 ( -50.55%)
   displ. norm   :     0.1643271 α      lambda        0.0000000E+00
   maximum displ.:     0.1059176 α      in ANC's #4, #7, #6, ...

........................................................................
.............................. CYCLE  172 ..............................
........................................................................

 iter      E             dE          RMSdq      gap      omega  full diag
   1   -117.2641829 -0.117264E+03  0.300E-02    2.21       0.0  T
   2   -117.2641826  0.337268E-06  0.179E-02    2.21       1.0  T
   3   -117.2641642  0.183753E-04  0.170E-02    2.21       1.0  T
   4   -117.2641771 -0.128315E-04  0.875E-03    2.20       1.3  T
   5   -117.2641834 -0.635812E-05  0.131E-03    2.21       8.6  T
   6   -117.2641835 -0.478364E-07  0.409E-04    2.21      27.5  T
   7   -117.2641835 -0.634600E-09  0.182E-04    2.21      62.0  T
     SCC iter.                  ...        0 min,  0.116 sec
     gradient                   ...        0 min,  0.073 sec
 * total energy  :  -115.3415587 Eh     change       -0.1392983E-06 Eh
   gradient norm :     0.0008288 Eh/α   predicted     0.3809991E-08 (-102.74%)
   displ. norm   :     0.0558912 α      lambda       -0.2988360E-05
   maximum displ.:     0.0324937 α      in ANC's #4, #7, #6, ...

........................................................................
.............................. CYCLE  173 ..............................
........................................................................

 iter      E             dE          RMSdq      gap      omega  full diag
   1   -117.2647903 -0.117265E+03  0.108E-02    2.21       0.0  T
   2   -117.2647902  0.106634E-06  0.643E-03    2.21       1.8  T
   3   -117.2647850  0.519702E-05  0.809E-03    2.21       1.4  T
   4   -117.2647901 -0.505813E-05  0.235E-03    2.21       4.8  T
   5   -117.2647904 -0.344799E-06  0.447E-04    2.21      25.2  T
   6   -117.2647905 -0.812341E-08  0.219E-04    2.21      51.3  T
     SCC iter.                  ...        0 min,  0.109 sec
     gradient                   ...        0 min,  0.080 sec
 * total energy  :  -115.3415615 Eh     change       -0.2816316E-05 Eh
   gradient norm :     0.0003818 Eh/α   predicted    -0.1499834E-05 ( -46.74%)
   displ. norm   :     0.0268255 α      lambda       -0.1703014E-05
   maximum displ.:     0.0109453 α      in ANC's #10, #18, #20, ...

........................................................................
.............................. CYCLE  174 ..............................
........................................................................

 iter      E             dE          RMSdq      gap      omega  full diag
   1   -117.2648715 -0.117265E+03  0.578E-03    2.21       0.0  T
   2   -117.2648715  0.367650E-07  0.355E-03    2.21       3.2  T
   3   -117.2648708  0.665673E-06  0.357E-03    2.21       3.2  T
   4   -117.2648708 -0.516356E-07  0.277E-03    2.21       4.1  T
   5   -117.2648715 -0.694876E-06  0.274E-04    2.21      41.0  T
   6   -117.2648715 -0.127675E-08  0.103E-04    2.21     108.8  T
   7   -117.2648715 -0.853078E-10  0.485E-05    2.21     232.0  T
     SCC iter.                  ...        0 min,  0.118 sec
     gradient                   ...        0 min,  0.065 sec
 * total energy  :  -115.3415633 Eh     change       -0.1845849E-05 Eh
   gradient norm :     0.0002135 Eh/α   predicted    -0.8553852E-06 ( -53.66%)
   displ. norm   :     0.0491843 α      lambda       -0.1607499E-05
   maximum displ.:     0.0300827 α      in ANC's #4, #21, #12, ...

........................................................................
.............................. CYCLE  175 ..............................
........................................................................

 iter      E             dE          RMSdq      gap      omega  full diag
   1   -117.2647479 -0.117265E+03  0.888E-03    2.21       0.0  T
   2   -117.2647478  0.549236E-07  0.534E-03    2.21       2.1  T
   3   -117.2647466  0.118989E-05  0.496E-03    2.21       2.3  T
   4   -117.2647463  0.340109E-06  0.419E-03    2.21       2.7  T
   5   -117.2647480 -0.164190E-05  0.285E-04    2.21      39.5  T
   6   -117.2647480 -0.526370E-09  0.156E-04    2.21      71.9  T
   7   -117.2647480 -0.291365E-09  0.837E-05    2.21     134.4  T
     SCC iter.                  ...        0 min,  0.112 sec
     gradient                   ...        0 min,  0.065 sec
 * total energy  :  -115.3415650 Eh     change       -0.1636031E-05 Eh
   gradient norm :     0.0002739 Eh/α   predicted    -0.8090932E-06 ( -50.55%)
   displ. norm   :     0.0491843 α      lambda        0.0000000E+00
   maximum displ.:     0.0300827 α      in ANC's #4, #21, #12, ...

........................................................................
.............................. CYCLE  176 ..............................
........................................................................

 iter      E             dE          RMSdq      gap      omega  full diag
   1   -117.2646025 -0.117265E+03  0.888E-03    2.21       0.0  T
   2   -117.2646025  0.537284E-07  0.533E-03    2.21       2.1  T
   3   -117.2646013  0.118728E-05  0.495E-03    2.21       2.3  T
   4   -117.2646010  0.332204E-06  0.418E-03    2.21       2.7  T
   5   -117.2646026 -0.162973E-05  0.287E-04    2.21      39.2  T
   6   -117.2646026 -0.513424E-09  0.158E-04    2.21      71.1  T
   7   -117.2646026 -0.289418E-09  0.840E-05    2.21     134.0  T
     SCC iter.                  ...        0 min,  0.115 sec
     gradient                   ...        0 min,  0.066 sec
 * total energy  :  -115.3415651 Eh     change       -0.8354345E-07 Eh
   gradient norm :     0.0005200 Eh/α   predicted     0.3603334E-08 (-104.31%)
   displ. norm   :     0.0157434 α      lambda       -0.9436804E-06
   maximum displ.:     0.0081090 α      in ANC's #4, #7, #12, ...

   *** GEOMETRY OPTIMIZATION CONVERGED AFTER 176 ITERATIONS ***

------------------------------------------------------------------------
 total energy gain   :        -0.5743853 Eh     -360.4322 kcal/mol
 total RMSD          :         3.6411760 a0        1.9268 Å
 total power (kW/mol):        -8.5684571 (step)  -32.2149 (real)
------------------------------------------------------------------------

 ANCopt (total)                0 d,  0 h,  0 min, 46.812 sec
 optimizer setup                ...        0 min,  0.001 sec (  0.002%)
 model hessian                  ...        0 min,  0.419 sec (  0.895%)
 ANC generation                 ...        0 min,  0.100 sec (  0.214%)
 coordinate transformation      ...        0 min,  0.026 sec (  0.055%)
 single point calculation       ...        0 min, 46.066 sec ( 98.406%)
 optimization log               ...        0 min,  0.090 sec (  0.193%)
 hessian update                 ...        0 min,  0.022 sec (  0.048%)
 rational function              ...        0 min,  0.058 sec (  0.124%)

================
 final structure:
================
79
 xtb: 6.7.1 (edcfbbe)
Ru          -0.33481670503917       -0.64181424342696       -0.45840596051293
N           -0.17091572115525       -2.79366421171414        0.27520336341703
C            1.04242572977380       -3.14818810126541        0.78846996988765
C            2.11948366518859       -2.34073392441529        0.70709977372294
P            1.91465876253404       -0.68968526357430        0.00489932668563
C            2.72750361374981        0.40925087349718        1.21233275436616
C            2.05433607644412        1.54502272147026        1.64456268257448
C            2.66553501134786        2.41723199841966        2.52744077851727
C            3.94196573753742        2.14830532604289        2.99249492139867
C            4.61418767333072        1.01290190031347        2.56685686801698
C            4.01503076325235        0.14721650106087        1.67082653390677
C            3.15074788385368       -0.63347519266805       -1.33798702551532
C            3.61448037100712        0.60636408386167       -1.76935316475155
C            4.48983336876726        0.68674390261108       -2.83551206672115
C            4.90291067508726       -0.46794604928740       -3.48320273637171
C            4.43263302229564       -1.70259533163184       -3.06735726044449
C            3.55447106505749       -1.78623922445301       -2.00125624221144
C           -1.34886719925266       -3.63013202331644        0.33449535270743
C           -2.58762361942378       -2.76057414114525        0.59098049424202
P           -2.54207086547137       -1.23618033537063       -0.48178726708693
C           -3.91557220988092       -0.27843188390008        0.23165336247399
C           -5.22231250324066       -0.75897748986830        0.20763092864895
C           -6.23890282064525       -0.00688193156772        0.76648468278767
C           -5.95908287606570        1.22332261514636        1.34290141546559
C           -4.66086788197789        1.70719442758986        1.35710448180553
C           -3.63809277422221        0.95905965660791        0.79982167997262
C           -3.29353253857525       -1.73439680331369       -2.06966289433256
C           -3.40215060050382       -0.69564257880062       -2.99368303758203
C           -3.93498430377544       -0.92458708448699       -4.24633800004498
C           -4.35611149736766       -2.20043648667944       -4.59301096394651
C           -4.24099338382687       -3.23804829248354       -3.68419513434257
C           -3.71148600043927       -3.01076027632096       -2.42380908331613
H            1.08869800545680       -4.10916785831523        1.29208768686485
H           -0.56112672129049       -0.26958977868100        1.05307606048511
H            3.07852549386868       -2.64638045669766        1.10203167959439
H            1.91885072462833       -1.79197540486254        3.48631881366554
H            1.05409317895117        1.72875956822267        1.26987550541688
H            2.14507224788481        3.30482318927939        2.85497838695722
H            4.41839518475050        2.82684876403832        3.68470140252683
H            5.61219960884968        0.80776051665992        2.92735153951802
H            4.54884961898365       -0.72462640978341        1.31494547534355
H            3.27462924883272        1.50088118256042       -1.26187784507835
H            4.84936905791991        1.65025638566641       -3.16701443139993
H            5.58684821618506       -0.40472598087403       -4.31698977460177
H            4.74800148228996       -2.60215931333661       -3.57718173355577
H            3.17952173538010       -2.75094855470200       -1.67851132262348
H           -1.46997259411811       -4.19216798364452       -0.60833734079778
H           -1.23091164849497       -4.34827084773432        1.15339832152051
H           -3.51395518370449       -3.32573546084414        0.46037569829908
H           -2.55347474473824       -2.38689282551633        1.62176474044774
H           -5.44053205085944       -1.71237332392645       -0.25553117803943
H           -7.25353071816462       -0.37798440649006        0.75025469408902
H           -6.75808949127764        1.80692413147925        1.77646760751969
H           -4.44600300506173        2.66921201544891        1.79918000951062
H           -2.61413845463164        1.31491803418659        0.79012415163997
H           -3.04768610674727        0.28953091819975       -2.70694542111476
H           -4.01763844797005       -0.11429398296957       -4.95598884662263
H           -4.76906493893710       -2.38563913110314       -5.57364757711900
H           -4.56395552858360       -4.23309171338305       -3.95584656002585
H           -3.63048937361448       -3.83620132421944       -1.72983560211594
C           -0.07341019991090       -0.90237585800484       -2.26373135784576
O            0.09578752322332       -1.08056580989967       -3.39685846075652
H           -0.47809643220278        0.88184822897467       -0.74310929573993
O           -0.12212008043139       -2.06345345898782        3.35945066362197
C            1.00404458443498       -1.64597789057325        4.08682016987808
C            0.97177710846350       -0.21296543732920        4.56369085745580
C            2.06915215767669        0.28488558817930        5.25763686841117
C            2.07532989732066        1.58632926474270        5.72127945943265
C            0.98646323341721        2.41136903418876        5.48839491414620
C           -0.10599172892452        1.92385657528807        4.79431442979243
C           -0.11638063953431        0.61618819678229        4.33780703510456
H           -0.08696471977302       -2.28860507369925       -0.66004938570141
H            1.06101571303310       -2.31604039614268        4.95292911130582
H           -0.21087032907786       -1.46760719983161        2.59720462470131
H            2.92054094629777       -0.35802715337642        5.43428161509170
H            2.93099587711241        1.95862921054206        6.26594458169654
H            0.99110136021828        3.42968383374812        5.84963179099193
H           -0.95914095984881        2.56012649050975        4.60785919498877
H           -0.98310325002239        0.24211100838545        3.81206065313683

 Bond Distances (Angstroems)
 ---------------------------
Ru1-N2=2.2794        Ru1-P5=2.2972        Ru1-P20=2.2860       Ru1-H34=1.5730       Ru1-C61=1.8427       Ru1-H63=1.5566       
Ru1-H72=1.6775       N2-Ru1=2.2794        N2-C3=1.3643         N2-C18=1.4459        N2-H72=1.0662        C3-N2=1.3643         
C3-C4=1.3486         C3-H33=1.0859        C4-C3=1.3486         C4-P5=1.8058         C4-H35=1.0813        P5-Ru1=2.2972        
P5-C4=1.8058         P5-C6=1.8238         P5-C12=1.8260        C6-P5=1.8238         C6-C7=1.3892         C6-C11=1.3916        
C7-C6=1.3892         C7-C8=1.3834         C7-H37=1.0838        C8-C7=1.3834         C8-C9=1.3849         C8-H38=1.0798        
C9-C8=1.3849         C9-C10=1.3864        C9-H39=1.0801        C10-C9=1.3864        C10-C11=1.3825       C10-H40=1.0808       
C11-C6=1.3916        C11-C10=1.3825       C11-H41=1.0825       C12-P5=1.8260        C12-C13=1.3922       C12-C17=1.3899       
C13-C12=1.3922       C13-C14=1.3818       C13-H42=1.0831       C14-C13=1.3818       C14-C15=1.3869       C14-H43=1.0805       
C15-C14=1.3869       C15-C16=1.3851       C15-H44=1.0803       C16-C15=1.3851       C16-C17=1.3837       C16-H45=1.0810       
C17-C12=1.3899       C17-C16=1.3837       C17-H46=1.0842       C18-N2=1.4459        C18-C19=1.5351       C18-H47=1.1043       
C18-H48=1.0956       C19-C18=1.5351       C19-P20=1.8646       C19-H49=1.0930       C19-H50=1.0970       P20-Ru1=2.2860       
P20-C19=1.8646       P20-C21=1.8201       P20-C27=1.8260       C21-P20=1.8201       C21-C22=1.3925       C21-C26=1.3897       
C22-C21=1.3925       C22-C23=1.3825       C22-H51=1.0822       C23-C22=1.3825       C23-C24=1.3871       C23-H52=1.0805       
C24-C23=1.3871       C24-C25=1.3855       C24-H53=1.0803       C25-C24=1.3855       C25-C26=1.3843       C25-H54=1.0803       
C26-C21=1.3897       C26-C25=1.3843       C26-H55=1.0841       C27-P20=1.8260       C27-C28=1.3945       C27-C32=1.3890       
C28-C27=1.3945       C28-C29=1.3804       C28-H56=1.0856       C29-C28=1.3804       C29-C30=1.3876       C29-H57=1.0803       
C30-C29=1.3876       C30-C31=1.3841       C30-H58=1.0800       C31-C30=1.3841       C31-C32=1.3859       C31-H59=1.0808       
C32-C27=1.3890       C32-C31=1.3859       C32-H60=1.0814       H33-C3=1.0859        H34-Ru1=1.5730       H35-C4=1.0813        
H36-C65=1.1040       H37-C7=1.0838        H38-C8=1.0798        H39-C9=1.0801        H40-C10=1.0808       H41-C11=1.0825       
H42-C13=1.0831       H43-C14=1.0805       H44-C15=1.0803       H45-C16=1.0810       H46-C17=1.0842       H47-C18=1.1043       
H48-C18=1.0956       H49-C19=1.0930       H50-C19=1.0970       H51-C22=1.0822       H52-C23=1.0805       H53-C24=1.0803       
H54-C25=1.0803       H55-C26=1.0841       H56-C28=1.0856       H57-C29=1.0803       H58-C30=1.0800       H59-C31=1.0808       
H60-C32=1.0814       C61-Ru1=1.8427       C61-O62=1.1595       O62-C61=1.1595       H63-Ru1=1.5566       O64-C65=1.4041       
O64-H74=0.9716       C65-H36=1.1040       C65-O64=1.4041       C65-C66=1.5106       C65-H73=1.0965       C66-C65=1.5106       
C66-C67=1.3906       C66-C71=1.3866       C67-C66=1.3906       C67-C68=1.3816       C67-H75=1.0814       C68-C67=1.3816       
C68-C69=1.3858       C68-H76=1.0805       C69-C68=1.3858       C69-C70=1.3831       C69-H77=1.0805       C70-C69=1.3831       
C70-C71=1.3851       C70-H78=1.0805       C71-C66=1.3866       C71-C70=1.3851       C71-H79=1.0805       H72-Ru1=1.6775       
H72-N2=1.0662        H73-C65=1.0965       H74-O64=0.9716       H75-C67=1.0814       H76-C68=1.0805       H77-C69=1.0805       
H78-C70=1.0805       H79-C71=1.0805       
 C  H  Rav=1.0846 sigma=0.0069  Rmin=1.0798  Rmax=1.1043    33
 C  C  Rav=1.3936 sigma=0.0338  Rmin=1.3486  Rmax=1.5351    33
 N  H  Rav=1.0662 sigma=0.0000  Rmin=1.0662  Rmax=1.0662     1
 N  C  Rav=1.4051 sigma=0.0408  Rmin=1.3643  Rmax=1.4459     2
 O  H  Rav=0.9716 sigma=0.0000  Rmin=0.9716  Rmax=0.9716     1
 O  C  Rav=1.2818 sigma=0.1223  Rmin=1.1595  Rmax=1.4041     2
 P  C  Rav=1.8277 sigma=0.0179  Rmin=1.8058  Rmax=1.8646     6
 Ru H  Rav=1.6024 sigma=0.0535  Rmin=1.5566  Rmax=1.6775     3
 Ru C  Rav=1.8427 sigma=0.0000  Rmin=1.8427  Rmax=1.8427     1
 Ru N  Rav=2.2794 sigma=0.0000  Rmin=2.2794  Rmax=2.2794     1
 Ru P  Rav=2.2916 sigma=0.0056  Rmin=2.2860  Rmax=2.2972     2

 selected bond angles (degree)
 --------------------
P5-Ru1-N2= 81.08               P20-Ru1-N2= 80.05              P20-Ru1-P5=160.41              H34-Ru1-N2= 85.67              
H34-Ru1-P5= 87.25              H34-Ru1-P20= 86.13             C61-Ru1-N2= 99.88              C61-Ru1-P5= 93.19              
C61-Ru1-P20= 95.17             C61-Ru1-H34=174.43             H63-Ru1-N2=171.71              H63-Ru1-P5= 98.48              
H63-Ru1-P20= 99.42             H63-Ru1-H34= 86.04             H63-Ru1-C61= 88.41             H72-Ru1-N2= 26.01              
H72-Ru1-P5= 81.90              H72-Ru1-P20= 83.46             H72-Ru1-H34=111.66             H72-Ru1-C61= 73.89             
H72-Ru1-H63=162.27             C3-N2-Ru1=115.49               C18-N2-Ru1=120.05              C18-N2-C3=123.97               
H72-N2-Ru1= 43.63              H72-N2-C3=112.52               H72-N2-C18=111.97              C4-C3-N2=122.14                
H33-C3-N2=116.25               H33-C3-C4=121.59               P5-C4-C3=118.71                H35-C4-C3=121.14               
H35-C4-P5=120.07               C4-P5-Ru1=102.04               C6-P5-Ru1=123.88               C6-P5-C4=104.06                
C12-P5-Ru1=120.92              C12-P5-C4=103.73               C12-P5-C6= 99.59               C7-C6-P5=118.86                
C11-C6-P5=121.13               C11-C6-C7=119.98               C8-C7-C6=120.00                H37-C7-C6=118.57               
H37-C7-C8=121.43               C9-C8-C7=119.94                H38-C8-C7=119.93               H38-C8-C9=120.13               
C10-C9-C8=120.19               H39-C9-C8=119.99               H39-C9-C10=119.83              C11-C10-C9=120.11              
H40-C10-C9=120.05              H40-C10-C11=119.84             

 selected dihedral angles (degree)
 ---------------------------------
C3-N2-Ru1-P5=  6.81           C3-N2-Ru1-P20=192.10          C3-N2-Ru1-H34=278.92          C3-N2-Ru1-C61= 98.52          
C3-N2-Ru1-H63=279.21          C3-N2-Ru1-H72= 96.60          C18-N2-Ru1-P5=179.09          C18-N2-Ru1-P20=  4.38         
C18-N2-Ru1-H34= 91.20         C18-N2-Ru1-C61=270.81         C18-N2-Ru1-H63= 91.49         C18-N2-Ru1-H72=268.88         
H72-N2-Ru1-P5=270.21          H72-N2-Ru1-P20= 95.50         H72-N2-Ru1-H34=182.32         H72-N2-Ru1-C61=  1.93         
H72-N2-Ru1-H63=182.61         C4-C3-N2-Ru1=351.63           C4-C3-N2-C18=179.69           C4-C3-N2-H72= 39.54           
H33-C3-N2-Ru1=170.06          H33-C3-N2-C18=358.12          H33-C3-N2-H72=217.96          P5-C4-C3-N2=  4.62            
P5-C4-C3-H33=186.28           H35-C4-C3-N2=181.24           H35-C4-C3-H33=  2.90          C4-P5-Ru1-N2=356.25           
C4-P5-Ru1-P20= 11.98          C4-P5-Ru1-H34= 82.30          C4-P5-Ru1-C61=256.74          C4-P5-Ru1-H63=167.87          
C4-P5-Ru1-H72=329.96          C6-P5-Ru1-N2=240.00           C6-P5-Ru1-P20=255.72          C6-P5-Ru1-H34=326.04          
C6-P5-Ru1-C61=140.49          C6-P5-Ru1-H63= 51.62          C6-P5-Ru1-H72=213.71          C12-P5-Ru1-N2=110.50          
C12-P5-Ru1-P20=126.22         C12-P5-Ru1-H34=196.54         C12-P5-Ru1-C61= 10.98         C12-P5-Ru1-H63=282.12         
C12-P5-Ru1-H72= 84.20         Ru1-P5-C4-C3=  1.31           Ru1-P5-C4-H35=184.65          C6-P5-C4-C3=131.17            
C6-P5-C4-H35=314.51           C12-P5-C4-C3=234.94           C12-P5-C4-H35= 58.28          C7-C6-P5-Ru1=343.67           
C7-C6-P5-C4=228.39            C7-C6-P5-C12=121.50           C11-C6-P5-Ru1=165.54          C11-C6-P5-C4= 50.26           
C11-C6-P5-C12=303.38          C8-C7-C6-P5=182.05            C8-C7-C6-C11=  0.19           H37-C7-C6-P5=  1.62           
H37-C7-C6-C11=179.76          C9-C8-C7-C6=359.20            C9-C8-C7-H37=179.64           H38-C8-C7-C6=179.39           
H38-C8-C7-H37=359.83          C10-C9-C8-C7=  0.56           C10-C9-C8-H38=180.36          H39-C9-C8-C7=180.23           
H39-C9-C8-H38=  0.04          C11-C10-C9-C8=  0.31          C11-C10-C9-H39=180.63         H40-C10-C9-C8=179.69          
H40-C10-C9-H39=  0.00         
           -------------------------------------------------
          |                Final Singlepoint                |
           -------------------------------------------------

          ...................................................
          :                      SETUP                      :
          :.................................................:
          :  # basis functions                 223          :
          :  # atomic orbitals                 220          :
          :  # shells                          124          :
          :  # electrons                       216          :
          :  max. iterations                   500          :
          :  Hamiltonian                  GFN2-xTB          :
          :  restarted?                      false          :
          :  GBSA solvation                   true          :
          :  PC potential                    false          :
          :  electronic temp.          300.0000000     K    :
          :  accuracy                    0.5000000          :
          :  -> integral cutoff          0.2801030E+02      :
          :  -> integral neglect         0.5000000E-08      :
          :  -> SCF convergence          0.5000000E-06 Eh   :
          :  -> wf. convergence          0.5000000E-04 e    :
          :  Broyden damping             0.4000000          :
          :  net charge                          0          :
          :  unpaired electrons                  0          :
          ...................................................

 iter      E             dE          RMSdq      gap      omega  full diag
   1   -117.2646026 -0.117265E+03  0.310E-05    2.21       0.0  T
   2   -117.2646026 -0.233058E-11  0.203E-05    2.21     553.3  T
   3   -117.2646026 -0.252953E-11  0.142E-05    2.21     790.3  T

   *** convergence criteria satisfied after 3 iterations ***

         #    Occupation            Energy/Eh            Energy/eV
      -------------------------------------------------------------
         1        2.0000           -0.7375223             -20.0690
       ...           ...                  ...                  ...
       102        2.0000           -0.3926540             -10.6847
       103        2.0000           -0.3901489             -10.6165
       104        2.0000           -0.3861248             -10.5070
       105        2.0000           -0.3769487             -10.2573
       106        2.0000           -0.3421482              -9.3103
       107        2.0000           -0.3387108              -9.2168
       108        2.0000           -0.3365533              -9.1581 (HOMO)
       109                         -0.2553018              -6.9471 (LUMO)
       110                         -0.2501340              -6.8065
       111                         -0.2470281              -6.7220
       112                         -0.2434266              -6.6240
       113                         -0.2381446              -6.4802
       ...                                ...                  ...
       220                          2.8901830              78.6459
      -------------------------------------------------------------
                  HL-Gap            0.0812515 Eh            2.2110 eV
             Fermi-level           -0.2959276 Eh           -8.0526 eV

 SCC (total)                   0 d,  0 h,  0 min,  0.144 sec
 SCC setup                      ...        0 min,  0.003 sec (  2.384%)
 Dispersion                     ...        0 min,  0.002 sec (  1.262%)
 classical contributions        ...        0 min,  0.000 sec (  0.274%)
 integral evaluation            ...        0 min,  0.018 sec ( 12.511%)
 iterations                     ...        0 min,  0.054 sec ( 37.261%)
 molecular gradient             ...        0 min,  0.066 sec ( 45.689%)
 printout                       ...        0 min,  0.001 sec (  0.600%)

         :::::::::::::::::::::::::::::::::::::::::::::::::::::
         ::                     SUMMARY                     ::
         :::::::::::::::::::::::::::::::::::::::::::::::::::::
         :: total energy            -115.341565053989 Eh    ::
         :: total w/o Gsasa/hb      -115.290733793414 Eh    ::
         :: gradient norm              0.000520371183 Eh/a0 ::
         :: HOMO-LUMO gap              2.210965302739 eV    ::
         ::.................................................::
         :: SCC energy              -117.260131295555 Eh    ::
         :: -> isotropic ES            0.039949934908 Eh    ::
         :: -> anisotropic ES          0.009151400711 Eh    ::
         :: -> anisotropic XC          0.063457538519 Eh    ::
         :: -> dispersion             -0.124602625441 Eh    ::
         :: -> Gsolv                  -0.057554755002 Eh    ::
         ::    -> Gelec               -0.006723494428 Eh    ::
         ::    -> Gsasa               -0.053039403713 Eh    ::
         ::    -> Ghb                  0.000000000000 Eh    ::
         ::    -> Gshift               0.002208143139 Eh    ::
         :: repulsion energy           1.918566241566 Eh    ::
         :: add. restraining           0.000000000000 Eh    ::
         :: total charge              -0.000000000000 e     ::
         :::::::::::::::::::::::::::::::::::::::::::::::::::::

           -------------------------------------------------
          |                Property Printout                |
           -------------------------------------------------

    * Orbital Energies and Occupations

         #    Occupation            Energy/Eh            Energy/eV
      -------------------------------------------------------------
         1        2.0000           -0.7375223             -20.0690
       ...           ...                  ...                  ...
        96        2.0000           -0.4111382             -11.1876
        97        2.0000           -0.4102736             -11.1641
        98        2.0000           -0.4093499             -11.1390
        99        2.0000           -0.4064526             -11.0601
       100        2.0000           -0.3992218             -10.8634
       101        2.0000           -0.3977070             -10.8222
       102        2.0000           -0.3926540             -10.6847
       103        2.0000           -0.3901489             -10.6165
       104        2.0000           -0.3861248             -10.5070
       105        2.0000           -0.3769487             -10.2573
       106        2.0000           -0.3421482              -9.3103
       107        2.0000           -0.3387108              -9.2168
       108        2.0000           -0.3365533              -9.1581 (HOMO)
       109                         -0.2553018              -6.9471 (LUMO)
       110                         -0.2501340              -6.8065
       111                         -0.2470281              -6.7220
       112                         -0.2434266              -6.6240
       113                         -0.2381446              -6.4802
       114                         -0.2342347              -6.3738
       115                         -0.2332972              -6.3483
       116                         -0.2286832              -6.2228
       117                         -0.2260469              -6.1510
       118                         -0.2206944              -6.0054
       119                         -0.2197178              -5.9788
       ...                                ...                  ...
       220                          2.8901830              78.6459
      -------------------------------------------------------------
                  HL-Gap            0.0812515 Eh            2.2110 eV
             Fermi-level           -0.2959276 Eh           -8.0526 eV

     #   Z          covCN         q      C6AA      α(0)
     1  44 Ru       6.369    -0.385   325.390    30.341
     2   7 N        3.367    -0.105    23.298     7.169
     3   6 C        2.950     0.039    27.130     8.543
     4   6 C        2.843    -0.073    29.802     8.947
     5  15 P        4.188    -0.052   162.548    22.902
     6   6 C        2.920     0.034    27.246     8.560
     7   6 C        3.004    -0.019    28.473     8.753
     8   6 C        2.919    -0.025    28.626     8.774
     9   6 C        2.920    -0.025    28.616     8.772
    10   6 C        2.919    -0.029    28.726     8.789
    11   6 C        2.983    -0.026    28.652     8.780
    12   6 C        2.918     0.027    27.408     8.585
    13   6 C        3.002    -0.022    28.534     8.762
    14   6 C        2.918    -0.026    28.658     8.779
    15   6 C        2.920    -0.027    28.669     8.780
    16   6 C        2.918    -0.028    28.705     8.786
    17   6 C        2.981    -0.025    28.614     8.775
    18   6 C        3.807     0.021    20.209     6.400
    19   6 C        3.750    -0.047    21.470     6.608
    20  15 P        4.168    -0.047   162.305    22.885
    21   6 C        2.920     0.028    27.371     8.579
    22   6 C        2.983    -0.026    28.638     8.778
    23   6 C        2.919    -0.027    28.679     8.782
    24   6 C        2.920    -0.024    28.594     8.769
    25   6 C        2.919    -0.025    28.621     8.773
    26   6 C        3.008    -0.018    28.437     8.747
    27   6 C        2.918     0.022    27.509     8.601
    28   6 C        3.057    -0.017    28.373     8.735
    29   6 C        2.917    -0.024    28.606     8.771
    30   6 C        2.920    -0.025    28.638     8.776
    31   6 C        2.919    -0.029    28.717     8.788
    32   6 C        2.953    -0.030    28.753     8.795
    33   1 H        0.925     0.041     2.433     2.439
    34   1 H        0.957    -0.178     9.245     4.752
    35   1 H        0.926     0.043     2.411     2.428
    36   1 H        0.923     0.017     2.782     2.608
    37   1 H        0.925     0.072     2.068     2.249
    38   1 H        0.926     0.041     2.432     2.439
    39   1 H        0.926     0.041     2.432     2.439
    40   1 H        0.926     0.039     2.460     2.453
    41   1 H        0.925     0.035     2.512     2.478
    42   1 H        0.925     0.041     2.438     2.442
    43   1 H        0.926     0.039     2.468     2.457
    44   1 H        0.926     0.038     2.472     2.459
    45   1 H        0.926     0.034     2.530     2.487
    46   1 H        0.925     0.026     2.646     2.544
    47   1 H        0.923     0.029     2.602     2.523
    48   1 H        0.924     0.060     2.197     2.318
    49   1 H        0.925     0.066     2.129     2.282
    50   1 H        0.926     0.081     1.967     2.193
    51   1 H        0.925     0.039     2.460     2.453
    52   1 H        0.926     0.043     2.406     2.426
    53   1 H        0.926     0.045     2.386     2.415
    54   1 H        0.926     0.046     2.374     2.409
    55   1 H        0.925     0.076     2.025     2.225
    56   1 H        0.925     0.049     2.333     2.389
    57   1 H        0.926     0.040     2.452     2.449
    58   1 H        0.926     0.041     2.441     2.443
    59   1 H        0.926     0.038     2.469     2.457
    60   1 H        0.925     0.033     2.540     2.492
    61   6 C        1.796     0.150    27.548     8.482
    62   8 O        0.857    -0.275    19.334     5.895
    63   1 H        0.962    -0.081     4.919     3.466
    64   8 O        1.655    -0.466    22.169     6.356
    65   6 C        3.679     0.086    19.350     6.301
    66   6 C        2.968    -0.002    28.062     8.689
    67   6 C        2.925    -0.041    29.009     8.833
    68   6 C        2.919    -0.029    28.723     8.789
    69   6 C        2.920    -0.033    28.812     8.802
    70   6 C        2.920    -0.029    28.726     8.789
    71   6 C        2.923    -0.029    28.718     8.788
    72   1 H        1.757     0.247     0.883     1.467
    73   1 H        0.924     0.043     2.404     2.425
    74   1 H        0.804     0.313     0.683     1.298
    75   1 H        0.925     0.022     2.700     2.569
    76   1 H        0.926     0.032     2.557     2.501
    77   1 H        0.926     0.033     2.550     2.497
    78   1 H        0.926     0.034     2.531     2.488
    79   1 H        0.926     0.039     2.462     2.453

 Mol. C6AA /au·bohr⁶  :      92932.850160
 Mol. C8AA /au·bohr⁸  :    2736586.546661
 Mol. α(0) /au        :        494.621518


Wiberg/Mayer (AO) data.
largest (>0.10) Wiberg bond orders for each atom

 ---------------------------------------------------------------------------
     #   Z sym  total        # sym  WBO       # sym  WBO       # sym  WBO
 ---------------------------------------------------------------------------
     1  44 Ru   6.409 --    61 C    1.351    20 P    1.014     5 P    0.996
                            63 H    0.900    34 H    0.760     2 N    0.329
                            62 O    0.321    72 H    0.175
     2   7 N    3.466 --     3 C    1.180    18 C    0.994    72 H    0.705
                             1 Ru   0.329     4 C    0.138
     3   6 C    3.972 --     4 C    1.671     2 N    1.180    33 H    0.948
     4   6 C    3.960 --     3 C    1.671     5 P    1.051    35 H    0.935
                             2 N    0.138
     5  15 P    4.561 --     4 C    1.051     1 Ru   0.996     6 C    0.974
                            12 C    0.973
     6   6 C    3.980 --     7 C    1.390    11 C    1.379     5 P    0.974
                             9 C    0.105
     7   6 C    3.987 --     8 C    1.440     6 C    1.390    37 H    0.937
                            10 C    0.107
     8   6 C    3.990 --     9 C    1.441     7 C    1.440    38 H    0.969
                            11 C    0.111
     9   6 C    3.986 --     8 C    1.441    10 C    1.430    39 H    0.970
                             6 C    0.105
    10   6 C    3.989 --    11 C    1.452     9 C    1.430    40 H    0.969
                             7 C    0.107
    11   6 C    3.991 --    10 C    1.452     6 C    1.379    41 H    0.960
                             8 C    0.111
    12   6 C    3.979 --    17 C    1.390    13 C    1.378     5 P    0.973
                            15 C    0.105
    13   6 C    3.991 --    14 C    1.455    12 C    1.378    42 H    0.956
                            16 C    0.109
    14   6 C    3.990 --    13 C    1.455    15 C    1.429    43 H    0.969
                            17 C    0.107
    15   6 C    3.984 --    16 C    1.439    14 C    1.429    44 H    0.971
                            12 C    0.105
    16   6 C    3.991 --    17 C    1.443    15 C    1.439    45 H    0.970
                            13 C    0.109
    17   6 C    3.990 --    16 C    1.443    12 C    1.390    46 H    0.958
                            14 C    0.107
    18   6 C    3.980 --     2 N    0.994    19 C    0.984    48 H    0.964
                            47 H    0.960
    19   6 C    3.992 --    18 C    0.984    20 P    0.982    49 H    0.938
                            50 H    0.933
    20  15 P    4.533 --     1 Ru   1.014    21 C    0.988    19 C    0.982
                            27 C    0.981
    21   6 C    3.980 --    26 C    1.389    22 C    1.376    20 P    0.988
                            24 C    0.105
    22   6 C    3.991 --    23 C    1.454    21 C    1.376    51 H    0.960
                            25 C    0.111
    23   6 C    3.989 --    22 C    1.454    24 C    1.429    52 H    0.969
                            26 C    0.107
    24   6 C    3.988 --    25 C    1.442    23 C    1.429    53 H    0.970
                            21 C    0.105
    25   6 C    3.991 --    24 C    1.442    26 C    1.440    54 H    0.969
                            22 C    0.111
    26   6 C    3.986 --    25 C    1.440    21 C    1.389    55 H    0.937
                            23 C    0.107
    27   6 C    3.980 --    32 C    1.396    28 C    1.372    20 P    0.981
                            30 C    0.105
    28   6 C    3.990 --    29 C    1.460    27 C    1.372    56 H    0.945
                            31 C    0.110
    29   6 C    3.990 --    28 C    1.460    30 C    1.425    57 H    0.969
                            32 C    0.106
    30   6 C    3.985 --    31 C    1.445    29 C    1.425    58 H    0.971
                            27 C    0.105
    31   6 C    3.990 --    30 C    1.445    32 C    1.436    59 H    0.970
                            28 C    0.110
    32   6 C    3.990 --    31 C    1.436    27 C    1.396    60 H    0.960
                            29 C    0.106
    33   1 H    0.997 --     3 C    0.948
    34   1 H    0.965 --     1 Ru   0.760
    35   1 H    0.997 --     4 C    0.935
    36   1 H    1.000 --    65 C    0.953
    37   1 H    0.994 --     7 C    0.937
    38   1 H    0.998 --     8 C    0.969
    39   1 H    0.998 --     9 C    0.970
    40   1 H    0.997 --    10 C    0.969
    41   1 H    0.999 --    11 C    0.960
    42   1 H    0.998 --    13 C    0.956
    43   1 H    0.998 --    14 C    0.969
    44   1 H    0.998 --    15 C    0.971
    45   1 H    0.998 --    16 C    0.970
    46   1 H    0.999 --    17 C    0.958
    47   1 H    0.999 --    18 C    0.960
    48   1 H    0.995 --    18 C    0.964
    49   1 H    0.995 --    19 C    0.938
    50   1 H    0.993 --    19 C    0.933
    51   1 H    0.998 --    22 C    0.960
    52   1 H    0.997 --    23 C    0.969
    53   1 H    0.997 --    24 C    0.970
    54   1 H    0.997 --    25 C    0.969
    55   1 H    0.994 --    26 C    0.937
    56   1 H    0.997 --    28 C    0.945
    57   1 H    0.998 --    29 C    0.969
    58   1 H    0.998 --    30 C    0.971
    59   1 H    0.998 --    31 C    0.970
    60   1 H    0.999 --    32 C    0.960
    61   6 C    3.599 --    62 O    2.024     1 Ru   1.351
    62   8 O    2.406 --    61 C    2.024     1 Ru   0.321
    63   1 H    0.992 --     1 Ru   0.900
    64   8 O    1.947 --    65 C    1.006    74 H    0.852
    65   6 C    3.959 --    64 O    1.006    66 C    0.996    73 H    0.960
                            36 H    0.953
    66   6 C    3.988 --    71 C    1.425    67 C    1.402    65 C    0.996
                            69 C    0.109
    67   6 C    3.992 --    68 C    1.456    66 C    1.402    75 H    0.970
                            70 C    0.113
    68   6 C    3.992 --    67 C    1.456    69 C    1.428    76 H    0.971
                            71 C    0.109
    69   6 C    3.992 --    70 C    1.448    68 C    1.428    77 H    0.971
                            66 C    0.109
    70   6 C    3.992 --    69 C    1.448    71 C    1.433    78 H    0.971
                            67 C    0.113
    71   6 C    3.991 --    70 C    1.433    66 C    1.425    79 H    0.965
                            68 C    0.109
    72   1 H    0.939 --     2 N    0.705     1 Ru   0.175
    73   1 H    0.998 --    65 C    0.960
    74   1 H    0.902 --    64 O    0.852
    75   1 H    1.000 --    67 C    0.970
    76   1 H    0.999 --    68 C    0.971
    77   1 H    0.998 --    69 C    0.971
    78   1 H    0.999 --    70 C    0.971
    79   1 H    0.998 --    71 C    0.965
 ---------------------------------------------------------------------------

Topologies differ in total number of bonds
Writing topology from bond orders to xtbtopo.mol

molecular dipole:
                 x           y           z       tot (Debye)
 q only:       -0.841      -0.500       0.891
   full:       -0.448      -1.680       0.312       4.491
molecular quadrupole (traceless):
                xx          xy          yy          xz          yz          zz
 q only:       23.291       7.656       1.527       6.024       8.062     -24.817
  q+dip:       19.861       7.398      10.666       9.137      15.412     -30.527
   full:       20.287       7.283       7.141       8.180      11.452     -27.427

           -------------------------------------------------
          |                Geometry Summary                 |
           -------------------------------------------------

      molecular mass/u    :      678.6982773
   center of mass at/Å    :       -0.1323476      -0.5667519       0.2576625
  moments of inertia/u·Å² :        0.5346277E+04   0.7958672E+04   0.1111119E+05
rotational constants/cm⁻¹ :        0.3153153E-02   0.2118146E-02   0.1517176E-02

 * 83 selected distances

     #   Z          #   Z                                           value/Å
     2   7 N        3   6 C                                       1.3643048
     3   6 C        4   6 C                                       1.3485761
     1  44 Ru       5  15 P                                       2.2971905 (max)
     4   6 C        5  15 P                                       1.8058242
     5  15 P        6   6 C                                       1.8238074
     6   6 C        7   6 C                                       1.3892283
     7   6 C        8   6 C                                       1.3833970
     8   6 C        9   6 C                                       1.3848728
     9   6 C       10   6 C                                       1.3864312
     6   6 C       11   6 C                                       1.3916196
    10   6 C       11   6 C                                       1.3824872
     5  15 P       12   6 C                                       1.8260395
    12   6 C       13   6 C                                       1.3922379
    13   6 C       14   6 C                                       1.3818100
    14   6 C       15   6 C                                       1.3868833
    15   6 C       16   6 C                                       1.3850804
    12   6 C       17   6 C                                       1.3898862
    16   6 C       17   6 C                                       1.3837400
     2   7 N       18   6 C                                       1.4459474
    18   6 C       19   6 C                                       1.5350679
     1  44 Ru      20  15 P                                       2.2859986
    19   6 C       20  15 P                                       1.8645865
    20  15 P       21   6 C                                       1.8201061
    21   6 C       22   6 C                                       1.3925056
    22   6 C       23   6 C                                       1.3825417
    23   6 C       24   6 C                                       1.3870685
    24   6 C       25   6 C                                       1.3855310
    21   6 C       26   6 C                                       1.3896747
    25   6 C       26   6 C                                       1.3843190
    20  15 P       27   6 C                                       1.8259967
    27   6 C       28   6 C                                       1.3944970
    28   6 C       29   6 C                                       1.3803884
    29   6 C       30   6 C                                       1.3875598
    30   6 C       31   6 C                                       1.3841376
    27   6 C       32   6 C                                       1.3889596
    31   6 C       32   6 C                                       1.3858612
     3   6 C       33   1 H                                       1.0859347
     1  44 Ru      34   1 H                                       1.5730053
     4   6 C       35   1 H                                       1.0812735
     7   6 C       37   1 H                                       1.0838062
     8   6 C       38   1 H                                       1.0798059
     9   6 C       39   1 H                                       1.0800723
    10   6 C       40   1 H                                       1.0807717
    11   6 C       41   1 H                                       1.0824621
    13   6 C       42   1 H                                       1.0831394
    14   6 C       43   1 H                                       1.0805167
    15   6 C       44   1 H                                       1.0802631
    16   6 C       45   1 H                                       1.0810152
    17   6 C       46   1 H                                       1.0841659
    18   6 C       47   1 H                                       1.1043028
    18   6 C       48   1 H                                       1.0955543
    19   6 C       49   1 H                                       1.0929571
    19   6 C       50   1 H                                       1.0969596
    22   6 C       51   1 H                                       1.0821750
    23   6 C       52   1 H                                       1.0804862
    24   6 C       53   1 H                                       1.0802695
    25   6 C       54   1 H                                       1.0803128
    26   6 C       55   1 H                                       1.0840719
    28   6 C       56   1 H                                       1.0855554
    29   6 C       57   1 H                                       1.0802829
    30   6 C       58   1 H                                       1.0800365
    31   6 C       59   1 H                                       1.0808379
    32   6 C       60   1 H                                       1.0814401
     1  44 Ru      61   6 C                                       1.8426682
    61   6 C       62   8 O                                       1.1594640
     1  44 Ru      63   1 H                                       1.5566415
    36   1 H       65   6 C                                       1.1039872
    64   8 O       65   6 C                                       1.4041366
    66   6 C       67   6 C                                       1.3905571
    67   6 C       68   6 C                                       1.3815783
    68   6 C       69   6 C                                       1.3858415
    69   6 C       70   6 C                                       1.3830670
    66   6 C       71   6 C                                       1.3865810
    70   6 C       71   6 C                                       1.3851007
     1  44 Ru      72   1 H                                       1.6775015
     2   7 N       72   1 H                                       1.0662225
    65   6 C       73   1 H                                       1.0965283
    64   8 O       74   1 H                                       0.9715599 (min)
    67   6 C       75   1 H                                       1.0813895
    68   6 C       76   1 H                                       1.0804776
    69   6 C       77   1 H                                       1.0804993
    70   6 C       78   1 H                                       1.0804947
    71   6 C       79   1 H                                       1.0805329

 * 10 distinct bonds (by element types)

   Z      Z             #   av. dist./Å        max./Å        min./Å
   1 H    6 C          33     1.0846175     1.1043028     1.0798059
   6 C    6 C          32     1.3899090     1.5350679     1.3485761
   1 H    7 N           1     1.0662225     1.0662225     1.0662225
   6 C    7 N           2     1.4051261     1.4459474     1.3643048
   1 H    8 O           1     0.9715599     0.9715599     0.9715599
   6 C    8 O           2     1.2818003     1.4041366     1.1594640
   6 C   15 P           6     1.8277267     1.8645865     1.8058242
   1 H   44 Ru          3     1.6023828     1.6775015     1.5566415
   6 C   44 Ru          1     1.8426682     1.8426682     1.8426682
  15 P   44 Ru          2     2.2915946     2.2971905     2.2859986


optimized geometry written to: xtbopt.xyz


           -------------------------------------------------
          | TOTAL ENERGY             -115.341565053989 Eh   |
          | GRADIENT NORM               0.000520371183 Eh/α |
          | HOMO-LUMO GAP               2.210965302739 eV   |
           -------------------------------------------------

------------------------------------------------------------------------
 * finished run on 2026/09/13 at 01:18:40.732     
------------------------------------------------------------------------
 total:
 * wall-time:     0 d,  0 h,  0 min, 47.444 sec
 *  cpu-time:     0 d,  0 h,  0 min,  8.906 sec
 * ratio c/w:     0.188 speedup
 SCF:
 * wall-time:     0 d,  0 h,  0 min,  0.410 sec
 *  cpu-time:     0 d,  0 h,  0 min,  0.062 sec
 * ratio c/w:     0.153 speedup
 ANC optimizer:
 * wall-time:     0 d,  0 h,  0 min, 46.964 sec
 *  cpu-time:     0 d,  0 h,  0 min,  8.844 sec
 * ratio c/w:     0.188 speedup


normal termination of xtb
Note: The following floating-point exceptions are signalling: IEEE_DIVIDE_BY_ZERO IEEE_UNDERFLOW_FLAG IEEE_DENORMAL
