79
 energy: -115.341565053989 gnorm: 0.000520371183 xtb: 6.7.1 (edcfbbe)
Ru          -0.33481670503917       -0.64181424342696       -0.45840596051293
N           -0.17091572115525       -2.79366421171414        0.27520336341703
C            1.04242572977380       -3.14818810126541        0.78846996988765
C            2.11948366518859       -2.34073392441529        0.70709977372294
P            1.91465876253404       -0.68968526357430        0.00489932668563
C            2.72750361374981        0.40925087349718        1.21233275436616
C            2.05433607644412        1.54502272147026        1.64456268257448
C            2.66553501134786        2.41723199841966        2.52744077851727
C            3.94196573753742        2.14830532604289        2.99249492139867
C            4.61418767333072        1.01290190031347        2.56685686801698
C            4.01503076325235        0.14721650106087        1.67082653390677
C            3.15074788385368       -0.63347519266805       -1.33798702551532
C            3.61448037100712        0.60636408386167       -1.76935316475155
C            4.48983336876726        0.68674390261108       -2.83551206672115
C            4.90291067508726       -0.46794604928740       -3.48320273637171
C            4.43263302229564       -1.70259533163184       -3.06735726044449
C            3.55447106505749       -1.78623922445301       -2.00125624221144
C           -1.34886719925266       -3.63013202331644        0.33449535270743
C           -2.58762361942378       -2.76057414114525        0.59098049424202
P           -2.54207086547137       -1.23618033537063       -0.48178726708693
C           -3.91557220988092       -0.27843188390008        0.23165336247399
C           -5.22231250324066       -0.75897748986830        0.20763092864895
C           -6.23890282064525       -0.00688193156772        0.76648468278767
C           -5.95908287606570        1.22332261514636        1.34290141546559
C           -4.66086788197789        1.70719442758986        1.35710448180553
C           -3.63809277422221        0.95905965660791        0.79982167997262
C           -3.29353253857525       -1.73439680331369       -2.06966289433256
C           -3.40215060050382       -0.69564257880062       -2.99368303758203
C           -3.93498430377544       -0.92458708448699       -4.24633800004498
C           -4.35611149736766       -2.20043648667944       -4.59301096394651
C           -4.24099338382687       -3.23804829248354       -3.68419513434257
C           -3.71148600043927       -3.01076027632096       -2.42380908331613
H            1.08869800545680       -4.10916785831523        1.29208768686485
H           -0.56112672129049       -0.26958977868100        1.05307606048511
H            3.07852549386868       -2.64638045669766        1.10203167959439
H            1.91885072462833       -1.79197540486254        3.48631881366554
H            1.05409317895117        1.72875956822267        1.26987550541688
H            2.14507224788481        3.30482318927939        2.85497838695722
H            4.41839518475050        2.82684876403832        3.68470140252683
H            5.61219960884968        0.80776051665992        2.92735153951802
H            4.54884961898365       -0.72462640978341        1.31494547534355
H            3.27462924883272        1.50088118256042       -1.26187784507835
H            4.84936905791991        1.65025638566641       -3.16701443139993
H            5.58684821618506       -0.40472598087403       -4.31698977460177
H            4.74800148228996       -2.60215931333661       -3.57718173355577
H            3.17952173538010       -2.75094855470200       -1.67851132262348
H           -1.46997259411811       -4.19216798364452       -0.60833734079778
H           -1.23091164849497       -4.34827084773432        1.15339832152051
H           -3.51395518370449       -3.32573546084414        0.46037569829908
H           -2.55347474473824       -2.38689282551633        1.62176474044774
H           -5.44053205085944       -1.71237332392645       -0.25553117803943
H           -7.25353071816462       -0.37798440649006        0.75025469408902
H           -6.75808949127764        1.80692413147925        1.77646760751969
H           -4.44600300506173        2.66921201544891        1.79918000951062
H           -2.61413845463164        1.31491803418659        0.79012415163997
H           -3.04768610674727        0.28953091819975       -2.70694542111476
H           -4.01763844797005       -0.11429398296957       -4.95598884662263
H           -4.76906493893710       -2.38563913110314       -5.57364757711900
H           -4.56395552858360       -4.23309171338305       -3.95584656002585
H           -3.63048937361448       -3.83620132421944       -1.72983560211594
C           -0.07341019991090       -0.90237585800484       -2.26373135784576
O            0.09578752322332       -1.08056580989967       -3.39685846075652
H           -0.47809643220278        0.88184822897467       -0.74310929573993
O           -0.12212008043139       -2.06345345898782        3.35945066362197
C            1.00404458443498       -1.64597789057325        4.08682016987808
C            0.97177710846350       -0.21296543732920        4.56369085745580
C            2.06915215767669        0.28488558817930        5.25763686841117
C            2.07532989732066        1.58632926474270        5.72127945943265
C            0.98646323341721        2.41136903418876        5.48839491414620
C           -0.10599172892452        1.92385657528807        4.79431442979243
C           -0.11638063953431        0.61618819678229        4.33780703510456
H           -0.08696471977302       -2.28860507369925       -0.66004938570141
H            1.06101571303310       -2.31604039614268        4.95292911130582
H           -0.21087032907786       -1.46760719983161        2.59720462470131
H            2.92054094629777       -0.35802715337642        5.43428161509170
H            2.93099587711241        1.95862921054206        6.26594458169654
H            0.99110136021828        3.42968383374812        5.84963179099193
H           -0.95914095984881        2.56012649050975        4.60785919498877
H           -0.98310325002239        0.24211100838545        3.81206065313683
