78
 energy: -115.206963850987 gnorm: 0.000325321716 xtb: 6.7.1 (edcfbbe)
Co          -0.02338157444561       -0.42726823615334       -0.12090431313043
N            0.31978843389517       -2.14443690195251        0.46799079882995
C            1.48988595897243       -2.94124467801951        0.16343637445579
C            2.35974451214528       -2.26401561155403       -0.89055109661269
P            2.10182487131832       -0.47941449808439       -0.56688065389375
C            3.06761719893842       -0.23751674496966        0.95763505847265
C            2.37575420497591        0.05446337746407        2.12633937284198
C            3.05573059328587        0.19491168899534        3.32278044569383
C            4.43290539994067        0.04359903262556        3.35333174524170
C            5.12826092785714       -0.24414425208652        2.18830707798707
C            4.45079707738413       -0.38431869578168        0.99065493868287
C            3.13607293726506        0.39235772067935       -1.78550626146081
C            3.56601460445821        1.67945596288422       -1.46938026708668
C            4.34221455127325        2.39531299021029       -2.36008108852242
C            4.68674627072580        1.83761060287985       -3.58141591720824
C            4.23807270980292        0.57045029725335       -3.91346431940078
C            3.45888196957631       -0.14909677978007       -3.02511921315731
C           -0.56174062177931       -2.90796441252200        1.32693479046479
C           -1.70713553390098       -2.03772727915727        1.83668643642020
P           -2.05087935209710       -0.96608654851711        0.39199328354600
C           -3.35528663399017        0.19936158344775        0.89333885666010
C           -3.77012819332194        0.39397333914134        2.20536121533905
C           -4.74058226752119        1.33971151076907        2.49193655991904
C           -5.29587134310165        2.10118079147829        1.47733153290022
C           -4.87853420178887        1.91962689967932        0.16721043119859
C           -3.91125252363561        0.97711792517754       -0.12122033162847
C           -2.99229163112073       -2.11229286206728       -0.67013533962983
C           -2.34000119675336       -2.75450618505739       -1.71545402086282
C           -3.01685484368402       -3.67822218915665       -2.49290359947244
C           -4.34635173205371       -3.96429648718560       -2.22983274524575
C           -4.99914243560168       -3.32743555444707       -1.18513100514597
C           -4.32702292889953       -2.40485545666632       -0.40437468488968
H            1.18907286596991       -3.94716754240669       -0.18658053387768
H            2.08873557376883       -3.09542996507118        1.08406222149832
H            1.97742156696342       -2.48632456084779       -1.88876111329685
H            3.41094406651215       -2.55526396276104       -0.82043890046199
H            1.29393444721442        0.16271508288067        2.07253267805867
H            2.51613393695499        0.42235345846852        4.23132443712851
H            4.96751484114778        0.15090326969997        4.28633118664279
H            6.20254963159733       -0.35989627809185        2.21639000680711
H            4.99144879216098       -0.60140320143122        0.07836743754715
H            3.28966543251132        2.10825905875759       -0.51416945741622
H            4.68044472416925        3.38920355097341       -2.10359055823930
H            5.29813384711117        2.39389001222847       -4.27679534770894
H            4.49366176289388        0.14126092775010       -4.87147692515412
H            3.09941161954644       -1.12969953253648       -3.29896503584769
H           -0.98530607154196       -3.77308934919316        0.77695086279533
H            0.00650172742841       -3.32609568632831        2.17938383611619
H           -2.57341239338095       -2.62328814865767        2.15613152536282
H           -1.35926700330914       -1.40309596344808        2.65696779641778
H           -3.34161855477988       -0.19304600198579        3.00515759128406
H           -5.06351927745147        1.48401815571950        3.51332099358301
H           -6.05067865930719        2.83926545616984        1.70668102355475
H           -5.30635639604365        2.51665249704367       -0.62538049323086
H           -3.57336858159075        0.82808918596972       -1.13980972150818
H           -1.30100646408644       -2.52479840141805       -1.91291629942855
H           -2.50550937543969       -4.17368211970663       -3.30587451711001
H           -4.87650377516829       -4.68386236058877       -2.83726522429265
H           -6.03587250106985       -3.55274454971438       -0.97832441807021
H           -4.83773309911495       -1.90773638219275        0.40986300313508
C           -0.34765611858690        1.24494074833151       -0.37617637648251
O           -0.61473921079194        2.37774734451063       -0.40894184743942
O            0.26040142269987       -1.29239822142500       -3.19328199191050
C           -0.28613294607223       -0.56800912873136       -4.27291920859800
C            0.55318968447072        0.62292255885842       -4.67000071678636
C            0.66738910748695        1.70703604414010       -3.80836854801213
C            1.43930633260656        2.80124204636388       -4.15155362449421
C            2.10535628106019        2.82633691451136       -5.36515121118411
C            2.00048486399465        1.74949237538399       -6.22832148138753
C            1.23170786319684        0.65190154746069       -5.88042668125391
H            0.21642527458271       -0.74302861708825       -2.38250939522511
H           -0.34600087868297       -1.27945193989708       -5.10201371425100
H           -1.30652862376924       -0.23560838632741       -4.02631309519816
H            0.14223694781848        1.69589597635208       -2.86431835368748
H            1.51693707928081        3.63590477495689       -3.47021026133183
H            2.70382657699553        3.68370014516293       -5.63698433361796
H            2.51919629015790        1.76373113745484       -7.17635624102539
H            1.15385260871354       -0.18759831454274       -6.55722438483881
