79

Ru      0.061021799850420     -0.386458413978190     -0.373319869121750
N       0.741810350141350     -2.435557081577450      0.013085148598930
C       0.967581789728950     -1.743263004155650      1.107746932002680
C       2.351343964055800     -1.123077574889990      1.233884249290390
P       2.299409642096950      0.065392343562490     -0.182712748530360
C       3.099053558919510      1.554285506754660      0.480108548327970
C       2.379702048189940      2.742170151516170      0.497193789927740
C       2.957671514500980      3.888036797232040      1.016278807370420
C       4.248044790519650      3.845149902792140      1.517979492079740
C       4.965388065834180      2.657737252440090      1.504034395466410
C       4.395462300065800      1.510681681207290      0.985492241769170
C       3.524870608231480     -0.557495419537730     -1.372403276157290
C       4.353665907365000      0.314480372989060     -2.071053265740710
C       5.219341907142490     -0.177292343616270     -3.031288314537560
C       5.252844075477060     -1.533934815017520     -3.309412723227320
C       4.409709168076190     -2.401644492211290     -2.633094352473570
C       3.542536577453160     -1.917198857552160     -1.672340936712050
C      -0.316462386638320     -3.421723168839420      0.001328047171900
C      -1.662008021798770     -2.971403793173600      0.591443210070780
P      -2.011823067093390     -1.288813737476330     -0.101127609755530
C      -3.276261009739330     -0.616173828585240      1.024731041853610
C      -4.121633277676020     -1.389022980596630      1.812193173895020
C      -5.082925587019860     -0.774708974631200      2.595918021974960
C      -5.210819610771860      0.604222838940640      2.592780638839670
C      -4.370779936368120      1.377066888276660      1.806592073585030
C      -3.406538431343070      0.769317818013190      1.025120951414770
C      -3.084625855963750     -1.612054421648450     -1.546596143674110
C      -2.889797798214430     -0.829435362788690     -2.679408546369760
C      -3.688732369892070     -1.005023527629670     -3.794895666591920
C      -4.692509311815260     -1.959040797755810     -3.783515368695750
C      -4.907803771096800     -2.723313713273800     -2.647855512115570
C      -4.114537974922200     -2.546957973552730     -1.529268115261380
H       0.466722157179520     -1.993744679249000      2.055038685159120
H      -0.093318672188850      0.349943227270140      0.998574857006530
H       3.148072482977870     -1.873255520177840      1.176063547397260
H       2.441483551696130     -0.556562869235070      2.165513402457480
H       1.369039943426350      2.739642526065060      0.106713570108860
H       2.402720272108030      4.814544121362960      1.031084901944430
H       4.699649039768510      4.738750974170660      1.923722282161860
H       5.970942629446620      2.629666135232780      1.898611477211360
H       4.948502429405650      0.580525928944110      0.963832504226820
H       4.316637488200270      1.374656682113970     -1.859264599818000
H       5.865217254534730      0.501352061933150     -3.569670099357300
H       5.928661238390560     -1.914393175889180     -4.061346103896750
H       4.424247634225780     -3.457577604836740     -2.862096344658520
H       2.859061299903510     -2.583167472019190     -1.159740379460530
H      -0.468485504275200     -3.712854402753890     -1.046091200280360
H       0.047686412577910     -4.308829381874710      0.542006234314120
H      -2.433353177322290     -3.704245405302060      0.345743203597370
H      -1.600478777287130     -2.870681093996250      1.680827282124930
H      -4.031667586134260     -2.466037411547040      1.826844535072010
H      -5.735900456249280     -1.376265156913920      3.212255467390030
H      -5.963782000122970      1.075843936442290      3.207242716365750
H      -4.467191167611740      2.452850021737550      1.807808522160210
H      -2.722548605166430      1.349048716481550      0.416925066067020
H      -2.103426215658050     -0.082182195191180     -2.668933149096300
H      -3.527595392702260     -0.398222238652180     -4.673718123371500
H      -5.313253591658240     -2.103474526114380     -4.655582014428160
H      -5.700162716300640     -3.457974222464070     -2.633249730306430
H      -4.306748680000790     -3.135069528504630     -0.642967808687360
C       0.266761279654450     -1.053071849879900     -2.088639802585840
O       0.473581144278550     -1.547532553332840     -3.103432750049210
H      -0.417638361685120      0.968291151799900     -0.945248013034730
O      -1.429627394119289     -1.825570524409011      1.497262175955788
C      -1.487125610819320     -0.458140553645797      1.797160150296576
C      -0.752704379983938     -0.179497198805579      3.079421544075593
C      -1.398215050452521     -0.348620330610703      4.315440862541295
C      -0.704656781009192     -0.121820596099612      5.508564086120320
C       0.638437853773097      0.263666578963553      5.475755801252712
C       1.291508784559399      0.418678412250229      4.249760482992326
C       0.601492470969109      0.192906083010124      3.054385606787620
H      -0.516316292323832     -2.001452010971790      1.149382041374577
H      -2.552141108924946     -0.159946970139681      1.901510208731805
H      -1.063595504224609      0.141996931360511      0.959506370830799
H      -2.436158315136611     -0.655456271438738      4.354439969133378
H      -1.207497654792949     -0.248316427348301      6.458641729213164
H       1.174186495015503      0.437544752652596      6.399988189776752
H       2.333531925010337      0.710408628753740      4.225680058590989
H       1.121655683032205      0.307695101741705      2.111416752580882
