62
Properties=species:S:1:pos:R:3 energy:=T -92.068912756884=T gnorm:=T 0.000355816826=T xtb:=T 6.7.1=T (edcfbbe)=T pbc="F F F"
Co       0.01632233      -0.36826193      -0.40928107
N        0.30222079      -2.08640682       0.19897512
C        1.47335314      -2.89874606      -0.07173646
C        2.35456711      -2.27029342      -1.14759207
P        2.11681303      -0.47659067      -0.87350526
C        3.11773623      -0.16784092       0.61536378
C        2.44684099       0.16450765       1.78571575
C        3.15270903       0.37873543       2.95574504
C        4.53391169       0.26361691       2.95644231
C        5.20744070      -0.06292406       1.78886667
C        4.50422064      -0.27800936       0.61727688
C        3.11733864       0.37354181      -2.13342386
C        3.31046531       1.74234677      -1.95342101
C        4.03976747       2.47322360      -2.87076210
C        4.57813988       1.84504352      -3.98406802
C        4.37894237       0.48824486      -4.17604703
C        3.64790361      -0.24751770      -3.25821581
C       -0.60872047      -2.85799880       1.02336098
C       -1.74722445      -1.99441320       1.55870532
P       -2.00341955      -0.78201983       0.21216355
C       -3.34596826       0.31860738       0.75698550
C       -3.80684075       0.40002770       2.06585758
C       -4.82027465       1.28690578       2.38946023
C       -5.37242893       2.10240148       1.41599342
C       -4.90729981       2.03559082       0.11096107
C       -3.89717562       1.15193589      -0.21516898
C       -2.86856505      -1.76933178      -1.04933852
C       -2.19288001      -2.03797756      -2.23318616
C       -2.78691346      -2.81210858      -3.21350164
C       -4.06158749      -3.31761389      -3.01209407
C       -4.74145592      -3.04668451      -1.83399710
C       -4.15008324      -2.27253106      -0.85197074
H        1.16741775      -3.91496206      -0.38440966
H        2.07221001      -3.02106138       0.85348166
H        1.96337832      -2.51190049      -2.14036329
H        3.39876905      -2.58512681      -1.07273712
H        1.36118879       0.24715104       1.75052828
H        2.63079682       0.63729118       3.86624792
H        5.08921001       0.43073387       3.86833222
H        6.28489830      -0.14868505       1.79407666
H        5.02715619      -0.52478154      -0.29771909
H        2.88021505       2.22201902      -1.08286199
H        4.18887439       3.53313221      -2.72216488
H        5.14932367       2.41463678      -4.70275882
H        4.79480623      -0.00063505      -5.04577593
H        3.49625434      -1.30512897      -3.41995748
H       -1.04086994      -3.69144779       0.43305151
H       -0.06016643      -3.32099060       1.86520353
H       -2.64189258      -2.57693950       1.79379286
H       -1.41709155      -1.44524348       2.44552017
H       -3.38123237      -0.22935900       2.83428753
H       -5.17990426       1.34219076       3.40729231
H       -6.16232600       2.79299838       1.67356407
H       -5.33212737       2.67586246      -0.64882767
H       -3.52055012       1.09394805      -1.22901779
H       -1.19250213      -1.62566983      -2.35947890
H       -2.26116544      -3.02092548      -4.13450629
H       -4.52939168      -3.92268373      -3.77556857
H       -5.73648549      -3.44094135      -1.68302840
H       -4.68108078      -2.05216136       0.06513057
C       -0.25048108       1.23915895      -0.96416243
O       -0.42945201       2.32698279      -1.33528780
