      -----------------------------------------------------------      
     |                   =====================                   |     
     |                           x T B                           |     
     |                   =====================                   |     
     |                         S. Grimme                         |     
     |          Mulliken Center for Theoretical Chemistry        |     
     |                    University of Bonn                     |     
      -----------------------------------------------------------      

   * xtb version 6.7.1 (edcfbbe) compiled by 'VssAdministrator@runnervm171ch' on 2026-06-10

   xtb is free software: you can redistribute it and/or modify it under
   the terms of the GNU Lesser General Public License as published by
   the Free Software Foundation, either version 3 of the License, or
   (at your option) any later version.
   
   xtb is distributed in the hope that it will be useful,
   but WITHOUT ANY WARRANTY; without even the implied warranty of
   MERCHANTABILITY or FITNESS FOR A PARTICULAR PURPOSE.  See the
   GNU Lesser General Public License for more details.
   
   Cite this work as:
   * C. Bannwarth, E. Caldeweyher, S. Ehlert, A. Hansen, P. Pracht,
     J. Seibert, S. Spicher, S. Grimme, WIREs Comput. Mol. Sci., 2020, 11,
     e01493. DOI: 10.1002/wcms.1493
   
   for GFN2-xTB:
   * C. Bannwarth, S. Ehlert and S. Grimme., J. Chem. Theory Comput., 2019,
     15, 1652-1671. DOI: 10.1021/acs.jctc.8b01176
   for GFN1-xTB:
   * S. Grimme, C. Bannwarth, P. Shushkov, J. Chem. Theory Comput., 2017,
     13, 1989-2009. DOI: 10.1021/acs.jctc.7b00118
   for GFN0-xTB:
   * P. Pracht, E. Caldeweyher, S. Ehlert, S. Grimme, ChemRxiv, 2019, preprint.
     DOI: 10.26434/chemrxiv.8326202.v1
   for GFN-FF:
   * S. Spicher and S. Grimme, Angew. Chem. Int. Ed., 2020, 59, 15665-15673.
     DOI: 10.1002/anie.202004239
   
   for ALPB and GBSA implicit solvation:
   * S. Ehlert, M. Stahn, S. Spicher, S. Grimme, J. Chem. Theory Comput.,
     2021, 17, 4250-4261. DOI: 10.1021/acs.jctc.1c00471
   
   for ddCOSMO and CPCM-X implicit solvation:
   * M. Stahn, S. Ehlert, S. Grimme, J. Phys. Chem. A,
     2023, XX, XXXX-XXXX. DOI: 10.1021/acs.jpca.3c04382
   
   for DFT-D4:
   * E. Caldeweyher, C. Bannwarth and S. Grimme, J. Chem. Phys., 2017,
     147, 034112. DOI: 10.1063/1.4993215
   * E. Caldeweyher, S. Ehlert, A. Hansen, H. Neugebauer, S. Spicher,
     C. Bannwarth and S. Grimme, J. Chem. Phys., 2019, 150, 154122.
     DOI: 10.1063/1.5090222
   * E. Caldeweyher, J.-M. Mewes, S. Ehlert and S. Grimme, Phys. Chem. Chem. Phys.
     2020, 22, 8499-8512. DOI: 10.1039/D0CP00502A
   
   for sTDA-xTB:
   * S. Grimme and C. Bannwarth, J. Chem. Phys., 2016, 145, 054103.
     DOI: 10.1063/1.4959605
   
   in the mass-spec context:
   * V. Asgeirsson, C. Bauer and S. Grimme, Chem. Sci., 2017, 8, 4879.
     DOI: 10.1039/c7sc00601b
   * J. Koopman and S. Grimme, ACS Omega 2019, 4, 12, 15120-15133.
     DOI: 10.1021/acsomega.9b02011
   
   for metadynamics refer to:
   * S. Grimme, J. Chem. Theory Comput., 2019, 155, 2847-2862
     DOI: 10.1021/acs.jctc.9b00143
   
   for SPH calculations refer to:
   * S. Spicher and S. Grimme, J. Chem. Theory Comput., 2021, 17, 1701-1714
     DOI: 10.1021/acs.jctc.0c01306
   
   for ONIOM refer to:
   * C. Plett, A. Katbashev, S. Ehlert, S. Grimme, M. Bursch,
     Phys. Chem. Chem. Phys., 2023, 25, 17860-17868. DOI: 10.1039/D3CP02178E
   
   for DIPRO refer to:
   * J. Kohn, N. Gildemeister, S. Grimme, D. Fazzi, A. Hansen,
     J. Chem. Phys., 2023, just accepted.
   
   for PTB refer to:
   * S. Grimme, M. Mueller, A. Hansen, J. Chem. Phys., 2023, 158, 124111.
     DOI: 10.1063/5.0137838
   
   with help from (in alphabetical order)
   P. Atkinson, C. Bannwarth, F. Bohle, G. Brandenburg, E. Caldeweyher
   M. Checinski, S. Dohm, S. Ehlert, S. Ehrlich, I. Gerasimov, C. Hölzer
   A. Katbashev, J. Kohn, J. Koopman, C. Lavigne, S. Lehtola, F. März, M. Müller,
   F. Musil, H. Neugebauer, J. Pisarek, C. Plett, P. Pracht, F. Pultar,
   J. Seibert, P. Shushkov, S. Spicher, M. Stahn, M. Steiner, T. Strunk,
   J. Stückrath, T. Rose, and J. Unsleber
   
 * started run on 2026/09/13 at 03:00:45.727     
   ID    Z sym.   atoms
    1   44 Ru     1
    2    7 N      2
    3    6 C      3, 4, 6-13, 15-20, 57, 61-67
    4   15 P      5, 14
    5    1 H      21-56, 59, 68-75
    6    8 O      58, 60

           -------------------------------------------------
          |                Calculation Setup                |
           -------------------------------------------------

          program call               : C:\Users\HUIWEI\miniconda3\envs\phase2ff\Library\bin\xtb.exe input.xyz --gfn 2 --chrg 0 --uhf 0 --etemp 300.0 --iterations 500 --acc 0.5 --opt tight --cycles 250 --grad --alpb toluene gsolv
          coordinate file            : input.xyz
          omp threads                :                     2


molecular fragmentation (1/2 indicates fragments):
111111111111111111111111111111111111111111111111111111111112222222212222
222
# atoms in fragment 1/2:    60    15
 fragment masses (1/2) :      435.50      107.13
CMA distance (Bohr)    :  11.802
constraining FC (au)   :  0.0500
########################################################################
[WARNING] Please study the warnings concerning your input carefully
-1- prog_main_parseArguments: Unknown reference state 'gsolv'
########################################################################

           -------------------------------------------------
          |                 G F N 2 - x T B                 |
           -------------------------------------------------

        Reference                      10.1021/acs.jctc.8b01176
      * Hamiltonian:
        H0-scaling (s, p, d)           1.850000    2.230000    2.230000
        zeta-weighting                 0.500000
      * Dispersion:
        s8                             2.700000
        a1                             0.520000
        a2                             5.000000
        s9                             5.000000
      * Repulsion:
        kExp                           1.500000    1.000000
        rExp                           1.000000
      * Coulomb:
        alpha                          2.000000
        third order                    shell-resolved
        anisotropic                    true
        a3                             3.000000
        a5                             4.000000
        cn-shift                       1.200000
        cn-exp                         4.000000
        max-rad                        5.000000

      * Solvation model:               ALPB
        Solvent                        toluene
        Parameter file                 internal GFN2-xTB/ALPB
        Dielectric constant                7.0000E+00
        Reference state                gsolv [1 M gas/solution]
        Free energy shift                  2.2081E-03 Eh       1.3856E+00 kcal/mol
        Temperature                        2.9815E+02 K
        Density                            8.6700E-01 kg/L
        Solvent mass                       7.8110E+01 g/mol
        Interaction kernel             P16
        Born radius scaling (c1)           1.7172E+00
        Born radii integrator          GBOBC
        Born offset                        0.0000E+00 a0       0.0000E+00 AA
        H-bond correction              false
        Ion screening                  false
        Surface tension                    1.0000E-05 Eh       1.5569E+01 dyn/cm
        Grid points                               230 per atom

          ...................................................
          :                      SETUP                      :
          :.................................................:
          :  # basis functions                 183          :
          :  # atomic orbitals                 180          :
          :  # shells                          108          :
          :  # electrons                       176          :
          :  max. iterations                   500          :
          :  Hamiltonian                  GFN2-xTB          :
          :  restarted?                      false          :
          :  GBSA solvation                   true          :
          :  PC potential                    false          :
          :  electronic temp.          300.0000000     K    :
          :  accuracy                    0.5000000          :
          :  -> integral cutoff          0.2801030E+02      :
          :  -> integral neglect         0.5000000E-08      :
          :  -> SCF convergence          0.5000000E-06 Eh   :
          :  -> wf. convergence          0.5000000E-04 e    :
          :  Broyden damping             0.4000000          :
          :  net charge                          0          :
          :  unpaired electrons                  0          :
          ...................................................

 iter      E             dE          RMSdq      gap      omega  full diag
   1    -92.5883378 -0.925883E+02  0.610E+00    2.60       0.0  T
   2    -86.5411128  0.604723E+01  0.984E+00    0.06       1.0  T
   3    -94.5635335 -0.802242E+01  0.352E+00    2.02       1.0  T
   4    -94.8920186 -0.328485E+00  0.228E+00    2.94       1.0  T
   5    -95.0391487 -0.147130E+00  0.115E+00    1.44       1.0  T
   6    -95.0420659 -0.291726E-02  0.551E-01    0.40       1.0  T
   7    -95.0417283  0.337631E-03  0.359E-01    0.29       1.0  T
   8    -95.0422329 -0.504562E-03  0.196E-01    0.50       1.0  T
   9    -95.0442450 -0.201217E-02  0.689E-02    0.45       1.0  T
  10    -95.0442894 -0.443780E-04  0.454E-02    0.42       1.0  T
  11    -95.0443177 -0.283211E-04  0.163E-02    0.38       1.0  T
  12    -95.0443151  0.264980E-05  0.120E-02    0.36       1.0  T
  13    -95.0443196 -0.451087E-05  0.462E-03    0.37       2.5  T
  14    -95.0443199 -0.341428E-06  0.198E-03    0.38       5.8  T
  15    -95.0443200 -0.527399E-07  0.677E-04    0.38      17.0  T
  16    -95.0443200 -0.731103E-08  0.281E-04    0.38      41.1  T
  17    -95.0443200 -0.109260E-08  0.126E-04    0.38      91.7  T

   *** convergence criteria satisfied after 17 iterations ***

         #    Occupation            Energy/Eh            Energy/eV
      -------------------------------------------------------------
         1        2.0000           -0.7142014             -19.4344
       ...           ...                  ...                  ...
        82        2.0000           -0.3975892             -10.8190
        83        2.0000           -0.3931338             -10.6977
        84        2.0000           -0.3744918             -10.1904
        85        2.0000           -0.3593880              -9.7794
        86        2.0000           -0.3239030              -8.8139
        87        2.0000           -0.3124111              -8.5011
        88        1.9988           -0.3080905              -8.3836 (HOMO)
        89        0.0012           -0.2940582              -8.0017 (LUMO)
        90                         -0.2415138              -6.5719
        91                         -0.2072209              -5.6388
        92                         -0.2053763              -5.5886
        93                         -0.1931126              -5.2549
       ...                                ...                  ...
       180                          3.2311136              87.9231
      -------------------------------------------------------------
                  HL-Gap            0.0140324 Eh            0.3818 eV
             Fermi-level           -0.3010693 Eh           -8.1925 eV

 SCC (total)                   0 d,  0 h,  0 min,  0.917 sec
 SCC setup                      ...        0 min,  0.007 sec (  0.753%)
 Dispersion                     ...        0 min,  0.005 sec (  0.549%)
 classical contributions        ...        0 min,  0.001 sec (  0.099%)
 integral evaluation            ...        0 min,  0.039 sec (  4.240%)
 iterations                     ...        0 min,  0.692 sec ( 75.397%)
 molecular gradient             ...        0 min,  0.171 sec ( 18.621%)
 printout                       ...        0 min,  0.003 sec (  0.328%)

         :::::::::::::::::::::::::::::::::::::::::::::::::::::
         ::                     SUMMARY                     ::
         :::::::::::::::::::::::::::::::::::::::::::::::::::::
         :: total energy             -93.752986620818 Eh    ::
         :: total w/o Gsasa/hb       -93.713305388585 Eh    ::
         :: gradient norm              0.014927083910 Eh/a0 ::
         :: HOMO-LUMO gap              0.381839787002 eV    ::
         ::.................................................::
         :: SCC energy               -95.040722453869 Eh    ::
         :: -> isotropic ES            0.053027374218 Eh    ::
         :: -> anisotropic ES          0.021137916525 Eh    ::
         :: -> anisotropic XC          0.049564013180 Eh    ::
         :: -> dispersion             -0.098694219238 Eh    ::
         :: -> Gsolv                  -0.047440631590 Eh    ::
         ::    -> Gelec               -0.007759399357 Eh    ::
         ::    -> Gsasa               -0.041889375372 Eh    ::
         ::    -> Ghb                  0.000000000000 Eh    ::
         ::    -> Gshift               0.002208143139 Eh    ::
         :: repulsion energy           1.287735833050 Eh    ::
         :: add. restraining           0.000000000000 Eh    ::
         :: total charge               0.000000000123 e     ::
         :::::::::::::::::::::::::::::::::::::::::::::::::::::

      ----------------------------------------------------------- 
     |                   =====================                   |
     |                        A N C O P T                        |
     |                   =====================                   |
     |               Approximate Normal Coordinate               |
     |                Rational Function Optimizer                |
      ----------------------------------------------------------- 
      ----------------------------------------------------------- 
     |                   =====================                   |
     |                        A N C O P T                        |
     |                   =====================                   |
     |               Approximate Normal Coordinate               |
     |                Rational Function Optimizer                |
      ----------------------------------------------------------- 

          ...................................................
          :                      SETUP                      :
          :.................................................:
          :   optimization level             tight          :
          :   max. optcycles                   250          :
          :   ANC micro-cycles                  20          :
          :   degrees of freedom               219          :
          :.................................................:
          :   RF solver                   davidson          :
          :   write xtbopt.log                true          :
          :   linear?                        false          :
          :   energy convergence         0.1000000E-05 Eh   :
          :   grad. convergence          0.8000000E-03 Eh/α :
          :   maxmium RF displ.          1.0000000          :
          :   Hlow (freq-cutoff)         0.1000000E-01      :
          :   Hmax (freq-cutoff)         5.0000000          :
          :   S6 in model hess.         20.0000000          :
          ...................................................

generating ANC from exact Hessian ...
Using Lindh-Hessian (1995)
 Shifting diagonal of input Hessian by    1.1219020375331481E-002
 Lowest  eigenvalues of input Hessian
    0.010000    0.010512    0.000000    0.011129    0.011155    0.000000
    0.000000    0.000000    0.000000    0.000000    0.011285    0.011324
    0.011507    0.011661    0.011711    0.011858    0.011897    0.012000
 Highest eigenvalues
    1.632634    1.897606    1.989615    2.024903    2.250182    2.293259


........................................................................
.............................. CYCLE    1 ..............................
........................................................................

 iter      E             dE          RMSdq      gap      omega  full diag
   1    -95.0443200 -0.950443E+02  0.694E-05    0.38       0.0  T
   2    -95.0443200  0.403588E-11  0.485E-05    0.38     238.1  T
   3    -95.0443200  0.619593E-11  0.376E-05    0.38     307.5  T
     SCC iter.                  ...        0 min,  0.125 sec
     gradient                   ...        0 min,  0.176 sec
 * total energy  :   -93.7529866 Eh     change       -0.3265370E-09 Eh
   gradient norm :     0.0149044 Eh/α   predicted     0.0000000E+00 (-100.00%)
   displ. norm   :     0.3758079 α      lambda       -0.2199323E-02
   maximum displ.:     0.1814474 α      in ANC's #1, #14, #2, ...

........................................................................
.............................. CYCLE    2 ..............................
........................................................................

 iter      E             dE          RMSdq      gap      omega  full diag
   1    -95.0449685 -0.950450E+02  0.105E-01    0.37       0.0  T
   2    -95.0449770 -0.852230E-05  0.731E-02    0.38       1.0  T
   3    -95.0449793 -0.227588E-05  0.407E-02    0.37       1.0  T
   4    -95.0448711  0.108153E-03  0.379E-02    0.39       1.0  T
   5    -95.0449763 -0.105242E-03  0.133E-02    0.36       1.0  T
   6    -95.0449891 -0.127075E-04  0.263E-03    0.37       4.4  T
   7    -95.0449891 -0.736218E-07  0.108E-03    0.37      10.7  T
   8    -95.0449891 -0.176286E-07  0.575E-04    0.37      20.1  T
   9    -95.0449891 -0.304956E-08  0.249E-04    0.37      46.4  T
  10    -95.0449891 -0.913573E-09  0.102E-04    0.37     113.3  T
     SCC iter.                  ...        0 min,  0.448 sec
     gradient                   ...        0 min,  0.142 sec
 * total energy  :   -93.7550006 Eh     change       -0.2013967E-02 Eh
   gradient norm :     0.0070735 Eh/α   predicted    -0.1256076E-02 ( -37.63%)
   displ. norm   :     0.8387164 α      lambda       -0.4321399E-02
   maximum displ.:     0.3371570 α      in ANC's #14, #12, #2, ...

........................................................................
.............................. CYCLE    3 ..............................
........................................................................

 iter      E             dE          RMSdq      gap      omega  full diag
   1    -95.0422469 -0.950422E+02  0.255E-01    0.33       0.0  T
   2    -95.0412560  0.990826E-03  0.209E-01    0.41       1.0  T
   3    -95.0407767  0.479341E-03  0.164E-01    0.28       1.0  T
   4    -95.0418141 -0.103740E-02  0.109E-01    0.40       1.0  T
   5    -95.0425763 -0.762171E-03  0.133E-02    0.34       1.0  T
   6    -95.0425773 -0.104499E-05  0.574E-03    0.34       2.0  T
   7    -95.0425775 -0.194458E-06  0.323E-03    0.34       3.6  T
   8    -95.0425776 -0.116626E-06  0.104E-03    0.34      11.1  T
   9    -95.0425776 -0.165052E-08  0.532E-04    0.34      21.7  T
  10    -95.0425776 -0.358159E-08  0.244E-04    0.34      47.3  T
  11    -95.0425776  0.179398E-09  0.155E-04    0.34      74.3  T
     SCC iter.                  ...        0 min,  0.396 sec
     gradient                   ...        0 min,  0.126 sec
 * total energy  :   -93.7585012 Eh     change       -0.3500580E-02 Eh
   gradient norm :     0.0172902 Eh/α   predicted    -0.3680634E-02 (   5.14%)
   displ. norm   :     0.8224968 α      lambda       -0.3967881E-02
   maximum displ.:     0.3681679 α      in ANC's #1, #12, #14, ...

........................................................................
.............................. CYCLE    4 ..............................
........................................................................

 iter      E             dE          RMSdq      gap      omega  full diag
   1    -95.0301828 -0.950302E+02  0.262E-01    0.34       0.0  T
   2    -95.0213281  0.885475E-02  0.373E-01    0.51       1.0  T
   3    -95.0307483 -0.942027E-02  0.160E-01    0.29       1.0  T
   4    -95.0319316 -0.118332E-02  0.870E-02    0.37       1.0  T
   5    -95.0320510 -0.119408E-03  0.249E-02    0.33       1.0  T
   6    -95.0320880 -0.369876E-04  0.696E-03    0.34       1.7  T
   7    -95.0320883 -0.221633E-06  0.360E-03    0.34       3.2  T
   8    -95.0320885 -0.211763E-06  0.142E-03    0.34       8.1  T
   9    -95.0320885 -0.128598E-08  0.757E-04    0.34      15.2  T
  10    -95.0320885 -0.838334E-08  0.290E-04    0.34      39.8  T
  11    -95.0320885 -0.368289E-09  0.146E-04    0.34      79.3  T
     SCC iter.                  ...        0 min,  0.394 sec
     gradient                   ...        0 min,  0.142 sec
 * total energy  :   -93.7596646 Eh     change       -0.1163435E-02 Eh
   gradient norm :     0.0572208 Eh/α   predicted    -0.3326078E-02 ( 185.88%)
   displ. norm   :     0.4728207 α      lambda       -0.5734971E-02
   maximum displ.:     0.2229592 α      in ANC's #1, #2, #14, ...

........................................................................
.............................. CYCLE    5 ..............................
........................................................................

 iter      E             dE          RMSdq      gap      omega  full diag
   1    -95.0405614 -0.950406E+02  0.195E-01    0.28       0.0  T
   2    -95.0319066  0.865489E-02  0.349E-01    0.17       1.0  T
   3    -95.0407223 -0.881576E-02  0.133E-01    0.40       1.0  T
   4    -95.0416288 -0.906478E-03  0.665E-02    0.33       1.0  T
   5    -95.0414988  0.130016E-03  0.485E-02    0.33       1.0  T
   6    -95.0416545 -0.155761E-03  0.150E-02    0.29       1.0  T
   7    -95.0416609 -0.634316E-05  0.948E-03    0.29       1.2  T
   8    -95.0416628 -0.195562E-05  0.375E-03    0.29       3.1  T
   9    -95.0416632 -0.318241E-06  0.160E-03    0.29       7.2  T
  10    -95.0416632 -0.242070E-07  0.786E-04    0.29      14.7  T
  11    -95.0416632 -0.264415E-07  0.316E-04    0.29      36.5  T
  12    -95.0416632 -0.117352E-08  0.160E-04    0.29      72.1  T
     SCC iter.                  ...        0 min,  0.407 sec
     gradient                   ...        0 min,  0.136 sec
 * total energy  :   -93.7624891 Eh     change       -0.2824491E-02 Eh
   gradient norm :     0.0236898 Eh/α   predicted    -0.3508539E-02 (  24.22%)
   displ. norm   :     0.5058945 α      lambda       -0.3205588E-02
   maximum displ.:     0.1993748 α      in ANC's #14, #2, #12, ...

........................................................................
.............................. CYCLE    6 ..............................
........................................................................

 iter      E             dE          RMSdq      gap      omega  full diag
   1    -95.0461981 -0.950462E+02  0.216E-01    0.26       0.0  T
   2    -95.0455139  0.684156E-03  0.161E-01    0.37       1.0  T
   3    -95.0445897  0.924193E-03  0.156E-01    0.23       1.0  T
   4    -95.0462410 -0.165131E-02  0.679E-02    0.34       1.0  T
   5    -95.0464570 -0.215918E-03  0.227E-02    0.30       1.0  T
   6    -95.0464563  0.638010E-06  0.911E-03    0.29       1.3  T
   7    -95.0464594 -0.308446E-05  0.391E-03    0.29       3.0  T
   8    -95.0464596 -0.244283E-06  0.162E-03    0.29       7.1  T
   9    -95.0464596 -0.776390E-08  0.693E-04    0.29      16.7  T
  10    -95.0464597 -0.429402E-08  0.434E-04    0.29      26.6  T
  11    -95.0464597 -0.521989E-08  0.230E-04    0.29      50.2  T
     SCC iter.                  ...        0 min,  0.307 sec
     gradient                   ...        0 min,  0.127 sec
 * total energy  :   -93.7644337 Eh     change       -0.1944589E-02 Eh
   gradient norm :     0.0211674 Eh/α   predicted    -0.2012997E-02 (   3.52%)
   displ. norm   :     0.6560366 α      lambda       -0.2799672E-02
   maximum displ.:     0.2389133 α      in ANC's #14, #1, #2, ...

........................................................................
.............................. CYCLE    7 ..............................
........................................................................

 iter      E             dE          RMSdq      gap      omega  full diag
   1    -95.0480384 -0.950480E+02  0.175E-01    0.27       0.0  T
   2    -95.0458546  0.218382E-02  0.207E-01    0.37       1.0  T
   3    -95.0471968 -0.134219E-02  0.139E-01    0.22       1.0  T
   4    -95.0483599 -0.116307E-02  0.741E-02    0.33       1.0  T
   5    -95.0485200 -0.160167E-03  0.167E-02    0.29       1.0  T
   6    -95.0485266 -0.657023E-05  0.647E-03    0.28       1.8  T
   7    -95.0485283 -0.171922E-05  0.327E-03    0.28       3.5  T
   8    -95.0485285 -0.193192E-06  0.181E-03    0.28       6.4  T
   9    -95.0485286 -0.448808E-07  0.784E-04    0.28      14.7  T
  10    -95.0485286 -0.411978E-08  0.269E-04    0.28      43.0  T
  11    -95.0485286 -0.301085E-09  0.160E-04    0.28      72.1  T
     SCC iter.                  ...        0 min,  0.397 sec
     gradient                   ...        0 min,  0.175 sec
 * total energy  :   -93.7666862 Eh     change       -0.2252479E-02 Eh
   gradient norm :     0.0143595 Eh/α   predicted    -0.2002303E-02 ( -11.11%)
   displ. norm   :     0.6678129 α      lambda       -0.2565054E-02
   maximum displ.:     0.3157380 α      in ANC's #1, #14, #2, ...

........................................................................
.............................. CYCLE    8 ..............................
........................................................................

 iter      E             dE          RMSdq      gap      omega  full diag
   1    -95.0511197 -0.950511E+02  0.184E-01    0.27       0.0  T
   2    -95.0474636  0.365614E-02  0.245E-01    0.39       1.0  T
   3    -95.0507814 -0.331783E-02  0.135E-01    0.23       1.0  T
   4    -95.0517545 -0.973088E-03  0.760E-02    0.32       1.0  T
   5    -95.0518717 -0.117172E-03  0.158E-02    0.28       1.0  T
   6    -95.0518729 -0.121287E-05  0.749E-03    0.28       1.5  T
   7    -95.0518753 -0.245643E-05  0.397E-03    0.28       2.9  T
   8    -95.0518756 -0.249904E-06  0.200E-03    0.28       5.8  T
   9    -95.0518756 -0.338486E-07  0.861E-04    0.28      13.4  T
  10    -95.0518756 -0.205101E-08  0.362E-04    0.28      31.9  T
  11    -95.0518756 -0.268707E-08  0.204E-04    0.28      56.6  T
     SCC iter.                  ...        0 min,  0.383 sec
     gradient                   ...        0 min,  0.153 sec
 * total energy  :   -93.7684413 Eh     change       -0.1755141E-02 Eh
   gradient norm :     0.0263517 Eh/α   predicted    -0.1854506E-02 (   5.66%)
   displ. norm   :     0.5338580 α      lambda       -0.2037212E-02
   maximum displ.:     0.1702509 α      in ANC's #2, #26, #1, ...

........................................................................
.............................. CYCLE    9 ..............................
........................................................................

 iter      E             dE          RMSdq      gap      omega  full diag
   1    -95.0667674 -0.950668E+02  0.181E-01    0.22       0.0  T
   2    -95.0665467  0.220651E-03  0.144E-01    0.27       1.0  T
   3    -95.0664166  0.130115E-03  0.993E-02    0.31       1.0  T
   4    -95.0665111 -0.945122E-04  0.959E-02    0.22       1.0  T
   5    -95.0670898 -0.578687E-03  0.426E-02    0.28       1.0  T
   6    -95.0671202 -0.303866E-04  0.975E-03    0.27       1.2  T
   7    -95.0671229 -0.269767E-05  0.657E-03    0.25       1.8  T
   8    -95.0671244 -0.150092E-05  0.233E-03    0.26       5.0  T
   9    -95.0671245 -0.107278E-06  0.133E-03    0.26       8.7  T
  10    -95.0671246 -0.994283E-07  0.468E-04    0.26      24.7  T
  11    -95.0671246 -0.478565E-09  0.260E-04    0.26      44.4  T
     SCC iter.                  ...        0 min,  0.396 sec
     gradient                   ...        0 min,  0.137 sec
 * total energy  :   -93.7691770 Eh     change       -0.7356550E-03 Eh
   gradient norm :     0.0204671 Eh/α   predicted    -0.1308913E-02 (  77.92%)
   displ. norm   :     0.5648908 α      lambda       -0.2047204E-02
   maximum displ.:     0.2894821 α      in ANC's #1, #14, #26, ...

........................................................................
.............................. CYCLE   10 ..............................
........................................................................

 iter      E             dE          RMSdq      gap      omega  full diag
   1    -95.0460849 -0.950461E+02  0.212E-01    0.26       0.0  T
   2    -95.0410225  0.506241E-02  0.285E-01    0.39       1.0  T
   3    -95.0451794 -0.415696E-02  0.168E-01    0.20       1.0  T
   4    -95.0466548 -0.147534E-02  0.108E-01    0.33       1.0  T
   5    -95.0469198 -0.264991E-03  0.305E-02    0.28       1.0  T
   6    -95.0469395 -0.196919E-04  0.107E-02    0.26       1.1  T
   7    -95.0469377  0.172392E-05  0.765E-03    0.26       1.5  T
   8    -95.0469402 -0.250271E-05  0.242E-03    0.26       4.8  T
   9    -95.0469403 -0.133765E-07  0.169E-03    0.26       6.8  T
  10    -95.0469404 -0.114755E-06  0.671E-04    0.26      17.2  T
  11    -95.0469404 -0.132006E-07  0.317E-04    0.26      36.4  T
  12    -95.0469404 -0.452204E-09  0.133E-04    0.26      87.0  T
     SCC iter.                  ...        0 min,  0.432 sec
     gradient                   ...        0 min,  0.153 sec
 * total energy  :   -93.7697185 Eh     change       -0.5415126E-03 Eh
   gradient norm :     0.0245633 Eh/α   predicted    -0.1350236E-02 ( 149.35%)
   displ. norm   :     0.1946203 α      lambda       -0.1407930E-02
   maximum displ.:     0.0762865 α      in ANC's #16, #23, #6, ...

........................................................................
.............................. CYCLE   11 ..............................
........................................................................

 iter      E             dE          RMSdq      gap      omega  full diag
   1    -95.0548548 -0.950549E+02  0.113E-01    0.26       0.0  T
   2    -95.0545290  0.325794E-03  0.931E-02    0.22       1.0  T
   3    -95.0540806  0.448395E-03  0.103E-01    0.32       1.0  T
   4    -95.0548707 -0.790042E-03  0.417E-02    0.25       1.0  T
   5    -95.0549203 -0.496402E-04  0.123E-02    0.25       1.0  T
   6    -95.0549225 -0.218719E-05  0.100E-02    0.26       1.2  T
   7    -95.0549267 -0.421575E-05  0.237E-03    0.25       4.9  T
   8    -95.0549269 -0.152165E-06  0.131E-03    0.25       8.8  T
   9    -95.0549269 -0.355129E-07  0.578E-04    0.25      20.0  T
  10    -95.0549269 -0.640931E-08  0.246E-04    0.25      47.0  T
  11    -95.0549269 -0.492946E-09  0.977E-05    0.25     118.1  T
     SCC iter.                  ...        0 min,  0.437 sec
     gradient                   ...        0 min,  0.146 sec
 * total energy  :   -93.7703869 Eh     change       -0.6684331E-03 Eh
   gradient norm :     0.0136318 Eh/α   predicted    -0.7306376E-03 (   9.31%)
   displ. norm   :     0.2610254 α      lambda       -0.6960239E-03
   maximum displ.:     0.0946174 α      in ANC's #16, #1, #2, ...

........................................................................
.............................. CYCLE   12 ..............................
........................................................................

 iter      E             dE          RMSdq      gap      omega  full diag
   1    -95.0599802 -0.950600E+02  0.767E-02    0.25       0.0  T
   2    -95.0599802  0.102508E-07  0.501E-02    0.26       1.0  T
   3    -95.0599697  0.105239E-04  0.287E-02    0.26       1.0  T
   4    -95.0597535  0.216183E-03  0.573E-02    0.23       1.0  T
   5    -95.0600017 -0.248194E-03  0.137E-02    0.26       1.0  T
   6    -95.0600081 -0.638604E-05  0.319E-03    0.25       3.6  T
   7    -95.0600081 -0.106028E-07  0.232E-03    0.25       5.0  T
   8    -95.0600083 -0.226423E-06  0.939E-04    0.25      12.3  T
   9    -95.0600083 -0.172180E-07  0.406E-04    0.25      28.4  T
  10    -95.0600083 -0.553753E-08  0.163E-04    0.25      70.8  T
     SCC iter.                  ...        0 min,  0.435 sec
     gradient                   ...        0 min,  0.177 sec
 * total energy  :   -93.7708745 Eh     change       -0.4875869E-03 Eh
   gradient norm :     0.0097817 Eh/α   predicted    -0.3717249E-03 ( -23.76%)
   displ. norm   :     0.4790055 α      lambda       -0.8226928E-03
   maximum displ.:     0.1829193 α      in ANC's #1, #6, #16, ...

........................................................................
.............................. CYCLE   13 ..............................
........................................................................

 iter      E             dE          RMSdq      gap      omega  full diag
   1    -95.0610251 -0.950610E+02  0.109E-01    0.25       0.0  T
   2    -95.0607550  0.270105E-03  0.911E-02    0.28       1.0  T
   3    -95.0600047  0.750331E-03  0.121E-01    0.20       1.0  T
   4    -95.0609316 -0.926946E-03  0.599E-02    0.30       1.0  T
   5    -95.0610162 -0.846187E-04  0.266E-02    0.28       1.0  T
   6    -95.0610735 -0.572815E-04  0.543E-03    0.26       2.1  T
   7    -95.0610738 -0.272629E-06  0.517E-03    0.25       2.2  T
   8    -95.0610749 -0.113899E-05  0.151E-03    0.25       7.6  T
   9    -95.0610750 -0.103526E-06  0.756E-04    0.25      15.3  T
  10    -95.0610751 -0.181879E-07  0.320E-04    0.25      36.0  T
  11    -95.0610751 -0.305818E-09  0.251E-04    0.25      46.0  T
     SCC iter.                  ...        0 min,  0.495 sec
     gradient                   ...        0 min,  0.169 sec
 * total energy  :   -93.7715525 Eh     change       -0.6780250E-03 Eh
   gradient norm :     0.0115144 Eh/α   predicted    -0.5057310E-03 ( -25.41%)
   displ. norm   :     0.6402306 α      lambda       -0.1028938E-02
   maximum displ.:     0.2733322 α      in ANC's #6, #1, #16, ...

........................................................................
.............................. CYCLE   14 ..............................
........................................................................

 iter      E             dE          RMSdq      gap      omega  full diag
   1    -95.0565207 -0.950565E+02  0.129E-01    0.25       0.0  T
   2    -95.0564531  0.676684E-04  0.864E-02    0.26       1.0  T
   3    -95.0556007  0.852334E-03  0.116E-01    0.20       1.0  T
   4    -95.0560890 -0.488316E-03  0.881E-02    0.31       1.0  T
   5    -95.0565163 -0.427206E-03  0.247E-02    0.27       1.0  T
   6    -95.0565293 -0.130480E-04  0.140E-02    0.26       1.0  T
   7    -95.0565474 -0.181052E-04  0.403E-03    0.25       2.9  T
   8    -95.0565470  0.424635E-06  0.405E-03    0.25       2.8  T
   9    -95.0565477 -0.676872E-06  0.773E-04    0.25      14.9  T
  10    -95.0565477 -0.299652E-08  0.342E-04    0.25      33.7  T
  11    -95.0565477 -0.366917E-08  0.170E-04    0.25      67.9  T
     SCC iter.                  ...        0 min,  0.443 sec
     gradient                   ...        0 min,  0.176 sec
 * total energy  :   -93.7723612 Eh     change       -0.8087056E-03 Eh
   gradient norm :     0.0127589 Eh/α   predicted    -0.7253475E-03 ( -10.31%)
   displ. norm   :     0.5975551 α      lambda       -0.9405075E-03
   maximum displ.:     0.3113854 α      in ANC's #6, #16, #4, ...

........................................................................
.............................. CYCLE   15 ..............................
........................................................................

 iter      E             dE          RMSdq      gap      omega  full diag
   1    -95.0567137 -0.950567E+02  0.115E-01    0.26       0.0  T
   2    -95.0566901  0.236210E-04  0.733E-02    0.25       1.0  T
   3    -95.0558414  0.848646E-03  0.110E-01    0.22       1.0  T
   4    -95.0565184 -0.676986E-03  0.541E-02    0.30       1.0  T
   5    -95.0567372 -0.218754E-03  0.154E-02    0.25       1.0  T
   6    -95.0567374 -0.165975E-06  0.604E-03    0.26       1.9  T
   7    -95.0567398 -0.244463E-05  0.278E-03    0.25       4.2  T
   8    -95.0567401 -0.321577E-06  0.106E-03    0.25      10.9  T
   9    -95.0567401 -0.250992E-07  0.692E-04    0.25      16.7  T
  10    -95.0567402 -0.836238E-08  0.253E-04    0.25      45.6  T
  11    -95.0567402 -0.158828E-08  0.121E-04    0.25      95.7  T
     SCC iter.                  ...        0 min,  0.474 sec
     gradient                   ...        0 min,  0.173 sec
 * total energy  :   -93.7730619 Eh     change       -0.7006389E-03 Eh
   gradient norm :     0.0155969 Eh/α   predicted    -0.6381696E-03 (  -8.92%)
   displ. norm   :     0.5533794 α      lambda       -0.9608312E-03
   maximum displ.:     0.3091070 α      in ANC's #6, #4, #16, ...

........................................................................
.............................. CYCLE   16 ..............................
........................................................................

 iter      E             dE          RMSdq      gap      omega  full diag
   1    -95.0556060 -0.950556E+02  0.104E-01    0.26       0.0  T
   2    -95.0555263  0.797028E-04  0.728E-02    0.23       1.0  T
   3    -95.0549273  0.599038E-03  0.102E-01    0.31       1.0  T
   4    -95.0554630 -0.535708E-03  0.480E-02    0.24       1.0  T
   5    -95.0556065 -0.143559E-03  0.157E-02    0.26       1.0  T
   6    -95.0556249 -0.183818E-04  0.453E-03    0.25       2.5  T
   7    -95.0556243  0.623694E-06  0.352E-03    0.25       3.3  T
   8    -95.0556249 -0.672730E-06  0.100E-03    0.25      11.5  T
   9    -95.0556249  0.185433E-07  0.770E-04    0.25      15.0  T
  10    -95.0556250 -0.358151E-07  0.319E-04    0.25      36.1  T
  11    -95.0556250 -0.290430E-08  0.224E-04    0.25      51.4  T
     SCC iter.                  ...        0 min,  0.487 sec
     gradient                   ...        0 min,  0.207 sec
 * total energy  :   -93.7737531 Eh     change       -0.6912745E-03 Eh
   gradient norm :     0.0129241 Eh/α   predicted    -0.6275342E-03 (  -9.22%)
   displ. norm   :     0.5158707 α      lambda       -0.9997960E-03
   maximum displ.:     0.3238026 α      in ANC's #6, #4, #16, ...

........................................................................
.............................. CYCLE   17 ..............................
........................................................................

 iter      E             dE          RMSdq      gap      omega  full diag
   1    -95.0607605 -0.950608E+02  0.854E-02    0.27       0.0  T
   2    -95.0607411  0.193632E-04  0.591E-02    0.23       1.0  T
   3    -95.0605468  0.194354E-03  0.662E-02    0.29       1.0  T
   4    -95.0605225  0.242280E-04  0.535E-02    0.23       1.0  T
   5    -95.0607600 -0.237420E-03  0.166E-02    0.26       1.0  T
   6    -95.0607773 -0.173485E-04  0.336E-03    0.25       3.4  T
   7    -95.0607774 -0.816583E-07  0.277E-03    0.25       4.2  T
   8    -95.0607777 -0.274955E-06  0.132E-03    0.25       8.8  T
   9    -95.0607777 -0.331246E-07  0.459E-04    0.25      25.1  T
  10    -95.0607777  0.317094E-08  0.291E-04    0.25      39.7  T
     SCC iter.                  ...        0 min,  0.367 sec
     gradient                   ...        0 min,  0.169 sec
 * total energy  :   -93.7744604 Eh     change       -0.7072186E-03 Eh
   gradient norm :     0.0140227 Eh/α   predicted    -0.6329336E-03 ( -10.50%)
   displ. norm   :     0.5270092 α      lambda       -0.7732441E-03
   maximum displ.:     0.3281464 α      in ANC's #6, #4, #16, ...

........................................................................
.............................. CYCLE   18 ..............................
........................................................................

 iter      E             dE          RMSdq      gap      omega  full diag
   1    -95.0621484 -0.950621E+02  0.871E-02    0.25       0.0  T
   2    -95.0620896  0.587940E-04  0.581E-02    0.23       1.0  T
   3    -95.0611850  0.904646E-03  0.110E-01    0.31       1.0  T
   4    -95.0621566 -0.971644E-03  0.158E-02    0.25       1.0  T
   5    -95.0621601 -0.348321E-05  0.511E-03    0.25       2.3  T
   6    -95.0621609 -0.829698E-06  0.323E-03    0.25       3.6  T
   7    -95.0621614 -0.419969E-06  0.160E-03    0.25       7.2  T
   8    -95.0621614 -0.569272E-07  0.533E-04    0.25      21.7  T
   9    -95.0621614  0.580587E-08  0.372E-04    0.25      31.0  T
  10    -95.0621614 -0.670973E-08  0.230E-04    0.25      50.3  T
     SCC iter.                  ...        0 min,  0.403 sec
     gradient                   ...        0 min,  0.172 sec
 * total energy  :   -93.7750512 Eh     change       -0.5908282E-03 Eh
   gradient norm :     0.0106019 Eh/α   predicted    -0.4940027E-03 ( -16.39%)
   displ. norm   :     0.5341011 α      lambda       -0.9156913E-03
   maximum displ.:     0.3389033 α      in ANC's #6, #4, #42, ...

........................................................................
.............................. CYCLE   19 ..............................
........................................................................

 iter      E             dE          RMSdq      gap      omega  full diag
   1    -95.0683643 -0.950684E+02  0.888E-02    0.22       0.0  T
   2    -95.0683688 -0.445434E-05  0.647E-02    0.26       1.0  T
   3    -95.0683923 -0.234637E-04  0.397E-02    0.23       1.0  T
   4    -95.0683738  0.184394E-04  0.293E-02    0.23       1.0  T
   5    -95.0683544  0.193854E-04  0.249E-02    0.25       1.0  T
   6    -95.0684034 -0.489711E-04  0.612E-03    0.24       1.9  T
   7    -95.0684055 -0.209633E-05  0.160E-03    0.24       7.2  T
   8    -95.0684055 -0.995553E-08  0.107E-03    0.24      10.8  T
   9    -95.0684056 -0.573246E-07  0.324E-04    0.24      35.6  T
  10    -95.0684056 -0.128890E-08  0.158E-04    0.24      73.0  T
     SCC iter.                  ...        0 min,  0.415 sec
     gradient                   ...        0 min,  0.169 sec
 * total energy  :   -93.7755501 Eh     change       -0.4988820E-03 Eh
   gradient norm :     0.0119788 Eh/α   predicted    -0.5884545E-03 (  17.95%)
   displ. norm   :     0.6313382 α      lambda       -0.9441785E-03
   maximum displ.:     0.3795575 α      in ANC's #6, #4, #1, ...

........................................................................
.............................. CYCLE   20 ..............................
........................................................................

 iter      E             dE          RMSdq      gap      omega  full diag
   1    -95.0544102 -0.950544E+02  0.146E-01    0.25       0.0  T
   2    -95.0487297  0.568044E-02  0.279E-01    0.36       1.0  T
   3    -95.0552755 -0.654576E-02  0.785E-02    0.22       1.0  T
   4    -95.0552919 -0.164236E-04  0.652E-02    0.28       1.0  T
   5    -95.0553921 -0.100191E-03  0.194E-02    0.24       1.0  T
   6    -95.0553916  0.484487E-06  0.982E-03    0.24       1.2  T
   7    -95.0553933 -0.168139E-05  0.293E-03    0.24       3.9  T
   8    -95.0553934 -0.682336E-07  0.197E-03    0.24       5.9  T
   9    -95.0553936 -0.197630E-06  0.781E-04    0.24      14.8  T
  10    -95.0553936 -0.423281E-07  0.241E-04    0.24      47.9  T
  11    -95.0553936 -0.928708E-09  0.970E-05    0.24     119.1  T
     SCC iter.                  ...        0 min,  0.478 sec
     gradient                   ...        0 min,  0.179 sec
 * total energy  :   -93.7758283 Eh     change       -0.2782455E-03 Eh
   gradient norm :     0.0301990 Eh/α   predicted    -0.6602602E-03 ( 137.29%)
   displ. norm   :     0.3479768 α      lambda       -0.1317830E-02
   maximum displ.:     0.1390612 α      in ANC's #12, #14, #6, ...
 * RMSD in coord.:     0.8979984 α      energy gain  -0.2284169E-01 Eh

generating ANC from exact Hessian ...
Using Lindh-Hessian (1995)
 Shifting diagonal of input Hessian by    1.0161178740297131E-002
 Lowest  eigenvalues of input Hessian
    0.010000    0.000000    0.000000    0.000000    0.000000    0.000000
    0.000000    0.010216    0.010223    0.010279    0.010333    0.010398
    0.010426    0.010660    0.010707    0.010827    0.010946    0.010981
 Highest eigenvalues
    1.627435    1.896178    1.986221    2.022585    2.255282    2.324574


........................................................................
.............................. CYCLE   21 ..............................
........................................................................

 iter      E             dE          RMSdq      gap      omega  full diag
   1    -95.0690295 -0.950690E+02  0.135E-01    0.22       0.0  T
   2    -95.0542077  0.148218E-01  0.435E-01    0.12       1.0  T
   3    -95.0695493 -0.153416E-01  0.128E-01    0.28       1.0  T
   4    -95.0697766 -0.227341E-03  0.631E-02    0.26       1.0  T
   5    -95.0699311 -0.154481E-03  0.384E-02    0.25       1.0  T
   6    -95.0699622 -0.310643E-04  0.103E-02    0.24       1.1  T
   7    -95.0699637 -0.157708E-05  0.472E-03    0.23       2.4  T
   8    -95.0699641 -0.402099E-06  0.247E-03    0.23       4.7  T
   9    -95.0699643 -0.156413E-06  0.183E-03    0.23       6.3  T
  10    -95.0699642  0.457776E-07  0.140E-03    0.23       8.2  T
  11    -95.0699644 -0.125598E-06  0.358E-04    0.23      32.2  T
  12    -95.0699644 -0.243935E-08  0.118E-04    0.23      98.2  T
     SCC iter.                  ...        0 min,  0.488 sec
     gradient                   ...        0 min,  0.159 sec
 * total energy  :   -93.7758144 Eh     change        0.1389697E-04 Eh
   gradient norm :     0.0242607 Eh/α   predicted     0.0000000E+00 (-100.00%)
   displ. norm   :     0.1868839 α      lambda       -0.1861472E-02
   maximum displ.:     0.0687288 α      in ANC's #42, #70, #29, ...

........................................................................
.............................. CYCLE   22 ..............................
........................................................................

 iter      E             dE          RMSdq      gap      omega  full diag
   1    -95.0648606 -0.950649E+02  0.138E-01    0.23       0.0  T
   2    -95.0632102  0.165040E-02  0.163E-01    0.31       1.0  T
   3    -95.0635376 -0.327331E-03  0.159E-01    0.18       1.0  T
   4    -95.0648436 -0.130607E-02  0.942E-02    0.28       1.0  T
   5    -95.0650356 -0.191976E-03  0.375E-02    0.27       1.0  T
   6    -95.0650966 -0.609902E-04  0.118E-02    0.24       1.0  T
   7    -95.0650996 -0.297049E-05  0.775E-03    0.23       1.5  T
   8    -95.0651012 -0.168338E-05  0.286E-03    0.23       4.0  T
   9    -95.0651016 -0.400307E-06  0.138E-03    0.23       8.4  T
  10    -95.0651017 -0.750128E-07  0.724E-04    0.23      15.9  T
  11    -95.0651017 -0.925036E-08  0.246E-04    0.23      46.9  T
  12    -95.0651017  0.295873E-08  0.347E-04    0.23      33.3  T
     SCC iter.                  ...        0 min,  0.473 sec
     gradient                   ...        0 min,  0.147 sec
 * total energy  :   -93.7759486 Eh     change       -0.1341460E-03 Eh
   gradient norm :     0.0172054 Eh/α   predicted    -0.9632973E-03 ( 618.10%)
   displ. norm   :     0.1432066 α      lambda       -0.1309198E-02
   maximum displ.:     0.0442127 α      in ANC's #15, #50, #23, ...

........................................................................
.............................. CYCLE   23 ..............................
........................................................................

 iter      E             dE          RMSdq      gap      omega  full diag
   1    -95.0650397 -0.950650E+02  0.914E-02    0.24       0.0  T
   2    -95.0650363  0.338929E-05  0.566E-02    0.23       1.0  T
   3    -95.0648736  0.162747E-03  0.627E-02    0.26       1.0  T
   4    -95.0646206  0.252974E-03  0.767E-02    0.20       1.0  T
   5    -95.0650459 -0.425316E-03  0.141E-02    0.25       1.0  T
   6    -95.0650489 -0.300329E-05  0.867E-03    0.24       1.3  T
   7    -95.0650545 -0.558164E-05  0.378E-03    0.23       3.1  T
   8    -95.0650552 -0.716209E-06  0.146E-03    0.24       7.9  T
   9    -95.0650553 -0.606137E-07  0.487E-04    0.24      23.7  T
  10    -95.0650553  0.261134E-07  0.601E-04    0.24      19.2  T
  11    -95.0650553 -0.268712E-07  0.134E-04    0.24      86.5  T
     SCC iter.                  ...        0 min,  0.484 sec
     gradient                   ...        0 min,  0.163 sec
 * total energy  :   -93.7764689 Eh     change       -0.5203925E-03 Eh
   gradient norm :     0.0085781 Eh/α   predicted    -0.6680246E-03 (  28.37%)
   displ. norm   :     0.1978219 α      lambda       -0.1059018E-02
   maximum displ.:     0.0632110 α      in ANC's #23, #25, #70, ...

........................................................................
.............................. CYCLE   24 ..............................
........................................................................

 iter      E             dE          RMSdq      gap      omega  full diag
   1    -95.0647280 -0.950647E+02  0.115E-01    0.24       0.0  T
   2    -95.0647208  0.727095E-05  0.699E-02    0.23       1.0  T
   3    -95.0641387  0.582056E-03  0.949E-02    0.29       1.0  T
   4    -95.0645467 -0.407959E-03  0.541E-02    0.22       1.0  T
   5    -95.0647379 -0.191217E-03  0.170E-02    0.25       1.0  T
   6    -95.0647486 -0.107750E-04  0.770E-03    0.24       1.5  T
   7    -95.0647493 -0.622088E-06  0.556E-03    0.23       2.1  T
   8    -95.0647513 -0.203703E-05  0.151E-03    0.24       7.7  T
   9    -95.0647513  0.916455E-08  0.907E-04    0.24      12.7  T
  10    -95.0647513 -0.255472E-07  0.268E-04    0.24      43.2  T
  11    -95.0647513 -0.298414E-09  0.155E-04    0.24      74.6  T
     SCC iter.                  ...        0 min,  0.384 sec
     gradient                   ...        0 min,  0.170 sec
 * total energy  :   -93.7758747 Eh     change        0.5942241E-03 Eh
   gradient norm :     0.0183087 Eh/α   predicted    -0.5502313E-03 (-192.60%)
   displ. norm   :     0.1227840 α      lambda       -0.1631778E-02
   maximum displ.:     0.0394487 α      in ANC's #25, #70, #42, ...

........................................................................
.............................. CYCLE   25 ..............................
........................................................................

 iter      E             dE          RMSdq      gap      omega  full diag
   1    -95.0664261 -0.950664E+02  0.836E-02    0.23       0.0  T
   2    -95.0664228  0.334740E-05  0.501E-02    0.23       1.0  T
   3    -95.0661240  0.298766E-03  0.656E-02    0.26       1.0  T
   4    -95.0662459 -0.121837E-03  0.550E-02    0.21       1.0  T
   5    -95.0664326 -0.186701E-03  0.176E-02    0.24       1.0  T
   6    -95.0664390 -0.647364E-05  0.676E-03    0.24       1.7  T
   7    -95.0664417 -0.270256E-05  0.256E-03    0.23       4.5  T
   8    -95.0664419 -0.187652E-06  0.121E-03    0.24       9.6  T
   9    -95.0664420 -0.414809E-07  0.528E-04    0.24      21.9  T
  10    -95.0664419  0.246814E-07  0.646E-04    0.24      17.9  T
  11    -95.0664420 -0.287257E-07  0.116E-04    0.24      99.6  T
  12    -95.0664420  0.817408E-10  0.743E-05    0.24     155.4  T
     SCC iter.                  ...        0 min,  0.511 sec
     gradient                   ...        0 min,  0.148 sec
 * total energy  :   -93.7767226 Eh     change       -0.8479008E-03 Eh
   gradient norm :     0.0029123 Eh/α   predicted    -0.8281978E-03 (  -2.32%)
   displ. norm   :     0.0962470 α      lambda       -0.1437137E-03
   maximum displ.:     0.0337194 α      in ANC's #1, #5, #3, ...

........................................................................
.............................. CYCLE   26 ..............................
........................................................................

 iter      E             dE          RMSdq      gap      omega  full diag
   1    -95.0660572 -0.950661E+02  0.406E-02    0.23       0.0  T
   2    -95.0660281  0.290795E-04  0.340E-02    0.24       1.0  T
   3    -95.0659101  0.117989E-03  0.474E-02    0.21       1.0  T
   4    -95.0660454 -0.135226E-03  0.235E-02    0.25       1.0  T
   5    -95.0660624 -0.170717E-04  0.885E-03    0.24       1.3  T
   6    -95.0660669 -0.444631E-05  0.262E-03    0.24       4.4  T
   7    -95.0660671 -0.197046E-06  0.125E-03    0.23       9.2  T
   8    -95.0660671  0.350387E-08  0.712E-04    0.24      16.2  T
   9    -95.0660671 -0.252432E-07  0.413E-04    0.24      28.0  T
  10    -95.0660671 -0.843112E-08  0.132E-04    0.24      87.5  T
     SCC iter.                  ...        0 min,  0.397 sec
     gradient                   ...        0 min,  0.186 sec
 * total energy  :   -93.7767577 Eh     change       -0.3509608E-04 Eh
   gradient norm :     0.0045185 Eh/α   predicted    -0.7252586E-04 ( 106.65%)
   displ. norm   :     0.1229895 α      lambda       -0.1540687E-03
   maximum displ.:     0.0459599 α      in ANC's #1, #5, #13, ...

........................................................................
.............................. CYCLE   27 ..............................
........................................................................

 iter      E             dE          RMSdq      gap      omega  full diag
   1    -95.0657747 -0.950658E+02  0.287E-02    0.24       0.0  T
   2    -95.0657400  0.346366E-04  0.259E-02    0.25       1.0  T
   3    -95.0656669  0.731130E-04  0.401E-02    0.22       1.0  T
   4    -95.0657772 -0.110235E-03  0.139E-02    0.24       1.0  T
   5    -95.0657792 -0.199203E-05  0.538E-03    0.24       2.1  T
   6    -95.0657808 -0.167889E-05  0.140E-03    0.24       8.2  T
   7    -95.0657808  0.326007E-07  0.105E-03    0.24      11.0  T
   8    -95.0657809 -0.465144E-07  0.323E-04    0.24      35.7  T
   9    -95.0657809 -0.131521E-09  0.166E-04    0.24      69.6  T
     SCC iter.                  ...        0 min,  0.413 sec
     gradient                   ...        0 min,  0.163 sec
 * total energy  :   -93.7768839 Eh     change       -0.1261767E-03 Eh
   gradient norm :     0.0032755 Eh/α   predicted    -0.7820087E-04 ( -38.02%)
   displ. norm   :     0.3890271 α      lambda       -0.3115105E-03
   maximum displ.:     0.1432673 α      in ANC's #1, #5, #13, ...

........................................................................
.............................. CYCLE   28 ..............................
........................................................................

 iter      E             dE          RMSdq      gap      omega  full diag
   1    -95.0647163 -0.950647E+02  0.668E-02    0.24       0.0  T
   2    -95.0647025  0.137779E-04  0.418E-02    0.25       1.0  T
   3    -95.0642688  0.433698E-03  0.792E-02    0.20       1.0  T
   4    -95.0646670 -0.398208E-03  0.379E-02    0.26       1.0  T
   5    -95.0647055 -0.384972E-04  0.150E-02    0.25       1.0  T
   6    -95.0647235 -0.179326E-04  0.255E-03    0.24       4.5  T
   7    -95.0647235  0.109601E-07  0.234E-03    0.24       4.9  T
   8    -95.0647234  0.389788E-08  0.128E-03    0.24       9.0  T
   9    -95.0647235 -0.100116E-06  0.368E-04    0.24      31.3  T
  10    -95.0647235  0.294888E-08  0.303E-04    0.24      38.1  T
     SCC iter.                  ...        0 min,  0.379 sec
     gradient                   ...        0 min,  0.161 sec
 * total energy  :   -93.7771023 Eh     change       -0.2184257E-03 Eh
   gradient norm :     0.0055168 Eh/α   predicted    -0.1793237E-03 ( -17.90%)
   displ. norm   :     0.4053265 α      lambda       -0.2235724E-03
   maximum displ.:     0.1551290 α      in ANC's #1, #5, #3, ...

........................................................................
.............................. CYCLE   29 ..............................
........................................................................

 iter      E             dE          RMSdq      gap      omega  full diag
   1    -95.0635509 -0.950636E+02  0.693E-02    0.24       0.0  T
   2    -95.0634603  0.906092E-04  0.549E-02    0.25       1.0  T
   3    -95.0628820  0.578370E-03  0.989E-02    0.20       1.0  T
   4    -95.0635108 -0.628849E-03  0.434E-02    0.27       1.0  T
   5    -95.0635443 -0.334843E-04  0.192E-02    0.25       1.0  T
   6    -95.0635700 -0.256960E-04  0.357E-03    0.24       3.2  T
   7    -95.0635703 -0.334461E-06  0.228E-03    0.24       5.1  T
   8    -95.0635702  0.972636E-07  0.150E-03    0.24       7.7  T
   9    -95.0635704 -0.177776E-06  0.464E-04    0.24      24.9  T
  10    -95.0635704 -0.371563E-08  0.349E-04    0.24      33.1  T
     SCC iter.                  ...        0 min,  0.395 sec
     gradient                   ...        0 min,  0.167 sec
 * total energy  :   -93.7772488 Eh     change       -0.1464427E-03 Eh
   gradient norm :     0.0065751 Eh/α   predicted    -0.1301556E-03 ( -11.12%)
   displ. norm   :     0.3665530 α      lambda       -0.2079147E-03
   maximum displ.:     0.1368269 α      in ANC's #5, #1, #8, ...

........................................................................
.............................. CYCLE   30 ..............................
........................................................................

 iter      E             dE          RMSdq      gap      omega  full diag
   1    -95.0642730 -0.950643E+02  0.519E-02    0.23       0.0  T
   2    -95.0642623  0.107888E-04  0.344E-02    0.24       1.0  T
   3    -95.0641351  0.127111E-03  0.437E-02    0.25       1.0  T
   4    -95.0641604 -0.252579E-04  0.466E-02    0.21       1.0  T
   5    -95.0642812 -0.120744E-03  0.118E-02    0.24       1.0  T
   6    -95.0642833 -0.213559E-05  0.293E-03    0.24       3.9  T
   7    -95.0642836 -0.344129E-06  0.170E-03    0.23       6.8  T
   8    -95.0642838 -0.172090E-06  0.537E-04    0.24      21.5  T
   9    -95.0642838 -0.728046E-08  0.222E-04    0.24      52.1  T
  10    -95.0642838 -0.127778E-08  0.112E-04    0.24     103.4  T
     SCC iter.                  ...        0 min,  0.448 sec
     gradient                   ...        0 min,  0.163 sec
 * total energy  :   -93.7773999 Eh     change       -0.1511445E-03 Eh
   gradient norm :     0.0042889 Eh/α   predicted    -0.1179230E-03 ( -21.98%)
   displ. norm   :     0.3447111 α      lambda       -0.2073973E-03
   maximum displ.:     0.1376425 α      in ANC's #5, #1, #4, ...

........................................................................
.............................. CYCLE   31 ..............................
........................................................................

 iter      E             dE          RMSdq      gap      omega  full diag
   1    -95.0677012 -0.950677E+02  0.505E-02    0.23       0.0  T
   2    -95.0677026 -0.142889E-05  0.321E-02    0.23       1.0  T
   3    -95.0676966  0.609855E-05  0.220E-02    0.23       1.0  T
   4    -95.0676254  0.711616E-04  0.313E-02    0.22       1.0  T
   5    -95.0677026 -0.772329E-04  0.899E-03    0.24       1.3  T
   6    -95.0677053 -0.263349E-05  0.189E-03    0.23       6.1  T
   7    -95.0677053 -0.652947E-07  0.672E-04    0.23      17.2  T
   8    -95.0677053  0.423225E-08  0.426E-04    0.23      27.1  T
   9    -95.0677053 -0.474387E-08  0.245E-04    0.23      47.1  T
     SCC iter.                  ...        0 min,  0.362 sec
     gradient                   ...        0 min,  0.130 sec
 * total energy  :   -93.7775447 Eh     change       -0.1447478E-03 Eh
   gradient norm :     0.0033881 Eh/α   predicted    -0.1160220E-03 ( -19.85%)
   displ. norm   :     0.4159648 α      lambda       -0.1459432E-03
   maximum displ.:     0.1663480 α      in ANC's #5, #1, #4, ...

........................................................................
.............................. CYCLE   32 ..............................
........................................................................

 iter      E             dE          RMSdq      gap      omega  full diag
   1    -95.0666331 -0.950666E+02  0.582E-02    0.23       0.0  T
   2    -95.0665445  0.886077E-04  0.502E-02    0.25       1.0  T
   3    -95.0661739  0.370551E-03  0.845E-02    0.20       1.0  T
   4    -95.0666230 -0.449109E-03  0.319E-02    0.25       1.0  T
   5    -95.0666169  0.611196E-05  0.185E-02    0.24       1.0  T
   6    -95.0666446 -0.276635E-04  0.424E-03    0.23       2.7  T
   7    -95.0666452 -0.659539E-06  0.169E-03    0.23       6.9  T
   8    -95.0666453 -0.183221E-07  0.864E-04    0.23      13.4  T
   9    -95.0666453 -0.433418E-07  0.316E-04    0.23      36.5  T
  10    -95.0666453 -0.916529E-09  0.210E-04    0.23      54.9  T
     SCC iter.                  ...        0 min,  0.358 sec
     gradient                   ...        0 min,  0.160 sec
 * total energy  :   -93.7776472 Eh     change       -0.1025794E-03 Eh
   gradient norm :     0.0034956 Eh/α   predicted    -0.8559767E-04 ( -16.55%)
   displ. norm   :     0.3503683 α      lambda       -0.1615076E-03
   maximum displ.:     0.1422847 α      in ANC's #5, #4, #1, ...

........................................................................
.............................. CYCLE   33 ..............................
........................................................................

 iter      E             dE          RMSdq      gap      omega  full diag
   1    -95.0701622 -0.950702E+02  0.521E-02    0.22       0.0  T
   2    -95.0700222  0.139957E-03  0.500E-02    0.22       1.0  T
   3    -95.0698890  0.133209E-03  0.657E-02    0.26       1.0  T
   4    -95.0701802 -0.291239E-03  0.235E-02    0.22       1.0  T
   5    -95.0701911 -0.108640E-04  0.733E-03    0.23       1.6  T
   6    -95.0701914 -0.351518E-06  0.236E-03    0.23       4.9  T
   7    -95.0701916 -0.132748E-06  0.581E-04    0.23      19.9  T
   8    -95.0701916 -0.206902E-08  0.332E-04    0.23      34.8  T
   9    -95.0701916 -0.308361E-09  0.137E-04    0.23      84.0  T
     SCC iter.                  ...        0 min,  0.280 sec
     gradient                   ...        0 min,  0.119 sec
 * total energy  :   -93.7777550 Eh     change       -0.1077579E-03 Eh
   gradient norm :     0.0081043 Eh/α   predicted    -0.9066750E-04 ( -15.86%)
   displ. norm   :     0.4031607 α      lambda       -0.1775768E-03
   maximum displ.:     0.1650297 α      in ANC's #5, #4, #1, ...

........................................................................
.............................. CYCLE   34 ..............................
........................................................................

 iter      E             dE          RMSdq      gap      omega  full diag
   1    -95.0689840 -0.950690E+02  0.640E-02    0.23       0.0  T
   2    -95.0688037  0.180334E-03  0.591E-02    0.25       1.0  T
   3    -95.0682834  0.520261E-03  0.104E-01    0.19       1.0  T
   4    -95.0689692 -0.685793E-03  0.382E-02    0.24       1.0  T
   5    -95.0689986 -0.294562E-04  0.162E-02    0.24       1.0  T
   6    -95.0690100 -0.113107E-04  0.526E-03    0.23       2.2  T
   7    -95.0690110 -0.102836E-05  0.135E-03    0.23       8.5  T
   8    -95.0690110 -0.648627E-07  0.746E-04    0.23      15.5  T
   9    -95.0690110  0.286317E-08  0.413E-04    0.23      28.0  T
  10    -95.0690110 -0.613244E-08  0.290E-04    0.23      39.9  T
     SCC iter.                  ...        0 min,  0.321 sec
     gradient                   ...        0 min,  0.146 sec
 * total energy  :   -93.7778665 Eh     change       -0.1115438E-03 Eh
   gradient norm :     0.0039005 Eh/α   predicted    -0.1032225E-03 (  -7.46%)
   displ. norm   :     0.3762085 α      lambda       -0.1860936E-03
   maximum displ.:     0.1536666 α      in ANC's #4, #5, #2, ...

........................................................................
.............................. CYCLE   35 ..............................
........................................................................

 iter      E             dE          RMSdq      gap      omega  full diag
   1    -95.0678341 -0.950678E+02  0.645E-02    0.23       0.0  T
   2    -95.0678303  0.375437E-05  0.397E-02    0.22       1.0  T
   3    -95.0677114  0.118920E-03  0.504E-02    0.26       1.0  T
   4    -95.0677251 -0.137267E-04  0.407E-02    0.21       1.0  T
   5    -95.0678312 -0.106104E-03  0.932E-03    0.23       1.2  T
   6    -95.0678372 -0.594351E-05  0.181E-03    0.23       6.4  T
   7    -95.0678372 -0.668130E-08  0.181E-03    0.23       6.4  T
   8    -95.0678373 -0.100502E-06  0.808E-04    0.23      14.3  T
   9    -95.0678373 -0.509086E-07  0.331E-04    0.23      34.9  T
  10    -95.0678373 -0.547384E-08  0.793E-05    0.23     145.6  T
     SCC iter.                  ...        0 min,  0.364 sec
     gradient                   ...        0 min,  0.143 sec
 * total energy  :   -93.7780083 Eh     change       -0.1417972E-03 Eh
   gradient norm :     0.0032768 Eh/α   predicted    -0.1062168E-03 ( -25.09%)
   displ. norm   :     0.4325462 α      lambda       -0.2235928E-03
   maximum displ.:     0.1845021 α      in ANC's #4, #2, #5, ...

........................................................................
.............................. CYCLE   36 ..............................
........................................................................

 iter      E             dE          RMSdq      gap      omega  full diag
   1    -95.0668448 -0.950668E+02  0.794E-02    0.23       0.0  T
   2    -95.0668446  0.190169E-06  0.473E-02    0.23       1.0  T
   3    -95.0667419  0.102733E-03  0.471E-02    0.26       1.0  T
   4    -95.0667601 -0.182590E-04  0.350E-02    0.22       1.0  T
   5    -95.0668454 -0.852845E-04  0.534E-03    0.23       2.2  T
   6    -95.0668473 -0.186412E-05  0.139E-03    0.23       8.3  T
   7    -95.0668471  0.142474E-06  0.145E-03    0.23       8.0  T
   8    -95.0668473 -0.144893E-06  0.460E-04    0.23      25.1  T
   9    -95.0668473 -0.899968E-08  0.348E-04    0.23      33.1  T
     SCC iter.                  ...        0 min,  0.291 sec
     gradient                   ...        0 min,  0.135 sec
 * total energy  :   -93.7781842 Eh     change       -0.1759081E-03 Eh
   gradient norm :     0.0040036 Eh/α   predicted    -0.1327141E-03 ( -24.55%)
   displ. norm   :     0.4856350 α      lambda       -0.2544434E-03
   maximum displ.:     0.2074379 α      in ANC's #4, #2, #5, ...

........................................................................
.............................. CYCLE   37 ..............................
........................................................................

 iter      E             dE          RMSdq      gap      omega  full diag
   1    -95.0662925 -0.950663E+02  0.885E-02    0.24       0.0  T
   2    -95.0662630  0.294605E-04  0.561E-02    0.24       1.0  T
   3    -95.0650423  0.122070E-02  0.126E-01    0.19       1.0  T
   4    -95.0662567 -0.121440E-02  0.459E-02    0.26       1.0  T
   5    -95.0662846 -0.278566E-04  0.165E-02    0.24       1.0  T
   6    -95.0663001 -0.154983E-04  0.565E-03    0.24       2.0  T
   7    -95.0663016 -0.155514E-05  0.157E-03    0.23       7.3  T
   8    -95.0663016  0.109851E-08  0.897E-04    0.23      12.9  T
   9    -95.0663017 -0.368202E-07  0.406E-04    0.23      28.4  T
  10    -95.0663017 -0.164775E-08  0.244E-04    0.23      47.3  T
     SCC iter.                  ...        0 min,  0.338 sec
     gradient                   ...        0 min,  0.148 sec
 * total energy  :   -93.7783717 Eh     change       -0.1874902E-03 Eh
   gradient norm :     0.0066169 Eh/α   predicted    -0.1572249E-03 ( -16.14%)
   displ. norm   :     0.4681108 α      lambda       -0.2530047E-03
   maximum displ.:     0.2062034 α      in ANC's #4, #2, #5, ...

........................................................................
.............................. CYCLE   38 ..............................
........................................................................

 iter      E             dE          RMSdq      gap      omega  full diag
   1    -95.0631582 -0.950632E+02  0.726E-02    0.24       0.0  T
   2    -95.0631602 -0.200005E-05  0.430E-02    0.24       1.0  T
   3    -95.0631574  0.275653E-05  0.228E-02    0.23       1.0  T
   4    -95.0631543  0.312788E-05  0.101E-02    0.24       1.1  T
   5    -95.0631585 -0.423873E-05  0.563E-03    0.23       2.0  T
   6    -95.0631608 -0.221655E-05  0.173E-03    0.24       6.7  T
   7    -95.0631609 -0.116150E-06  0.985E-04    0.23      11.7  T
   8    -95.0631609 -0.257647E-07  0.501E-04    0.23      23.1  T
   9    -95.0631609 -0.107025E-07  0.262E-04    0.24      44.1  T
  10    -95.0631609 -0.493172E-08  0.604E-05    0.24     191.1  T
     SCC iter.                  ...        0 min,  0.301 sec
     gradient                   ...        0 min,  0.140 sec
 * total energy  :   -93.7785412 Eh     change       -0.1694155E-03 Eh
   gradient norm :     0.0076261 Eh/α   predicted    -0.1542260E-03 (  -8.97%)
   displ. norm   :     0.4203679 α      lambda       -0.3299876E-03
   maximum displ.:     0.1451787 α      in ANC's #14, #4, #7, ...

........................................................................
.............................. CYCLE   39 ..............................
........................................................................

 iter      E             dE          RMSdq      gap      omega  full diag
   1    -95.0719035 -0.950719E+02  0.714E-02    0.24       0.0  T
   2    -95.0718874  0.160701E-04  0.457E-02    0.23       1.0  T
   3    -95.0714678  0.419557E-03  0.805E-02    0.29       1.0  T
   4    -95.0718846 -0.416728E-03  0.217E-02    0.24       1.0  T
   5    -95.0719008 -0.162448E-04  0.107E-02    0.25       1.1  T
   6    -95.0719103 -0.948462E-05  0.237E-03    0.24       4.9  T
   7    -95.0719104 -0.126593E-06  0.122E-03    0.24       9.4  T
   8    -95.0719104  0.367629E-07  0.124E-03    0.24       9.3  T
   9    -95.0719105 -0.589688E-07  0.490E-04    0.24      23.5  T
  10    -95.0719105 -0.877135E-08  0.125E-04    0.24      92.4  T
     SCC iter.                  ...        0 min,  0.334 sec
     gradient                   ...        0 min,  0.172 sec
 * total energy  :   -93.7786356 Eh     change       -0.9442542E-04 Eh
   gradient norm :     0.0086966 Eh/α   predicted    -0.1941582E-03 ( 105.62%)
   displ. norm   :     0.4641775 α      lambda       -0.3611186E-03
   maximum displ.:     0.2042494 α      in ANC's #4, #5, #1, ...

........................................................................
.............................. CYCLE   40 ..............................
........................................................................

 iter      E             dE          RMSdq      gap      omega  full diag
   1    -95.0684556 -0.950685E+02  0.706E-02    0.23       0.0  T
   2    -95.0684509  0.478580E-05  0.469E-02    0.25       1.0  T
   3    -95.0684176  0.332328E-04  0.379E-02    0.24       1.0  T
   4    -95.0681977  0.219955E-03  0.616E-02    0.21       1.0  T
   5    -95.0684684 -0.270743E-03  0.132E-02    0.24       1.0  T
   6    -95.0684726 -0.417082E-05  0.194E-03    0.24       6.0  T
   7    -95.0684726 -0.357598E-07  0.850E-04    0.24      13.6  T
   8    -95.0684726  0.471736E-08  0.520E-04    0.24      22.2  T
   9    -95.0684726 -0.949650E-08  0.209E-04    0.24      55.3  T
  10    -95.0684726 -0.159275E-08  0.580E-05    0.24     199.0  T
     SCC iter.                  ...        0 min,  0.323 sec
     gradient                   ...        0 min,  0.144 sec
 * total energy  :   -93.7788577 Eh     change       -0.2220884E-03 Eh
   gradient norm :     0.0063717 Eh/α   predicted    -0.2194653E-03 (  -1.18%)
   displ. norm   :     0.3805420 α      lambda       -0.1921879E-03
   maximum displ.:     0.1798718 α      in ANC's #4, #5, #1, ...

........................................................................
.............................. CYCLE   41 ..............................
........................................................................

 iter      E             dE          RMSdq      gap      omega  full diag
   1    -95.0650577 -0.950651E+02  0.553E-02    0.23       0.0  T
   2    -95.0650556  0.209344E-05  0.341E-02    0.24       1.0  T
   3    -95.0649861  0.695350E-04  0.336E-02    0.25       1.0  T
   4    -95.0648524  0.133740E-03  0.551E-02    0.21       1.0  T
   5    -95.0650586 -0.206233E-03  0.655E-03    0.24       1.8  T
   6    -95.0650605 -0.190180E-05  0.132E-03    0.24       8.7  T
   7    -95.0650605 -0.163349E-07  0.724E-04    0.24      16.0  T
   8    -95.0650605 -0.414450E-08  0.432E-04    0.24      26.7  T
   9    -95.0650605 -0.786329E-08  0.206E-04    0.24      56.2  T
     SCC iter.                  ...        0 min,  0.351 sec
     gradient                   ...        0 min,  0.154 sec
 * total energy  :   -93.7790135 Eh     change       -0.1558078E-03 Eh
   gradient norm :     0.0066349 Eh/α   predicted    -0.1100123E-03 ( -29.39%)
   displ. norm   :     0.4311232 α      lambda       -0.3798036E-03
   maximum displ.:     0.2052074 α      in ANC's #4, #1, #5, ...

........................................................................
.............................. CYCLE   42 ..............................
........................................................................

 iter      E             dE          RMSdq      gap      omega  full diag
   1    -95.0681419 -0.950681E+02  0.804E-02    0.24       0.0  T
   2    -95.0681016  0.403628E-04  0.532E-02    0.22       1.0  T
   3    -95.0675920  0.509549E-03  0.851E-02    0.28       1.0  T
   4    -95.0680891 -0.497103E-03  0.376E-02    0.22       1.0  T
   5    -95.0681511 -0.619777E-04  0.986E-03    0.24       1.2  T
   6    -95.0681521 -0.100744E-05  0.379E-03    0.24       3.0  T
   7    -95.0681530 -0.896553E-06  0.192E-03    0.23       6.0  T
   8    -95.0681531 -0.888228E-07  0.943E-04    0.23      12.2  T
   9    -95.0681531 -0.271127E-07  0.447E-04    0.23      25.8  T
  10    -95.0681531 -0.424933E-08  0.267E-04    0.23      43.3  T
     SCC iter.                  ...        0 min,  0.388 sec
     gradient                   ...        0 min,  0.146 sec
 * total energy  :   -93.7792457 Eh     change       -0.2322009E-03 Eh
   gradient norm :     0.0076356 Eh/α   predicted    -0.2252056E-03 (  -3.01%)
   displ. norm   :     0.6595931 α      lambda       -0.3019710E-03
   maximum displ.:     0.3294226 α      in ANC's #4, #5, #2, ...
 * RMSD in coord.:     0.6475168 α      energy gain  -0.3417366E-02 Eh

generating ANC from exact Hessian ...
Using Lindh-Hessian (1995)
 Shifting diagonal of input Hessian by    1.0167327865154807E-002
 Lowest  eigenvalues of input Hessian
    0.010000    0.000000    0.000000    0.010116    0.000000    0.000000
    0.000000    0.000000    0.010225    0.010291    0.010341    0.010418
    0.010568    0.010708    0.010757    0.010861    0.010893    0.010969
 Highest eigenvalues
    1.624102    1.888070    1.976774    2.014111    2.250132    2.309496


........................................................................
.............................. CYCLE   43 ..............................
........................................................................

 iter      E             dE          RMSdq      gap      omega  full diag
   1    -95.0638547 -0.950639E+02  0.893E-02    0.24       0.0  T
   2    -95.0638408  0.138747E-04  0.549E-02    0.24       1.0  T
   3    -95.0632464  0.594459E-03  0.873E-02    0.20       1.0  T
   4    -95.0637425 -0.496163E-03  0.516E-02    0.27       1.0  T
   5    -95.0638506 -0.108058E-03  0.131E-02    0.25       1.0  T
   6    -95.0638618 -0.111978E-04  0.300E-03    0.24       3.9  T
   7    -95.0638621 -0.364390E-06  0.188E-03    0.24       6.2  T
   8    -95.0638623 -0.110807E-06  0.802E-04    0.24      14.4  T
   9    -95.0638623 -0.187375E-07  0.330E-04    0.24      35.0  T
  10    -95.0638623 -0.322318E-08  0.801E-05    0.24     144.1  T
     SCC iter.                  ...        0 min,  0.404 sec
     gradient                   ...        0 min,  0.175 sec
 * total energy  :   -93.7794805 Eh     change       -0.2348712E-03 Eh
   gradient norm :     0.0070019 Eh/α   predicted     0.0000000E+00 (-100.00%)
   displ. norm   :     0.0852200 α      lambda       -0.2340526E-03
   maximum displ.:     0.0256943 α      in ANC's #5, #22, #30, ...

........................................................................
.............................. CYCLE   44 ..............................
........................................................................

 iter      E             dE          RMSdq      gap      omega  full diag
   1    -95.0685888 -0.950686E+02  0.341E-02    0.24       0.0  T
   2    -95.0685858  0.301747E-05  0.203E-02    0.24       1.0  T
   3    -95.0684826  0.103163E-03  0.377E-02    0.22       1.0  T
   4    -95.0685884 -0.105819E-03  0.152E-02    0.25       1.0  T
   5    -95.0685912 -0.275487E-05  0.717E-03    0.24       1.6  T
   6    -95.0685945 -0.334898E-05  0.268E-03    0.24       4.3  T
   7    -95.0685946 -0.955120E-07  0.127E-03    0.24       9.1  T
   8    -95.0685947 -0.546856E-07  0.408E-04    0.24      28.3  T
   9    -95.0685947 -0.177135E-08  0.230E-04    0.24      50.3  T
     SCC iter.                  ...        0 min,  0.316 sec
     gradient                   ...        0 min,  0.164 sec
 * total energy  :   -93.7795465 Eh     change       -0.6591118E-04 Eh
   gradient norm :     0.0059685 Eh/α   predicted    -0.1183079E-03 (  79.50%)
   displ. norm   :     0.1612413 α      lambda       -0.3887712E-03
   maximum displ.:     0.0552470 α      in ANC's #5, #18, #33, ...

........................................................................
.............................. CYCLE   45 ..............................
........................................................................

 iter      E             dE          RMSdq      gap      omega  full diag
   1    -95.0766521 -0.950767E+02  0.515E-02    0.24       0.0  T
   2    -95.0766517  0.382059E-06  0.317E-02    0.24       1.0  T
   3    -95.0766106  0.410607E-04  0.311E-02    0.23       1.0  T
   4    -95.0765332  0.774355E-04  0.409E-02    0.26       1.0  T
   5    -95.0766590 -0.125764E-03  0.688E-03    0.24       1.7  T
   6    -95.0766602 -0.123989E-05  0.285E-03    0.24       4.0  T
   7    -95.0766602 -0.197838E-07  0.162E-03    0.24       7.1  T
   8    -95.0766603 -0.101884E-06  0.655E-04    0.24      17.6  T
   9    -95.0766603  0.108940E-07  0.487E-04    0.24      23.7  T
  10    -95.0766603 -0.138054E-07  0.151E-04    0.24      76.3  T
     SCC iter.                  ...        0 min,  0.427 sec
     gradient                   ...        0 min,  0.169 sec
 * total energy  :   -93.7795643 Eh     change       -0.1788233E-04 Eh
   gradient norm :     0.0072180 Eh/α   predicted    -0.1994406E-03 (1015.29%)
   displ. norm   :     0.0747341 α      lambda       -0.2772143E-03
   maximum displ.:     0.0339629 α      in ANC's #25, #26, #24, ...

........................................................................
.............................. CYCLE   46 ..............................
........................................................................

 iter      E             dE          RMSdq      gap      omega  full diag
   1    -95.0726305 -0.950726E+02  0.394E-02    0.24       0.0  T
   2    -95.0726327 -0.214187E-05  0.238E-02    0.24       1.0  T
   3    -95.0726292  0.349792E-05  0.167E-02    0.24       1.0  T
   4    -95.0725822  0.470087E-04  0.257E-02    0.23       1.0  T
   5    -95.0726338 -0.516823E-04  0.312E-03    0.24       3.7  T
   6    -95.0726334  0.405653E-06  0.277E-03    0.24       4.2  T
   7    -95.0726339 -0.515405E-06  0.618E-04    0.24      18.7  T
   8    -95.0726339 -0.145525E-08  0.329E-04    0.24      35.1  T
   9    -95.0726339 -0.204703E-08  0.123E-04    0.24      94.2  T
     SCC iter.                  ...        0 min,  0.332 sec
     gradient                   ...        0 min,  0.167 sec
 * total energy  :   -93.7796931 Eh     change       -0.1287149E-03 Eh
   gradient norm :     0.0034683 Eh/α   predicted    -0.1393873E-03 (   8.29%)
   displ. norm   :     0.0699502 α      lambda       -0.1159133E-03
   maximum displ.:     0.0288950 α      in ANC's #5, #23, #2, ...

........................................................................
.............................. CYCLE   47 ..............................
........................................................................

 iter      E             dE          RMSdq      gap      omega  full diag
   1    -95.0689222 -0.950689E+02  0.323E-02    0.24       0.0  T
   2    -95.0689227 -0.512782E-06  0.206E-02    0.24       1.0  T
   3    -95.0689027  0.200249E-04  0.222E-02    0.23       1.0  T
   4    -95.0688924  0.102194E-04  0.224E-02    0.25       1.0  T
   5    -95.0689246 -0.321141E-04  0.473E-03    0.24       2.4  T
   6    -95.0689252 -0.680534E-06  0.329E-03    0.24       3.5  T
   7    -95.0689260 -0.726831E-06  0.882E-04    0.24      13.1  T
   8    -95.0689260 -0.115373E-07  0.452E-04    0.24      25.6  T
   9    -95.0689260 -0.490992E-08  0.206E-04    0.24      56.1  T
     SCC iter.                  ...        0 min,  0.326 sec
     gradient                   ...        0 min,  0.175 sec
 * total energy  :   -93.7797309 Eh     change       -0.3780485E-04 Eh
   gradient norm :     0.0028625 Eh/α   predicted    -0.5824073E-04 (  54.06%)
   displ. norm   :     0.0930777 α      lambda       -0.7598537E-04
   maximum displ.:     0.0460825 α      in ANC's #5, #2, #4, ...

........................................................................
.............................. CYCLE   48 ..............................
........................................................................

 iter      E             dE          RMSdq      gap      omega  full diag
   1    -95.0694282 -0.950694E+02  0.228E-02    0.24       0.0  T
   2    -95.0694259  0.231167E-05  0.140E-02    0.24       1.0  T
   3    -95.0694081  0.177507E-04  0.184E-02    0.25       1.0  T
   4    -95.0694228 -0.146271E-04  0.108E-02    0.23       1.1  T
   5    -95.0694295 -0.677989E-05  0.260E-03    0.24       4.4  T
   6    -95.0694296 -0.917186E-07  0.957E-04    0.24      12.1  T
   7    -95.0694297 -0.291694E-07  0.514E-04    0.24      22.5  T
   8    -95.0694297 -0.172720E-07  0.168E-04    0.24      68.6  T
   9    -95.0694297  0.439258E-10  0.105E-04    0.24     109.7  T
     SCC iter.                  ...        0 min,  0.338 sec
     gradient                   ...        0 min,  0.172 sec
 * total energy  :   -93.7797897 Eh     change       -0.5888638E-04 Eh
   gradient norm :     0.0017904 Eh/α   predicted    -0.3832443E-04 ( -34.92%)
   displ. norm   :     0.4303250 α      lambda       -0.1650197E-03
   maximum displ.:     0.2126888 α      in ANC's #5, #2, #4, ...

........................................................................
.............................. CYCLE   49 ..............................
........................................................................

 iter      E             dE          RMSdq      gap      omega  full diag
   1    -95.0713528 -0.950714E+02  0.588E-02    0.24       0.0  T
   2    -95.0712998  0.530232E-04  0.438E-02    0.25       1.0  T
   3    -95.0708772  0.422576E-03  0.833E-02    0.20       1.0  T
   4    -95.0713393 -0.462076E-03  0.300E-02    0.26       1.0  T
   5    -95.0713535 -0.142760E-04  0.125E-02    0.24       1.0  T
   6    -95.0713654 -0.118337E-04  0.233E-03    0.24       5.0  T
   7    -95.0713654 -0.100258E-09  0.167E-03    0.24       6.9  T
   8    -95.0713653  0.688764E-07  0.119E-03    0.24       9.7  T
   9    -95.0713654 -0.110872E-06  0.337E-04    0.24      34.2  T
  10    -95.0713654 -0.479811E-08  0.205E-04    0.24      56.4  T
     SCC iter.                  ...        0 min,  0.405 sec
     gradient                   ...        0 min,  0.168 sec
 * total energy  :   -93.7799199 Eh     change       -0.1301136E-03 Eh
   gradient norm :     0.0044320 Eh/α   predicted    -0.8930092E-04 ( -31.37%)
   displ. norm   :     0.2879227 α      lambda       -0.1515067E-03
   maximum displ.:     0.1466509 α      in ANC's #5, #2, #4, ...

........................................................................
.............................. CYCLE   50 ..............................
........................................................................

 iter      E             dE          RMSdq      gap      omega  full diag
   1    -95.0699075 -0.950699E+02  0.404E-02    0.23       0.0  T
   2    -95.0699092 -0.168861E-05  0.227E-02    0.24       1.0  T
   3    -95.0699050  0.412571E-05  0.174E-02    0.23       1.0  T
   4    -95.0698862  0.188360E-04  0.202E-02    0.25       1.0  T
   5    -95.0699025 -0.163363E-04  0.892E-03    0.23       1.3  T
   6    -95.0699096 -0.708669E-05  0.184E-03    0.24       6.3  T
   7    -95.0699098 -0.221939E-06  0.517E-04    0.24      22.3  T
   8    -95.0699098 -0.540022E-08  0.247E-04    0.23      46.7  T
   9    -95.0699098  0.312781E-09  0.197E-04    0.23      58.7  T
     SCC iter.                  ...        0 min,  0.388 sec
     gradient                   ...        0 min,  0.182 sec
 * total energy  :   -93.7800321 Eh     change       -0.1122240E-03 Eh
   gradient norm :     0.0039915 Eh/α   predicted    -0.8203596E-04 ( -26.90%)
   displ. norm   :     0.3526771 α      lambda       -0.1778617E-03
   maximum displ.:     0.1843746 α      in ANC's #5, #2, #4, ...

........................................................................
.............................. CYCLE   51 ..............................
........................................................................

 iter      E             dE          RMSdq      gap      omega  full diag
   1    -95.0687378 -0.950687E+02  0.404E-02    0.23       0.0  T
   2    -95.0687297  0.808235E-05  0.299E-02    0.24       1.0  T
   3    -95.0686568  0.729224E-04  0.411E-02    0.21       1.0  T
   4    -95.0686792 -0.223807E-04  0.285E-02    0.25       1.0  T
   5    -95.0687382 -0.590467E-04  0.654E-03    0.23       1.8  T
   6    -95.0687409 -0.272356E-05  0.208E-03    0.23       5.5  T
   7    -95.0687411 -0.133720E-06  0.135E-03    0.23       8.6  T
   8    -95.0687411 -0.595284E-07  0.541E-04    0.23      21.4  T
   9    -95.0687411 -0.377690E-08  0.418E-04    0.23      27.6  T
  10    -95.0687411 -0.911035E-08  0.983E-05    0.23     117.5  T
     SCC iter.                  ...        0 min,  0.295 sec
     gradient                   ...        0 min,  0.150 sec
 * total energy  :   -93.7801634 Eh     change       -0.1313037E-03 Eh
   gradient norm :     0.0028752 Eh/α   predicted    -0.9999741E-04 ( -23.84%)
   displ. norm   :     0.3717717 α      lambda       -0.1551166E-03
   maximum displ.:     0.1975221 α      in ANC's #5, #2, #4, ...

........................................................................
.............................. CYCLE   52 ..............................
........................................................................

 iter      E             dE          RMSdq      gap      omega  full diag
   1    -95.0698485 -0.950698E+02  0.432E-02    0.23       0.0  T
   2    -95.0698161  0.324393E-04  0.347E-02    0.24       1.0  T
   3    -95.0696331  0.183008E-03  0.587E-02    0.21       1.0  T
   4    -95.0698151 -0.182058E-03  0.254E-02    0.25       1.0  T
   5    -95.0698491 -0.339896E-04  0.845E-03    0.24       1.4  T
   6    -95.0698544 -0.525665E-05  0.150E-03    0.23       7.7  T
   7    -95.0698543  0.475724E-07  0.159E-03    0.23       7.3  T
   8    -95.0698543 -0.166409E-08  0.880E-04    0.23      13.1  T
   9    -95.0698544 -0.624944E-07  0.315E-04    0.23      36.6  T
  10    -95.0698544 -0.443110E-08  0.128E-04    0.23      90.5  T
     SCC iter.                  ...        0 min,  0.272 sec
     gradient                   ...        0 min,  0.141 sec
 * total energy  :   -93.7802734 Eh     change       -0.1100321E-03 Eh
   gradient norm :     0.0028584 Eh/α   predicted    -0.8827946E-04 ( -19.77%)
   displ. norm   :     0.3869637 α      lambda       -0.1246355E-03
   maximum displ.:     0.2073552 α      in ANC's #5, #2, #4, ...

........................................................................
.............................. CYCLE   53 ..............................
........................................................................

 iter      E             dE          RMSdq      gap      omega  full diag
   1    -95.0701729 -0.950702E+02  0.441E-02    0.23       0.0  T
   2    -95.0701352  0.377068E-04  0.370E-02    0.25       1.0  T
   3    -95.0699658  0.169379E-03  0.597E-02    0.21       1.0  T
   4    -95.0701322 -0.166409E-03  0.245E-02    0.25       1.0  T
   5    -95.0701764 -0.441799E-04  0.502E-03    0.24       2.3  T
   6    -95.0701768 -0.334689E-06  0.280E-03    0.23       4.1  T
   7    -95.0701772 -0.458295E-06  0.136E-03    0.23       8.5  T
   8    -95.0701773 -0.979751E-07  0.257E-04    0.23      44.9  T
   9    -95.0701773  0.134051E-09  0.162E-04    0.23      71.1  T
     SCC iter.                  ...        0 min,  0.395 sec
     gradient                   ...        0 min,  0.188 sec
 * total energy  :   -93.7803717 Eh     change       -0.9825749E-04 Eh
   gradient norm :     0.0029749 Eh/α   predicted    -0.7165057E-04 ( -27.08%)
   displ. norm   :     0.4310852 α      lambda       -0.1388338E-03
   maximum displ.:     0.2336535 α      in ANC's #5, #2, #4, ...

........................................................................
.............................. CYCLE   54 ..............................
........................................................................

 iter      E             dE          RMSdq      gap      omega  full diag
   1    -95.0709490 -0.950709E+02  0.517E-02    0.23       0.0  T
   2    -95.0709077  0.413063E-04  0.415E-02    0.24       1.0  T
   3    -95.0706640  0.243696E-03  0.685E-02    0.20       1.0  T
   4    -95.0708877 -0.223759E-03  0.331E-02    0.26       1.0  T
   5    -95.0709463 -0.585608E-04  0.119E-02    0.24       1.0  T
   6    -95.0709554 -0.913572E-05  0.302E-03    0.23       3.8  T
   7    -95.0709559 -0.496727E-06  0.146E-03    0.23       7.9  T
   8    -95.0709559  0.484358E-07  0.966E-04    0.23      12.0  T
   9    -95.0709559 -0.851180E-07  0.264E-04    0.23      43.7  T
  10    -95.0709560 -0.184922E-08  0.166E-04    0.23      69.7  T
     SCC iter.                  ...        0 min,  0.431 sec
     gradient                   ...        0 min,  0.150 sec
 * total energy  :   -93.7804825 Eh     change       -0.1108698E-03 Eh
   gradient norm :     0.0024335 Eh/α   predicted    -0.8232280E-04 ( -25.75%)
   displ. norm   :     0.4645344 α      lambda       -0.1450990E-03
   maximum displ.:     0.2562024 α      in ANC's #5, #2, #4, ...

........................................................................
.............................. CYCLE   55 ..............................
........................................................................

 iter      E             dE          RMSdq      gap      omega  full diag
   1    -95.0723228 -0.950723E+02  0.597E-02    0.23       0.0  T
   2    -95.0722951  0.276899E-04  0.414E-02    0.24       1.0  T
   3    -95.0716687  0.626390E-03  0.103E-01    0.19       1.0  T
   4    -95.0722897 -0.621060E-03  0.265E-02    0.25       1.0  T
   5    -95.0723162 -0.264640E-04  0.121E-02    0.24       1.0  T
   6    -95.0723259 -0.974076E-05  0.370E-03    0.23       3.1  T
   7    -95.0723266 -0.650274E-06  0.107E-03    0.23      10.7  T
   8    -95.0723265  0.607497E-07  0.111E-03    0.23      10.4  T
   9    -95.0723266 -0.954042E-07  0.321E-04    0.23      36.0  T
  10    -95.0723266 -0.452232E-09  0.201E-04    0.23      57.4  T
     SCC iter.                  ...        0 min,  0.366 sec
     gradient                   ...        0 min,  0.166 sec
 * total energy  :   -93.7805991 Eh     change       -0.1165320E-03 Eh
   gradient norm :     0.0024562 Eh/α   predicted    -0.8820578E-04 ( -24.31%)
   displ. norm   :     0.5094287 α      lambda       -0.1374498E-03
   maximum displ.:     0.2839228 α      in ANC's #5, #2, #4, ...

........................................................................
.............................. CYCLE   56 ..............................
........................................................................

 iter      E             dE          RMSdq      gap      omega  full diag
   1    -95.0714635 -0.950715E+02  0.684E-02    0.22       0.0  T
   2    -95.0714185  0.449539E-04  0.503E-02    0.24       1.0  T
   3    -95.0707437  0.674824E-03  0.111E-01    0.19       1.0  T
   4    -95.0713776 -0.633902E-03  0.372E-02    0.26       1.0  T
   5    -95.0714590 -0.814012E-04  0.137E-02    0.24       1.0  T
   6    -95.0714656 -0.658163E-05  0.691E-03    0.23       1.7  T
   7    -95.0714690 -0.337879E-05  0.112E-03    0.23      10.3  T
   8    -95.0714690 -0.527871E-08  0.124E-03    0.23       9.3  T
   9    -95.0714690 -0.290729E-07  0.310E-04    0.23      37.3  T
  10    -95.0714690  0.788390E-09  0.225E-04    0.23      51.3  T
     SCC iter.                  ...        0 min,  0.336 sec
     gradient                   ...        0 min,  0.141 sec
 * total energy  :   -93.7807151 Eh     change       -0.1160400E-03 Eh
   gradient norm :     0.0025600 Eh/α   predicted    -0.8656242E-04 ( -25.40%)
   displ. norm   :     0.4925039 α      lambda       -0.1459721E-03
   maximum displ.:     0.2763131 α      in ANC's #5, #2, #4, ...

........................................................................
.............................. CYCLE   57 ..............................
........................................................................

 iter      E             dE          RMSdq      gap      omega  full diag
   1    -95.0721786 -0.950722E+02  0.768E-02    0.22       0.0  T
   2    -95.0721325  0.461104E-04  0.554E-02    0.24       1.0  T
   3    -95.0711934  0.939114E-03  0.132E-01    0.18       1.0  T
   4    -95.0720491 -0.855715E-03  0.436E-02    0.26       1.0  T
   5    -95.0721724 -0.123273E-03  0.167E-02    0.24       1.0  T
   6    -95.0721749 -0.252327E-05  0.127E-02    0.24       1.0  T
   7    -95.0721834 -0.847672E-05  0.504E-03    0.23       2.3  T
   8    -95.0721842 -0.778841E-06  0.138E-03    0.23       8.4  T
   9    -95.0721842 -0.544852E-07  0.366E-04    0.23      31.6  T
  10    -95.0721842 -0.129015E-08  0.176E-04    0.23      65.7  T
     SCC iter.                  ...        0 min,  0.376 sec
     gradient                   ...        0 min,  0.176 sec
 * total energy  :   -93.7808318 Eh     change       -0.1167071E-03 Eh
   gradient norm :     0.0029857 Eh/α   predicted    -0.9069204E-04 ( -22.29%)
   displ. norm   :     0.5290521 α      lambda       -0.1420067E-03
   maximum displ.:     0.2986335 α      in ANC's #5, #2, #4, ...

........................................................................
.............................. CYCLE   58 ..............................
........................................................................

 iter      E             dE          RMSdq      gap      omega  full diag
   1    -95.0698192 -0.950698E+02  0.801E-02    0.22       0.0  T
   2    -95.0697424  0.767830E-04  0.618E-02    0.25       1.0  T
   3    -95.0685612  0.118119E-02  0.149E-01    0.17       1.0  T
   4    -95.0697158 -0.115458E-02  0.416E-02    0.26       1.0  T
   5    -95.0698127 -0.968792E-04  0.178E-02    0.24       1.0  T
   6    -95.0698172 -0.457446E-05  0.135E-02    0.23       1.0  T
   7    -95.0698278 -0.105127E-04  0.377E-03    0.23       3.1  T
   8    -95.0698280 -0.236194E-06  0.199E-03    0.22       5.8  T
   9    -95.0698281 -0.118286E-06  0.737E-04    0.22      15.7  T
  10    -95.0698281 -0.222245E-07  0.314E-04    0.22      36.8  T
  11    -95.0698281 -0.204317E-08  0.834E-05    0.22     138.5  T
     SCC iter.                  ...        0 min,  0.416 sec
     gradient                   ...        0 min,  0.162 sec
 * total energy  :   -93.7809382 Eh     change       -0.1063743E-03 Eh
   gradient norm :     0.0025789 Eh/α   predicted    -0.9088227E-04 ( -14.56%)
   displ. norm   :     0.4384665 α      lambda       -0.1137321E-03
   maximum displ.:     0.2462401 α      in ANC's #5, #2, #4, ...

........................................................................
.............................. CYCLE   59 ..............................
........................................................................

 iter      E             dE          RMSdq      gap      omega  full diag
   1    -95.0699353 -0.950699E+02  0.761E-02    0.21       0.0  T
   2    -95.0698429  0.924687E-04  0.628E-02    0.24       1.0  T
   3    -95.0689819  0.860971E-03  0.130E-01    0.18       1.0  T
   4    -95.0697937 -0.811797E-03  0.462E-02    0.26       1.0  T
   5    -95.0699274 -0.133653E-03  0.189E-02    0.23       1.0  T
   6    -95.0699316 -0.425375E-05  0.152E-02    0.23       1.0  T
   7    -95.0699437 -0.120494E-04  0.553E-03    0.23       2.1  T
   8    -95.0699444 -0.771228E-06  0.185E-03    0.22       6.2  T
   9    -95.0699445 -0.108120E-06  0.580E-04    0.22      19.9  T
  10    -95.0699445 -0.751488E-08  0.277E-04    0.22      41.7  T
  11    -95.0699445 -0.277012E-08  0.170E-04    0.22      67.9  T
     SCC iter.                  ...        0 min,  0.411 sec
     gradient                   ...        0 min,  0.163 sec
 * total energy  :   -93.7810244 Eh     change       -0.8624596E-04 Eh
   gradient norm :     0.0025285 Eh/α   predicted    -0.6780057E-04 ( -21.39%)
   displ. norm   :     0.3898809 α      lambda       -0.1016702E-03
   maximum displ.:     0.2186879 α      in ANC's #5, #2, #4, ...

........................................................................
.............................. CYCLE   60 ..............................
........................................................................

 iter      E             dE          RMSdq      gap      omega  full diag
   1    -95.0707481 -0.950707E+02  0.629E-02    0.21       0.0  T
   2    -95.0706718  0.762291E-04  0.535E-02    0.24       1.0  T
   3    -95.0700714  0.600416E-03  0.109E-01    0.18       1.0  T
   4    -95.0706917 -0.620237E-03  0.322E-02    0.24       1.0  T
   5    -95.0707484 -0.567104E-04  0.110E-02    0.23       1.0  T
   6    -95.0707538 -0.540371E-05  0.453E-03    0.22       2.5  T
   7    -95.0707549 -0.117486E-05  0.232E-03    0.22       5.0  T
   8    -95.0707553 -0.397557E-06  0.116E-03    0.22      10.0  T
   9    -95.0707554 -0.187441E-07  0.701E-04    0.22      16.5  T
  10    -95.0707554 -0.192964E-07  0.167E-04    0.22      69.1  T
  11    -95.0707554 -0.153723E-08  0.863E-05    0.22     133.8  T
     SCC iter.                  ...        0 min,  0.449 sec
     gradient                   ...        0 min,  0.166 sec
 * total energy  :   -93.7811043 Eh     change       -0.7990013E-04 Eh
   gradient norm :     0.0028675 Eh/α   predicted    -0.5856746E-04 ( -26.70%)
   displ. norm   :     0.4665516 α      lambda       -0.1394607E-03
   maximum displ.:     0.2615080 α      in ANC's #5, #2, #4, ...

........................................................................
.............................. CYCLE   61 ..............................
........................................................................

 iter      E             dE          RMSdq      gap      omega  full diag
   1    -95.0704912 -0.950705E+02  0.778E-02    0.21       0.0  T
   2    -95.0703591  0.132149E-03  0.664E-02    0.24       1.0  T
   3    -95.0690016  0.135746E-02  0.160E-01    0.16       1.0  T
   4    -95.0704481 -0.144649E-02  0.401E-02    0.24       1.0  T
   5    -95.0704385  0.956776E-05  0.293E-02    0.24       1.0  T
   6    -95.0704963 -0.578053E-04  0.114E-02    0.22       1.0  T
   7    -95.0705026 -0.625556E-05  0.180E-03    0.22       6.4  T
   8    -95.0705026 -0.390660E-07  0.136E-03    0.22       8.5  T
   9    -95.0705027 -0.506949E-07  0.711E-04    0.22      16.2  T
  10    -95.0705027 -0.194606E-07  0.437E-04    0.22      26.4  T
  11    -95.0705027 -0.528540E-08  0.103E-04    0.22     111.7  T
     SCC iter.                  ...        0 min,  0.400 sec
     gradient                   ...        0 min,  0.156 sec
 * total energy  :   -93.7812087 Eh     change       -0.1043129E-03 Eh
   gradient norm :     0.0030330 Eh/α   predicted    -0.8491399E-04 ( -18.60%)
   displ. norm   :     0.4618127 α      lambda       -0.1518834E-03
   maximum displ.:     0.2471866 α      in ANC's #5, #2, #4, ...

........................................................................
.............................. CYCLE   62 ..............................
........................................................................

 iter      E             dE          RMSdq      gap      omega  full diag
   1    -95.0715168 -0.950715E+02  0.767E-02    0.20       0.0  T
   2    -95.0711714  0.345415E-03  0.907E-02    0.26       1.0  T
   3    -95.0710913  0.800924E-04  0.907E-02    0.18       1.0  T
   4    -95.0714760 -0.384639E-03  0.335E-02    0.23       1.0  T
   5    -95.0715459 -0.698765E-04  0.569E-03    0.22       2.0  T
   6    -95.0715462 -0.322331E-06  0.657E-03    0.21       1.8  T
   7    -95.0715472 -0.103314E-05  0.326E-03    0.21       3.5  T
   8    -95.0715480 -0.799124E-06  0.143E-03    0.21       8.1  T
   9    -95.0715481 -0.105201E-06  0.526E-04    0.21      22.0  T
  10    -95.0715481 -0.100954E-07  0.206E-04    0.21      56.0  T
  11    -95.0715481 -0.123788E-08  0.121E-04    0.21      95.6  T
     SCC iter.                  ...        0 min,  0.499 sec
     gradient                   ...        0 min,  0.188 sec
 * total energy  :   -93.7813218 Eh     change       -0.1131365E-03 Eh
   gradient norm :     0.0036389 Eh/α   predicted    -0.9214239E-04 ( -18.56%)
   displ. norm   :     0.4245855 α      lambda       -0.1322353E-03
   maximum displ.:     0.2248834 α      in ANC's #2, #5, #4, ...

........................................................................
.............................. CYCLE   63 ..............................
........................................................................

 iter      E             dE          RMSdq      gap      omega  full diag
   1    -95.0711097 -0.950711E+02  0.673E-02    0.20       0.0  T
   2    -95.0709264  0.183242E-03  0.672E-02    0.24       1.0  T
   3    -95.0702819  0.644551E-03  0.121E-01    0.17       1.0  T
   4    -95.0711054 -0.823511E-03  0.257E-02    0.22       1.0  T
   5    -95.0710967  0.871549E-05  0.186E-02    0.22       1.0  T
   6    -95.0711230 -0.263165E-04  0.377E-03    0.21       3.1  T
   7    -95.0711230  0.283144E-07  0.360E-03    0.21       3.2  T
   8    -95.0711237 -0.697688E-06  0.633E-04    0.21      18.3  T
   9    -95.0711237  0.268131E-07  0.942E-04    0.21      12.3  T
  10    -95.0711237 -0.251229E-07  0.292E-04    0.21      39.6  T
  11    -95.0711237 -0.512802E-08  0.702E-05    0.21     164.6  T
     SCC iter.                  ...        0 min,  0.471 sec
     gradient                   ...        0 min,  0.169 sec
 * total energy  :   -93.7814275 Eh     change       -0.1056948E-03 Eh
   gradient norm :     0.0033617 Eh/α   predicted    -0.7804269E-04 ( -26.16%)
   displ. norm   :     0.4262276 α      lambda       -0.1695877E-03
   maximum displ.:     0.2081266 α      in ANC's #2, #5, #8, ...

........................................................................
.............................. CYCLE   64 ..............................
........................................................................

 iter      E             dE          RMSdq      gap      omega  full diag
   1    -95.0733251 -0.950733E+02  0.622E-02    0.21       0.0  T
   2    -95.0733060  0.190835E-04  0.391E-02    0.22       1.0  T
   3    -95.0705312  0.277488E-02  0.202E-01    0.15       1.0  T
   4    -95.0731494 -0.261825E-02  0.428E-02    0.20       1.0  T
   5    -95.0733251 -0.175673E-03  0.674E-03    0.21       1.7  T
   6    -95.0733277 -0.265596E-05  0.187E-03    0.21       6.2  T
   7    -95.0733276  0.177347E-06  0.222E-03    0.21       5.2  T
   8    -95.0733278 -0.242002E-06  0.624E-04    0.21      18.5  T
   9    -95.0733278 -0.141776E-07  0.329E-04    0.21      35.1  T
  10    -95.0733278 -0.324604E-09  0.290E-04    0.21      39.9  T
     SCC iter.                  ...        0 min,  0.389 sec
     gradient                   ...        0 min,  0.196 sec
 * total energy  :   -93.7815535 Eh     change       -0.1259619E-03 Eh
   gradient norm :     0.0032957 Eh/α   predicted    -0.1001996E-03 ( -20.45%)
   displ. norm   :     0.5854478 α      lambda       -0.1852137E-03
   maximum displ.:     0.3082932 α      in ANC's #5, #2, #4, ...

........................................................................
.............................. CYCLE   65 ..............................
........................................................................

 iter      E             dE          RMSdq      gap      omega  full diag
   1    -95.0680477 -0.950680E+02  0.954E-02    0.19       0.0  T
   2    -95.0674472  0.600433E-03  0.120E-01    0.28       1.0  T
   3    -95.0676143 -0.167061E-03  0.965E-02    0.18       1.0  T
   4    -95.0679520 -0.337704E-03  0.418E-02    0.23       1.0  T
   5    -95.0681040 -0.151945E-03  0.833E-03    0.21       1.4  T
   6    -95.0681060 -0.202548E-05  0.473E-03    0.21       2.4  T
   7    -95.0681057  0.295947E-06  0.299E-03    0.21       3.9  T
   8    -95.0681061 -0.408659E-06  0.204E-03    0.21       5.7  T
   9    -95.0681063 -0.205045E-06  0.119E-03    0.21       9.7  T
  10    -95.0681064 -0.705494E-07  0.245E-04    0.21      47.1  T
  11    -95.0681064 -0.211914E-08  0.802E-05    0.21     144.0  T
     SCC iter.                  ...        0 min,  0.428 sec
     gradient                   ...        0 min,  0.120 sec
 * total energy  :   -93.7816773 Eh     change       -0.1238784E-03 Eh
   gradient norm :     0.0051125 Eh/α   predicted    -0.1243510E-03 (   0.38%)
   displ. norm   :     0.3600421 α      lambda       -0.1987402E-03
   maximum displ.:     0.1457353 α      in ANC's #2, #8, #6, ...

........................................................................
.............................. CYCLE   66 ..............................
........................................................................

 iter      E             dE          RMSdq      gap      omega  full diag
   1    -95.0710999 -0.950711E+02  0.455E-02    0.21       0.0  T
   2    -95.0709824  0.117454E-03  0.586E-02    0.19       1.0  T
   3    -95.0709865 -0.411277E-05  0.485E-02    0.23       1.0  T
   4    -95.0710058 -0.192367E-04  0.326E-02    0.20       1.0  T
   5    -95.0710923 -0.865693E-04  0.144E-02    0.22       1.0  T
   6    -95.0711057 -0.134094E-04  0.265E-03    0.21       4.4  T
   7    -95.0711060 -0.235369E-06  0.135E-03    0.21       8.5  T
   8    -95.0711060 -0.616577E-07  0.453E-04    0.21      25.5  T
   9    -95.0711060  0.271974E-08  0.426E-04    0.21      27.1  T
     SCC iter.                  ...        0 min,  0.245 sec
     gradient                   ...        0 min,  0.143 sec
 * total energy  :   -93.7818045 Eh     change       -0.1271715E-03 Eh
   gradient norm :     0.0047195 Eh/α   predicted    -0.1122541E-03 ( -11.73%)
   displ. norm   :     0.4888318 α      lambda       -0.1799608E-03
   maximum displ.:     0.2507269 α      in ANC's #2, #5, #8, ...
 * RMSD in coord.:     0.8388661 α      energy gain  -0.2558827E-02 Eh

generating ANC from exact Hessian ...
Using Lindh-Hessian (1995)
 Shifting diagonal of input Hessian by    1.0160619645865126E-002
 Lowest  eigenvalues of input Hessian
    0.010000    0.010062    0.000000    0.010115    0.000000    0.000000
    0.000000    0.000000    0.000000    0.010238    0.010396    0.010436
    0.010562    0.010713    0.010730    0.010862    0.010937    0.010979
 Highest eigenvalues
    1.622100    1.887091    1.975518    2.011102    2.239777    2.304957


........................................................................
.............................. CYCLE   67 ..............................
........................................................................

 iter      E             dE          RMSdq      gap      omega  full diag
   1    -95.0693918 -0.950694E+02  0.772E-02    0.19       0.0  T
   2    -95.0687974  0.594418E-03  0.122E-01    0.28       1.0  T
   3    -95.0693263 -0.528938E-03  0.533E-02    0.19       1.0  T
   4    -95.0691336  0.192748E-03  0.587E-02    0.22       1.0  T
   5    -95.0694090 -0.275427E-03  0.306E-02    0.19       1.0  T
   6    -95.0694543 -0.452812E-04  0.265E-03    0.21       4.4  T
   7    -95.0694539  0.408382E-06  0.296E-03    0.21       3.9  T
   8    -95.0694543 -0.375643E-06  0.158E-03    0.20       7.3  T
   9    -95.0694544 -0.968446E-07  0.967E-04    0.21      11.9  T
  10    -95.0694544 -0.425468E-07  0.381E-04    0.20      30.3  T
  11    -95.0694544 -0.766931E-08  0.502E-05    0.21     230.1  T
     SCC iter.                  ...        0 min,  0.458 sec
     gradient                   ...        0 min,  0.175 sec
 * total energy  :   -93.7819445 Eh     change       -0.1400077E-03 Eh
   gradient norm :     0.0045814 Eh/α   predicted     0.0000000E+00 (-100.00%)
   displ. norm   :     0.0687688 α      lambda       -0.1082387E-03
   maximum displ.:     0.0319609 α      in ANC's #5, #11, #8, ...

........................................................................
.............................. CYCLE   68 ..............................
........................................................................

 iter      E             dE          RMSdq      gap      omega  full diag
   1    -95.0722712 -0.950723E+02  0.176E-02    0.21       0.0  T
   2    -95.0722498  0.213619E-04  0.240E-02    0.20       1.0  T
   3    -95.0722608 -0.109529E-04  0.163E-02    0.21       1.0  T
   4    -95.0722687 -0.790890E-05  0.877E-03    0.21       1.3  T
   5    -95.0722659  0.275659E-05  0.954E-03    0.21       1.2  T
   6    -95.0722731 -0.711903E-05  0.827E-04    0.21      14.0  T
   7    -95.0722731  0.129066E-08  0.468E-04    0.21      24.7  T
   8    -95.0722731 -0.577943E-08  0.178E-04    0.21      65.0  T
     SCC iter.                  ...        0 min,  0.364 sec
     gradient                   ...        0 min,  0.180 sec
 * total energy  :   -93.7820272 Eh     change       -0.8270196E-04 Eh
   gradient norm :     0.0019406 Eh/α   predicted    -0.5469487E-04 ( -33.87%)
   displ. norm   :     0.3157103 α      lambda       -0.2053562E-03
   maximum displ.:     0.1504109 α      in ANC's #5, #11, #8, ...

........................................................................
.............................. CYCLE   69 ..............................
........................................................................

 iter      E             dE          RMSdq      gap      omega  full diag
   1    -95.0782775 -0.950783E+02  0.724E-02    0.21       0.0  T
   2    -95.0782411  0.364244E-04  0.492E-02    0.19       1.0  T
   3    -95.0776704  0.570672E-03  0.983E-02    0.26       1.0  T
   4    -95.0782735 -0.603107E-03  0.267E-02    0.20       1.0  T
   5    -95.0782789 -0.546296E-05  0.105E-02    0.21       1.1  T
   6    -95.0782835 -0.458718E-05  0.792E-03    0.20       1.5  T
   7    -95.0782882 -0.470340E-05  0.195E-03    0.21       5.9  T
   8    -95.0782880  0.193025E-06  0.244E-03    0.21       4.7  T
   9    -95.0782883 -0.236908E-06  0.167E-03    0.21       6.9  T
  10    -95.0782884 -0.944761E-07  0.521E-04    0.21      22.2  T
  11    -95.0782884 -0.114644E-07  0.334E-04    0.21      34.6  T
  12    -95.0782884 -0.559797E-08  0.113E-04    0.21     102.2  T
     SCC iter.                  ...        0 min,  0.543 sec
     gradient                   ...        0 min,  0.173 sec
 * total energy  :   -93.7819079 Eh     change        0.1192847E-03 Eh
   gradient norm :     0.0111916 Eh/α   predicted    -0.1072402E-03 (-189.90%)
   displ. norm   :     0.1510722 α      lambda       -0.4524080E-03
   maximum displ.:     0.0711499 α      in ANC's #5, #8, #11, ...

........................................................................
.............................. CYCLE   70 ..............................
........................................................................

 iter      E             dE          RMSdq      gap      omega  full diag
   1    -95.0777855 -0.950778E+02  0.509E-02    0.20       0.0  T
   2    -95.0777649  0.205386E-04  0.382E-02    0.21       1.0  T
   3    -95.0774326  0.332355E-03  0.817E-02    0.18       1.0  T
   4    -95.0777022 -0.269638E-03  0.393E-02    0.23       1.0  T
   5    -95.0777887 -0.864786E-04  0.821E-03    0.21       1.4  T
   6    -95.0777909 -0.227167E-05  0.296E-03    0.21       3.9  T
   7    -95.0777906  0.379198E-06  0.332E-03    0.20       3.5  T
   8    -95.0777907 -0.162123E-06  0.202E-03    0.20       5.7  T
   9    -95.0777910 -0.293693E-06  0.763E-04    0.21      15.1  T
  10    -95.0777911 -0.374838E-07  0.185E-04    0.21      62.5  T
  11    -95.0777911  0.296737E-09  0.131E-04    0.21      87.8  T
     SCC iter.                  ...        0 min,  0.473 sec
     gradient                   ...        0 min,  0.179 sec
 * total energy  :   -93.7821439 Eh     change       -0.2359543E-03 Eh
   gradient norm :     0.0076359 Eh/α   predicted    -0.2313674E-03 (  -1.94%)
   displ. norm   :     0.0954835 α      lambda       -0.2886162E-03
   maximum displ.:     0.0324413 α      in ANC's #22, #47, #27, ...

........................................................................
.............................. CYCLE   71 ..............................
........................................................................

 iter      E             dE          RMSdq      gap      omega  full diag
   1    -95.0726138 -0.950726E+02  0.657E-02    0.20       0.0  T
   2    -95.0723072  0.306546E-03  0.827E-02    0.25       1.0  T
   3    -95.0720004  0.306819E-03  0.106E-01    0.17       1.0  T
   4    -95.0726179 -0.617489E-03  0.295E-02    0.22       1.0  T
   5    -95.0726315 -0.136483E-04  0.138E-02    0.21       1.0  T
   6    -95.0726406 -0.905025E-05  0.110E-02    0.20       1.1  T
   7    -95.0726497 -0.911741E-05  0.233E-03    0.21       4.9  T
   8    -95.0726500 -0.245334E-06  0.933E-04    0.21      12.4  T
   9    -95.0726499  0.140450E-07  0.933E-04    0.20      12.4  T
  10    -95.0726500 -0.390249E-07  0.181E-04    0.21      63.8  T
  11    -95.0726500 -0.138586E-08  0.643E-05    0.21     179.4  T
     SCC iter.                  ...        0 min,  0.503 sec
     gradient                   ...        0 min,  0.173 sec
 * total energy  :   -93.7822208 Eh     change       -0.7693345E-04 Eh
   gradient norm :     0.0054466 Eh/α   predicted    -0.1456241E-03 (  89.29%)
   displ. norm   :     0.0781456 α      lambda       -0.1488068E-03
   maximum displ.:     0.0419196 α      in ANC's #5, #8, #9, ...

........................................................................
.............................. CYCLE   72 ..............................
........................................................................

 iter      E             dE          RMSdq      gap      omega  full diag
   1    -95.0721503 -0.950722E+02  0.387E-02    0.20       0.0  T
   2    -95.0721289  0.213426E-04  0.273E-02    0.20       1.0  T
   3    -95.0719517  0.177203E-03  0.576E-02    0.23       1.0  T
   4    -95.0721535 -0.201765E-03  0.120E-02    0.20       1.0  T
   5    -95.0721510  0.247708E-05  0.712E-03    0.20       1.6  T
   6    -95.0721544 -0.336110E-05  0.196E-03    0.21       5.9  T
   7    -95.0721545 -0.910358E-07  0.122E-03    0.20       9.5  T
   8    -95.0721546 -0.930133E-07  0.382E-04    0.20      30.2  T
   9    -95.0721545  0.427517E-08  0.428E-04    0.20      27.0  T
     SCC iter.                  ...        0 min,  0.254 sec
     gradient                   ...        0 min,  0.122 sec
 * total energy  :   -93.7823161 Eh     change       -0.9529880E-04 Eh
   gradient norm :     0.0021828 Eh/α   predicted    -0.7485820E-04 ( -21.45%)
   displ. norm   :     0.1774499 α      lambda       -0.1066968E-03
   maximum displ.:     0.1026234 α      in ANC's #5, #8, #9, ...

........................................................................
.............................. CYCLE   73 ..............................
........................................................................

 iter      E             dE          RMSdq      gap      omega  full diag
   1    -95.0719877 -0.950720E+02  0.359E-02    0.20       0.0  T
   2    -95.0719881 -0.351266E-06  0.215E-02    0.20       1.0  T
   3    -95.0719638  0.243406E-04  0.215E-02    0.20       1.0  T
   4    -95.0719454  0.184016E-04  0.244E-02    0.22       1.0  T
   5    -95.0719829 -0.374932E-04  0.118E-02    0.20       1.0  T
   6    -95.0719879 -0.508106E-05  0.446E-03    0.20       2.6  T
   7    -95.0719893 -0.140303E-05  0.261E-03    0.21       4.4  T
   8    -95.0719898 -0.502017E-06  0.313E-04    0.20      36.9  T
   9    -95.0719898  0.125659E-08  0.269E-04    0.20      43.0  T
  10    -95.0719898 -0.224659E-08  0.639E-05    0.20     180.7  T
     SCC iter.                  ...        0 min,  0.408 sec
     gradient                   ...        0 min,  0.156 sec
 * total energy  :   -93.7823866 Eh     change       -0.7049349E-04 Eh
   gradient norm :     0.0024281 Eh/α   predicted    -0.5502858E-04 ( -21.94%)
   displ. norm   :     0.2960076 α      lambda       -0.1409618E-03
   maximum displ.:     0.1700803 α      in ANC's #5, #8, #9, ...

........................................................................
.............................. CYCLE   74 ..............................
........................................................................

 iter      E             dE          RMSdq      gap      omega  full diag
   1    -95.0708850 -0.950709E+02  0.557E-02    0.20       0.0  T
   2    -95.0708169  0.680734E-04  0.547E-02    0.22       1.0  T
   3    -95.0704889  0.327996E-03  0.893E-02    0.17       1.0  T
   4    -95.0706841 -0.195116E-03  0.528E-02    0.22       1.0  T
   5    -95.0708885 -0.204463E-03  0.983E-03    0.20       1.2  T
   6    -95.0708920 -0.351658E-05  0.445E-03    0.20       2.6  T
   7    -95.0708929 -0.823639E-06  0.306E-03    0.20       3.8  T
   8    -95.0708934 -0.497062E-06  0.445E-04    0.20      25.9  T
   9    -95.0708933  0.141221E-07  0.603E-04    0.20      19.2  T
  10    -95.0708934 -0.154327E-07  0.144E-04    0.20      80.1  T
     SCC iter.                  ...        0 min,  0.400 sec
     gradient                   ...        0 min,  0.154 sec
 * total energy  :   -93.7824966 Eh     change       -0.1100012E-03 Eh
   gradient norm :     0.0036220 Eh/α   predicted    -0.7665724E-04 ( -30.31%)
   displ. norm   :     0.3519719 α      lambda       -0.1512632E-03
   maximum displ.:     0.2057816 α      in ANC's #5, #8, #9, ...

........................................................................
.............................. CYCLE   75 ..............................
........................................................................

 iter      E             dE          RMSdq      gap      omega  full diag
   1    -95.0696540 -0.950697E+02  0.621E-02    0.20       0.0  T
   2    -95.0695288  0.125249E-03  0.634E-02    0.23       1.0  T
   3    -95.0689811  0.547631E-03  0.113E-01    0.17       1.0  T
   4    -95.0694839 -0.502797E-03  0.516E-02    0.22       1.0  T
   5    -95.0696516 -0.167632E-03  0.184E-02    0.21       1.0  T
   6    -95.0696562 -0.463354E-05  0.113E-02    0.21       1.0  T
   7    -95.0696644 -0.817474E-05  0.236E-03    0.20       4.9  T
   8    -95.0696647 -0.313882E-06  0.117E-03    0.20       9.9  T
   9    -95.0696647 -0.219091E-07  0.692E-04    0.20      16.7  T
  10    -95.0696647 -0.104028E-07  0.187E-04    0.20      61.9  T
  11    -95.0696647 -0.801151E-09  0.140E-04    0.20      82.7  T
     SCC iter.                  ...        0 min,  0.446 sec
     gradient                   ...        0 min,  0.167 sec
 * total energy  :   -93.7826224 Eh     change       -0.1258130E-03 Eh
   gradient norm :     0.0039090 Eh/α   predicted    -0.8500486E-04 ( -32.44%)
   displ. norm   :     0.3926039 α      lambda       -0.1684422E-03
   maximum displ.:     0.2371620 α      in ANC's #5, #9, #8, ...

........................................................................
.............................. CYCLE   76 ..............................
........................................................................

 iter      E             dE          RMSdq      gap      omega  full diag
   1    -95.0700075 -0.950700E+02  0.622E-02    0.20       0.0  T
   2    -95.0700088 -0.133459E-05  0.361E-02    0.20       1.0  T
   3    -95.0699888  0.199553E-04  0.224E-02    0.20       1.0  T
   4    -95.0698825  0.106334E-03  0.442E-02    0.22       1.0  T
   5    -95.0700063 -0.123840E-03  0.651E-03    0.20       1.8  T
   6    -95.0700092 -0.286912E-05  0.229E-03    0.20       5.0  T
   7    -95.0700096 -0.353662E-06  0.646E-04    0.20      17.9  T
   8    -95.0700096 -0.557134E-08  0.306E-04    0.20      37.8  T
   9    -95.0700096  0.162976E-08  0.206E-04    0.20      56.1  T
     SCC iter.                  ...        0 min,  0.356 sec
     gradient                   ...        0 min,  0.165 sec
 * total energy  :   -93.7827593 Eh     change       -0.1368782E-03 Eh
   gradient norm :     0.0027679 Eh/α   predicted    -0.9720391E-04 ( -28.99%)
   displ. norm   :     0.4444445 α      lambda       -0.1793736E-03
   maximum displ.:     0.2763154 α      in ANC's #5, #9, #8, ...

........................................................................
.............................. CYCLE   77 ..............................
........................................................................

 iter      E             dE          RMSdq      gap      omega  full diag
   1    -95.0706732 -0.950707E+02  0.696E-02    0.20       0.0  T
   2    -95.0706295  0.436833E-04  0.521E-02    0.22       1.0  T
   3    -95.0690956  0.153395E-02  0.177E-01    0.15       1.0  T
   4    -95.0704626 -0.136703E-02  0.569E-02    0.22       1.0  T
   5    -95.0706728 -0.210232E-03  0.190E-02    0.21       1.0  T
   6    -95.0706633  0.957193E-05  0.169E-02    0.21       1.0  T
   7    -95.0706829 -0.196021E-04  0.206E-03    0.20       5.6  T
   8    -95.0706825  0.309079E-06  0.275E-03    0.20       4.2  T
   9    -95.0706829 -0.365715E-06  0.355E-04    0.20      32.5  T
  10    -95.0706829  0.326708E-09  0.191E-04    0.20      60.5  T
     SCC iter.                  ...        0 min,  0.346 sec
     gradient                   ...        0 min,  0.158 sec
 * total energy  :   -93.7829039 Eh     change       -0.1446202E-03 Eh
   gradient norm :     0.0031906 Eh/α   predicted    -0.1074056E-03 ( -25.73%)
   displ. norm   :     0.4882965 α      lambda       -0.2053876E-03
   maximum displ.:     0.3123653 α      in ANC's #5, #9, #8, ...

........................................................................
.............................. CYCLE   78 ..............................
........................................................................

 iter      E             dE          RMSdq      gap      omega  full diag
   1    -95.0714254 -0.950714E+02  0.707E-02    0.20       0.0  T
   2    -95.0713234  0.101973E-03  0.605E-02    0.22       1.0  T
   3    -95.0694836  0.183979E-02  0.187E-01    0.15       1.0  T
   4    -95.0713513 -0.186763E-02  0.433E-02    0.23       1.0  T
   5    -95.0713447  0.652314E-05  0.363E-02    0.22       1.0  T
   6    -95.0714216 -0.768332E-04  0.149E-02    0.21       1.0  T
   7    -95.0714309 -0.936282E-05  0.492E-03    0.20       2.3  T
   8    -95.0714321 -0.119802E-05  0.140E-03    0.20       8.2  T
   9    -95.0714322 -0.112300E-06  0.489E-04    0.20      23.6  T
  10    -95.0714322 -0.718828E-09  0.500E-04    0.20      23.1  T
  11    -95.0714323 -0.715653E-08  0.219E-04    0.20      52.7  T
     SCC iter.                  ...        0 min,  0.505 sec
     gradient                   ...        0 min,  0.179 sec
 * total energy  :   -93.7830786 Eh     change       -0.1746493E-03 Eh
   gradient norm :     0.0032164 Eh/α   predicted    -0.1271809E-03 ( -27.18%)
   displ. norm   :     0.5473631 α      lambda       -0.2599893E-03
   maximum displ.:     0.3636195 α      in ANC's #5, #9, #3, ...

........................................................................
.............................. CYCLE   79 ..............................
........................................................................

 iter      E             dE          RMSdq      gap      omega  full diag
   1    -95.0732453 -0.950732E+02  0.767E-02    0.20       0.0  T
   2    -95.0732309  0.143686E-04  0.479E-02    0.21       1.0  T
   3    -95.0690813  0.414960E-02  0.277E-01    0.13       1.0  T
   4    -95.0732438 -0.416245E-02  0.154E-02    0.20       1.0  T
   5    -95.0732469 -0.317552E-05  0.619E-03    0.20       1.9  T
   6    -95.0732476 -0.622060E-06  0.391E-03    0.20       3.0  T
   7    -95.0732484 -0.811525E-06  0.221E-03    0.20       5.2  T
   8    -95.0732488 -0.390631E-06  0.767E-04    0.20      15.1  T
   9    -95.0732488 -0.113650E-07  0.257E-04    0.20      45.0  T
  10    -95.0732488  0.724388E-08  0.400E-04    0.20      28.9  T
     SCC iter.                  ...        0 min,  0.341 sec
     gradient                   ...        0 min,  0.153 sec
 * total energy  :   -93.7832976 Eh     change       -0.2190110E-03 Eh
   gradient norm :     0.0032837 Eh/α   predicted    -0.1689430E-03 ( -22.86%)
   displ. norm   :     0.6302233 α      lambda       -0.2734489E-03
   maximum displ.:     0.4275772 α      in ANC's #5, #9, #3, ...

........................................................................
.............................. CYCLE   80 ..............................
........................................................................

 iter      E             dE          RMSdq      gap      omega  full diag
   1    -95.0708692 -0.950709E+02  0.102E-01    0.17       0.0  T
   2    -95.0695007  0.136845E-02  0.181E-01    0.31       1.0  T
   3    -95.0709276 -0.142684E-02  0.569E-02    0.20       1.0  T
   4    -95.0705839  0.343721E-03  0.725E-02    0.21       1.0  T
   5    -95.0703298  0.254105E-03  0.116E-01    0.16       1.0  T
   6    -95.0710101 -0.680330E-03  0.177E-02    0.20       1.0  T
   7    -95.0710080  0.211760E-05  0.159E-02    0.20       1.0  T
   8    -95.0710216 -0.135988E-04  0.139E-03    0.20       8.3  T
   9    -95.0710214  0.160085E-06  0.177E-03    0.20       6.5  T
  10    -95.0710215 -0.132146E-06  0.973E-04    0.20      11.9  T
  11    -95.0710216 -0.357621E-07  0.418E-04    0.20      27.6  T
  12    -95.0710216 -0.524815E-08  0.242E-04    0.20      47.8  T
     SCC iter.                  ...        0 min,  0.514 sec
     gradient                   ...        0 min,  0.162 sec
 * total energy  :   -93.7835161 Eh     change       -0.2184924E-03 Eh
   gradient norm :     0.0043790 Eh/α   predicted    -0.1910360E-03 ( -12.57%)
   displ. norm   :     0.5755631 α      lambda       -0.3615521E-03
   maximum displ.:     0.3962331 α      in ANC's #5, #9, #13, ...

........................................................................
.............................. CYCLE   81 ..............................
........................................................................

 iter      E             dE          RMSdq      gap      omega  full diag
   1    -95.0774051 -0.950774E+02  0.840E-02    0.21       0.0  T
   2    -95.0748040  0.260109E-02  0.236E-01    0.14       1.0  T
   3    -95.0772045 -0.240048E-02  0.741E-02    0.23       1.0  T
   4    -95.0770943  0.110221E-03  0.624E-02    0.18       1.0  T
   5    -95.0773895 -0.295215E-03  0.293E-02    0.21       1.0  T
   6    -95.0774478 -0.582609E-04  0.821E-03    0.20       1.4  T
   7    -95.0774514 -0.364417E-05  0.279E-03    0.20       4.1  T
   8    -95.0774517 -0.289304E-06  0.197E-03    0.20       5.9  T
   9    -95.0774518 -0.131290E-06  0.356E-04    0.20      32.5  T
  10    -95.0774518  0.254373E-07  0.720E-04    0.20      16.0  T
  11    -95.0774518 -0.259758E-07  0.176E-04    0.20      65.7  T
     SCC iter.                  ...        0 min,  0.375 sec
     gradient                   ...        0 min,  0.136 sec
 * total energy  :   -93.7837017 Eh     change       -0.1856251E-03 Eh
   gradient norm :     0.0063835 Eh/α   predicted    -0.2406638E-03 (  29.65%)
   displ. norm   :     0.6683631 α      lambda       -0.3187548E-03
   maximum displ.:     0.4678621 α      in ANC's #5, #9, #8, ...

........................................................................
.............................. CYCLE   82 ..............................
........................................................................

 iter      E             dE          RMSdq      gap      omega  full diag
   1    -95.0646127 -0.950646E+02  0.225E-01    0.13       0.0  T
   2    -95.0552845  0.932821E-02  0.495E-01    0.66       1.0  T
   3    -95.0658452 -0.105607E-01  0.215E-01    0.35       1.0  T
   4    -95.0652995  0.545708E-03  0.172E-01    0.32       1.0  T
   5    -95.0669659 -0.166644E-02  0.402E-02    0.19       1.0  T
   6    -95.0649689  0.199702E-02  0.194E-01    0.14       1.0  T
   7    -95.0667382 -0.176933E-02  0.732E-02    0.23       1.0  T
   8    -95.0669016 -0.163328E-03  0.421E-02    0.21       1.0  T
   9    -95.0669793 -0.777352E-04  0.166E-02    0.20       1.0  T
  10    -95.0669921 -0.128374E-04  0.385E-03    0.19       3.0  T
  11    -95.0669924 -0.258418E-06  0.238E-03    0.19       4.9  T
  12    -95.0669927 -0.274867E-06  0.579E-04    0.19      20.0  T
  13    -95.0669927 -0.169127E-07  0.157E-04    0.19      73.4  T
  14    -95.0669927  0.822240E-10  0.181E-04    0.19      63.8  T
     SCC iter.                  ...        0 min,  0.592 sec
     gradient                   ...        0 min,  0.196 sec
 * total energy  :   -93.7838122 Eh     change       -0.1104610E-03 Eh
   gradient norm :     0.0088299 Eh/α   predicted    -0.2305744E-03 ( 108.74%)
   displ. norm   :     0.0765668 α      lambda       -0.2018911E-03
   maximum displ.:     0.0291753 α      in ANC's #15, #32, #1, ...

........................................................................
.............................. CYCLE   83 ..............................
........................................................................

 iter      E             dE          RMSdq      gap      omega  full diag
   1    -95.0715942 -0.950716E+02  0.411E-02    0.21       0.0  T
   2    -95.0657197  0.587449E-02  0.334E-01    0.12       1.0  T
   3    -95.0716559 -0.593621E-02  0.153E-02    0.19       1.0  T
   4    -95.0716524  0.350099E-05  0.108E-02    0.19       1.1  T
   5    -95.0716402  0.122326E-04  0.145E-02    0.19       1.0  T
   6    -95.0716568 -0.166315E-04  0.220E-03    0.19       5.3  T
   7    -95.0716570 -0.194387E-06  0.730E-04    0.19      15.8  T
   8    -95.0716569  0.948005E-07  0.149E-03    0.19       7.7  T
   9    -95.0716571 -0.131073E-06  0.421E-04    0.19      27.5  T
  10    -95.0716571 -0.334903E-08  0.191E-04    0.19      60.4  T
     SCC iter.                  ...        0 min,  0.466 sec
     gradient                   ...        0 min,  0.176 sec
 * total energy  :   -93.7839413 Eh     change       -0.1291638E-03 Eh
   gradient norm :     0.0046126 Eh/α   predicted    -0.1015389E-03 ( -21.39%)
   displ. norm   :     0.2423549 α      lambda       -0.1986063E-03
   maximum displ.:     0.1611927 α      in ANC's #5, #4, #9, ...

........................................................................
.............................. CYCLE   84 ..............................
........................................................................

 iter      E             dE          RMSdq      gap      omega  full diag
   1    -95.0759375 -0.950759E+02  0.286E-02    0.19       0.0  T
   2    -95.0759380 -0.405308E-06  0.188E-02    0.19       1.0  T
   3    -95.0759144  0.235089E-04  0.260E-02    0.20       1.0  T
   4    -95.0758597  0.547019E-04  0.376E-02    0.18       1.0  T
   5    -95.0759221 -0.623335E-04  0.152E-02    0.20       1.0  T
   6    -95.0759392 -0.171151E-04  0.167E-03    0.19       6.9  T
   7    -95.0759392 -0.465821E-07  0.146E-03    0.19       7.9  T
   8    -95.0759393 -0.869395E-07  0.313E-04    0.19      36.9  T
   9    -95.0759393  0.373511E-08  0.288E-04    0.19      40.1  T
     SCC iter.                  ...        0 min,  0.272 sec
     gradient                   ...        0 min,  0.157 sec
 * total energy  :   -93.7840739 Eh     change       -0.1326028E-03 Eh
   gradient norm :     0.0036908 Eh/α   predicted    -0.1051369E-03 ( -20.71%)
   displ. norm   :     0.6223975 α      lambda       -0.2527521E-03
   maximum displ.:     0.4564424 α      in ANC's #5, #9, #4, ...

........................................................................
.............................. CYCLE   85 ..............................
........................................................................

 iter      E             dE          RMSdq      gap      omega  full diag
   1    -95.0723777 -0.950724E+02  0.680E-02    0.19       0.0  T
   2    -95.0723736  0.406408E-05  0.408E-02    0.19       1.0  T
   3    -95.0708260  0.154756E-02  0.152E-01    0.15       1.0  T
   4    -95.0723502 -0.152421E-02  0.228E-02    0.18       1.0  T
   5    -95.0723417  0.849372E-05  0.220E-02    0.20       1.0  T
   6    -95.0723786 -0.368399E-04  0.711E-03    0.19       1.6  T
   7    -95.0723810 -0.238181E-05  0.146E-03    0.19       7.9  T
   8    -95.0723810 -0.222757E-07  0.603E-04    0.19      19.2  T
   9    -95.0723810  0.220732E-07  0.797E-04    0.19      14.5  T
  10    -95.0723810 -0.258523E-07  0.224E-04    0.19      51.6  T
  11    -95.0723810  0.232149E-09  0.204E-04    0.19      56.6  T
     SCC iter.                  ...        0 min,  0.434 sec
     gradient                   ...        0 min,  0.170 sec
 * total energy  :   -93.7842427 Eh     change       -0.1687267E-03 Eh
   gradient norm :     0.0056200 Eh/α   predicted    -0.1753310E-03 (   3.91%)
   displ. norm   :     0.4370686 α      lambda       -0.2203470E-03
   maximum displ.:     0.3103061 α      in ANC's #5, #9, #4, ...

........................................................................
.............................. CYCLE   86 ..............................
........................................................................

 iter      E             dE          RMSdq      gap      omega  full diag
   1    -95.0703429 -0.950703E+02  0.111E-01    0.16       0.0  T
   2    -95.0666203  0.372261E-02  0.290E-01    0.40       1.0  T
   3    -95.0705414 -0.392110E-02  0.105E-01    0.23       1.0  T
   4    -95.0704939  0.475201E-04  0.758E-02    0.22       1.0  T
   5    -95.0699310  0.562885E-03  0.133E-01    0.15       1.0  T
   6    -95.0708333 -0.902275E-03  0.292E-02    0.20       1.0  T
   7    -95.0708311  0.223848E-05  0.255E-02    0.20       1.0  T
   8    -95.0708637 -0.326127E-04  0.118E-03    0.19       9.8  T
   9    -95.0708623  0.139246E-05  0.513E-03    0.19       2.3  T
  10    -95.0708636 -0.134640E-05  0.109E-03    0.19      10.6  T
  11    -95.0708637 -0.587615E-07  0.165E-04    0.19      69.9  T
  12    -95.0708637  0.170034E-08  0.239E-04    0.19      48.3  T
     SCC iter.                  ...        0 min,  0.334 sec
     gradient                   ...        0 min,  0.145 sec
 * total energy  :   -93.7843671 Eh     change       -0.1244132E-03 Eh
   gradient norm :     0.0073114 Eh/α   predicted    -0.1312220E-03 (   5.47%)
   displ. norm   :     0.2528533 α      lambda       -0.1827266E-03
   maximum displ.:     0.1577444 α      in ANC's #5, #15, #32, ...

........................................................................
.............................. CYCLE   87 ..............................
........................................................................

 iter      E             dE          RMSdq      gap      omega  full diag
   1    -95.0728535 -0.950729E+02  0.437E-02    0.21       0.0  T
   2    -95.0667773  0.607617E-02  0.347E-01    0.12       1.0  T
   3    -95.0728981 -0.612077E-02  0.230E-02    0.19       1.0  T
   4    -95.0728325  0.655555E-04  0.334E-02    0.18       1.0  T
   5    -95.0729161 -0.835298E-04  0.944E-03    0.19       1.2  T
   6    -95.0729172 -0.117083E-05  0.810E-03    0.18       1.4  T
   7    -95.0729214 -0.420100E-05  0.231E-03    0.19       5.0  T
   8    -95.0729218 -0.368912E-06  0.813E-04    0.19      14.2  T
   9    -95.0729218 -0.272114E-07  0.454E-04    0.19      25.5  T
  10    -95.0729218 -0.779126E-08  0.144E-04    0.19      80.3  T
     SCC iter.                  ...        0 min,  0.314 sec
     gradient                   ...        0 min,  0.175 sec
 * total energy  :   -93.7844855 Eh     change       -0.1183988E-03 Eh
   gradient norm :     0.0043363 Eh/α   predicted    -0.9720538E-04 ( -17.90%)
   displ. norm   :     0.4191860 α      lambda       -0.1557499E-03
   maximum displ.:     0.3133480 α      in ANC's #5, #8, #2, ...

........................................................................
.............................. CYCLE   88 ..............................
........................................................................

 iter      E             dE          RMSdq      gap      omega  full diag
   1    -95.0698789 -0.950699E+02  0.546E-02    0.18       0.0  T
   2    -95.0690625  0.816384E-03  0.136E-01    0.25       1.0  T
   3    -95.0698856 -0.823099E-03  0.305E-02    0.18       1.0  T
   4    -95.0696522  0.233387E-03  0.560E-02    0.21       1.0  T
   5    -95.0698767 -0.224533E-03  0.304E-02    0.18       1.0  T
   6    -95.0699242 -0.474604E-04  0.512E-03    0.19       2.3  T
   7    -95.0699250 -0.781217E-06  0.146E-03    0.19       7.9  T
   8    -95.0699248  0.206147E-06  0.231E-03    0.19       5.0  T
   9    -95.0699250 -0.197418E-06  0.130E-03    0.19       8.9  T
  10    -95.0699251 -0.797112E-07  0.309E-04    0.19      37.4  T
  11    -95.0699251 -0.385280E-08  0.143E-04    0.19      80.7  T
     SCC iter.                  ...        0 min,  0.497 sec
     gradient                   ...        0 min,  0.180 sec
 * total energy  :   -93.7845668 Eh     change       -0.8131853E-04 Eh
   gradient norm :     0.0062266 Eh/α   predicted    -0.9155894E-04 (  12.59%)
   displ. norm   :     0.2055961 α      lambda       -0.1669481E-03
   maximum displ.:     0.0688216 α      in ANC's #5, #7, #10, ...

........................................................................
.............................. CYCLE   89 ..............................
........................................................................

 iter      E             dE          RMSdq      gap      omega  full diag
   1    -95.0762163 -0.950762E+02  0.445E-02    0.20       0.0  T
   2    -95.0712521  0.496418E-02  0.305E-01    0.12       1.0  T
   3    -95.0762700 -0.501784E-02  0.202E-02    0.19       1.0  T
   4    -95.0762622  0.778852E-05  0.157E-02    0.19       1.0  T
   5    -95.0762677 -0.554696E-05  0.574E-03    0.19       2.0  T
   6    -95.0762665  0.122117E-05  0.701E-03    0.19       1.6  T
   7    -95.0762704 -0.390040E-05  0.138E-03    0.19       8.4  T
   8    -95.0762705 -0.503963E-07  0.610E-04    0.19      18.9  T
   9    -95.0762705 -0.760379E-08  0.396E-04    0.19      29.1  T
  10    -95.0762705 -0.647789E-08  0.154E-04    0.19      75.2  T
     SCC iter.                  ...        0 min,  0.470 sec
     gradient                   ...        0 min,  0.185 sec
 * total energy  :   -93.7846242 Eh     change       -0.5742159E-04 Eh
   gradient norm :     0.0055195 Eh/α   predicted    -0.8700569E-04 (  51.52%)
   displ. norm   :     0.2917733 α      lambda       -0.1229056E-03
   maximum displ.:     0.2228701 α      in ANC's #5, #2, #4, ...

........................................................................
.............................. CYCLE   90 ..............................
........................................................................

 iter      E             dE          RMSdq      gap      omega  full diag
   1    -95.0725741 -0.950726E+02  0.320E-02    0.18       0.0  T
   2    -95.0725371  0.370182E-04  0.355E-02    0.20       1.0  T
   3    -95.0724172  0.119959E-03  0.580E-02    0.17       1.0  T
   4    -95.0725182 -0.101069E-03  0.280E-02    0.19       1.0  T
   5    -95.0725593 -0.410634E-04  0.173E-02    0.18       1.0  T
   6    -95.0725805 -0.212341E-04  0.380E-03    0.19       3.0  T
   7    -95.0725808 -0.235470E-06  0.333E-03    0.19       3.5  T
   8    -95.0725816 -0.811201E-06  0.673E-04    0.19      17.2  T
   9    -95.0725816 -0.223459E-07  0.146E-04    0.19      79.1  T
  10    -95.0725816 -0.266311E-10  0.964E-05    0.19     119.7  T
     SCC iter.                  ...        0 min,  0.437 sec
     gradient                   ...        0 min,  0.183 sec
 * total energy  :   -93.7846939 Eh     change       -0.6965612E-04 Eh
   gradient norm :     0.0034838 Eh/α   predicted    -0.6668530E-04 (  -4.26%)
   displ. norm   :     0.1460543 α      lambda       -0.6965439E-04
   maximum displ.:     0.1032197 α      in ANC's #5, #2, #13, ...

........................................................................
.............................. CYCLE   91 ..............................
........................................................................

 iter      E             dE          RMSdq      gap      omega  full diag
   1    -95.0722413 -0.950722E+02  0.293E-02    0.18       0.0  T
   2    -95.0716316  0.609720E-03  0.112E-01    0.24       1.0  T
   3    -95.0722670 -0.635416E-03  0.176E-02    0.19       1.0  T
   4    -95.0722486  0.183624E-04  0.183E-02    0.19       1.0  T
   5    -95.0722443  0.432227E-05  0.233E-02    0.18       1.0  T
   6    -95.0722755 -0.312157E-04  0.217E-03    0.19       5.3  T
   7    -95.0722746  0.960946E-06  0.402E-03    0.19       2.9  T
   8    -95.0722753 -0.745400E-06  0.220E-03    0.19       5.2  T
   9    -95.0722756 -0.265117E-06  0.321E-04    0.19      35.9  T
  10    -95.0722756 -0.227462E-08  0.121E-04    0.19      95.1  T
     SCC iter.                  ...        0 min,  0.410 sec
     gradient                   ...        0 min,  0.144 sec
 * total energy  :   -93.7847458 Eh     change       -0.5191168E-04 Eh
   gradient norm :     0.0029658 Eh/α   predicted    -0.3557191E-04 ( -31.48%)
   displ. norm   :     0.2708449 α      lambda       -0.9769569E-04
   maximum displ.:     0.1875485 α      in ANC's #5, #2, #1, ...

........................................................................
.............................. CYCLE   92 ..............................
........................................................................

 iter      E             dE          RMSdq      gap      omega  full diag
   1    -95.0727255 -0.950727E+02  0.312E-02    0.18       0.0  T
   2    -95.0723527  0.372724E-03  0.839E-02    0.22       1.0  T
   3    -95.0727351 -0.382346E-03  0.182E-02    0.18       1.0  T
   4    -95.0727362 -0.115962E-05  0.127E-02    0.18       1.0  T
   5    -95.0727104  0.258837E-04  0.195E-02    0.18       1.0  T
   6    -95.0727408 -0.304401E-04  0.214E-03    0.19       5.4  T
   7    -95.0727410 -0.201285E-06  0.719E-04    0.19      16.1  T
   8    -95.0727409  0.696514E-07  0.113E-03    0.18      10.2  T
   9    -95.0727409 -0.198191E-07  0.110E-03    0.19      10.5  T
  10    -95.0727410 -0.605359E-07  0.363E-04    0.19      31.8  T
  11    -95.0727410 -0.664392E-08  0.436E-05    0.19     265.0  T
     SCC iter.                  ...        0 min,  0.395 sec
     gradient                   ...        0 min,  0.193 sec
 * total energy  :   -93.7848183 Eh     change       -0.7254364E-04 Eh
   gradient norm :     0.0035080 Eh/α   predicted    -0.5243483E-04 ( -27.72%)
   displ. norm   :     0.3372336 α      lambda       -0.9283191E-04
   maximum displ.:     0.2327809 α      in ANC's #5, #2, #1, ...
 * RMSD in coord.:     0.7435796 α      energy gain  -0.3013813E-02 Eh

generating ANC from exact Hessian ...
Using Lindh-Hessian (1995)
 Shifting diagonal of input Hessian by    1.0162758996129747E-002
 Lowest  eigenvalues of input Hessian
    0.010000    0.010058    0.000000    0.010107    0.000000    0.000000
    0.000000    0.000000    0.000000    0.010247    0.010393    0.010474
    0.010544    0.010712    0.010773    0.010840    0.010966    0.011049
 Highest eigenvalues
    1.625630    1.887621    1.975597    2.014077    2.229090    2.306700


........................................................................
.............................. CYCLE   93 ..............................
........................................................................

 iter      E             dE          RMSdq      gap      omega  full diag
   1    -95.0731644 -0.950732E+02  0.337E-02    0.18       0.0  T
   2    -95.0731293  0.351040E-04  0.311E-02    0.19       1.0  T
   3    -95.0725508  0.578539E-03  0.105E-01    0.16       1.0  T
   4    -95.0731523 -0.601545E-03  0.152E-02    0.18       1.0  T
   5    -95.0731502  0.210209E-05  0.135E-02    0.19       1.0  T
   6    -95.0731666 -0.163168E-04  0.128E-03    0.18       9.1  T
   7    -95.0731666 -0.148170E-07  0.114E-03    0.18      10.1  T
   8    -95.0731666 -0.495977E-07  0.493E-04    0.18      23.4  T
   9    -95.0731666 -0.114577E-07  0.190E-04    0.18      60.7  T
     SCC iter.                  ...        0 min,  0.373 sec
     gradient                   ...        0 min,  0.155 sec
 * total energy  :   -93.7848899 Eh     change       -0.7162147E-04 Eh
   gradient norm :     0.0035245 Eh/α   predicted     0.0000000E+00 (-100.00%)
   displ. norm   :     0.0509150 α      lambda       -0.6122720E-04
   maximum displ.:     0.0153155 α      in ANC's #26, #24, #41, ...

........................................................................
.............................. CYCLE   94 ..............................
........................................................................

 iter      E             dE          RMSdq      gap      omega  full diag
   1    -95.0746669 -0.950747E+02  0.367E-02    0.19       0.0  T
   2    -95.0738060  0.860950E-03  0.128E-01    0.15       1.0  T
   3    -95.0745881 -0.782120E-03  0.449E-02    0.20       1.0  T
   4    -95.0746781 -0.900104E-04  0.147E-02    0.19       1.0  T
   5    -95.0746541  0.240242E-04  0.179E-02    0.19       1.0  T
   6    -95.0746816 -0.274734E-04  0.432E-03    0.18       2.7  T
   7    -95.0746825 -0.970778E-06  0.149E-03    0.18       7.8  T
   8    -95.0746826 -0.708493E-07  0.398E-04    0.18      29.0  T
   9    -95.0746826  0.262028E-07  0.725E-04    0.18      15.9  T
  10    -95.0746826 -0.297940E-07  0.816E-05    0.18     141.5  T
     SCC iter.                  ...        0 min,  0.367 sec
     gradient                   ...        0 min,  0.154 sec
 * total energy  :   -93.7848920 Eh     change       -0.2023714E-05 Eh
   gradient norm :     0.0036765 Eh/α   predicted    -0.3149474E-04 (1456.28%)
   displ. norm   :     0.0604071 α      lambda       -0.9207492E-04
   maximum displ.:     0.0233774 α      in ANC's #16, #44, #5, ...

........................................................................
.............................. CYCLE   95 ..............................
........................................................................

 iter      E             dE          RMSdq      gap      omega  full diag
   1    -95.0762611 -0.950763E+02  0.301E-02    0.20       0.0  T
   2    -95.0748047  0.145642E-02  0.169E-01    0.14       1.0  T
   3    -95.0762798 -0.147505E-02  0.180E-02    0.18       1.0  T
   4    -95.0762555  0.242373E-04  0.221E-02    0.18       1.0  T
   5    -95.0762567 -0.115563E-05  0.187E-02    0.19       1.0  T
   6    -95.0762865 -0.298622E-04  0.233E-03    0.19       5.0  T
   7    -95.0762865 -0.346471E-08  0.222E-03    0.19       5.2  T
   8    -95.0762868 -0.272865E-06  0.435E-04    0.19      26.5  T
   9    -95.0762868  0.804617E-08  0.486E-04    0.19      23.8  T
     SCC iter.                  ...        0 min,  0.340 sec
     gradient                   ...        0 min,  0.163 sec
 * total energy  :   -93.7849076 Eh     change       -0.1559740E-04 Eh
   gradient norm :     0.0032808 Eh/α   predicted    -0.4620631E-04 ( 196.24%)
   displ. norm   :     0.0505605 α      lambda       -0.8072162E-04
   maximum displ.:     0.0163703 α      in ANC's #48, #24, #30, ...

........................................................................
.............................. CYCLE   96 ..............................
........................................................................

 iter      E             dE          RMSdq      gap      omega  full diag
   1    -95.0756886 -0.950757E+02  0.339E-02    0.18       0.0  T
   2    -95.0755214  0.167194E-03  0.590E-02    0.21       1.0  T
   3    -95.0754806  0.408243E-04  0.634E-02    0.17       1.0  T
   4    -95.0756896 -0.209052E-03  0.141E-02    0.19       1.0  T
   5    -95.0756948 -0.513596E-05  0.795E-03    0.19       1.5  T
   6    -95.0756974 -0.263319E-05  0.306E-03    0.19       3.8  T
   7    -95.0756959  0.146426E-05  0.545E-03    0.18       2.1  T
   8    -95.0756982 -0.225213E-05  0.116E-03    0.19      10.0  T
   9    -95.0756982 -0.403717E-07  0.612E-04    0.19      18.9  T
  10    -95.0756983 -0.196776E-07  0.108E-04    0.19     106.8  T
  11    -95.0756983 -0.688956E-09  0.428E-05    0.19     269.9  T
     SCC iter.                  ...        0 min,  0.479 sec
     gradient                   ...        0 min,  0.166 sec
 * total energy  :   -93.7849305 Eh     change       -0.2297018E-04 Eh
   gradient norm :     0.0023623 Eh/α   predicted    -0.4046490E-04 (  76.16%)
   displ. norm   :     0.0297857 α      lambda       -0.3265219E-04
   maximum displ.:     0.0107064 α      in ANC's #5, #24, #32, ...

........................................................................
.............................. CYCLE   97 ..............................
........................................................................

 iter      E             dE          RMSdq      gap      omega  full diag
   1    -95.0750368 -0.950750E+02  0.192E-02    0.18       0.0  T
   2    -95.0749982  0.385662E-04  0.324E-02    0.20       1.0  T
   3    -95.0749918  0.647176E-05  0.290E-02    0.18       1.0  T
   4    -95.0750207 -0.289369E-04  0.169E-02    0.19       1.0  T
   5    -95.0750292 -0.850213E-05  0.112E-02    0.18       1.0  T
   6    -95.0750395 -0.102988E-04  0.168E-03    0.18       6.9  T
   7    -95.0750395 -0.499356E-07  0.797E-04    0.19      14.5  T
   8    -95.0750396 -0.213258E-07  0.298E-04    0.19      38.7  T
   9    -95.0750396 -0.149214E-09  0.237E-04    0.19      48.7  T
     SCC iter.                  ...        0 min,  0.353 sec
     gradient                   ...        0 min,  0.143 sec
 * total energy  :   -93.7849487 Eh     change       -0.1822044E-04 Eh
   gradient norm :     0.0007210 Eh/α   predicted    -0.1634083E-04 ( -10.32%)
   displ. norm   :     0.0769486 α      lambda       -0.1755730E-04
   maximum displ.:     0.0348807 α      in ANC's #5, #12, #1, ...

........................................................................
.............................. CYCLE   98 ..............................
........................................................................

 iter      E             dE          RMSdq      gap      omega  full diag
   1    -95.0747325 -0.950747E+02  0.186E-02    0.19       0.0  T
   2    -95.0747313  0.114740E-05  0.111E-02    0.18       1.0  T
   3    -95.0746589  0.724051E-04  0.354E-02    0.20       1.0  T
   4    -95.0747323 -0.733085E-04  0.584E-03    0.19       2.0  T
   5    -95.0747322  0.258827E-07  0.438E-03    0.18       2.6  T
   6    -95.0747316  0.663120E-06  0.455E-03    0.18       2.5  T
   7    -95.0747326 -0.106947E-05  0.300E-03    0.19       3.8  T
   8    -95.0747332 -0.575476E-06  0.268E-04    0.18      43.1  T
   9    -95.0747332 -0.180613E-08  0.103E-04    0.18     112.0  T
  10    -95.0747332  0.337621E-09  0.108E-04    0.18     106.6  T
     SCC iter.                  ...        0 min,  0.331 sec
     gradient                   ...        0 min,  0.157 sec
 * total energy  :   -93.7849580 Eh     change       -0.9236198E-05 Eh
   gradient norm :     0.0016386 Eh/α   predicted    -0.8802682E-05 (  -4.69%)
   displ. norm   :     0.1218366 α      lambda       -0.2515667E-04
   maximum displ.:     0.0576239 α      in ANC's #5, #12, #2, ...

........................................................................
.............................. CYCLE   99 ..............................
........................................................................

 iter      E             dE          RMSdq      gap      omega  full diag
   1    -95.0744513 -0.950745E+02  0.225E-02    0.18       0.0  T
   2    -95.0744515 -0.145349E-06  0.142E-02    0.19       1.0  T
   3    -95.0744445  0.692592E-05  0.178E-02    0.18       1.0  T
   4    -95.0744102  0.343715E-04  0.268E-02    0.19       1.0  T
   5    -95.0744402 -0.300372E-04  0.120E-02    0.18       1.0  T
   6    -95.0744518 -0.116011E-04  0.198E-03    0.19       5.8  T
   7    -95.0744520 -0.237227E-06  0.404E-04    0.18      28.6  T
   8    -95.0744520  0.169109E-08  0.298E-04    0.18      38.7  T
     SCC iter.                  ...        0 min,  0.327 sec
     gradient                   ...        0 min,  0.162 sec
 * total energy  :   -93.7849822 Eh     change       -0.2421989E-04 Eh
   gradient norm :     0.0013437 Eh/α   predicted    -0.1266265E-04 ( -47.72%)
   displ. norm   :     0.1612068 α      lambda       -0.2589765E-04
   maximum displ.:     0.0808934 α      in ANC's #5, #2, #1, ...

........................................................................
.............................. CYCLE  100 ..............................
........................................................................

 iter      E             dE          RMSdq      gap      omega  full diag
   1    -95.0740655 -0.950741E+02  0.263E-02    0.18       0.0  T
   2    -95.0740194  0.460750E-04  0.348E-02    0.20       1.0  T
   3    -95.0739222  0.971561E-04  0.516E-02    0.17       1.0  T
   4    -95.0740284 -0.106167E-03  0.246E-02    0.19       1.0  T
   5    -95.0740669 -0.384451E-04  0.289E-03    0.18       4.0  T
   6    -95.0740664  0.481773E-06  0.363E-03    0.19       3.2  T
   7    -95.0740674 -0.105652E-05  0.104E-03    0.18      11.1  T
   8    -95.0740675 -0.626064E-07  0.311E-04    0.18      37.1  T
   9    -95.0740675  0.192050E-07  0.632E-04    0.18      18.3  T
  10    -95.0740675 -0.243065E-07  0.592E-05    0.18     195.0  T
     SCC iter.                  ...        0 min,  0.355 sec
     gradient                   ...        0 min,  0.144 sec
 * total energy  :   -93.7850025 Eh     change       -0.2026257E-04 Eh
   gradient norm :     0.0011705 Eh/α   predicted    -0.1309915E-04 ( -35.35%)
   displ. norm   :     0.1436828 α      lambda       -0.2002113E-04
   maximum displ.:     0.0750717 α      in ANC's #5, #2, #11, ...

........................................................................
.............................. CYCLE  101 ..............................
........................................................................

 iter      E             dE          RMSdq      gap      omega  full diag
   1    -95.0742527 -0.950743E+02  0.214E-02    0.18       0.0  T
   2    -95.0742314  0.212817E-04  0.252E-02    0.19       1.0  T
   3    -95.0741551  0.762392E-04  0.440E-02    0.17       1.0  T
   4    -95.0742342 -0.790336E-04  0.171E-02    0.19       1.0  T
   5    -95.0742493 -0.151202E-04  0.822E-03    0.18       1.4  T
   6    -95.0742537 -0.442665E-05  0.351E-03    0.19       3.3  T
   7    -95.0742544 -0.700902E-06  0.162E-03    0.18       7.1  T
   8    -95.0742546 -0.186201E-06  0.140E-04    0.18      82.5  T
   9    -95.0742546  0.140736E-08  0.168E-04    0.18      68.7  T
     SCC iter.                  ...        0 min,  0.329 sec
     gradient                   ...        0 min,  0.170 sec
 * total energy  :   -93.7850202 Eh     change       -0.1777783E-04 Eh
   gradient norm :     0.0014409 Eh/α   predicted    -0.1010436E-04 ( -43.16%)
   displ. norm   :     0.1708340 α      lambda       -0.2229239E-04
   maximum displ.:     0.0897644 α      in ANC's #5, #11, #2, ...

........................................................................
.............................. CYCLE  102 ..............................
........................................................................

 iter      E             dE          RMSdq      gap      omega  full diag
   1    -95.0749668 -0.950750E+02  0.219E-02    0.19       0.0  T
   2    -95.0749378  0.289639E-04  0.254E-02    0.18       1.0  T
   3    -95.0748744  0.634396E-04  0.436E-02    0.20       1.0  T
   4    -95.0749528 -0.784597E-04  0.173E-02    0.19       1.0  T
   5    -95.0749454  0.739712E-05  0.168E-02    0.19       1.0  T
   6    -95.0749676 -0.221636E-04  0.362E-03    0.18       3.2  T
   7    -95.0749682 -0.633467E-06  0.201E-03    0.18       5.7  T
   8    -95.0749685 -0.260506E-06  0.202E-04    0.18      57.3  T
   9    -95.0749685 -0.549335E-09  0.114E-04    0.18     101.1  T
     SCC iter.                  ...        0 min,  0.334 sec
     gradient                   ...        0 min,  0.152 sec
 * total energy  :   -93.7850433 Eh     change       -0.2308271E-04 Eh
   gradient norm :     0.0011302 Eh/α   predicted    -0.1129230E-04 ( -51.08%)
   displ. norm   :     0.2084391 α      lambda       -0.2213153E-04
   maximum displ.:     0.1111351 α      in ANC's #5, #11, #2, ...

........................................................................
.............................. CYCLE  103 ..............................
........................................................................

 iter      E             dE          RMSdq      gap      omega  full diag
   1    -95.0749607 -0.950750E+02  0.258E-02    0.18       0.0  T
   2    -95.0749612 -0.445560E-06  0.147E-02    0.18       1.0  T
   3    -95.0749591  0.209240E-05  0.106E-02    0.18       1.1  T
   4    -95.0749281  0.309261E-04  0.276E-02    0.19       1.0  T
   5    -95.0749531 -0.249960E-04  0.106E-02    0.18       1.1  T
   6    -95.0749605 -0.734350E-05  0.410E-03    0.19       2.8  T
   7    -95.0749615 -0.100589E-05  0.190E-03    0.18       6.1  T
   8    -95.0749617 -0.245371E-06  0.275E-04    0.18      41.9  T
   9    -95.0749617 -0.259263E-09  0.238E-04    0.18      48.6  T
     SCC iter.                  ...        0 min,  0.290 sec
     gradient                   ...        0 min,  0.161 sec
 * total energy  :   -93.7850595 Eh     change       -0.1616763E-04 Eh
   gradient norm :     0.0012942 Eh/α   predicted    -0.1128237E-04 ( -30.22%)
   displ. norm   :     0.1511733 α      lambda       -0.1825705E-04
   maximum displ.:     0.0817045 α      in ANC's #5, #11, #2, ...

........................................................................
.............................. CYCLE  104 ..............................
........................................................................

 iter      E             dE          RMSdq      gap      omega  full diag
   1    -95.0748043 -0.950748E+02  0.207E-02    0.18       0.0  T
   2    -95.0747989  0.539705E-05  0.152E-02    0.18       1.0  T
   3    -95.0747000  0.988907E-04  0.393E-02    0.17       1.0  T
   4    -95.0747844 -0.844049E-04  0.242E-02    0.19       1.0  T
   5    -95.0747921 -0.773962E-05  0.140E-02    0.19       1.0  T
   6    -95.0748062 -0.140867E-04  0.141E-03    0.18       8.2  T
   7    -95.0748063 -0.113857E-06  0.587E-04    0.18      19.7  T
   8    -95.0748063  0.835102E-08  0.737E-04    0.18      15.7  T
   9    -95.0748063 -0.276581E-07  0.356E-04    0.18      32.5  T
  10    -95.0748063 -0.701469E-08  0.572E-05    0.18     201.8  T
     SCC iter.                  ...        0 min,  0.373 sec
     gradient                   ...        0 min,  0.151 sec
 * total energy  :   -93.7850755 Eh     change       -0.1602749E-04 Eh
   gradient norm :     0.0010620 Eh/α   predicted    -0.9221802E-05 ( -42.46%)
   displ. norm   :     0.1333036 α      lambda       -0.1465864E-04
   maximum displ.:     0.0725780 α      in ANC's #5, #11, #2, ...

........................................................................
.............................. CYCLE  105 ..............................
........................................................................

 iter      E             dE          RMSdq      gap      omega  full diag
   1    -95.0751895 -0.950752E+02  0.165E-02    0.18       0.0  T
   2    -95.0751871  0.236976E-05  0.109E-02    0.18       1.1  T
   3    -95.0750939  0.931919E-04  0.401E-02    0.20       1.0  T
   4    -95.0751876 -0.936546E-04  0.703E-03    0.19       1.6  T
   5    -95.0751889 -0.136191E-05  0.361E-03    0.18       3.2  T
   6    -95.0751898 -0.839840E-06  0.119E-03    0.18       9.7  T
   7    -95.0751898 -0.616046E-07  0.504E-04    0.18      22.9  T
   8    -95.0751898  0.483610E-09  0.471E-04    0.18      24.5  T
   9    -95.0751898 -0.126076E-07  0.195E-04    0.18      59.3  T
     SCC iter.                  ...        0 min,  0.307 sec
     gradient                   ...        0 min,  0.150 sec
 * total energy  :   -93.7850907 Eh     change       -0.1522490E-04 Eh
   gradient norm :     0.0011289 Eh/α   predicted    -0.7390844E-05 ( -51.46%)
   displ. norm   :     0.1983369 α      lambda       -0.1876449E-04
   maximum displ.:     0.1080465 α      in ANC's #5, #2, #11, ...

........................................................................
.............................. CYCLE  106 ..............................
........................................................................

 iter      E             dE          RMSdq      gap      omega  full diag
   1    -95.0752675 -0.950753E+02  0.233E-02    0.18       0.0  T
   2    -95.0752670  0.405785E-06  0.151E-02    0.18       1.0  T
   3    -95.0752325  0.345281E-04  0.297E-02    0.19       1.0  T
   4    -95.0751914  0.411261E-04  0.344E-02    0.17       1.0  T
   5    -95.0752633 -0.719064E-04  0.840E-03    0.19       1.4  T
   6    -95.0752678 -0.445860E-05  0.129E-03    0.18       8.9  T
   7    -95.0752678 -0.884712E-07  0.517E-04    0.18      22.3  T
   8    -95.0752679 -0.130491E-07  0.324E-04    0.18      35.6  T
   9    -95.0752679 -0.374546E-08  0.178E-04    0.18      65.0  T
     SCC iter.                  ...        0 min,  0.375 sec
     gradient                   ...        0 min,  0.179 sec
 * total energy  :   -93.7851113 Eh     change       -0.2057703E-04 Eh
   gradient norm :     0.0010338 Eh/α   predicted    -0.9548608E-05 ( -53.60%)
   displ. norm   :     0.2396751 α      lambda       -0.1850849E-04
   maximum displ.:     0.1317294 α      in ANC's #5, #2, #11, ...

........................................................................
.............................. CYCLE  107 ..............................
........................................................................

 iter      E             dE          RMSdq      gap      omega  full diag
   1    -95.0746077 -0.950746E+02  0.260E-02    0.18       0.0  T
   2    -95.0744490  0.158709E-03  0.574E-02    0.20       1.0  T
   3    -95.0745964 -0.147428E-03  0.211E-02    0.18       1.0  T
   4    -95.0746046 -0.821276E-05  0.118E-02    0.18       1.0  T
   5    -95.0746018  0.282544E-05  0.120E-02    0.18       1.0  T
   6    -95.0746132 -0.113612E-04  0.923E-04    0.18      12.5  T
   7    -95.0746132 -0.928139E-08  0.573E-04    0.18      20.2  T
   8    -95.0746132  0.198628E-08  0.562E-04    0.18      20.5  T
   9    -95.0746132 -0.988737E-08  0.394E-04    0.18      29.3  T
  10    -95.0746132 -0.756195E-08  0.192E-04    0.18      60.0  T
     SCC iter.                  ...        0 min,  0.398 sec
     gradient                   ...        0 min,  0.163 sec
 * total energy  :   -93.7851306 Eh     change       -0.1931255E-04 Eh
   gradient norm :     0.0009858 Eh/α   predicted    -0.9492176E-05 ( -50.85%)
   displ. norm   :     0.2312197 α      lambda       -0.1685982E-04
   maximum displ.:     0.1258666 α      in ANC's #5, #2, #1, ...

........................................................................
.............................. CYCLE  108 ..............................
........................................................................

 iter      E             dE          RMSdq      gap      omega  full diag
   1    -95.0747869 -0.950748E+02  0.229E-02    0.18       0.0  T
   2    -95.0747583  0.286058E-04  0.256E-02    0.19       1.0  T
   3    -95.0746237  0.134648E-03  0.551E-02    0.17       1.0  T
   4    -95.0747803 -0.156634E-03  0.114E-02    0.18       1.0  T
   5    -95.0747817 -0.139074E-05  0.873E-03    0.19       1.3  T
   6    -95.0747881 -0.641104E-05  0.101E-03    0.18      11.4  T
   7    -95.0747881 -0.144368E-07  0.645E-04    0.18      17.9  T
   8    -95.0747881 -0.107543E-07  0.289E-04    0.18      39.9  T
   9    -95.0747881 -0.202789E-08  0.135E-04    0.18      85.5  T
     SCC iter.                  ...        0 min,  0.342 sec
     gradient                   ...        0 min,  0.175 sec
 * total energy  :   -93.7851506 Eh     change       -0.1998307E-04 Eh
   gradient norm :     0.0009502 Eh/α   predicted    -0.8633986E-05 ( -56.79%)
   displ. norm   :     0.3437184 α      lambda       -0.2585034E-04
   maximum displ.:     0.1879254 α      in ANC's #5, #2, #4, ...

........................................................................
.............................. CYCLE  109 ..............................
........................................................................

 iter      E             dE          RMSdq      gap      omega  full diag
   1    -95.0742617 -0.950743E+02  0.319E-02    0.18       0.0  T
   2    -95.0741513  0.110435E-03  0.466E-02    0.20       1.0  T
   3    -95.0741010  0.502929E-04  0.570E-02    0.17       1.0  T
   4    -95.0742482 -0.147208E-03  0.169E-02    0.18       1.0  T
   5    -95.0742480  0.158302E-06  0.149E-02    0.19       1.0  T
   6    -95.0742655 -0.174978E-04  0.152E-03    0.18       7.6  T
   7    -95.0742654  0.157047E-06  0.195E-03    0.18       5.9  T
   8    -95.0742656 -0.198873E-06  0.555E-04    0.18      20.8  T
   9    -95.0742656 -0.152593E-07  0.160E-04    0.18      72.4  T
  10    -95.0742656  0.539373E-09  0.105E-04    0.18     109.5  T
     SCC iter.                  ...        0 min,  0.426 sec
     gradient                   ...        0 min,  0.177 sec
 * total energy  :   -93.7851786 Eh     change       -0.2802729E-04 Eh
   gradient norm :     0.0016154 Eh/α   predicted    -0.1360744E-04 ( -51.45%)
   displ. norm   :     0.4482552 α      lambda       -0.3672691E-04
   maximum displ.:     0.2434626 α      in ANC's #5, #2, #4, ...

........................................................................
.............................. CYCLE  110 ..............................
........................................................................

 iter      E             dE          RMSdq      gap      omega  full diag
   1    -95.0732100 -0.950732E+02  0.405E-02    0.18       0.0  T
   2    -95.0730067  0.203258E-03  0.650E-02    0.20       1.0  T
   3    -95.0730046  0.209477E-05  0.645E-02    0.16       1.0  T
   4    -95.0732068 -0.202189E-03  0.208E-02    0.19       1.0  T
   5    -95.0731890  0.178116E-04  0.187E-02    0.19       1.0  T
   6    -95.0732169 -0.278543E-04  0.225E-03    0.18       5.1  T
   7    -95.0732171 -0.245101E-06  0.134E-03    0.18       8.6  T
   8    -95.0732172 -0.496765E-07  0.625E-04    0.18      18.5  T
   9    -95.0732172 -0.706517E-08  0.422E-04    0.18      27.4  T
  10    -95.0732172 -0.576981E-08  0.218E-04    0.18      52.9  T
     SCC iter.                  ...        0 min,  0.360 sec
     gradient                   ...        0 min,  0.178 sec
 * total energy  :   -93.7852062 Eh     change       -0.2755624E-04 Eh
   gradient norm :     0.0023618 Eh/α   predicted    -0.2000613E-04 ( -27.40%)
   displ. norm   :     0.1477146 α      lambda       -0.2715141E-04
   maximum displ.:     0.0748028 α      in ANC's #5, #2, #4, ...

........................................................................
.............................. CYCLE  111 ..............................
........................................................................

 iter      E             dE          RMSdq      gap      omega  full diag
   1    -95.0745193 -0.950745E+02  0.167E-02    0.18       0.0  T
   2    -95.0743917  0.127688E-03  0.510E-02    0.17       1.0  T
   3    -95.0745188 -0.127142E-03  0.110E-02    0.18       1.1  T
   4    -95.0745132  0.557446E-05  0.107E-02    0.18       1.1  T
   5    -95.0745149 -0.172778E-05  0.102E-02    0.19       1.1  T
   6    -95.0745220 -0.703893E-05  0.164E-03    0.18       7.1  T
   7    -95.0745221 -0.788053E-07  0.427E-04    0.18      27.0  T
   8    -95.0745221  0.138228E-07  0.596E-04    0.18      19.4  T
   9    -95.0745221 -0.220034E-07  0.108E-04    0.18     107.0  T
     SCC iter.                  ...        0 min,  0.383 sec
     gradient                   ...        0 min,  0.170 sec
 * total energy  :   -93.7852253 Eh     change       -0.1911732E-04 Eh
   gradient norm :     0.0013395 Eh/α   predicted    -0.1387674E-04 ( -27.41%)
   displ. norm   :     0.2958369 α      lambda       -0.2245101E-04
   maximum displ.:     0.1583860 α      in ANC's #5, #2, #4, ...

........................................................................
.............................. CYCLE  112 ..............................
........................................................................

 iter      E             dE          RMSdq      gap      omega  full diag
   1    -95.0745538 -0.950746E+02  0.319E-02    0.18       0.0  T
   2    -95.0745332  0.205124E-04  0.303E-02    0.18       1.0  T
   3    -95.0743804  0.152858E-03  0.591E-02    0.20       1.0  T
   4    -95.0744794 -0.990413E-04  0.306E-02    0.17       1.0  T
   5    -95.0745291 -0.497134E-04  0.197E-02    0.19       1.0  T
   6    -95.0745545 -0.253593E-04  0.314E-03    0.18       3.7  T
   7    -95.0745549 -0.378935E-06  0.140E-03    0.18       8.2  T
   8    -95.0745549 -0.713906E-07  0.780E-04    0.18      14.8  T
   9    -95.0745550 -0.190073E-07  0.421E-04    0.18      27.4  T
  10    -95.0745550 -0.821971E-08  0.431E-05    0.18     267.9  T
     SCC iter.                  ...        0 min,  0.413 sec
     gradient                   ...        0 min,  0.160 sec
 * total energy  :   -93.7852441 Eh     change       -0.1882297E-04 Eh
   gradient norm :     0.0012188 Eh/α   predicted    -0.1166523E-04 ( -38.03%)
   displ. norm   :     0.1531851 α      lambda       -0.1071612E-04
   maximum displ.:     0.0794819 α      in ANC's #2, #5, #4, ...

........................................................................
.............................. CYCLE  113 ..............................
........................................................................

 iter      E             dE          RMSdq      gap      omega  full diag
   1    -95.0753673 -0.950754E+02  0.146E-02    0.18       0.0  T
   2    -95.0753486  0.187127E-04  0.219E-02    0.18       1.0  T
   3    -95.0753408  0.775856E-05  0.225E-02    0.19       1.0  T
   4    -95.0753599 -0.191417E-04  0.111E-02    0.18       1.0  T
   5    -95.0753639 -0.398029E-05  0.774E-03    0.19       1.5  T
   6    -95.0753679 -0.396655E-05  0.102E-03    0.18      11.3  T
   7    -95.0753679 -0.481022E-07  0.450E-04    0.18      25.7  T
   8    -95.0753680 -0.133370E-07  0.165E-04    0.18      69.8  T
     SCC iter.                  ...        0 min,  0.311 sec
     gradient                   ...        0 min,  0.166 sec
 * total energy  :   -93.7852556 Eh     change       -0.1144893E-04 Eh
   gradient norm :     0.0009657 Eh/α   predicted    -0.5418023E-05 ( -52.68%)
   displ. norm   :     0.1994548 α      lambda       -0.1338689E-04
   maximum displ.:     0.1053110 α      in ANC's #2, #5, #4, ...

........................................................................
.............................. CYCLE  114 ..............................
........................................................................

 iter      E             dE          RMSdq      gap      omega  full diag
   1    -95.0746980 -0.950747E+02  0.189E-02    0.18       0.0  T
   2    -95.0746924  0.563296E-05  0.170E-02    0.19       1.0  T
   3    -95.0746131  0.793276E-04  0.416E-02    0.17       1.0  T
   4    -95.0746773 -0.641952E-04  0.179E-02    0.19       1.0  T
   5    -95.0746903 -0.130117E-04  0.102E-02    0.18       1.1  T
   6    -95.0746987 -0.841097E-05  0.133E-03    0.18       8.7  T
   7    -95.0746988 -0.113281E-06  0.486E-04    0.18      23.8  T
   8    -95.0746988 -0.615498E-08  0.329E-04    0.18      35.0  T
     SCC iter.                  ...        0 min,  0.322 sec
     gradient                   ...        0 min,  0.181 sec
 * total energy  :   -93.7852694 Eh     change       -0.1385562E-04 Eh
   gradient norm :     0.0009767 Eh/α   predicted    -0.6816390E-05 ( -50.80%)
   displ. norm   :     0.1529303 α      lambda       -0.1082247E-04
   maximum displ.:     0.0863260 α      in ANC's #2, #5, #4, ...

........................................................................
.............................. CYCLE  115 ..............................
........................................................................

 iter      E             dE          RMSdq      gap      omega  full diag
   1    -95.0756065 -0.950756E+02  0.154E-02    0.18       0.0  T
   2    -95.0755997  0.674000E-05  0.180E-02    0.18       1.0  T
   3    -95.0755735  0.262388E-04  0.253E-02    0.19       1.0  T
   4    -95.0755851 -0.115768E-04  0.182E-02    0.18       1.0  T
   5    -95.0755995 -0.143942E-04  0.993E-03    0.19       1.2  T
   6    -95.0756070 -0.753130E-05  0.960E-04    0.18      12.0  T
   7    -95.0756070 -0.447187E-09  0.773E-04    0.18      14.9  T
   8    -95.0756070 -0.236147E-07  0.247E-04    0.18      46.7  T
   9    -95.0756070 -0.155124E-08  0.149E-04    0.18      77.6  T
     SCC iter.                  ...        0 min,  0.343 sec
     gradient                   ...        0 min,  0.172 sec
 * total energy  :   -93.7852810 Eh     change       -0.1158529E-04 Eh
   gradient norm :     0.0010023 Eh/α   predicted    -0.5469976E-05 ( -52.79%)
   displ. norm   :     0.1984957 α      lambda       -0.1125603E-04
   maximum displ.:     0.1108231 α      in ANC's #2, #5, #4, ...

........................................................................
.............................. CYCLE  116 ..............................
........................................................................

 iter      E             dE          RMSdq      gap      omega  full diag
   1    -95.0748930 -0.950749E+02  0.176E-02    0.18       0.0  T
   2    -95.0748830  0.100495E-04  0.186E-02    0.19       1.0  T
   3    -95.0748064  0.765802E-04  0.406E-02    0.17       1.0  T
   4    -95.0748876 -0.811953E-04  0.116E-02    0.18       1.0  T
   5    -95.0748922 -0.462527E-05  0.449E-03    0.18       2.6  T
   6    -95.0748935 -0.129934E-05  0.174E-03    0.18       6.6  T
   7    -95.0748937 -0.228872E-06  0.578E-04    0.18      20.0  T
   8    -95.0748938 -0.190380E-07  0.171E-04    0.18      67.5  T
   9    -95.0748938 -0.511776E-09  0.860E-05    0.18     134.2  T
     SCC iter.                  ...        0 min,  0.428 sec
     gradient                   ...        0 min,  0.193 sec
 * total energy  :   -93.7852932 Eh     change       -0.1215079E-04 Eh
   gradient norm :     0.0009108 Eh/α   predicted    -0.5728662E-05 ( -52.85%)
   displ. norm   :     0.1515552 α      lambda       -0.1110010E-04
   maximum displ.:     0.0907657 α      in ANC's #2, #3, #4, ...

........................................................................
.............................. CYCLE  117 ..............................
........................................................................

 iter      E             dE          RMSdq      gap      omega  full diag
   1    -95.0757435 -0.950757E+02  0.146E-02    0.18       0.0  T
   2    -95.0757299  0.135338E-04  0.185E-02    0.18       1.0  T
   3    -95.0756979  0.320274E-04  0.296E-02    0.19       1.0  T
   4    -95.0757435 -0.456145E-04  0.595E-03    0.18       1.9  T
   5    -95.0757428  0.707597E-06  0.389E-03    0.18       3.0  T
   6    -95.0757438 -0.101599E-05  0.177E-03    0.18       6.5  T
   7    -95.0757441 -0.241898E-06  0.477E-04    0.18      24.2  T
   8    -95.0757441 -0.572396E-08  0.205E-04    0.18      56.5  T
     SCC iter.                  ...        0 min,  0.343 sec
     gradient                   ...        0 min,  0.172 sec
 * total energy  :   -93.7853047 Eh     change       -0.1152973E-04 Eh
   gradient norm :     0.0008259 Eh/α   predicted    -0.5611568E-05 ( -51.33%)
   displ. norm   :     0.1539583 α      lambda       -0.9577718E-05
   maximum displ.:     0.0914093 α      in ANC's #2, #3, #5, ...

........................................................................
.............................. CYCLE  118 ..............................
........................................................................

 iter      E             dE          RMSdq      gap      omega  full diag
   1    -95.0753343 -0.950753E+02  0.160E-02    0.18       0.0  T
   2    -95.0752744  0.598775E-04  0.317E-02    0.19       1.0  T
   3    -95.0753096 -0.352140E-04  0.247E-02    0.17       1.0  T
   4    -95.0753313 -0.216746E-04  0.908E-03    0.18       1.3  T
   5    -95.0753284  0.292790E-05  0.978E-03    0.18       1.2  T
   6    -95.0753363 -0.793132E-05  0.883E-04    0.18      13.1  T
   7    -95.0753363  0.373467E-07  0.965E-04    0.18      12.0  T
   8    -95.0753363 -0.405153E-07  0.512E-04    0.18      22.5  T
   9    -95.0753363 -0.761119E-08  0.352E-04    0.18      32.8  T
  10    -95.0753363 -0.784416E-08  0.741E-05    0.18     155.8  T
     SCC iter.                  ...        0 min,  0.374 sec
     gradient                   ...        0 min,  0.166 sec
 * total energy  :   -93.7853157 Eh     change       -0.1100383E-04 Eh
   gradient norm :     0.0008795 Eh/α   predicted    -0.4843297E-05 ( -55.99%)
   displ. norm   :     0.1484723 α      lambda       -0.9178253E-05
   maximum displ.:     0.0902675 α      in ANC's #2, #3, #4, ...

........................................................................
.............................. CYCLE  119 ..............................
........................................................................

 iter      E             dE          RMSdq      gap      omega  full diag
   1    -95.0753782 -0.950754E+02  0.149E-02    0.18       0.0  T
   2    -95.0753656  0.125990E-04  0.170E-02    0.18       1.0  T
   3    -95.0753217  0.439079E-04  0.328E-02    0.19       1.0  T
   4    -95.0753780 -0.563115E-04  0.608E-03    0.18       1.9  T
   5    -95.0753786 -0.634875E-06  0.154E-03    0.18       7.5  T
   6    -95.0753786 -0.341159E-07  0.753E-04    0.18      15.3  T
   7    -95.0753786  0.132284E-07  0.718E-04    0.18      16.1  T
   8    -95.0753787 -0.362605E-07  0.276E-04    0.18      41.8  T
   9    -95.0753787 -0.504433E-08  0.989E-05    0.18     116.8  T
     SCC iter.                  ...        0 min,  0.361 sec
     gradient                   ...        0 min,  0.158 sec
 * total energy  :   -93.7853273 Eh     change       -0.1162317E-04 Eh
   gradient norm :     0.0007145 Eh/α   predicted    -0.4636735E-05 ( -60.11%)
   displ. norm   :     0.1764145 α      lambda       -0.1106007E-04
   maximum displ.:     0.1080915 α      in ANC's #2, #3, #4, ...

........................................................................
.............................. CYCLE  120 ..............................
........................................................................

 iter      E             dE          RMSdq      gap      omega  full diag
   1    -95.0751292 -0.950751E+02  0.187E-02    0.18       0.0  T
   2    -95.0751152  0.140198E-04  0.197E-02    0.19       1.0  T
   3    -95.0750098  0.105451E-03  0.473E-02    0.17       1.0  T
   4    -95.0751281 -0.118346E-03  0.907E-03    0.18       1.3  T
   5    -95.0751293 -0.119635E-05  0.380E-03    0.18       3.0  T
   6    -95.0751295 -0.165990E-06  0.245E-03    0.18       4.7  T
   7    -95.0751298 -0.317692E-06  0.127E-03    0.18       9.1  T
   8    -95.0751299 -0.126459E-06  0.201E-04    0.18      57.6  T
   9    -95.0751299 -0.402579E-09  0.154E-04    0.18      75.1  T
     SCC iter.                  ...        0 min,  0.321 sec
     gradient                   ...        0 min,  0.165 sec
 * total energy  :   -93.7853411 Eh     change       -0.1371246E-04 Eh
   gradient norm :     0.0006643 Eh/α   predicted    -0.5610526E-05 ( -59.08%)
   displ. norm   :     0.1992144 α      lambda       -0.1157475E-04
   maximum displ.:     0.1237799 α      in ANC's #2, #3, #4, ...
 * RMSD in coord.:     0.3557765 α      energy gain  -0.5227387E-03 Eh

generating ANC from exact Hessian ...
Using Lindh-Hessian (1995)
 Shifting diagonal of input Hessian by    1.0164005341049361E-002
 Lowest  eigenvalues of input Hessian
    0.010000    0.010063    0.000000    0.010107    0.000000    0.000000
    0.000000    0.000000    0.000000    0.010242    0.010380    0.010486
    0.010559    0.010717    0.010773    0.010840    0.010979    0.011037
 Highest eigenvalues
    1.629067    1.889655    1.979271    2.017875    2.230950    2.307485


........................................................................
.............................. CYCLE  121 ..............................
........................................................................

 iter      E             dE          RMSdq      gap      omega  full diag
   1    -95.0751325 -0.950751E+02  0.196E-02    0.18       0.0  T
   2    -95.0751051  0.274711E-04  0.243E-02    0.17       1.0  T
   3    -95.0750526  0.525129E-04  0.394E-02    0.19       1.0  T
   4    -95.0751304 -0.778905E-04  0.916E-03    0.18       1.3  T
   5    -95.0751334 -0.292302E-05  0.212E-03    0.18       5.4  T
   6    -95.0751332  0.125245E-06  0.193E-03    0.18       6.0  T
   7    -95.0751334 -0.191118E-06  0.109E-03    0.18      10.6  T
   8    -95.0751335 -0.904904E-07  0.277E-04    0.18      41.8  T
   9    -95.0751335 -0.657820E-09  0.239E-04    0.18      48.3  T
     SCC iter.                  ...        0 min,  0.348 sec
     gradient                   ...        0 min,  0.150 sec
 * total energy  :   -93.7853550 Eh     change       -0.1399061E-04 Eh
   gradient norm :     0.0006412 Eh/α   predicted     0.0000000E+00 (-100.00%)
   displ. norm   :     0.0289968 α      lambda       -0.4675956E-06
   maximum displ.:     0.0144345 α      in ANC's #3, #4, #2, ...

........................................................................
.............................. CYCLE  122 ..............................
........................................................................

 iter      E             dE          RMSdq      gap      omega  full diag
   1    -95.0750734 -0.950751E+02  0.765E-03    0.18       0.0  T
   2    -95.0750411  0.322895E-04  0.238E-02    0.19       1.0  T
   3    -95.0750742 -0.330779E-04  0.391E-03    0.18       3.0  T
   4    -95.0750703  0.390318E-05  0.789E-03    0.18       1.5  T
   5    -95.0750741 -0.386046E-05  0.164E-03    0.18       7.0  T
   6    -95.0750742 -0.664620E-07  0.905E-04    0.18      12.8  T
   7    -95.0750743 -0.560154E-07  0.523E-04    0.18      22.1  T
   8    -95.0750743 -0.164686E-07  0.708E-05    0.18     163.0  T
   9    -95.0750743 -0.327560E-10  0.389E-05    0.18     297.0  T
     SCC iter.                  ...        0 min,  0.371 sec
     gradient                   ...        0 min,  0.160 sec
 * total energy  :   -93.7853605 Eh     change       -0.5450131E-05 Eh
   gradient norm :     0.0006864 Eh/α   predicted    -0.2775375E-05 ( -49.08%)
   displ. norm   :     0.1245270 α      lambda       -0.2049401E-04
   maximum displ.:     0.0593800 α      in ANC's #3, #4, #2, ...

........................................................................
.............................. CYCLE  123 ..............................
........................................................................

 iter      E             dE          RMSdq      gap      omega  full diag
   1    -95.0748283 -0.950748E+02  0.243E-02    0.17       0.0  T
   2    -95.0743960  0.432332E-03  0.904E-02    0.22       1.0  T
   3    -95.0748332 -0.437177E-03  0.183E-02    0.19       1.0  T
   4    -95.0748317  0.143791E-05  0.184E-02    0.18       1.0  T
   5    -95.0747868  0.449512E-04  0.296E-02    0.17       1.0  T
   6    -95.0748390 -0.521699E-04  0.114E-02    0.18       1.0  T
   7    -95.0748434 -0.443374E-05  0.487E-03    0.18       2.4  T
   8    -95.0748448 -0.142096E-05  0.172E-03    0.18       6.7  T
   9    -95.0748450 -0.156590E-06  0.486E-04    0.18      23.7  T
  10    -95.0748450 -0.540828E-08  0.281E-04    0.18      41.1  T
     SCC iter.                  ...        0 min,  0.367 sec
     gradient                   ...        0 min,  0.165 sec
 * total energy  :   -93.7853506 Eh     change        0.9936365E-05 Eh
   gradient norm :     0.0035320 Eh/α   predicted    -0.1031920E-04 (-203.85%)
   displ. norm   :     0.0361335 α      lambda       -0.3833013E-04
   maximum displ.:     0.0164426 α      in ANC's #3, #4, #2, ...

........................................................................
.............................. CYCLE  124 ..............................
........................................................................

 iter      E             dE          RMSdq      gap      omega  full diag
   1    -95.0749550 -0.950750E+02  0.128E-02    0.18       0.0  T
   2    -95.0748891  0.658263E-04  0.341E-02    0.17       1.0  T
   3    -95.0749566 -0.674061E-04  0.757E-03    0.18       1.5  T
   4    -95.0749546  0.194813E-05  0.719E-03    0.18       1.6  T
   5    -95.0749530  0.157928E-05  0.702E-03    0.18       1.6  T
   6    -95.0749564 -0.334515E-05  0.268E-03    0.18       4.3  T
   7    -95.0749568 -0.458189E-06  0.134E-03    0.18       8.6  T
   8    -95.0749570 -0.126025E-06  0.475E-04    0.18      24.3  T
   9    -95.0749570 -0.680255E-08  0.300E-04    0.18      38.5  T
     SCC iter.                  ...        0 min,  0.354 sec
     gradient                   ...        0 min,  0.154 sec
 * total energy  :   -93.7853746 Eh     change       -0.2405933E-04 Eh
   gradient norm :     0.0018918 Eh/α   predicted    -0.1919046E-04 ( -20.24%)
   displ. norm   :     0.0498219 α      lambda       -0.2157419E-04
   maximum displ.:     0.0209138 α      in ANC's #3, #2, #24, ...

........................................................................
.............................. CYCLE  125 ..............................
........................................................................

 iter      E             dE          RMSdq      gap      omega  full diag
   1    -95.0754081 -0.950754E+02  0.220E-02    0.18       0.0  T
   2    -95.0745700  0.838149E-03  0.121E-01    0.15       1.0  T
   3    -95.0754194 -0.849413E-03  0.995E-03    0.18       1.2  T
   4    -95.0753888  0.306179E-04  0.201E-02    0.19       1.0  T
   5    -95.0754172 -0.284719E-04  0.670E-03    0.18       1.7  T
   6    -95.0754205 -0.327216E-05  0.182E-03    0.18       6.4  T
   7    -95.0754203  0.183968E-06  0.206E-03    0.18       5.6  T
   8    -95.0754206 -0.303544E-06  0.545E-04    0.18      21.2  T
   9    -95.0754206 -0.130430E-07  0.205E-04    0.18      56.2  T
  10    -95.0754206  0.154049E-08  0.240E-04    0.18      48.1  T
     SCC iter.                  ...        0 min,  0.367 sec
     gradient                   ...        0 min,  0.161 sec
 * total energy  :   -93.7853752 Eh     change       -0.5974550E-06 Eh
   gradient norm :     0.0020444 Eh/α   predicted    -0.1079936E-04 (1707.56%)
   displ. norm   :     0.0308954 α      lambda       -0.1869288E-04
   maximum displ.:     0.0158392 α      in ANC's #3, #4, #2, ...

........................................................................
.............................. CYCLE  126 ..............................
........................................................................

 iter      E             dE          RMSdq      gap      omega  full diag
   1    -95.0753944 -0.950754E+02  0.121E-02    0.18       0.0  T
   2    -95.0753761  0.182650E-04  0.169E-02    0.19       1.0  T
   3    -95.0753351  0.409968E-04  0.336E-02    0.17       1.0  T
   4    -95.0753884 -0.532651E-04  0.951E-03    0.18       1.2  T
   5    -95.0753926 -0.420008E-05  0.619E-03    0.18       1.9  T
   6    -95.0753953 -0.278140E-05  0.994E-04    0.18      11.6  T
   7    -95.0753953  0.839922E-07  0.139E-03    0.18       8.3  T
   8    -95.0753954 -0.112106E-06  0.177E-04    0.18      65.4  T
   9    -95.0753954  0.276933E-08  0.253E-04    0.18      45.7  T
     SCC iter.                  ...        0 min,  0.379 sec
     gradient                   ...        0 min,  0.180 sec
 * total energy  :   -93.7853879 Eh     change       -0.1266466E-04 Eh
   gradient norm :     0.0010562 Eh/α   predicted    -0.9355734E-05 ( -26.13%)
   displ. norm   :     0.0902320 α      lambda       -0.1633659E-04
   maximum displ.:     0.0497592 α      in ANC's #3, #2, #4, ...

........................................................................
.............................. CYCLE  127 ..............................
........................................................................

 iter      E             dE          RMSdq      gap      omega  full diag
   1    -95.0750927 -0.950751E+02  0.170E-02    0.18       0.0  T
   2    -95.0748364  0.256267E-03  0.671E-02    0.21       1.0  T
   3    -95.0750984 -0.261914E-03  0.978E-03    0.18       1.2  T
   4    -95.0750961  0.230981E-05  0.976E-03    0.18       1.2  T
   5    -95.0751001 -0.401787E-05  0.324E-03    0.18       3.6  T
   6    -95.0751002 -0.854470E-07  0.301E-03    0.18       3.8  T
   7    -95.0751009 -0.732454E-06  0.862E-04    0.18      13.4  T
   8    -95.0751009 -0.312079E-07  0.202E-04    0.18      57.2  T
   9    -95.0751009 -0.412697E-09  0.125E-04    0.18      92.1  T
     SCC iter.                  ...        0 min,  0.373 sec
     gradient                   ...        0 min,  0.155 sec
 * total energy  :   -93.7853902 Eh     change       -0.2292049E-05 Eh
   gradient norm :     0.0020157 Eh/α   predicted    -0.8199367E-05 ( 257.73%)
   displ. norm   :     0.0421414 α      lambda       -0.1745718E-04
   maximum displ.:     0.0237913 α      in ANC's #3, #2, #4, ...

........................................................................
.............................. CYCLE  128 ..............................
........................................................................

 iter      E             dE          RMSdq      gap      omega  full diag
   1    -95.0750575 -0.950751E+02  0.101E-02    0.18       0.0  T
   2    -95.0750564  0.109334E-05  0.788E-03    0.18       1.5  T
   3    -95.0750295  0.269110E-04  0.229E-02    0.17       1.0  T
   4    -95.0750561 -0.266974E-04  0.635E-03    0.18       1.8  T
   5    -95.0750576 -0.143678E-05  0.205E-03    0.18       5.6  T
   6    -95.0750576  0.282769E-07  0.184E-03    0.18       6.3  T
   7    -95.0750578 -0.260754E-06  0.413E-04    0.18      28.0  T
   8    -95.0750578 -0.717920E-08  0.292E-04    0.18      39.5  T
     SCC iter.                  ...        0 min,  0.259 sec
     gradient                   ...        0 min,  0.165 sec
 * total energy  :   -93.7854014 Eh     change       -0.1127449E-04 Eh
   gradient norm :     0.0012948 Eh/α   predicted    -0.8744548E-05 ( -22.44%)
   displ. norm   :     0.0818551 α      lambda       -0.1418849E-04
   maximum displ.:     0.0480910 α      in ANC's #3, #2, #4, ...

........................................................................
.............................. CYCLE  129 ..............................
........................................................................

 iter      E             dE          RMSdq      gap      omega  full diag
   1    -95.0753169 -0.950753E+02  0.125E-02    0.18       0.0  T
   2    -95.0752040  0.112901E-03  0.455E-02    0.17       1.0  T
   3    -95.0753184 -0.114411E-03  0.720E-03    0.18       1.6  T
   4    -95.0753165  0.182423E-05  0.638E-03    0.18       1.8  T
   5    -95.0753185 -0.190987E-05  0.346E-03    0.18       3.3  T
   6    -95.0753190 -0.584907E-06  0.214E-03    0.18       5.4  T
   7    -95.0753193 -0.244456E-06  0.115E-03    0.18      10.0  T
   8    -95.0753194 -0.901317E-07  0.156E-04    0.18      74.0  T
   9    -95.0753194  0.819199E-09  0.182E-04    0.18      63.4  T
     SCC iter.                  ...        0 min,  0.358 sec
     gradient                   ...        0 min,  0.154 sec
 * total energy  :   -93.7854130 Eh     change       -0.1153661E-04 Eh
   gradient norm :     0.0010380 Eh/α   predicted    -0.7119594E-05 ( -38.29%)
   displ. norm   :     0.1033051 α      lambda       -0.1004382E-04
   maximum displ.:     0.0605730 α      in ANC's #3, #2, #4, ...

........................................................................
.............................. CYCLE  130 ..............................
........................................................................

 iter      E             dE          RMSdq      gap      omega  full diag
   1    -95.0753762 -0.950754E+02  0.127E-02    0.18       0.0  T
   2    -95.0753574  0.188067E-04  0.203E-02    0.17       1.0  T
   3    -95.0753536  0.381977E-05  0.224E-02    0.19       1.0  T
   4    -95.0753734 -0.198029E-04  0.816E-03    0.18       1.4  T
   5    -95.0753689  0.441947E-05  0.108E-02    0.18       1.1  T
   6    -95.0753770 -0.805832E-05  0.313E-03    0.18       3.7  T
   7    -95.0753775 -0.453652E-06  0.180E-03    0.18       6.4  T
   8    -95.0753777 -0.220502E-06  0.146E-04    0.18      79.0  T
   9    -95.0753777  0.329081E-09  0.142E-04    0.18      81.3  T
     SCC iter.                  ...        0 min,  0.277 sec
     gradient                   ...        0 min,  0.139 sec
 * total energy  :   -93.7854228 Eh     change       -0.9780895E-05 Eh
   gradient norm :     0.0012284 Eh/α   predicted    -0.5047058E-05 ( -48.40%)
   displ. norm   :     0.1825194 α      lambda       -0.1675887E-04
   maximum displ.:     0.1073577 α      in ANC's #3, #2, #4, ...

........................................................................
.............................. CYCLE  131 ..............................
........................................................................

 iter      E             dE          RMSdq      gap      omega  full diag
   1    -95.0751730 -0.950752E+02  0.145E-02    0.18       0.0  T
   2    -95.0751404  0.325158E-04  0.268E-02    0.19       1.0  T
   3    -95.0751590 -0.185886E-04  0.176E-02    0.18       1.0  T
   4    -95.0751707 -0.116859E-04  0.755E-03    0.18       1.5  T
   5    -95.0751708 -0.137165E-06  0.630E-03    0.18       1.8  T
   6    -95.0751739 -0.308378E-05  0.771E-04    0.18      15.0  T
   7    -95.0751739 -0.167965E-07  0.623E-04    0.18      18.5  T
   8    -95.0751740 -0.189190E-07  0.276E-04    0.18      41.9  T
   9    -95.0751740 -0.926477E-09  0.224E-04    0.18      51.5  T
     SCC iter.                  ...        0 min,  0.321 sec
     gradient                   ...        0 min,  0.127 sec
 * total energy  :   -93.7854430 Eh     change       -0.2022079E-04 Eh
   gradient norm :     0.0006439 Eh/α   predicted    -0.8504465E-05 ( -57.94%)
   displ. norm   :     0.2873912 α      lambda       -0.2014196E-04
   maximum displ.:     0.1687495 α      in ANC's #3, #2, #4, ...

........................................................................
.............................. CYCLE  132 ..............................
........................................................................

 iter      E             dE          RMSdq      gap      omega  full diag
   1    -95.0748314 -0.950748E+02  0.218E-02    0.18       0.0  T
   2    -95.0747514  0.800699E-04  0.384E-02    0.19       1.0  T
   3    -95.0747995 -0.481313E-04  0.280E-02    0.17       1.0  T
   4    -95.0748014 -0.191755E-05  0.192E-02    0.18       1.0  T
   5    -95.0748317 -0.303044E-04  0.537E-03    0.18       2.1  T
   6    -95.0748338 -0.205467E-05  0.791E-04    0.18      14.6  T
   7    -95.0748336  0.169859E-06  0.175E-03    0.18       6.6  T
   8    -95.0748338 -0.175172E-06  0.419E-04    0.18      27.6  T
   9    -95.0748338 -0.792366E-08  0.148E-04    0.18      77.9  T
     SCC iter.                  ...        0 min,  0.230 sec
     gradient                   ...        0 min,  0.111 sec
 * total energy  :   -93.7854663 Eh     change       -0.2332788E-04 Eh
   gradient norm :     0.0008154 Eh/α   predicted    -0.1044295E-04 ( -55.23%)
   displ. norm   :     0.3204668 α      lambda       -0.1971288E-04
   maximum displ.:     0.1893730 α      in ANC's #3, #2, #4, ...

........................................................................
.............................. CYCLE  133 ..............................
........................................................................

 iter      E             dE          RMSdq      gap      omega  full diag
   1    -95.0746336 -0.950746E+02  0.261E-02    0.18       0.0  T
   2    -95.0746148  0.188435E-04  0.241E-02    0.19       1.0  T
   3    -95.0742977  0.317065E-03  0.788E-02    0.16       1.0  T
   4    -95.0746305 -0.332791E-03  0.118E-02    0.18       1.0  T
   5    -95.0746305  0.652298E-07  0.761E-03    0.18       1.5  T
   6    -95.0746341 -0.360946E-05  0.234E-03    0.18       4.9  T
   7    -95.0746345 -0.403314E-06  0.114E-03    0.18      10.1  T
   8    -95.0746345 -0.363437E-07  0.415E-04    0.18      27.8  T
   9    -95.0746345 -0.791053E-08  0.123E-04    0.18      93.7  T
     SCC iter.                  ...        0 min,  0.278 sec
     gradient                   ...        0 min,  0.160 sec
 * total energy  :   -93.7854890 Eh     change       -0.2267001E-04 Eh
   gradient norm :     0.0011334 Eh/α   predicted    -0.1030739E-04 ( -54.53%)
   displ. norm   :     0.3154061 α      lambda       -0.1982157E-04
   maximum displ.:     0.1887732 α      in ANC's #3, #2, #4, ...

........................................................................
.............................. CYCLE  134 ..............................
........................................................................

 iter      E             dE          RMSdq      gap      omega  full diag
   1    -95.0749156 -0.950749E+02  0.272E-02    0.18       0.0  T
   2    -95.0748850  0.305633E-04  0.271E-02    0.17       1.0  T
   3    -95.0746976  0.187421E-03  0.645E-02    0.20       1.0  T
   4    -95.0748966 -0.199035E-03  0.195E-02    0.19       1.0  T
   5    -95.0749112 -0.145319E-04  0.788E-03    0.18       1.5  T
   6    -95.0749160 -0.486975E-05  0.344E-03    0.18       3.4  T
   7    -95.0749167 -0.636733E-06  0.152E-03    0.18       7.6  T
   8    -95.0749168 -0.114475E-06  0.361E-04    0.18      32.0  T
   9    -95.0749168 -0.963922E-10  0.238E-04    0.18      48.5  T
     SCC iter.                  ...        0 min,  0.394 sec
     gradient                   ...        0 min,  0.184 sec
 * total energy  :   -93.7855126 Eh     change       -0.2363493E-04 Eh
   gradient norm :     0.0009081 Eh/α   predicted    -0.1035078E-04 ( -56.21%)
   displ. norm   :     0.3494967 α      lambda       -0.2155676E-04
   maximum displ.:     0.2110814 α      in ANC's #3, #2, #4, ...

........................................................................
.............................. CYCLE  135 ..............................
........................................................................

 iter      E             dE          RMSdq      gap      omega  full diag
   1    -95.0753156 -0.950753E+02  0.309E-02    0.18       0.0  T
   2    -95.0752205  0.951778E-04  0.482E-02    0.17       1.0  T
   3    -95.0752025  0.179633E-04  0.476E-02    0.20       1.0  T
   4    -95.0752797 -0.772517E-04  0.210E-02    0.18       1.0  T
   5    -95.0753014 -0.216348E-04  0.156E-02    0.19       1.0  T
   6    -95.0753183 -0.169484E-04  0.138E-03    0.18       8.4  T
   7    -95.0753181  0.267528E-06  0.239E-03    0.18       4.8  T
   8    -95.0753184 -0.306332E-06  0.199E-04    0.18      58.0  T
   9    -95.0753184  0.371116E-09  0.149E-04    0.18      77.4  T
     SCC iter.                  ...        0 min,  0.367 sec
     gradient                   ...        0 min,  0.179 sec
 * total energy  :   -93.7855373 Eh     change       -0.2466428E-04 Eh
   gradient norm :     0.0008520 Eh/α   predicted    -0.1136510E-04 ( -53.92%)
   displ. norm   :     0.3601804 α      lambda       -0.1969143E-04
   maximum displ.:     0.2188542 α      in ANC's #3, #2, #4, ...

........................................................................
.............................. CYCLE  136 ..............................
........................................................................

 iter      E             dE          RMSdq      gap      omega  full diag
   1    -95.0752943 -0.950753E+02  0.327E-02    0.18       0.0  T
   2    -95.0752720  0.222938E-04  0.281E-02    0.17       1.0  T
   3    -95.0750010  0.270948E-03  0.755E-02    0.21       1.0  T
   4    -95.0752874 -0.286381E-03  0.148E-02    0.19       1.0  T
   5    -95.0752697  0.177251E-04  0.180E-02    0.19       1.0  T
   6    -95.0752954 -0.257010E-04  0.240E-03    0.18       4.8  T
   7    -95.0752957 -0.279222E-06  0.685E-04    0.18      16.9  T
   8    -95.0752957 -0.302488E-08  0.420E-04    0.18      27.5  T
   9    -95.0752957 -0.318217E-08  0.294E-04    0.18      39.2  T
     SCC iter.                  ...        0 min,  0.399 sec
     gradient                   ...        0 min,  0.179 sec
 * total energy  :   -93.7855610 Eh     change       -0.2368466E-04 Eh
   gradient norm :     0.0009380 Eh/α   predicted    -0.1041818E-04 ( -56.01%)
   displ. norm   :     0.3817484 α      lambda       -0.2141076E-04
   maximum displ.:     0.2335687 α      in ANC's #3, #2, #4, ...

........................................................................
.............................. CYCLE  137 ..............................
........................................................................

 iter      E             dE          RMSdq      gap      omega  full diag
   1    -95.0754105 -0.950754E+02  0.395E-02    0.18       0.0  T
   2    -95.0753697  0.408274E-04  0.360E-02    0.17       1.0  T
   3    -95.0750185  0.351121E-03  0.864E-02    0.21       1.0  T
   4    -95.0754028 -0.384218E-03  0.178E-02    0.19       1.0  T
   5    -95.0753852  0.176053E-04  0.179E-02    0.19       1.0  T
   6    -95.0754120 -0.268480E-04  0.161E-03    0.18       7.2  T
   7    -95.0754121 -0.534220E-07  0.806E-04    0.18      14.3  T
   8    -95.0754121 -0.118071E-07  0.467E-04    0.18      24.7  T
   9    -95.0754121 -0.896705E-09  0.396E-04    0.18      29.2  T
     SCC iter.                  ...        0 min,  0.336 sec
     gradient                   ...        0 min,  0.173 sec
 * total energy  :   -93.7855829 Eh     change       -0.2190446E-04 Eh
   gradient norm :     0.0014172 Eh/α   predicted    -0.1139990E-04 ( -47.96%)
   displ. norm   :     0.3628644 α      lambda       -0.2300115E-04
   maximum displ.:     0.2222528 α      in ANC's #3, #2, #4, ...

........................................................................
.............................. CYCLE  138 ..............................
........................................................................

 iter      E             dE          RMSdq      gap      omega  full diag
   1    -95.0757360 -0.950757E+02  0.390E-02    0.18       0.0  T
   2    -95.0757286  0.740403E-05  0.259E-02    0.19       1.0  T
   3    -95.0749793  0.749320E-03  0.119E-01    0.15       1.0  T
   4    -95.0757243 -0.744998E-03  0.201E-02    0.19       1.0  T
   5    -95.0757364 -0.120891E-04  0.334E-03    0.18       3.5  T
   6    -95.0757354  0.946157E-06  0.430E-03    0.18       2.7  T
   7    -95.0757366 -0.111759E-05  0.219E-03    0.18       5.3  T
   8    -95.0757368 -0.281037E-06  0.558E-04    0.18      20.7  T
   9    -95.0757369 -0.712383E-08  0.202E-04    0.18      57.1  T
  10    -95.0757368  0.938888E-08  0.433E-04    0.18      26.7  T
     SCC iter.                  ...        0 min,  0.439 sec
     gradient                   ...        0 min,  0.173 sec
 * total energy  :   -93.7856050 Eh     change       -0.2211567E-04 Eh
   gradient norm :     0.0011851 Eh/α   predicted    -0.1217878E-04 ( -44.93%)
   displ. norm   :     0.2661916 α      lambda       -0.1601283E-04
   maximum displ.:     0.1622057 α      in ANC's #3, #2, #8, ...

........................................................................
.............................. CYCLE  139 ..............................
........................................................................

 iter      E             dE          RMSdq      gap      omega  full diag
   1    -95.0758770 -0.950759E+02  0.337E-02    0.18       0.0  T
   2    -95.0758627  0.142927E-04  0.244E-02    0.19       1.0  T
   3    -95.0748945  0.968249E-03  0.131E-01    0.15       1.0  T
   4    -95.0758706 -0.976127E-03  0.132E-02    0.18       1.0  T
   5    -95.0758588  0.118439E-04  0.158E-02    0.19       1.0  T
   6    -95.0758779 -0.191336E-04  0.249E-03    0.18       4.6  T
   7    -95.0758779 -0.914542E-08  0.199E-03    0.18       5.8  T
   8    -95.0758781 -0.200952E-06  0.409E-04    0.18      28.2  T
   9    -95.0758781  0.493628E-09  0.277E-04    0.18      41.7  T
     SCC iter.                  ...        0 min,  0.380 sec
     gradient                   ...        0 min,  0.174 sec
 * total energy  :   -93.7856206 Eh     change       -0.1560658E-04 Eh
   gradient norm :     0.0008916 Eh/α   predicted    -0.8260667E-05 ( -47.07%)
   displ. norm   :     0.2115801 α      lambda       -0.1233531E-04
   maximum displ.:     0.1263950 α      in ANC's #3, #2, #8, ...

........................................................................
.............................. CYCLE  140 ..............................
........................................................................

 iter      E             dE          RMSdq      gap      omega  full diag
   1    -95.0757232 -0.950757E+02  0.295E-02    0.18       0.0  T
   2    -95.0757199  0.329495E-05  0.194E-02    0.18       1.0  T
   3    -95.0755152  0.204680E-03  0.627E-02    0.21       1.0  T
   4    -95.0757157 -0.200467E-03  0.133E-02    0.18       1.0  T
   5    -95.0757194 -0.374578E-05  0.726E-03    0.18       1.6  T
   6    -95.0757235 -0.412215E-05  0.830E-04    0.18      13.9  T
   7    -95.0757235 -0.157703E-07  0.607E-04    0.18      19.0  T
   8    -95.0757235 -0.109046E-07  0.197E-04    0.18      58.5  T
   9    -95.0757235  0.668069E-08  0.352E-04    0.18      32.8  T
     SCC iter.                  ...        0 min,  0.367 sec
     gradient                   ...        0 min,  0.154 sec
 * total energy  :   -93.7856353 Eh     change       -0.1466390E-04 Eh
   gradient norm :     0.0006734 Eh/α   predicted    -0.6293867E-05 ( -57.08%)
   displ. norm   :     0.2464346 α      lambda       -0.1507675E-04
   maximum displ.:     0.1390491 α      in ANC's #3, #2, #8, ...

........................................................................
.............................. CYCLE  141 ..............................
........................................................................

 iter      E             dE          RMSdq      gap      omega  full diag
   1    -95.0756067 -0.950756E+02  0.385E-02    0.18       0.0  T
   2    -95.0755792  0.274619E-04  0.323E-02    0.19       1.0  T
   3    -95.0747361  0.843126E-03  0.127E-01    0.15       1.0  T
   4    -95.0755939 -0.857796E-03  0.201E-02    0.19       1.0  T
   5    -95.0756033 -0.937608E-05  0.890E-03    0.19       1.3  T
   6    -95.0756077 -0.442784E-05  0.146E-03    0.18       7.9  T
   7    -95.0756074  0.352286E-06  0.254E-03    0.18       4.6  T
   8    -95.0756078 -0.435849E-06  0.611E-04    0.18      18.9  T
   9    -95.0756078  0.284345E-08  0.442E-04    0.18      26.1  T
  10    -95.0756078 -0.103813E-07  0.202E-04    0.18      57.1  T
     SCC iter.                  ...        0 min,  0.381 sec
     gradient                   ...        0 min,  0.144 sec
 * total energy  :   -93.7856531 Eh     change       -0.1783966E-04 Eh
   gradient norm :     0.0008029 Eh/α   predicted    -0.7745995E-05 ( -56.58%)
   displ. norm   :     0.2624175 α      lambda       -0.1546103E-04
   maximum displ.:     0.1452080 α      in ANC's #2, #3, #8, ...

........................................................................
.............................. CYCLE  142 ..............................
........................................................................

 iter      E             dE          RMSdq      gap      omega  full diag
   1    -95.0751563 -0.950752E+02  0.414E-02    0.18       0.0  T
   2    -95.0751559  0.364040E-06  0.250E-02    0.18       1.0  T
   3    -95.0751059  0.500348E-04  0.404E-02    0.17       1.0  T
   4    -95.0750590  0.469151E-04  0.404E-02    0.20       1.0  T
   5    -95.0751502 -0.912588E-04  0.859E-03    0.18       1.3  T
   6    -95.0751565 -0.626285E-05  0.238E-03    0.18       4.9  T
   7    -95.0751568 -0.317290E-06  0.881E-04    0.18      13.1  T
   8    -95.0751568 -0.134517E-07  0.445E-04    0.18      26.0  T
   9    -95.0751568 -0.312406E-08  0.360E-04    0.18      32.0  T
     SCC iter.                  ...        0 min,  0.399 sec
     gradient                   ...        0 min,  0.174 sec
 * total energy  :   -93.7856698 Eh     change       -0.1666503E-04 Eh
   gradient norm :     0.0009896 Eh/α   predicted    -0.7969206E-05 ( -52.18%)
   displ. norm   :     0.1716739 α      lambda       -0.1051866E-04
   maximum displ.:     0.0986880 α      in ANC's #2, #3, #8, ...

........................................................................
.............................. CYCLE  143 ..............................
........................................................................

 iter      E             dE          RMSdq      gap      omega  full diag
   1    -95.0751279 -0.950751E+02  0.272E-02    0.18       0.0  T
   2    -95.0751101  0.178270E-04  0.234E-02    0.19       1.0  T
   3    -95.0746586  0.451492E-03  0.927E-02    0.16       1.0  T
   4    -95.0751222 -0.463606E-03  0.111E-02    0.18       1.0  T
   5    -95.0751252 -0.296954E-05  0.720E-03    0.19       1.6  T
   6    -95.0751286 -0.336253E-05  0.140E-03    0.18       8.2  T
   7    -95.0751287 -0.126298E-06  0.870E-04    0.18      13.3  T
   8    -95.0751287 -0.145363E-07  0.530E-04    0.18      21.8  T
   9    -95.0751287 -0.127043E-07  0.109E-04    0.18     106.2  T
  10    -95.0751287  0.823874E-09  0.143E-04    0.18      80.6  T
     SCC iter.                  ...        0 min,  0.444 sec
     gradient                   ...        0 min,  0.176 sec
 * total energy  :   -93.7856816 Eh     change       -0.1181698E-04 Eh
   gradient norm :     0.0007062 Eh/α   predicted    -0.5330757E-05 ( -54.89%)
   displ. norm   :     0.1381692 α      lambda       -0.9729595E-05
   maximum displ.:     0.0836845 α      in ANC's #2, #3, #5, ...

........................................................................
.............................. CYCLE  144 ..............................
........................................................................

 iter      E             dE          RMSdq      gap      omega  full diag
   1    -95.0753372 -0.950753E+02  0.199E-02    0.18       0.0  T
   2    -95.0753365  0.727145E-06  0.121E-02    0.18       1.0  T
   3    -95.0752495  0.869732E-04  0.373E-02    0.19       1.0  T
   4    -95.0753347 -0.851201E-04  0.986E-03    0.18       1.2  T
   5    -95.0753364 -0.179133E-05  0.333E-03    0.18       3.5  T
   6    -95.0753373 -0.837011E-06  0.160E-03    0.18       7.2  T
   7    -95.0753374 -0.145710E-06  0.710E-04    0.18      16.3  T
   8    -95.0753375 -0.251869E-07  0.113E-04    0.18     101.9  T
   9    -95.0753375  0.317442E-09  0.109E-04    0.18     106.3  T
     SCC iter.                  ...        0 min,  0.401 sec
     gradient                   ...        0 min,  0.183 sec
 * total energy  :   -93.7856929 Eh     change       -0.1127337E-04 Eh
   gradient norm :     0.0005279 Eh/α   predicted    -0.4910066E-05 ( -56.45%)
   displ. norm   :     0.1410811 α      lambda       -0.1025303E-04
   maximum displ.:     0.0870933 α      in ANC's #2, #3, #5, ...

........................................................................
.............................. CYCLE  145 ..............................
........................................................................

 iter      E             dE          RMSdq      gap      omega  full diag
   1    -95.0754541 -0.950755E+02  0.188E-02    0.18       0.0  T
   2    -95.0754511  0.293259E-05  0.126E-02    0.18       1.0  T
   3    -95.0751881  0.263075E-03  0.658E-02    0.16       1.0  T
   4    -95.0754434 -0.255377E-03  0.118E-02    0.18       1.0  T
   5    -95.0754506 -0.719981E-05  0.679E-03    0.18       1.7  T
   6    -95.0754543 -0.366580E-05  0.104E-03    0.18      11.1  T
   7    -95.0754543  0.171003E-08  0.881E-04    0.18      13.1  T
   8    -95.0754543 -0.431672E-07  0.228E-04    0.18      50.7  T
   9    -95.0754543  0.274639E-09  0.140E-04    0.18      82.2  T
     SCC iter.                  ...        0 min,  0.389 sec
     gradient                   ...        0 min,  0.171 sec
 * total energy  :   -93.7857050 Eh     change       -0.1217595E-04 Eh
   gradient norm :     0.0006978 Eh/α   predicted    -0.5174342E-05 ( -57.50%)
   displ. norm   :     0.1631611 α      lambda       -0.1170463E-04
   maximum displ.:     0.1016864 α      in ANC's #2, #3, #5, ...

........................................................................
.............................. CYCLE  146 ..............................
........................................................................

 iter      E             dE          RMSdq      gap      omega  full diag
   1    -95.0755893 -0.950756E+02  0.208E-02    0.18       0.0  T
   2    -95.0755866  0.275837E-05  0.150E-02    0.18       1.0  T
   3    -95.0755035  0.830812E-04  0.418E-02    0.20       1.0  T
   4    -95.0755703 -0.668583E-04  0.173E-02    0.18       1.0  T
   5    -95.0755834 -0.130127E-04  0.946E-03    0.19       1.2  T
   6    -95.0755896 -0.621175E-05  0.118E-03    0.18       9.8  T
   7    -95.0755896 -0.806987E-07  0.552E-04    0.18      20.9  T
   8    -95.0755897 -0.581494E-08  0.192E-04    0.18      60.1  T
   9    -95.0755896  0.121203E-08  0.224E-04    0.18      51.6  T
     SCC iter.                  ...        0 min,  0.392 sec
     gradient                   ...        0 min,  0.187 sec
 * total energy  :   -93.7857190 Eh     change       -0.1400107E-04 Eh
   gradient norm :     0.0007277 Eh/α   predicted    -0.5924084E-05 ( -57.69%)
   displ. norm   :     0.1832207 α      lambda       -0.1258690E-04
   maximum displ.:     0.1166478 α      in ANC's #2, #3, #5, ...

........................................................................
.............................. CYCLE  147 ..............................
........................................................................

 iter      E             dE          RMSdq      gap      omega  full diag
   1    -95.0755874 -0.950756E+02  0.225E-02    0.18       0.0  T
   2    -95.0755869  0.530377E-06  0.144E-02    0.18       1.0  T
   3    -95.0755596  0.272751E-04  0.192E-02    0.18       1.0  T
   4    -95.0755114  0.481904E-04  0.396E-02    0.20       1.0  T
   5    -95.0755812 -0.697868E-04  0.946E-03    0.19       1.2  T
   6    -95.0755879 -0.668066E-05  0.113E-03    0.18      10.2  T
   7    -95.0755878  0.519094E-07  0.135E-03    0.18       8.6  T
   8    -95.0755879 -0.672005E-07  0.669E-04    0.18      17.3  T
   9    -95.0755879 -0.217715E-07  0.138E-04    0.18      83.9  T
  10    -95.0755879 -0.756245E-09  0.383E-05    0.18     301.7  T
     SCC iter.                  ...        0 min,  0.414 sec
     gradient                   ...        0 min,  0.170 sec
 * total energy  :   -93.7857340 Eh     change       -0.1501020E-04 Eh
   gradient norm :     0.0007040 Eh/α   predicted    -0.6390255E-05 ( -57.43%)
   displ. norm   :     0.1823606 α      lambda       -0.1216300E-04
   maximum displ.:     0.1201079 α      in ANC's #2, #3, #5, ...

........................................................................
.............................. CYCLE  148 ..............................
........................................................................

 iter      E             dE          RMSdq      gap      omega  full diag
   1    -95.0756677 -0.950757E+02  0.211E-02    0.18       0.0  T
   2    -95.0756675  0.196690E-06  0.135E-02    0.18       1.0  T
   3    -95.0756501  0.174070E-04  0.220E-02    0.19       1.0  T
   4    -95.0756081  0.419481E-04  0.321E-02    0.17       1.0  T
   5    -95.0756638 -0.557316E-04  0.777E-03    0.19       1.5  T
   6    -95.0756679 -0.406483E-05  0.951E-04    0.18      12.1  T
   7    -95.0756680 -0.484565E-07  0.596E-04    0.18      19.4  T
   8    -95.0756680 -0.908912E-08  0.175E-04    0.18      66.0  T
   9    -95.0756680  0.518021E-08  0.312E-04    0.18      37.0  T
     SCC iter.                  ...        0 min,  0.368 sec
     gradient                   ...        0 min,  0.167 sec
 * total energy  :   -93.7857490 Eh     change       -0.1491407E-04 Eh
   gradient norm :     0.0007277 Eh/α   predicted    -0.6174627E-05 ( -58.60%)
   displ. norm   :     0.1905823 α      lambda       -0.1309007E-04
   maximum displ.:     0.1290853 α      in ANC's #2, #3, #5, ...

........................................................................
.............................. CYCLE  149 ..............................
........................................................................

 iter      E             dE          RMSdq      gap      omega  full diag
   1    -95.0757171 -0.950757E+02  0.214E-02    0.18       0.0  T
   2    -95.0757169  0.246677E-06  0.139E-02    0.18       1.0  T
   3    -95.0757004  0.165009E-04  0.219E-02    0.19       1.0  T
   4    -95.0756480  0.523666E-04  0.344E-02    0.17       1.0  T
   5    -95.0757127 -0.646750E-04  0.829E-03    0.19       1.4  T
   6    -95.0757174 -0.471920E-05  0.858E-04    0.18      13.5  T
   7    -95.0757174  0.270212E-07  0.117E-03    0.18       9.9  T
   8    -95.0757174 -0.535534E-07  0.309E-04    0.18      37.4  T
   9    -95.0757174 -0.360021E-08  0.170E-04    0.18      67.8  T
     SCC iter.                  ...        0 min,  0.397 sec
     gradient                   ...        0 min,  0.179 sec
 * total energy  :   -93.7857656 Eh     change       -0.1669680E-04 Eh
   gradient norm :     0.0006657 Eh/α   predicted    -0.6653976E-05 ( -60.15%)
   displ. norm   :     0.2259687 α      lambda       -0.1602328E-04
   maximum displ.:     0.1539293 α      in ANC's #2, #3, #5, ...

........................................................................
.............................. CYCLE  150 ..............................
........................................................................

 iter      E             dE          RMSdq      gap      omega  full diag
   1    -95.0756591 -0.950757E+02  0.249E-02    0.18       0.0  T
   2    -95.0756589  0.252519E-06  0.154E-02    0.18       1.0  T
   3    -95.0756326  0.263299E-04  0.228E-02    0.19       1.0  T
   4    -95.0755684  0.641300E-04  0.414E-02    0.17       1.0  T
   5    -95.0756591 -0.906454E-04  0.265E-03    0.18       4.4  T
   6    -95.0756589  0.144314E-06  0.287E-03    0.18       4.0  T
   7    -95.0756594 -0.462504E-06  0.136E-03    0.18       8.5  T
   8    -95.0756595 -0.966194E-07  0.298E-04    0.18      38.7  T
   9    -95.0756595 -0.401870E-08  0.104E-04    0.18     111.5  T
     SCC iter.                  ...        0 min,  0.396 sec
     gradient                   ...        0 min,  0.162 sec
 * total energy  :   -93.7857861 Eh     change       -0.2049092E-04 Eh
   gradient norm :     0.0006866 Eh/α   predicted    -0.8196165E-05 ( -60.00%)
   displ. norm   :     0.2661525 α      lambda       -0.1813161E-04
   maximum displ.:     0.1810998 α      in ANC's #2, #3, #5, ...
 * RMSD in coord.:     0.3023118 α      energy gain  -0.4450871E-03 Eh

generating ANC from exact Hessian ...
Using Lindh-Hessian (1995)
 Shifting diagonal of input Hessian by    1.0158634736716078E-002
 Lowest  eigenvalues of input Hessian
    0.010000    0.010056    0.000000    0.010102    0.000000    0.000000
    0.000000    0.000000    0.000000    0.010248    0.010383    0.010474
    0.010567    0.010715    0.010761    0.010836    0.010965    0.011029
 Highest eigenvalues
    1.628232    1.889911    1.978841    2.017217    2.232583    2.305857


........................................................................
.............................. CYCLE  151 ..............................
........................................................................

 iter      E             dE          RMSdq      gap      omega  full diag
   1    -95.0756138 -0.950756E+02  0.292E-02    0.18       0.0  T
   2    -95.0756048  0.896893E-05  0.219E-02    0.18       1.0  T
   3    -95.0753926  0.212289E-03  0.638E-02    0.21       1.0  T
   4    -95.0756094 -0.216822E-03  0.137E-02    0.18       1.0  T
   5    -95.0756118 -0.247216E-05  0.654E-03    0.19       1.8  T
   6    -95.0756140 -0.210574E-05  0.332E-03    0.18       3.5  T
   7    -95.0756139  0.322795E-07  0.277E-03    0.18       4.2  T
   8    -95.0756144 -0.526596E-06  0.823E-04    0.18      14.0  T
   9    -95.0756145 -0.347854E-07  0.148E-04    0.18      78.2  T
  10    -95.0756145 -0.178744E-09  0.634E-05    0.18     182.0  T
     SCC iter.                  ...        0 min,  0.454 sec
     gradient                   ...        0 min,  0.174 sec
 * total energy  :   -93.7858092 Eh     change       -0.2304706E-04 Eh
   gradient norm :     0.0007854 Eh/α   predicted     0.0000000E+00 (-100.00%)
   displ. norm   :     0.0324384 α      lambda       -0.6762615E-05
   maximum displ.:     0.0137594 α      in ANC's #7, #4, #2, ...

........................................................................
.............................. CYCLE  152 ..............................
........................................................................

 iter      E             dE          RMSdq      gap      omega  full diag
   1    -95.0756348 -0.950756E+02  0.790E-03    0.18       0.0  T
   2    -95.0756344  0.451089E-06  0.589E-03    0.18       2.0  T
   3    -95.0756207  0.136159E-04  0.169E-02    0.18       1.0  T
   4    -95.0756310 -0.102367E-04  0.790E-03    0.19       1.5  T
   5    -95.0756346 -0.366379E-05  0.172E-03    0.18       6.7  T
   6    -95.0756348 -0.198137E-06  0.823E-04    0.18      14.0  T
   7    -95.0756349 -0.519768E-07  0.175E-04    0.18      65.8  T
   8    -95.0756349 -0.683784E-09  0.959E-05    0.18     120.4  T
     SCC iter.                  ...        0 min,  0.323 sec
     gradient                   ...        0 min,  0.173 sec
 * total energy  :   -93.7858160 Eh     change       -0.6765175E-05 Eh
   gradient norm :     0.0005775 Eh/α   predicted    -0.3388673E-05 ( -49.91%)
   displ. norm   :     0.1341710 α      lambda       -0.2241466E-04
   maximum displ.:     0.0525574 α      in ANC's #4, #7, #2, ...

........................................................................
.............................. CYCLE  153 ..............................
........................................................................

 iter      E             dE          RMSdq      gap      omega  full diag
   1    -95.0755878 -0.950756E+02  0.258E-02    0.18       0.0  T
   2    -95.0755526  0.351732E-04  0.341E-02    0.19       1.0  T
   3    -95.0754834  0.691636E-04  0.455E-02    0.17       1.0  T
   4    -95.0755235 -0.400545E-04  0.304E-02    0.19       1.0  T
   5    -95.0755852 -0.616829E-04  0.865E-03    0.18       1.3  T
   6    -95.0755907 -0.556738E-05  0.220E-03    0.18       5.3  T
   7    -95.0755907  0.424194E-07  0.233E-03    0.18       4.9  T
   8    -95.0755910 -0.270482E-06  0.106E-03    0.18      10.9  T
   9    -95.0755910 -0.553190E-07  0.272E-04    0.18      42.5  T
  10    -95.0755910 -0.108996E-08  0.258E-04    0.18      44.8  T
     SCC iter.                  ...        0 min,  0.446 sec
     gradient                   ...        0 min,  0.182 sec
 * total energy  :   -93.7858033 Eh     change        0.1266740E-04 Eh
   gradient norm :     0.0037288 Eh/α   predicted    -0.1129897E-04 (-189.20%)
   displ. norm   :     0.0511821 α      lambda       -0.4782256E-04
   maximum displ.:     0.0195560 α      in ANC's #4, #7, #2, ...

........................................................................
.............................. CYCLE  154 ..............................
........................................................................

 iter      E             dE          RMSdq      gap      omega  full diag
   1    -95.0755387 -0.950755E+02  0.160E-02    0.18       0.0  T
   2    -95.0755296  0.905670E-05  0.165E-02    0.18       1.0  T
   3    -95.0754800  0.496157E-04  0.340E-02    0.19       1.0  T
   4    -95.0755370 -0.569660E-04  0.793E-03    0.18       1.5  T
   5    -95.0755331  0.388199E-05  0.897E-03    0.19       1.3  T
   6    -95.0755386 -0.556307E-05  0.381E-03    0.18       3.0  T
   7    -95.0755396 -0.100819E-05  0.107E-03    0.18      10.8  T
   8    -95.0755397 -0.582404E-07  0.332E-04    0.18      34.8  T
   9    -95.0755397 -0.165849E-08  0.231E-04    0.18      49.9  T
     SCC iter.                  ...        0 min,  0.435 sec
     gradient                   ...        0 min,  0.186 sec
 * total energy  :   -93.7858268 Eh     change       -0.2349684E-04 Eh
   gradient norm :     0.0023409 Eh/α   predicted    -0.2397540E-04 (   2.04%)
   displ. norm   :     0.0362166 α      lambda       -0.3143273E-04
   maximum displ.:     0.0116482 α      in ANC's #22, #28, #21, ...

........................................................................
.............................. CYCLE  155 ..............................
........................................................................

 iter      E             dE          RMSdq      gap      omega  full diag
   1    -95.0755854 -0.950756E+02  0.154E-02    0.18       0.0  T
   2    -95.0755646  0.207350E-04  0.225E-02    0.18       1.0  T
   3    -95.0755555  0.913807E-05  0.248E-02    0.19       1.0  T
   4    -95.0755837 -0.282315E-04  0.734E-03    0.18       1.6  T
   5    -95.0755817  0.203985E-05  0.756E-03    0.18       1.5  T
   6    -95.0755861 -0.439350E-05  0.192E-03    0.18       6.0  T
   7    -95.0755864 -0.272320E-06  0.322E-04    0.18      35.8  T
   8    -95.0755864  0.326601E-08  0.320E-04    0.18      36.1  T
     SCC iter.                  ...        0 min,  0.345 sec
     gradient                   ...        0 min,  0.177 sec
 * total energy  :   -93.7858355 Eh     change       -0.8670312E-05 Eh
   gradient norm :     0.0011414 Eh/α   predicted    -0.1574087E-04 (  81.55%)
   displ. norm   :     0.0385874 α      lambda       -0.1087154E-04
   maximum displ.:     0.0177667 α      in ANC's #4, #2, #5, ...

........................................................................
.............................. CYCLE  156 ..............................
........................................................................

 iter      E             dE          RMSdq      gap      omega  full diag
   1    -95.0755956 -0.950756E+02  0.136E-02    0.18       0.0  T
   2    -95.0755854  0.101389E-04  0.179E-02    0.19       1.0  T
   3    -95.0755659  0.194778E-04  0.244E-02    0.18       1.0  T
   4    -95.0755854 -0.194137E-04  0.127E-02    0.19       1.0  T
   5    -95.0755921 -0.675250E-05  0.768E-03    0.18       1.5  T
   6    -95.0755965 -0.434860E-05  0.144E-03    0.18       8.0  T
   7    -95.0755966 -0.991213E-07  0.851E-04    0.18      13.6  T
   8    -95.0755966 -0.429093E-07  0.334E-04    0.18      34.6  T
   9    -95.0755966 -0.315310E-08  0.216E-04    0.18      53.5  T
     SCC iter.                  ...        0 min,  0.470 sec
     gradient                   ...        0 min,  0.187 sec
 * total energy  :   -93.7858417 Eh     change       -0.6294349E-05 Eh
   gradient norm :     0.0011393 Eh/α   predicted    -0.5440008E-05 ( -13.57%)
   displ. norm   :     0.0632882 α      lambda       -0.9378698E-05
   maximum displ.:     0.0302786 α      in ANC's #4, #2, #5, ...

........................................................................
.............................. CYCLE  157 ..............................
........................................................................

 iter      E             dE          RMSdq      gap      omega  full diag
   1    -95.0755470 -0.950755E+02  0.132E-02    0.18       0.0  T
   2    -95.0755424  0.463094E-05  0.119E-02    0.19       1.0  T
   3    -95.0754847  0.576889E-04  0.335E-02    0.17       1.0  T
   4    -95.0755438 -0.591105E-04  0.940E-03    0.19       1.2  T
   5    -95.0755428  0.103475E-05  0.764E-03    0.18       1.5  T
   6    -95.0755473 -0.452149E-05  0.176E-03    0.18       6.6  T
   7    -95.0755475 -0.177199E-06  0.971E-04    0.18      11.9  T
   8    -95.0755475 -0.584608E-07  0.425E-04    0.18      27.2  T
   9    -95.0755475 -0.659149E-08  0.245E-04    0.18      47.2  T
     SCC iter.                  ...        0 min,  0.402 sec
     gradient                   ...        0 min,  0.175 sec
 * total energy  :   -93.7858468 Eh     change       -0.5095208E-05 Eh
   gradient norm :     0.0011363 Eh/α   predicted    -0.4698142E-05 (  -7.79%)
   displ. norm   :     0.0775674 α      lambda       -0.1068931E-04
   maximum displ.:     0.0381870 α      in ANC's #4, #2, #5, ...

........................................................................
.............................. CYCLE  158 ..............................
........................................................................

 iter      E             dE          RMSdq      gap      omega  full diag
   1    -95.0755010 -0.950755E+02  0.127E-02    0.18       0.0  T
   2    -95.0754935  0.746198E-05  0.132E-02    0.18       1.0  T
   3    -95.0754504  0.430787E-04  0.307E-02    0.19       1.0  T
   4    -95.0755005 -0.501283E-04  0.473E-03    0.18       2.4  T
   5    -95.0754988  0.173464E-05  0.611E-03    0.18       1.9  T
   6    -95.0755013 -0.246146E-05  0.122E-03    0.18       9.5  T
   7    -95.0755013  0.116553E-07  0.106E-03    0.18      10.9  T
   8    -95.0755013 -0.819214E-07  0.152E-04    0.18      76.1  T
   9    -95.0755013 -0.752252E-09  0.694E-05    0.18     166.4  T
     SCC iter.                  ...        0 min,  0.380 sec
     gradient                   ...        0 min,  0.163 sec
 * total energy  :   -93.7858591 Eh     change       -0.1228677E-04 Eh
   gradient norm :     0.0006281 Eh/α   predicted    -0.5359876E-05 ( -56.38%)
   displ. norm   :     0.1758939 α      lambda       -0.1534319E-04
   maximum displ.:     0.0868897 α      in ANC's #4, #2, #5, ...

........................................................................
.............................. CYCLE  159 ..............................
........................................................................

 iter      E             dE          RMSdq      gap      omega  full diag
   1    -95.0753678 -0.950754E+02  0.248E-02    0.18       0.0  T
   2    -95.0753534  0.144154E-04  0.242E-02    0.19       1.0  T
   3    -95.0752066  0.146833E-03  0.568E-02    0.17       1.0  T
   4    -95.0753053 -0.986977E-04  0.289E-02    0.19       1.0  T
   5    -95.0753679 -0.626553E-04  0.444E-03    0.18       2.6  T
   6    -95.0753685 -0.599440E-06  0.280E-03    0.18       4.1  T
   7    -95.0753690 -0.436566E-06  0.122E-03    0.18       9.4  T
   8    -95.0753691 -0.947411E-07  0.240E-04    0.18      48.1  T
   9    -95.0753691 -0.147664E-08  0.128E-04    0.18      90.0  T
     SCC iter.                  ...        0 min,  0.403 sec
     gradient                   ...        0 min,  0.174 sec
 * total energy  :   -93.7858742 Eh     change       -0.1510997E-04 Eh
   gradient norm :     0.0012124 Eh/α   predicted    -0.7782468E-05 ( -48.49%)
   displ. norm   :     0.2554677 α      lambda       -0.1827007E-04
   maximum displ.:     0.1250856 α      in ANC's #4, #2, #5, ...

........................................................................
.............................. CYCLE  160 ..............................
........................................................................

 iter      E             dE          RMSdq      gap      omega  full diag
   1    -95.0750865 -0.950751E+02  0.361E-02    0.18       0.0  T
   2    -95.0750850  0.146022E-05  0.217E-02    0.18       1.0  T
   3    -95.0749603  0.124679E-03  0.457E-02    0.20       1.0  T
   4    -95.0750618 -0.101518E-03  0.266E-02    0.18       1.0  T
   5    -95.0750793 -0.174588E-04  0.112E-02    0.18       1.0  T
   6    -95.0750876 -0.831336E-05  0.234E-03    0.18       4.9  T
   7    -95.0750873  0.318078E-06  0.292E-03    0.18       4.0  T
   8    -95.0750878 -0.486265E-06  0.139E-03    0.18       8.3  T
   9    -95.0750879 -0.104697E-06  0.272E-04    0.18      42.5  T
  10    -95.0750879  0.234479E-08  0.282E-04    0.18      40.9  T
     SCC iter.                  ...        0 min,  0.409 sec
     gradient                   ...        0 min,  0.164 sec
 * total energy  :   -93.7858903 Eh     change       -0.1605408E-04 Eh
   gradient norm :     0.0014090 Eh/α   predicted    -0.9405469E-05 ( -41.41%)
   displ. norm   :     0.2671328 α      lambda       -0.1961839E-04
   maximum displ.:     0.1324471 α      in ANC's #4, #2, #5, ...

........................................................................
.............................. CYCLE  161 ..............................
........................................................................

 iter      E             dE          RMSdq      gap      omega  full diag
   1    -95.0749452 -0.950749E+02  0.362E-02    0.18       0.0  T
   2    -95.0749325  0.126604E-04  0.249E-02    0.18       1.0  T
   3    -95.0744540  0.478534E-03  0.856E-02    0.21       1.0  T
   4    -95.0749356 -0.481628E-03  0.177E-02    0.18       1.0  T
   5    -95.0749451 -0.945043E-05  0.603E-03    0.18       1.9  T
   6    -95.0749467 -0.158285E-05  0.336E-03    0.18       3.4  T
   7    -95.0749472 -0.489477E-06  0.208E-03    0.18       5.6  T
   8    -95.0749474 -0.239795E-06  0.823E-04    0.18      14.0  T
   9    -95.0749474 -0.245647E-07  0.222E-04    0.18      52.0  T
  10    -95.0749474  0.647859E-09  0.243E-04    0.18      47.5  T
     SCC iter.                  ...        0 min,  0.439 sec
     gradient                   ...        0 min,  0.168 sec
 * total energy  :   -93.7859108 Eh     change       -0.2051372E-04 Eh
   gradient norm :     0.0012723 Eh/α   predicted    -0.1012718E-04 ( -50.63%)
   displ. norm   :     0.3623930 α      lambda       -0.2735430E-04
   maximum displ.:     0.1780600 α      in ANC's #4, #2, #5, ...

........................................................................
.............................. CYCLE  162 ..............................
........................................................................

 iter      E             dE          RMSdq      gap      omega  full diag
   1    -95.0751316 -0.950751E+02  0.469E-02    0.18       0.0  T
   2    -95.0751304  0.118326E-05  0.297E-02    0.18       1.0  T
   3    -95.0750481  0.823261E-04  0.511E-02    0.17       1.0  T
   4    -95.0748933  0.154805E-03  0.627E-02    0.20       1.0  T
   5    -95.0751260 -0.232739E-03  0.953E-03    0.18       1.2  T
   6    -95.0751308 -0.480027E-05  0.655E-03    0.18       1.8  T
   7    -95.0751329 -0.203072E-05  0.312E-03    0.18       3.7  T
   8    -95.0751334 -0.516453E-06  0.414E-04    0.18      27.9  T
   9    -95.0751334 -0.150644E-08  0.278E-04    0.18      41.6  T
  10    -95.0751334 -0.230533E-08  0.880E-05    0.18     131.2  T
     SCC iter.                  ...        0 min,  0.435 sec
     gradient                   ...        0 min,  0.167 sec
 * total energy  :   -93.7859418 Eh     change       -0.3102204E-04 Eh
   gradient norm :     0.0009852 Eh/α   predicted    -0.1448381E-04 ( -53.31%)
   displ. norm   :     0.4485238 α      lambda       -0.2806682E-04
   maximum displ.:     0.2177827 α      in ANC's #2, #4, #5, ...

........................................................................
.............................. CYCLE  163 ..............................
........................................................................

 iter      E             dE          RMSdq      gap      omega  full diag
   1    -95.0752496 -0.950752E+02  0.576E-02    0.18       0.0  T
   2    -95.0751853  0.643368E-04  0.488E-02    0.17       1.0  T
   3    -95.0744809  0.704418E-03  0.121E-01    0.23       1.0  T
   4    -95.0752302 -0.749391E-03  0.292E-02    0.19       1.0  T
   5    -95.0751720  0.582295E-04  0.318E-02    0.19       1.0  T
   6    -95.0752517 -0.796583E-04  0.441E-03    0.18       2.6  T
   7    -95.0752525 -0.836706E-06  0.106E-03    0.18      10.9  T
   8    -95.0752525  0.388690E-08  0.577E-04    0.18      20.0  T
   9    -95.0752525  0.458542E-08  0.599E-04    0.18      19.3  T
  10    -95.0752525  0.165774E-08  0.621E-04    0.18      18.6  T
  11    -95.0752525 -0.209932E-07  0.960E-05    0.18     120.3  T
  12    -95.0752525 -0.193651E-09  0.420E-05    0.18     274.9  T
     SCC iter.                  ...        0 min,  0.491 sec
     gradient                   ...        0 min,  0.182 sec
 * total energy  :   -93.7859706 Eh     change       -0.2877015E-04 Eh
   gradient norm :     0.0014072 Eh/α   predicted    -0.1529594E-04 ( -46.83%)
   displ. norm   :     0.4864438 α      lambda       -0.3301569E-04
   maximum displ.:     0.2386851 α      in ANC's #2, #4, #5, ...

........................................................................
.............................. CYCLE  164 ..............................
........................................................................

 iter      E             dE          RMSdq      gap      omega  full diag
   1    -95.0751569 -0.950752E+02  0.621E-02    0.18       0.0  T
   2    -95.0750759  0.809972E-04  0.524E-02    0.17       1.0  T
   3    -95.0742363  0.839652E-03  0.128E-01    0.24       1.0  T
   4    -95.0751546 -0.918316E-03  0.218E-02    0.18       1.0  T
   5    -95.0751489  0.571838E-05  0.140E-02    0.19       1.0  T
   6    -95.0751598 -0.109164E-04  0.683E-03    0.18       1.7  T
   7    -95.0751590  0.792199E-06  0.596E-03    0.18       1.9  T
   8    -95.0751608 -0.177616E-05  0.385E-03    0.18       3.0  T
   9    -95.0751616 -0.780849E-06  0.597E-04    0.18      19.3  T
  10    -95.0751616 -0.166260E-08  0.476E-04    0.18      24.3  T
  11    -95.0751616 -0.929741E-08  0.206E-04    0.18      56.1  T
     SCC iter.                  ...        0 min,  0.499 sec
     gradient                   ...        0 min,  0.165 sec
 * total energy  :   -93.7859953 Eh     change       -0.2465536E-04 Eh
   gradient norm :     0.0020468 Eh/α   predicted    -0.1825747E-04 ( -25.95%)
   displ. norm   :     0.1734682 α      lambda       -0.2541123E-04
   maximum displ.:     0.0876167 α      in ANC's #2, #4, #3, ...

........................................................................
.............................. CYCLE  165 ..............................
........................................................................

 iter      E             dE          RMSdq      gap      omega  full diag
   1    -95.0758627 -0.950759E+02  0.238E-02    0.19       0.0  T
   2    -95.0756704  0.192287E-03  0.623E-02    0.16       1.0  T
   3    -95.0758506 -0.180205E-03  0.209E-02    0.19       1.0  T
   4    -95.0758602 -0.957240E-05  0.123E-02    0.18       1.0  T
   5    -95.0758449  0.152298E-04  0.169E-02    0.19       1.0  T
   6    -95.0758664 -0.214350E-04  0.236E-03    0.18       4.9  T
   7    -95.0758666 -0.227958E-06  0.377E-04    0.18      30.6  T
   8    -95.0758666  0.500545E-07  0.909E-04    0.18      12.7  T
   9    -95.0758666 -0.538770E-07  0.103E-04    0.18     112.0  T
     SCC iter.                  ...        0 min,  0.383 sec
     gradient                   ...        0 min,  0.194 sec
 * total energy  :   -93.7860152 Eh     change       -0.1990766E-04 Eh
   gradient norm :     0.0011318 Eh/α   predicted    -0.1309074E-04 ( -34.24%)
   displ. norm   :     0.4065344 α      lambda       -0.3296469E-04
   maximum displ.:     0.2072852 α      in ANC's #2, #4, #3, ...

........................................................................
.............................. CYCLE  166 ..............................
........................................................................

 iter      E             dE          RMSdq      gap      omega  full diag
   1    -95.0759734 -0.950760E+02  0.519E-02    0.19       0.0  T
   2    -95.0758880  0.854177E-04  0.553E-02    0.17       1.0  T
   3    -95.0755908  0.297116E-03  0.884E-02    0.22       1.0  T
   4    -95.0758304 -0.239591E-03  0.422E-02    0.17       1.0  T
   5    -95.0758976 -0.671804E-04  0.342E-02    0.19       1.0  T
   6    -95.0759761 -0.785142E-04  0.457E-03    0.18       2.5  T
   7    -95.0759769 -0.793661E-06  0.246E-03    0.18       4.7  T
   8    -95.0759771 -0.216957E-06  0.141E-03    0.18       8.2  T
   9    -95.0759772 -0.603870E-07  0.797E-04    0.18      14.5  T
  10    -95.0759772 -0.311256E-07  0.851E-05    0.18     135.7  T
  11    -95.0759772 -0.511875E-10  0.533E-05    0.18     216.6  T
     SCC iter.                  ...        0 min,  0.495 sec
     gradient                   ...        0 min,  0.182 sec
 * total energy  :   -93.7860495 Eh     change       -0.3431235E-04 Eh
   gradient norm :     0.0014075 Eh/α   predicted    -0.1769791E-04 ( -48.42%)
   displ. norm   :     0.3730059 α      lambda       -0.2517634E-04
   maximum displ.:     0.1933589 α      in ANC's #2, #4, #3, ...

........................................................................
.............................. CYCLE  167 ..............................
........................................................................

 iter      E             dE          RMSdq      gap      omega  full diag
   1    -95.0756974 -0.950757E+02  0.437E-02    0.18       0.0  T
   2    -95.0756551  0.423444E-04  0.398E-02    0.17       1.0  T
   3    -95.0753037  0.351308E-03  0.871E-02    0.22       1.0  T
   4    -95.0756765 -0.372783E-03  0.208E-02    0.18       1.0  T
   5    -95.0756608  0.157467E-04  0.225E-02    0.19       1.0  T
   6    -95.0756993 -0.385367E-04  0.156E-03    0.18       7.4  T
   7    -95.0756993  0.995350E-08  0.121E-03    0.18       9.6  T
   8    -95.0756993  0.120177E-08  0.105E-03    0.18      11.0  T
   9    -95.0756993 -0.495933E-08  0.982E-04    0.18      11.8  T
  10    -95.0756994 -0.480417E-07  0.908E-05    0.18     127.2  T
  11    -95.0756994  0.726189E-09  0.127E-04    0.18      91.1  T
     SCC iter.                  ...        0 min,  0.481 sec
     gradient                   ...        0 min,  0.186 sec
 * total energy  :   -93.7860813 Eh     change       -0.3186351E-04 Eh
   gradient norm :     0.0015847 Eh/α   predicted    -0.1337313E-04 ( -58.03%)
   displ. norm   :     0.4747918 α      lambda       -0.3739862E-04
   maximum displ.:     0.2493673 α      in ANC's #2, #4, #3, ...

........................................................................
.............................. CYCLE  168 ..............................
........................................................................

 iter      E             dE          RMSdq      gap      omega  full diag
   1    -95.0758484 -0.950758E+02  0.518E-02    0.18       0.0  T
   2    -95.0758212  0.271354E-04  0.354E-02    0.19       1.0  T
   3    -95.0728299  0.299135E-02  0.226E-01    0.13       1.0  T
   4    -95.0757700 -0.294008E-02  0.330E-02    0.17       1.0  T
   5    -95.0757888 -0.188858E-04  0.269E-02    0.19       1.0  T
   6    -95.0758490 -0.601773E-04  0.682E-03    0.18       1.7  T
   7    -95.0758512 -0.216603E-05  0.172E-03    0.18       6.7  T
   8    -95.0758512 -0.121220E-08  0.814E-04    0.18      14.2  T
   9    -95.0758512  0.289853E-07  0.975E-04    0.18      11.8  T
  10    -95.0758512 -0.488718E-07  0.192E-04    0.18      60.3  T
  11    -95.0758512 -0.952113E-09  0.825E-05    0.18     140.0  T
     SCC iter.                  ...        0 min,  0.501 sec
     gradient                   ...        0 min,  0.186 sec
 * total energy  :   -93.7861202 Eh     change       -0.3883245E-04 Eh
   gradient norm :     0.0013598 Eh/α   predicted    -0.2057802E-04 ( -47.01%)
   displ. norm   :     0.5016169 α      lambda       -0.3138521E-04
   maximum displ.:     0.2650900 α      in ANC's #2, #4, #3, ...

........................................................................
.............................. CYCLE  169 ..............................
........................................................................

 iter      E             dE          RMSdq      gap      omega  full diag
   1    -95.0736313 -0.950736E+02  0.572E-02    0.17       0.0  T
   2    -95.0732359  0.395411E-03  0.941E-02    0.22       1.0  T
   3    -95.0731947  0.411771E-04  0.933E-02    0.16       1.0  T
   4    -95.0735843 -0.389509E-03  0.383E-02    0.19       1.0  T
   5    -95.0736467 -0.623918E-04  0.696E-03    0.18       1.7  T
   6    -95.0736479 -0.126381E-05  0.255E-03    0.18       4.5  T
   7    -95.0736461  0.177130E-05  0.501E-03    0.18       2.3  T
   8    -95.0736480 -0.185188E-05  0.183E-03    0.18       6.3  T
   9    -95.0736481 -0.111073E-06  0.116E-03    0.18       9.9  T
  10    -95.0736482 -0.739811E-07  0.432E-04    0.18      26.7  T
  11    -95.0736482 -0.113013E-07  0.783E-05    0.18     147.4  T
     SCC iter.                  ...        0 min,  0.486 sec
     gradient                   ...        0 min,  0.172 sec
 * total energy  :   -93.7861439 Eh     change       -0.2369039E-04 Eh
   gradient norm :     0.0018090 Eh/α   predicted    -0.1745453E-04 ( -26.32%)
   displ. norm   :     0.2055866 α      lambda       -0.2137391E-04
   maximum displ.:     0.1124174 α      in ANC's #2, #3, #4, ...

........................................................................
.............................. CYCLE  170 ..............................
........................................................................

 iter      E             dE          RMSdq      gap      omega  full diag
   1    -95.0762078 -0.950762E+02  0.229E-02    0.19       0.0  T
   2    -95.0756089  0.598972E-03  0.109E-01    0.15       1.0  T
   3    -95.0762156 -0.606748E-03  0.119E-02    0.18       1.0  T
   4    -95.0762006  0.150271E-04  0.156E-02    0.18       1.0  T
   5    -95.0761990  0.161769E-05  0.151E-02    0.18       1.0  T
   6    -95.0762170 -0.180834E-04  0.220E-03    0.18       5.2  T
   7    -95.0762172 -0.143428E-06  0.503E-04    0.18      23.0  T
   8    -95.0762172 -0.839435E-09  0.345E-04    0.18      33.5  T
   9    -95.0762172  0.720068E-08  0.373E-04    0.18      30.9  T
     SCC iter.                  ...        0 min,  0.412 sec
     gradient                   ...        0 min,  0.182 sec
 * total energy  :   -93.7861620 Eh     change       -0.1818459E-04 Eh
   gradient norm :     0.0015711 Eh/α   predicted    -0.1088995E-04 ( -40.11%)
   displ. norm   :     0.3027903 α      lambda       -0.2375882E-04
   maximum displ.:     0.1637279 α      in ANC's #2, #4, #3, ...

........................................................................
.............................. CYCLE  171 ..............................
........................................................................

 iter      E             dE          RMSdq      gap      omega  full diag
   1    -95.0755900 -0.950756E+02  0.307E-02    0.18       0.0  T
   2    -95.0754130  0.177033E-03  0.607E-02    0.20       1.0  T
   3    -95.0755098 -0.967602E-04  0.413E-02    0.17       1.0  T
   4    -95.0755808 -0.710503E-04  0.183E-02    0.19       1.0  T
   5    -95.0755947 -0.139356E-04  0.355E-03    0.18       3.3  T
   6    -95.0755936  0.116899E-05  0.518E-03    0.18       2.2  T
   7    -95.0755955 -0.188328E-05  0.161E-03    0.18       7.2  T
   8    -95.0755956 -0.171615E-06  0.508E-04    0.18      22.7  T
   9    -95.0755956  0.409071E-08  0.473E-04    0.18      24.4  T
  10    -95.0755956 -0.787682E-08  0.267E-04    0.18      43.3  T
     SCC iter.                  ...        0 min,  0.466 sec
     gradient                   ...        0 min,  0.171 sec
 * total energy  :   -93.7861835 Eh     change       -0.2141372E-04 Eh
   gradient norm :     0.0012940 Eh/α   predicted    -0.1236591E-04 ( -42.25%)
   displ. norm   :     0.3077201 α      lambda       -0.2457038E-04
   maximum displ.:     0.1708022 α      in ANC's #2, #3, #4, ...

........................................................................
.............................. CYCLE  172 ..............................
........................................................................

 iter      E             dE          RMSdq      gap      omega  full diag
   1    -95.0762843 -0.950763E+02  0.291E-02    0.18       0.0  T
   2    -95.0761536  0.130770E-03  0.459E-02    0.20       1.0  T
   3    -95.0761177  0.358790E-04  0.600E-02    0.16       1.0  T
   4    -95.0762514 -0.133760E-03  0.224E-02    0.17       1.0  T
   5    -95.0762669 -0.154676E-04  0.165E-02    0.19       1.0  T
   6    -95.0762889 -0.219806E-04  0.238E-03    0.18       4.8  T
   7    -95.0762887  0.169615E-06  0.248E-03    0.18       4.7  T
   8    -95.0762891 -0.370365E-06  0.390E-04    0.18      29.6  T
   9    -95.0762891  0.264281E-08  0.380E-04    0.18      30.4  T
     SCC iter.                  ...        0 min,  0.357 sec
     gradient                   ...        0 min,  0.178 sec
 * total energy  :   -93.7862086 Eh     change       -0.2510090E-04 Eh
   gradient norm :     0.0016411 Eh/α   predicted    -0.1280667E-04 ( -48.98%)
   displ. norm   :     0.3835272 α      lambda       -0.2439607E-04
   maximum displ.:     0.2137467 α      in ANC's #2, #4, #3, ...

........................................................................
.............................. CYCLE  173 ..............................
........................................................................

 iter      E             dE          RMSdq      gap      omega  full diag
   1    -95.0757846 -0.950758E+02  0.333E-02    0.18       0.0  T
   2    -95.0757584  0.261479E-04  0.338E-02    0.19       1.0  T
   3    -95.0754776  0.280825E-03  0.769E-02    0.16       1.0  T
   4    -95.0757126 -0.235020E-03  0.347E-02    0.19       1.0  T
   5    -95.0757785 -0.658563E-04  0.978E-03    0.18       1.2  T
   6    -95.0757854 -0.689042E-05  0.479E-03    0.18       2.4  T
   7    -95.0757868 -0.141683E-05  0.137E-03    0.18       8.4  T
   8    -95.0757869 -0.806976E-07  0.611E-04    0.18      18.9  T
   9    -95.0757869  0.890330E-08  0.712E-04    0.18      16.2  T
  10    -95.0757869 -0.266102E-07  0.969E-05    0.18     119.1  T
  11    -95.0757869 -0.192685E-09  0.576E-05    0.18     200.4  T
     SCC iter.                  ...        0 min,  0.516 sec
     gradient                   ...        0 min,  0.192 sec
 * total energy  :   -93.7862379 Eh     change       -0.2936412E-04 Eh
   gradient norm :     0.0012498 Eh/α   predicted    -0.1299773E-04 ( -55.74%)
   displ. norm   :     0.3981350 α      lambda       -0.2516831E-04
   maximum displ.:     0.2261465 α      in ANC's #2, #3, #4, ...

........................................................................
.............................. CYCLE  174 ..............................
........................................................................

 iter      E             dE          RMSdq      gap      omega  full diag
   1    -95.0760947 -0.950761E+02  0.318E-02    0.18       0.0  T
   2    -95.0760725  0.221997E-04  0.277E-02    0.17       1.0  T
   3    -95.0758198  0.252758E-03  0.710E-02    0.20       1.0  T
   4    -95.0760957 -0.275966E-03  0.120E-02    0.18       1.0  T
   5    -95.0760958 -0.241845E-07  0.362E-03    0.18       3.2  T
   6    -95.0760960 -0.221228E-06  0.257E-03    0.18       4.5  T
   7    -95.0760957  0.241907E-06  0.310E-03    0.18       3.7  T
   8    -95.0760964 -0.692271E-06  0.377E-04    0.18      30.7  T
   9    -95.0760964  0.275560E-08  0.353E-04    0.18      32.7  T
  10    -95.0760964 -0.524132E-08  0.188E-04    0.18      61.4  T
     SCC iter.                  ...        0 min,  0.394 sec
     gradient                   ...        0 min,  0.189 sec
 * total energy  :   -93.7862694 Eh     change       -0.3148162E-04 Eh
   gradient norm :     0.0008627 Eh/α   predicted    -0.1347480E-04 ( -57.20%)
   displ. norm   :     0.4634815 α      lambda       -0.3006921E-04
   maximum displ.:     0.2652489 α      in ANC's #2, #3, #4, ...

........................................................................
.............................. CYCLE  175 ..............................
........................................................................

 iter      E             dE          RMSdq      gap      omega  full diag
   1    -95.0761676 -0.950762E+02  0.360E-02    0.18       0.0  T
   2    -95.0761529  0.147065E-04  0.262E-02    0.17       1.0  T
   3    -95.0758197  0.333184E-03  0.780E-02    0.21       1.0  T
   4    -95.0761692 -0.349531E-03  0.127E-02    0.18       1.0  T
   5    -95.0761695 -0.235563E-06  0.304E-03    0.18       3.8  T
   6    -95.0761696 -0.109457E-06  0.110E-03    0.18      10.5  T
   7    -95.0761694  0.237495E-06  0.171E-03    0.18       6.7  T
   8    -95.0761695 -0.179460E-06  0.972E-04    0.18      11.9  T
   9    -95.0761696 -0.642991E-07  0.247E-04    0.18      46.8  T
  10    -95.0761696 -0.876540E-09  0.652E-05    0.18     177.1  T
     SCC iter.                  ...        0 min,  0.502 sec
     gradient                   ...        0 min,  0.183 sec
 * total energy  :   -93.7863099 Eh     change       -0.4053511E-04 Eh
   gradient norm :     0.0012684 Eh/α   predicted    -0.1647123E-04 ( -59.37%)
   displ. norm   :     0.5956430 α      lambda       -0.4275093E-04
   maximum displ.:     0.3417604 α      in ANC's #2, #3, #4, ...

........................................................................
.............................. CYCLE  176 ..............................
........................................................................

 iter      E             dE          RMSdq      gap      omega  full diag
   1    -95.0760394 -0.950760E+02  0.464E-02    0.18       0.0  T
   2    -95.0760304  0.906490E-05  0.328E-02    0.18       1.0  T
   3    -95.0755882  0.442120E-03  0.930E-02    0.15       1.0  T
   4    -95.0759306 -0.342385E-03  0.464E-02    0.19       1.0  T
   5    -95.0760360 -0.105363E-03  0.127E-02    0.18       1.0  T
   6    -95.0760352  0.819286E-06  0.995E-03    0.18       1.2  T
   7    -95.0760418 -0.665337E-05  0.239E-03    0.18       4.8  T
   8    -95.0760419 -0.627041E-07  0.258E-03    0.18       4.5  T
   9    -95.0760422 -0.334528E-06  0.362E-04    0.18      31.9  T
  10    -95.0760422  0.109613E-08  0.330E-04    0.18      34.9  T
     SCC iter.                  ...        0 min,  0.440 sec
     gradient                   ...        0 min,  0.195 sec
 * total energy  :   -93.7863684 Eh     change       -0.5842907E-04 Eh
   gradient norm :     0.0015014 Eh/α   predicted    -0.2474967E-04 ( -57.64%)
   displ. norm   :     0.7423697 α      lambda       -0.5529044E-04
   maximum displ.:     0.4278871 α      in ANC's #2, #3, #4, ...

........................................................................
.............................. CYCLE  177 ..............................
........................................................................

 iter      E             dE          RMSdq      gap      omega  full diag
   1    -95.0758795 -0.950759E+02  0.592E-02    0.18       0.0  T
   2    -95.0758603  0.192128E-04  0.423E-02    0.18       1.0  T
   3    -95.0748365  0.102380E-02  0.140E-01    0.14       1.0  T
   4    -95.0757308 -0.894314E-03  0.556E-02    0.20       1.0  T
   5    -95.0758522 -0.121369E-03  0.251E-02    0.19       1.0  T
   6    -95.0758747 -0.224970E-04  0.120E-02    0.18       1.0  T
   7    -95.0758820 -0.737801E-05  0.494E-03    0.18       2.3  T
   8    -95.0758833 -0.122110E-05  0.394E-03    0.18       2.9  T
   9    -95.0758840 -0.722203E-06  0.385E-04    0.18      30.0  T
  10    -95.0758840  0.534914E-08  0.421E-04    0.18      27.4  T
  11    -95.0758840 -0.711336E-08  0.119E-04    0.18      97.1  T
     SCC iter.                  ...        0 min,  0.468 sec
     gradient                   ...        0 min,  0.175 sec
 * total energy  :   -93.7864401 Eh     change       -0.7177312E-04 Eh
   gradient norm :     0.0015236 Eh/α   predicted    -0.3441783E-04 ( -52.05%)
   displ. norm   :     0.7735320 α      lambda       -0.5354208E-04
   maximum displ.:     0.4488378 α      in ANC's #2, #3, #4, ...

........................................................................
.............................. CYCLE  178 ..............................
........................................................................

 iter      E             dE          RMSdq      gap      omega  full diag
   1    -95.0755199 -0.950755E+02  0.648E-02    0.17       0.0  T
   2    -95.0751759  0.343966E-03  0.901E-02    0.21       1.0  T
   3    -95.0738711  0.130484E-02  0.173E-01    0.14       1.0  T
   4    -95.0754298 -0.155873E-02  0.525E-02    0.19       1.0  T
   5    -95.0753190  0.110861E-03  0.528E-02    0.20       1.0  T
   6    -95.0755301 -0.211100E-03  0.103E-02    0.18       1.1  T
   7    -95.0755336 -0.357594E-05  0.189E-03    0.18       6.1  T
   8    -95.0755330  0.623810E-06  0.370E-03    0.18       3.1  T
   9    -95.0755336 -0.605670E-06  0.115E-03    0.18      10.1  T
  10    -95.0755336  0.449449E-07  0.118E-03    0.18       9.8  T
  11    -95.0755337 -0.802549E-07  0.304E-04    0.18      38.0  T
  12    -95.0755337 -0.444211E-08  0.744E-05    0.18     155.2  T
     SCC iter.                  ...        0 min,  0.562 sec
     gradient                   ...        0 min,  0.185 sec
 * total energy  :   -93.7865067 Eh     change       -0.6658296E-04 Eh
   gradient norm :     0.0014960 Eh/α   predicted    -0.3389245E-04 ( -49.10%)
   displ. norm   :     0.7225701 α      lambda       -0.4975691E-04
   maximum displ.:     0.4222007 α      in ANC's #2, #3, #4, ...

........................................................................
.............................. CYCLE  179 ..............................
........................................................................

 iter      E             dE          RMSdq      gap      omega  full diag
   1    -95.0761436 -0.950761E+02  0.612E-02    0.18       0.0  T
   2    -95.0761091  0.345176E-04  0.457E-02    0.18       1.0  T
   3    -95.0743495  0.175961E-02  0.180E-01    0.14       1.0  T
   4    -95.0760332 -0.168366E-02  0.519E-02    0.19       1.0  T
   5    -95.0760353 -0.214444E-05  0.411E-02    0.19       1.0  T
   6    -95.0761436 -0.108315E-03  0.117E-02    0.18       1.0  T
   7    -95.0761462 -0.257502E-05  0.644E-03    0.18       1.8  T
   8    -95.0761465 -0.345792E-06  0.589E-03    0.17       2.0  T
   9    -95.0761484 -0.183847E-05  0.783E-04    0.18      14.7  T
  10    -95.0761484 -0.263379E-07  0.201E-04    0.18      57.6  T
  11    -95.0761484  0.236227E-09  0.169E-04    0.18      68.5  T
     SCC iter.                  ...        0 min,  0.525 sec
     gradient                   ...        0 min,  0.183 sec
 * total energy  :   -93.7865664 Eh     change       -0.5970469E-04 Eh
   gradient norm :     0.0014872 Eh/α   predicted    -0.3065237E-04 ( -48.66%)
   displ. norm   :     0.7145545 α      lambda       -0.4844947E-04
   maximum displ.:     0.4184167 α      in ANC's #2, #3, #1, ...

........................................................................
.............................. CYCLE  180 ..............................
........................................................................

 iter      E             dE          RMSdq      gap      omega  full diag
   1    -95.0759524 -0.950760E+02  0.662E-02    0.17       0.0  T
   2    -95.0752288  0.723600E-03  0.122E-01    0.22       1.0  T
   3    -95.0752220  0.678127E-05  0.117E-01    0.15       1.0  T
   4    -95.0758647 -0.642672E-03  0.546E-02    0.19       1.0  T
   5    -95.0758035  0.611809E-04  0.458E-02    0.19       1.0  T
   6    -95.0759762 -0.172675E-03  0.686E-03    0.17       1.7  T
   7    -95.0759786 -0.242800E-05  0.296E-03    0.18       3.9  T
   8    -95.0759789 -0.246387E-06  0.161E-03    0.18       7.2  T
   9    -95.0759789 -0.258815E-07  0.126E-03    0.18       9.2  T
  10    -95.0759790 -0.744567E-07  0.615E-04    0.18      18.8  T
  11    -95.0759790 -0.198360E-07  0.293E-04    0.18      39.4  T
  12    -95.0759790 -0.415257E-08  0.109E-04    0.18     105.6  T
     SCC iter.                  ...        0 min,  0.557 sec
     gradient                   ...        0 min,  0.178 sec
 * total energy  :   -93.7866263 Eh     change       -0.5985253E-04 Eh
   gradient norm :     0.0018455 Eh/α   predicted    -0.2972318E-04 ( -50.34%)
   displ. norm   :     0.6600383 α      lambda       -0.5697747E-04
   maximum displ.:     0.3840303 α      in ANC's #2, #3, #1, ...

........................................................................
.............................. CYCLE  181 ..............................
........................................................................

 iter      E             dE          RMSdq      gap      omega  full diag
   1    -95.0775466 -0.950775E+02  0.624E-02    0.18       0.0  T
   2    -95.0775126  0.340542E-04  0.439E-02    0.18       1.0  T
   3    -95.0751413  0.237123E-02  0.202E-01    0.13       1.0  T
   4    -95.0775125 -0.237122E-02  0.411E-02    0.19       1.0  T
   5    -95.0773231  0.189396E-03  0.547E-02    0.19       1.0  T
   6    -95.0775387 -0.215586E-03  0.174E-02    0.18       1.0  T
   7    -95.0775500 -0.112426E-04  0.677E-03    0.18       1.7  T
   8    -95.0775511 -0.109777E-05  0.465E-03    0.17       2.5  T
   9    -95.0775519 -0.786764E-06  0.226E-03    0.17       5.1  T
  10    -95.0775522 -0.296014E-06  0.288E-04    0.18      40.1  T
  11    -95.0775522  0.363315E-09  0.198E-04    0.18      58.3  T
     SCC iter.                  ...        0 min,  0.498 sec
     gradient                   ...        0 min,  0.187 sec
 * total energy  :   -93.7866957 Eh     change       -0.6944842E-04 Eh
   gradient norm :     0.0018549 Eh/α   predicted    -0.3400493E-04 ( -51.04%)
   displ. norm   :     0.8698006 α      lambda       -0.7002593E-04
   maximum displ.:     0.5049856 α      in ANC's #2, #3, #1, ...

........................................................................
.............................. CYCLE  182 ..............................
........................................................................

 iter      E             dE          RMSdq      gap      omega  full diag
   1    -95.0750750 -0.950751E+02  0.853E-02    0.17       0.0  T
   2    -95.0741476  0.927323E-03  0.140E-01    0.22       1.0  T
   3    -95.0733064  0.841269E-03  0.180E-01    0.14       1.0  T
   4    -95.0748946 -0.158826E-02  0.769E-02    0.20       1.0  T
   5    -95.0746278  0.266843E-03  0.784E-02    0.20       1.0  T
   6    -95.0751058 -0.477992E-03  0.114E-02    0.18       1.0  T
   7    -95.0751089 -0.310895E-05  0.605E-03    0.17       1.9  T
   8    -95.0751104 -0.155622E-05  0.205E-03    0.17       5.6  T
   9    -95.0751103  0.159994E-06  0.269E-03    0.18       4.3  T
  10    -95.0751106 -0.341196E-06  0.310E-04    0.17      37.2  T
  11    -95.0751106  0.155249E-07  0.513E-04    0.17      22.5  T
  12    -95.0751106 -0.163997E-07  0.509E-05    0.17     227.0  T
     SCC iter.                  ...        0 min,  0.557 sec
     gradient                   ...        0 min,  0.166 sec
 * total energy  :   -93.7867748 Eh     change       -0.7904688E-04 Eh
   gradient norm :     0.0020857 Eh/α   predicted    -0.4678230E-04 ( -40.82%)
   displ. norm   :     0.4467887 α      lambda       -0.6941971E-04
   maximum displ.:     0.2448811 α      in ANC's #2, #3, #1, ...

........................................................................
.............................. CYCLE  183 ..............................
........................................................................

 iter      E             dE          RMSdq      gap      omega  full diag
   1    -95.0775778 -0.950776E+02  0.488E-02    0.17       0.0  T
   2    -95.0771996  0.378179E-03  0.885E-02    0.20       1.0  T
   3    -95.0771803  0.193535E-04  0.872E-02    0.15       1.0  T
   4    -95.0775398 -0.359517E-03  0.359E-02    0.18       1.0  T
   5    -95.0775268  0.129889E-04  0.273E-02    0.18       1.0  T
   6    -95.0775873 -0.604784E-04  0.456E-03    0.17       2.5  T
   7    -95.0775885 -0.122395E-05  0.154E-03    0.17       7.5  T
   8    -95.0775885 -0.356954E-07  0.514E-04    0.17      22.5  T
   9    -95.0775885 -0.320331E-08  0.221E-04    0.17      52.1  T
  10    -95.0775885  0.185544E-08  0.210E-04    0.17      54.9  T
     SCC iter.                  ...        0 min,  0.460 sec
     gradient                   ...        0 min,  0.175 sec
 * total energy  :   -93.7868260 Eh     change       -0.5125982E-04 Eh
   gradient norm :     0.0019401 Eh/α   predicted    -0.4164134E-04 ( -18.76%)
   displ. norm   :     0.8146058 α      lambda       -0.6133246E-04
   maximum displ.:     0.4619643 α      in ANC's #2, #3, #1, ...
 * RMSD in coord.:     0.6635402 α      energy gain  -0.1039898E-02 Eh

generating ANC from exact Hessian ...
Using Lindh-Hessian (1995)
 Shifting diagonal of input Hessian by    1.0156033933994430E-002
 Lowest  eigenvalues of input Hessian
    0.010000    0.010058    0.000000    0.010102    0.000000    0.000000
    0.000000    0.000000    0.000000    0.010268    0.010384    0.010520
    0.010535    0.010740    0.010825    0.010836    0.011009    0.011058
 Highest eigenvalues
    1.629388    1.888208    1.977661    2.017290    2.229502    2.307687


........................................................................
.............................. CYCLE  184 ..............................
........................................................................

 iter      E             dE          RMSdq      gap      omega  full diag
   1    -95.0763274 -0.950763E+02  0.827E-02    0.17       0.0  T
   2    -95.0763162  0.112344E-04  0.513E-02    0.17       1.0  T
   3    -95.0757570  0.559246E-03  0.912E-02    0.15       1.0  T
   4    -95.0756481  0.108908E-03  0.121E-01    0.22       1.0  T
   5    -95.0760531 -0.405050E-03  0.622E-02    0.19       1.0  T
   6    -95.0763363 -0.283235E-03  0.622E-03    0.18       1.9  T
   7    -95.0763368 -0.439147E-06  0.472E-03    0.17       2.4  T
   8    -95.0763376 -0.784257E-06  0.140E-03    0.17       8.3  T
   9    -95.0763376 -0.842238E-07  0.546E-04    0.17      21.1  T
  10    -95.0763376 -0.508064E-08  0.276E-04    0.17      41.9  T
  11    -95.0763377 -0.158416E-08  0.109E-04    0.17     105.7  T
     SCC iter.                  ...        0 min,  0.505 sec
     gradient                   ...        0 min,  0.190 sec
 * total energy  :   -93.7868869 Eh     change       -0.6087872E-04 Eh
   gradient norm :     0.0023605 Eh/α   predicted     0.0000000E+00 (-100.00%)
   displ. norm   :     0.0412409 α      lambda       -0.5775196E-05
   maximum displ.:     0.0196510 α      in ANC's #7, #5, #12, ...

........................................................................
.............................. CYCLE  185 ..............................
........................................................................

 iter      E             dE          RMSdq      gap      omega  full diag
   1    -95.0767638 -0.950768E+02  0.192E-02    0.17       0.0  T
   2    -95.0763001  0.463709E-03  0.971E-02    0.21       1.0  T
   3    -95.0767718 -0.471716E-03  0.913E-03    0.17       1.3  T
   4    -95.0767607  0.110475E-04  0.148E-02    0.18       1.0  T
   5    -95.0767676 -0.687560E-05  0.126E-02    0.17       1.0  T
   6    -95.0767766 -0.897789E-05  0.133E-03    0.17       8.7  T
   7    -95.0767766  0.220408E-07  0.151E-03    0.17       7.7  T
   8    -95.0767767 -0.104176E-06  0.657E-04    0.17      17.6  T
   9    -95.0767767 -0.217598E-07  0.244E-04    0.17      47.3  T
  10    -95.0767767 -0.298900E-08  0.625E-05    0.17     184.8  T
     SCC iter.                  ...        0 min,  0.470 sec
     gradient                   ...        0 min,  0.192 sec
 * total energy  :   -93.7869084 Eh     change       -0.2147827E-04 Eh
   gradient norm :     0.0011609 Eh/α   predicted    -0.1601370E-04 ( -25.44%)
   displ. norm   :     0.2068443 α      lambda       -0.7828047E-04
   maximum displ.:     0.1080557 α      in ANC's #7, #5, #12, ...

........................................................................
.............................. CYCLE  186 ..............................
........................................................................

 iter      E             dE          RMSdq      gap      omega  full diag
   1    -95.0779078 -0.950779E+02  0.678E-02    0.16       0.0  T
   2    -95.0757400  0.216784E-02  0.215E-01    0.27       1.0  T
   3    -95.0779231 -0.218309E-02  0.395E-02    0.17       1.0  T
   4    -95.0777721  0.151002E-03  0.567E-02    0.19       1.0  T
   5    -95.0776021  0.170018E-03  0.880E-02    0.15       1.0  T
   6    -95.0780049 -0.402822E-03  0.191E-02    0.18       1.0  T
   7    -95.0780169 -0.120204E-04  0.767E-03    0.18       1.5  T
   8    -95.0780181 -0.121740E-05  0.569E-03    0.18       2.0  T
   9    -95.0780196 -0.149422E-05  0.225E-03    0.17       5.1  T
  10    -95.0780199 -0.274389E-06  0.272E-04    0.17      42.5  T
  11    -95.0780199  0.590759E-09  0.301E-04    0.17      38.4  T
     SCC iter.                  ...        0 min,  0.493 sec
     gradient                   ...        0 min,  0.190 sec
 * total energy  :   -93.7868370 Eh     change        0.7140562E-04 Eh
   gradient norm :     0.0084598 Eh/α   predicted    -0.3988796E-04 (-155.86%)
   displ. norm   :     0.0439022 α      lambda       -0.1662395E-03
   maximum displ.:     0.0127250 α      in ANC's #26, #18, #25, ...

........................................................................
.............................. CYCLE  187 ..............................
........................................................................

 iter      E             dE          RMSdq      gap      omega  full diag
   1    -95.0778234 -0.950778E+02  0.280E-02    0.18       0.0  T
   2    -95.0771517  0.671737E-03  0.111E-01    0.15       1.0  T
   3    -95.0777492 -0.597534E-03  0.414E-02    0.19       1.0  T
   4    -95.0778274 -0.781563E-04  0.133E-02    0.18       1.0  T
   5    -95.0778320 -0.458958E-05  0.319E-03    0.17       3.6  T
   6    -95.0778321 -0.148001E-06  0.233E-03    0.17       5.0  T
   7    -95.0778319  0.199947E-06  0.228E-03    0.17       5.1  T
   8    -95.0778322 -0.309609E-06  0.134E-03    0.17       8.6  T
   9    -95.0778323 -0.100511E-06  0.497E-04    0.17      23.2  T
  10    -95.0778324 -0.149961E-07  0.248E-04    0.17      46.5  T
     SCC iter.                  ...        0 min,  0.519 sec
     gradient                   ...        0 min,  0.242 sec
 * total energy  :   -93.7869445 Eh     change       -0.1074915E-03 Eh
   gradient norm :     0.0049167 Eh/α   predicted    -0.8328320E-04 ( -22.52%)
   displ. norm   :     0.0479644 α      lambda       -0.9221752E-04
   maximum displ.:     0.0154300 α      in ANC's #28, #47, #22, ...

........................................................................
.............................. CYCLE  188 ..............................
........................................................................

 iter      E             dE          RMSdq      gap      omega  full diag
   1    -95.0766520 -0.950767E+02  0.375E-02    0.18       0.0  T
   2    -95.0719560  0.469602E-02  0.303E-01    0.12       1.0  T
   3    -95.0766404 -0.468434E-02  0.274E-02    0.18       1.0  T
   4    -95.0765744  0.659704E-04  0.392E-02    0.16       1.0  T
   5    -95.0766870 -0.112634E-03  0.841E-03    0.17       1.4  T
   6    -95.0766902 -0.315643E-05  0.335E-03    0.17       3.4  T
   7    -95.0766901  0.983363E-07  0.263E-03    0.17       4.4  T
   8    -95.0766905 -0.362059E-06  0.100E-03    0.17      11.5  T
   9    -95.0766905 -0.519672E-07  0.325E-04    0.17      35.5  T
  10    -95.0766905 -0.285451E-08  0.141E-04    0.17      81.9  T
     SCC iter.                  ...        0 min,  0.564 sec
     gradient                   ...        0 min,  0.195 sec
 * total energy  :   -93.7869638 Eh     change       -0.1934681E-04 Eh
   gradient norm :     0.0028564 Eh/α   predicted    -0.4621525E-04 ( 138.88%)
   displ. norm   :     0.0600643 α      lambda       -0.5266108E-04
   maximum displ.:     0.0277511 α      in ANC's #7, #5, #3, ...

........................................................................
.............................. CYCLE  189 ..............................
........................................................................

 iter      E             dE          RMSdq      gap      omega  full diag
   1    -95.0766733 -0.950767E+02  0.236E-02    0.17       0.0  T
   2    -95.0766713  0.198126E-05  0.175E-02    0.18       1.0  T
   3    -95.0765805  0.907701E-04  0.440E-02    0.16       1.0  T
   4    -95.0766349 -0.543405E-04  0.263E-02    0.18       1.0  T
   5    -95.0766556 -0.206709E-04  0.155E-02    0.17       1.0  T
   6    -95.0766743 -0.187183E-04  0.388E-03    0.17       3.0  T
   7    -95.0766754 -0.112283E-05  0.817E-04    0.17      14.1  T
   8    -95.0766754 -0.141204E-07  0.294E-04    0.17      39.3  T
   9    -95.0766754  0.359030E-07  0.772E-04    0.17      15.0  T
  10    -95.0766754 -0.364990E-07  0.939E-05    0.17     123.0  T
     SCC iter.                  ...        0 min,  0.467 sec
     gradient                   ...        0 min,  0.176 sec
 * total energy  :   -93.7869897 Eh     change       -0.2583874E-04 Eh
   gradient norm :     0.0015423 Eh/α   predicted    -0.2643063E-04 (   2.29%)
   displ. norm   :     0.1182898 α      lambda       -0.2768925E-04
   maximum displ.:     0.0582758 α      in ANC's #7, #5, #3, ...

........................................................................
.............................. CYCLE  190 ..............................
........................................................................

 iter      E             dE          RMSdq      gap      omega  full diag
   1    -95.0768779 -0.950769E+02  0.260E-02    0.17       0.0  T
   2    -95.0766823  0.195656E-03  0.661E-02    0.19       1.0  T
   3    -95.0767785 -0.961733E-04  0.415E-02    0.16       1.0  T
   4    -95.0767135  0.649666E-04  0.488E-02    0.19       1.0  T
   5    -95.0768824 -0.168957E-03  0.303E-03    0.17       3.8  T
   6    -95.0768828 -0.323107E-06  0.155E-03    0.17       7.4  T
   7    -95.0768828 -0.680511E-07  0.863E-04    0.17      13.4  T
   8    -95.0768829 -0.216708E-07  0.537E-04    0.17      21.5  T
   9    -95.0768828  0.131381E-07  0.727E-04    0.17      15.9  T
  10    -95.0768829 -0.304544E-07  0.698E-05    0.17     165.4  T
  11    -95.0768829 -0.108088E-09  0.451E-05    0.17     255.8  T
     SCC iter.                  ...        0 min,  0.489 sec
     gradient                   ...        0 min,  0.182 sec
 * total energy  :   -93.7869992 Eh     change       -0.9520474E-05 Eh
   gradient norm :     0.0024773 Eh/α   predicted    -0.1393488E-04 (  46.37%)
   displ. norm   :     0.0656261 α      lambda       -0.2874306E-04
   maximum displ.:     0.0320749 α      in ANC's #5, #7, #3, ...

........................................................................
.............................. CYCLE  191 ..............................
........................................................................

 iter      E             dE          RMSdq      gap      omega  full diag
   1    -95.0767749 -0.950768E+02  0.955E-03    0.17       0.0  T
   2    -95.0767747  0.184204E-06  0.609E-03    0.17       1.9  T
   3    -95.0767709  0.384690E-05  0.757E-03    0.18       1.5  T
   4    -95.0767435  0.274211E-04  0.235E-02    0.17       1.0  T
   5    -95.0767743 -0.308016E-04  0.331E-03    0.17       3.5  T
   6    -95.0767750 -0.692438E-06  0.185E-03    0.17       6.2  T
   7    -95.0767752 -0.207134E-06  0.584E-04    0.17      19.8  T
   8    -95.0767752 -0.204239E-07  0.159E-04    0.17      72.8  T
   9    -95.0767752  0.118455E-08  0.206E-04    0.17      56.0  T
     SCC iter.                  ...        0 min,  0.409 sec
     gradient                   ...        0 min,  0.172 sec
 * total energy  :   -93.7870218 Eh     change       -0.2259906E-04 Eh
   gradient norm :     0.0014536 Eh/α   predicted    -0.1443771E-04 ( -36.11%)
   displ. norm   :     0.2247146 α      lambda       -0.4070540E-04
   maximum displ.:     0.1132072 α      in ANC's #5, #7, #3, ...

........................................................................
.............................. CYCLE  192 ..............................
........................................................................

 iter      E             dE          RMSdq      gap      omega  full diag
   1    -95.0760805 -0.950761E+02  0.288E-02    0.18       0.0  T
   2    -95.0758057  0.274804E-03  0.752E-02    0.16       1.0  T
   3    -95.0759942 -0.188535E-03  0.421E-02    0.19       1.0  T
   4    -95.0760700 -0.757628E-04  0.160E-02    0.17       1.0  T
   5    -95.0760542  0.158088E-04  0.195E-02    0.18       1.0  T
   6    -95.0760854 -0.311496E-04  0.101E-03    0.17      11.4  T
   7    -95.0760853  0.468846E-07  0.118E-03    0.17       9.8  T
   8    -95.0760853 -0.431440E-07  0.595E-04    0.17      19.4  T
   9    -95.0760854 -0.418660E-08  0.521E-04    0.17      22.2  T
  10    -95.0760854 -0.168404E-07  0.484E-05    0.17     238.7  T
  11    -95.0760854  0.220894E-09  0.645E-05    0.17     179.0  T
     SCC iter.                  ...        0 min,  0.458 sec
     gradient                   ...        0 min,  0.186 sec
 * total energy  :   -93.7870460 Eh     change       -0.2421440E-04 Eh
   gradient norm :     0.0021530 Eh/α   predicted    -0.2081044E-04 ( -14.06%)
   displ. norm   :     0.0744248 α      lambda       -0.1942564E-04
   maximum displ.:     0.0379719 α      in ANC's #5, #3, #7, ...

........................................................................
.............................. CYCLE  193 ..............................
........................................................................

 iter      E             dE          RMSdq      gap      omega  full diag
   1    -95.0761968 -0.950762E+02  0.116E-02    0.17       0.0  T
   2    -95.0761725  0.243129E-04  0.229E-02    0.18       1.0  T
   3    -95.0761701  0.241621E-05  0.224E-02    0.17       1.0  T
   4    -95.0761927 -0.226445E-04  0.843E-03    0.18       1.4  T
   5    -95.0761957 -0.301534E-05  0.466E-03    0.17       2.5  T
   6    -95.0761974 -0.168864E-05  0.131E-03    0.18       8.8  T
   7    -95.0761975 -0.995823E-07  0.610E-04    0.17      18.9  T
   8    -95.0761975 -0.216079E-07  0.114E-04    0.17     101.6  T
   9    -95.0761975  0.239433E-08  0.216E-04    0.17      53.5  T
     SCC iter.                  ...        0 min,  0.406 sec
     gradient                   ...        0 min,  0.183 sec
 * total energy  :   -93.7870602 Eh     change       -0.1418458E-04 Eh
   gradient norm :     0.0016913 Eh/α   predicted    -0.9767666E-05 ( -31.14%)
   displ. norm   :     0.1761393 α      lambda       -0.2724276E-04
   maximum displ.:     0.0927114 α      in ANC's #5, #3, #7, ...

........................................................................
.............................. CYCLE  194 ..............................
........................................................................

 iter      E             dE          RMSdq      gap      omega  full diag
   1    -95.0768681 -0.950769E+02  0.245E-02    0.17       0.0  T
   2    -95.0766288  0.239293E-03  0.723E-02    0.20       1.0  T
   3    -95.0768290 -0.200193E-03  0.272E-02    0.17       1.0  T
   4    -95.0767189  0.110125E-03  0.448E-02    0.19       1.0  T
   5    -95.0768725 -0.153611E-03  0.493E-03    0.17       2.3  T
   6    -95.0768740 -0.143887E-05  0.133E-03    0.17       8.7  T
   7    -95.0768738  0.139347E-06  0.194E-03    0.17       6.0  T
   8    -95.0768740 -0.202885E-06  0.586E-04    0.17      19.7  T
   9    -95.0768740 -0.176654E-07  0.160E-04    0.17      72.2  T
  10    -95.0768740 -0.301839E-10  0.128E-04    0.17      90.4  T
     SCC iter.                  ...        0 min,  0.396 sec
     gradient                   ...        0 min,  0.164 sec
 * total energy  :   -93.7870847 Eh     change       -0.2446586E-04 Eh
   gradient norm :     0.0012256 Eh/α   predicted    -0.1380980E-04 ( -43.55%)
   displ. norm   :     0.1658227 α      lambda       -0.1857477E-04
   maximum displ.:     0.0877292 α      in ANC's #5, #3, #6, ...

........................................................................
.............................. CYCLE  195 ..............................
........................................................................

 iter      E             dE          RMSdq      gap      omega  full diag
   1    -95.0768974 -0.950769E+02  0.213E-02    0.17       0.0  T
   2    -95.0767640  0.133358E-03  0.513E-02    0.19       1.0  T
   3    -95.0768854 -0.121387E-03  0.194E-02    0.17       1.0  T
   4    -95.0768988 -0.134139E-04  0.758E-03    0.18       1.5  T
   5    -95.0768961  0.273411E-05  0.754E-03    0.17       1.5  T
   6    -95.0769002 -0.416225E-05  0.116E-03    0.17      10.0  T
   7    -95.0769004 -0.109946E-06  0.251E-04    0.17      46.0  T
   8    -95.0769004  0.499884E-08  0.298E-04    0.17      38.7  T
     SCC iter.                  ...        0 min,  0.357 sec
     gradient                   ...        0 min,  0.169 sec
 * total energy  :   -93.7871014 Eh     change       -0.1675689E-04 Eh
   gradient norm :     0.0017521 Eh/α   predicted    -0.9405684E-05 ( -43.87%)
   displ. norm   :     0.2358715 α      lambda       -0.2661182E-04
   maximum displ.:     0.1239008 α      in ANC's #5, #3, #6, ...

........................................................................
.............................. CYCLE  196 ..............................
........................................................................

 iter      E             dE          RMSdq      gap      omega  full diag
   1    -95.0765136 -0.950765E+02  0.278E-02    0.17       0.0  T
   2    -95.0764871  0.264665E-04  0.265E-02    0.18       1.0  T
   3    -95.0759749  0.512257E-03  0.971E-02    0.15       1.0  T
   4    -95.0764980 -0.523159E-03  0.157E-02    0.18       1.0  T
   5    -95.0765047 -0.670752E-05  0.114E-02    0.18       1.0  T
   6    -95.0765142 -0.945434E-05  0.431E-03    0.17       2.7  T
   7    -95.0765152 -0.104266E-05  0.112E-03    0.18      10.3  T
   8    -95.0765153 -0.593083E-07  0.762E-04    0.17      15.2  T
   9    -95.0765153 -0.304387E-07  0.265E-04    0.17      43.6  T
  10    -95.0765153 -0.273910E-08  0.158E-04    0.17      72.9  T
     SCC iter.                  ...        0 min,  0.432 sec
     gradient                   ...        0 min,  0.175 sec
 * total energy  :   -93.7871267 Eh     change       -0.2531685E-04 Eh
   gradient norm :     0.0010925 Eh/α   predicted    -0.1363748E-04 ( -46.13%)
   displ. norm   :     0.2050776 α      lambda       -0.1758722E-04
   maximum displ.:     0.1078209 α      in ANC's #5, #3, #6, ...

........................................................................
.............................. CYCLE  197 ..............................
........................................................................

 iter      E             dE          RMSdq      gap      omega  full diag
   1    -95.0765671 -0.950766E+02  0.232E-02    0.17       0.0  T
   2    -95.0765390  0.281499E-04  0.294E-02    0.18       1.0  T
   3    -95.0764304  0.108541E-03  0.506E-02    0.16       1.0  T
   4    -95.0764916 -0.611232E-04  0.314E-02    0.18       1.0  T
   5    -95.0765639 -0.723214E-04  0.747E-03    0.17       1.5  T
   6    -95.0765682 -0.429483E-05  0.971E-04    0.17      11.9  T
   7    -95.0765682 -0.263200E-07  0.612E-04    0.17      18.9  T
   8    -95.0765682  0.150715E-07  0.740E-04    0.17      15.6  T
   9    -95.0765682 -0.328506E-07  0.248E-04    0.17      46.6  T
  10    -95.0765682 -0.308162E-08  0.618E-05    0.17     186.7  T
     SCC iter.                  ...        0 min,  0.399 sec
     gradient                   ...        0 min,  0.171 sec
 * total energy  :   -93.7871452 Eh     change       -0.1846126E-04 Eh
   gradient norm :     0.0008177 Eh/α   predicted    -0.8959837E-05 ( -51.47%)
   displ. norm   :     0.2195163 α      lambda       -0.1767133E-04
   maximum displ.:     0.1128263 α      in ANC's #3, #5, #6, ...

........................................................................
.............................. CYCLE  198 ..............................
........................................................................

 iter      E             dE          RMSdq      gap      omega  full diag
   1    -95.0768349 -0.950768E+02  0.267E-02    0.17       0.0  T
   2    -95.0767302  0.104691E-03  0.451E-02    0.19       1.0  T
   3    -95.0767547 -0.244607E-04  0.414E-02    0.17       1.0  T
   4    -95.0768036 -0.488979E-04  0.208E-02    0.17       1.0  T
   5    -95.0768318 -0.282376E-04  0.917E-03    0.18       1.3  T
   6    -95.0768367 -0.484264E-05  0.361E-03    0.17       3.2  T
   7    -95.0768372 -0.540876E-06  0.152E-03    0.17       7.6  T
   8    -95.0768374 -0.182899E-06  0.300E-04    0.18      38.5  T
   9    -95.0768374 -0.419797E-08  0.151E-04    0.18      76.3  T
     SCC iter.                  ...        0 min,  0.376 sec
     gradient                   ...        0 min,  0.164 sec
 * total energy  :   -93.7871650 Eh     change       -0.1976699E-04 Eh
   gradient norm :     0.0008858 Eh/α   predicted    -0.9026583E-05 ( -54.34%)
   displ. norm   :     0.3155383 α      lambda       -0.2359996E-04
   maximum displ.:     0.1616986 α      in ANC's #3, #5, #9, ...

........................................................................
.............................. CYCLE  199 ..............................
........................................................................

 iter      E             dE          RMSdq      gap      omega  full diag
   1    -95.0765337 -0.950765E+02  0.400E-02    0.17       0.0  T
   2    -95.0765113  0.223488E-04  0.307E-02    0.18       1.0  T
   3    -95.0745961  0.191524E-02  0.186E-01    0.14       1.0  T
   4    -95.0765252 -0.192915E-02  0.160E-02    0.18       1.0  T
   5    -95.0765114  0.138112E-04  0.178E-02    0.18       1.0  T
   6    -95.0765343 -0.228745E-04  0.331E-03    0.18       3.5  T
   7    -95.0765347 -0.363024E-06  0.905E-04    0.18      12.8  T
   8    -95.0765345  0.123726E-06  0.168E-03    0.18       6.9  T
   9    -95.0765347 -0.166661E-06  0.250E-04    0.18      46.2  T
  10    -95.0765347 -0.694072E-09  0.180E-04    0.18      64.3  T
     SCC iter.                  ...        0 min,  0.410 sec
     gradient                   ...        0 min,  0.152 sec
 * total energy  :   -93.7871912 Eh     change       -0.2622348E-04 Eh
   gradient norm :     0.0009411 Eh/α   predicted    -0.1232460E-04 ( -53.00%)
   displ. norm   :     0.2802108 α      lambda       -0.2102814E-04
   maximum displ.:     0.1431642 α      in ANC's #3, #5, #9, ...

........................................................................
.............................. CYCLE  200 ..............................
........................................................................

 iter      E             dE          RMSdq      gap      omega  full diag
   1    -95.0765270 -0.950765E+02  0.386E-02    0.17       0.0  T
   2    -95.0764525  0.745448E-04  0.448E-02    0.19       1.0  T
   3    -95.0759178  0.534678E-03  0.106E-01    0.15       1.0  T
   4    -95.0764332 -0.515393E-03  0.400E-02    0.19       1.0  T
   5    -95.0765172 -0.840480E-04  0.138E-02    0.18       1.0  T
   6    -95.0765283 -0.110593E-04  0.374E-03    0.18       3.1  T
   7    -95.0765289 -0.632581E-06  0.939E-04    0.18      12.3  T
   8    -95.0765288  0.158423E-06  0.161E-03    0.18       7.2  T
   9    -95.0765289 -0.182087E-06  0.183E-04    0.18      63.0  T
  10    -95.0765289 -0.655177E-09  0.876E-05    0.18     131.8  T
     SCC iter.                  ...        0 min,  0.363 sec
     gradient                   ...        0 min,  0.167 sec
 * total energy  :   -93.7872133 Eh     change       -0.2212609E-04 Eh
   gradient norm :     0.0008866 Eh/α   predicted    -0.1088496E-04 ( -50.80%)
   displ. norm   :     0.2457178 α      lambda       -0.2127449E-04
   maximum displ.:     0.1191804 α      in ANC's #3, #5, #9, ...

........................................................................
.............................. CYCLE  201 ..............................
........................................................................

 iter      E             dE          RMSdq      gap      omega  full diag
   1    -95.0770948 -0.950771E+02  0.379E-02    0.18       0.0  T
   2    -95.0770932  0.160383E-05  0.235E-02    0.17       1.0  T
   3    -95.0770030  0.902938E-04  0.525E-02    0.19       1.0  T
   4    -95.0769731  0.298504E-04  0.417E-02    0.17       1.0  T
   5    -95.0770745 -0.101392E-03  0.184E-02    0.18       1.0  T
   6    -95.0770959 -0.213740E-04  0.242E-03    0.18       4.8  T
   7    -95.0770963 -0.404064E-06  0.483E-04    0.18      23.9  T
   8    -95.0770963 -0.464368E-09  0.226E-04    0.18      51.1  T
     SCC iter.                  ...        0 min,  0.277 sec
     gradient                   ...        0 min,  0.148 sec
 * total energy  :   -93.7872323 Eh     change       -0.1903900E-04 Eh
   gradient norm :     0.0011853 Eh/α   predicted    -0.1092565E-04 ( -42.61%)
   displ. norm   :     0.2456591 α      lambda       -0.2109657E-04
   maximum displ.:     0.1161309 α      in ANC's #3, #9, #5, ...

........................................................................
.............................. CYCLE  202 ..............................
........................................................................

 iter      E             dE          RMSdq      gap      omega  full diag
   1    -95.0766928 -0.950767E+02  0.394E-02    0.17       0.0  T
   2    -95.0766005  0.923445E-04  0.484E-02    0.19       1.0  T
   3    -95.0761599  0.440537E-03  0.100E-01    0.15       1.0  T
   4    -95.0766334 -0.473459E-03  0.291E-02    0.18       1.0  T
   5    -95.0766945 -0.611048E-04  0.636E-03    0.18       1.8  T
   6    -95.0766925  0.201098E-05  0.735E-03    0.18       1.6  T
   7    -95.0766958 -0.330994E-05  0.302E-03    0.18       3.8  T
   8    -95.0766964 -0.595443E-06  0.601E-04    0.18      19.2  T
   9    -95.0766964 -0.123418E-07  0.286E-04    0.18      40.4  T
  10    -95.0766964 -0.119216E-08  0.141E-04    0.18      82.1  T
     SCC iter.                  ...        0 min,  0.395 sec
     gradient                   ...        0 min,  0.181 sec
 * total energy  :   -93.7872459 Eh     change       -0.1355821E-04 Eh
   gradient norm :     0.0012346 Eh/α   predicted    -0.1083630E-04 ( -20.08%)
   displ. norm   :     0.1160696 α      lambda       -0.1496074E-04
   maximum displ.:     0.0474116 α      in ANC's #3, #9, #2, ...

........................................................................
.............................. CYCLE  203 ..............................
........................................................................

 iter      E             dE          RMSdq      gap      omega  full diag
   1    -95.0765081 -0.950765E+02  0.232E-02    0.17       0.0  T
   2    -95.0763807  0.127404E-03  0.536E-02    0.19       1.0  T
   3    -95.0764172 -0.365247E-04  0.397E-02    0.17       1.0  T
   4    -95.0763974  0.198152E-04  0.417E-02    0.19       1.0  T
   5    -95.0765011 -0.103785E-03  0.116E-02    0.18       1.0  T
   6    -95.0765110 -0.988918E-05  0.277E-03    0.18       4.2  T
   7    -95.0765116 -0.529134E-06  0.903E-04    0.18      12.8  T
   8    -95.0765116 -0.324662E-07  0.750E-04    0.18      15.4  T
   9    -95.0765116 -0.240595E-07  0.417E-04    0.18      27.7  T
  10    -95.0765116 -0.745118E-08  0.604E-05    0.18     191.1  T
     SCC iter.                  ...        0 min,  0.457 sec
     gradient                   ...        0 min,  0.178 sec
 * total energy  :   -93.7872580 Eh     change       -0.1206918E-04 Eh
   gradient norm :     0.0008980 Eh/α   predicted    -0.7528636E-05 ( -37.62%)
   displ. norm   :     0.0657207 α      lambda       -0.1001341E-04
   maximum displ.:     0.0247579 α      in ANC's #16, #8, #5, ...

........................................................................
.............................. CYCLE  204 ..............................
........................................................................

 iter      E             dE          RMSdq      gap      omega  full diag
   1    -95.0774650 -0.950775E+02  0.132E-02    0.18       0.0  T
   2    -95.0773784  0.865474E-04  0.374E-02    0.19       1.0  T
   3    -95.0774631 -0.847031E-04  0.124E-02    0.17       1.0  T
   4    -95.0774512  0.119924E-04  0.146E-02    0.17       1.0  T
   5    -95.0774614 -0.102558E-04  0.852E-03    0.18       1.4  T
   6    -95.0774669 -0.547672E-05  0.696E-04    0.18      16.6  T
   7    -95.0774668  0.442136E-07  0.111E-03    0.18      10.4  T
   8    -95.0774669 -0.663933E-07  0.216E-04    0.18      53.5  T
   9    -95.0774669 -0.536076E-09  0.162E-04    0.18      71.2  T
     SCC iter.                  ...        0 min,  0.379 sec
     gradient                   ...        0 min,  0.174 sec
 * total energy  :   -93.7872678 Eh     change       -0.9813941E-05 Eh
   gradient norm :     0.0008632 Eh/α   predicted    -0.5018983E-05 ( -48.86%)
   displ. norm   :     0.1135360 α      lambda       -0.9432388E-05
   maximum displ.:     0.0454171 α      in ANC's #2, #3, #12, ...

........................................................................
.............................. CYCLE  205 ..............................
........................................................................

 iter      E             dE          RMSdq      gap      omega  full diag
   1    -95.0765360 -0.950765E+02  0.235E-02    0.17       0.0  T
   2    -95.0759554  0.580654E-03  0.105E-01    0.21       1.0  T
   3    -95.0765508 -0.595456E-03  0.107E-02    0.18       1.1  T
   4    -95.0765415  0.935428E-05  0.117E-02    0.18       1.0  T
   5    -95.0765251  0.164079E-04  0.200E-02    0.17       1.0  T
   6    -95.0765519 -0.268802E-04  0.209E-03    0.18       5.5  T
   7    -95.0765521 -0.138611E-06  0.679E-04    0.18      17.0  T
   8    -95.0765520  0.374677E-07  0.994E-04    0.18      11.6  T
   9    -95.0765521 -0.522809E-07  0.426E-04    0.18      27.1  T
  10    -95.0765521 -0.492594E-08  0.280E-04    0.18      41.2  T
     SCC iter.                  ...        0 min,  0.440 sec
     gradient                   ...        0 min,  0.174 sec
 * total energy  :   -93.7872758 Eh     change       -0.8013083E-05 Eh
   gradient norm :     0.0006827 Eh/α   predicted    -0.4747498E-05 ( -40.75%)
   displ. norm   :     0.0703787 α      lambda       -0.5316661E-05
   maximum displ.:     0.0306245 α      in ANC's #4, #5, #2, ...

........................................................................
.............................. CYCLE  206 ..............................
........................................................................

 iter      E             dE          RMSdq      gap      omega  full diag
   1    -95.0772521 -0.950773E+02  0.108E-02    0.18       0.0  T
   2    -95.0772520  0.302696E-07  0.677E-03    0.18       1.7  T
   3    -95.0772452  0.680201E-05  0.109E-02    0.18       1.1  T
   4    -95.0772329  0.123271E-04  0.193E-02    0.17       1.0  T
   5    -95.0772519 -0.189879E-04  0.203E-03    0.18       5.7  T
   6    -95.0772521 -0.145080E-06  0.135E-03    0.18       8.6  T
   7    -95.0772522 -0.118581E-06  0.659E-04    0.18      17.5  T
   8    -95.0772522 -0.273586E-07  0.178E-04    0.18      65.0  T
   9    -95.0772522  0.429347E-08  0.292E-04    0.18      39.6  T
     SCC iter.                  ...        0 min,  0.414 sec
     gradient                   ...        0 min,  0.174 sec
 * total energy  :   -93.7872803 Eh     change       -0.4487226E-05 Eh
   gradient norm :     0.0005708 Eh/α   predicted    -0.2667814E-05 ( -40.55%)
   displ. norm   :     0.0593393 α      lambda       -0.3888887E-05
   maximum displ.:     0.0276234 α      in ANC's #2, #3, #4, ...

........................................................................
.............................. CYCLE  207 ..............................
........................................................................

 iter      E             dE          RMSdq      gap      omega  full diag
   1    -95.0768904 -0.950769E+02  0.103E-02    0.17       0.0  T
   2    -95.0767570  0.133370E-03  0.502E-02    0.19       1.0  T
   3    -95.0768931 -0.136041E-03  0.468E-03    0.18       2.5  T
   4    -95.0768912  0.193939E-05  0.499E-03    0.18       2.3  T
   5    -95.0768896  0.154903E-05  0.705E-03    0.17       1.6  T
   6    -95.0768932 -0.360017E-05  0.528E-04    0.18      21.9  T
   7    -95.0768932 -0.819428E-08  0.168E-04    0.18      68.9  T
   8    -95.0768932  0.762398E-09  0.136E-04    0.18      84.7  T
     SCC iter.                  ...        0 min,  0.332 sec
     gradient                   ...        0 min,  0.167 sec
 * total energy  :   -93.7872846 Eh     change       -0.4291248E-05 Eh
   gradient norm :     0.0004931 Eh/α   predicted    -0.1951027E-05 ( -54.53%)
   displ. norm   :     0.0774831 α      lambda       -0.4771082E-05
   maximum displ.:     0.0376705 α      in ANC's #2, #4, #3, ...

........................................................................
.............................. CYCLE  208 ..............................
........................................................................

 iter      E             dE          RMSdq      gap      omega  full diag
   1    -95.0767208 -0.950767E+02  0.874E-03    0.18       0.0  T
   2    -95.0767113  0.950616E-05  0.130E-02    0.17       1.0  T
   3    -95.0767062  0.505649E-05  0.174E-02    0.18       1.0  T
   4    -95.0767093 -0.304429E-05  0.127E-02    0.18       1.0  T
   5    -95.0767206 -0.113186E-04  0.221E-03    0.18       5.2  T
   6    -95.0767210 -0.377171E-06  0.656E-04    0.18      17.6  T
   7    -95.0767210 -0.269996E-07  0.285E-04    0.18      40.5  T
   8    -95.0767210  0.319517E-09  0.256E-04    0.18      45.1  T
     SCC iter.                  ...        0 min,  0.353 sec
     gradient                   ...        0 min,  0.171 sec
 * total energy  :   -93.7872904 Eh     change       -0.5790557E-05 Eh
   gradient norm :     0.0004479 Eh/α   predicted    -0.2394535E-05 ( -58.65%)
   displ. norm   :     0.1425813 α      lambda       -0.7810362E-05
   maximum displ.:     0.0706120 α      in ANC's #2, #4, #3, ...

........................................................................
.............................. CYCLE  209 ..............................
........................................................................

 iter      E             dE          RMSdq      gap      omega  full diag
   1    -95.0763813 -0.950764E+02  0.153E-02    0.18       0.0  T
   2    -95.0763669  0.143408E-04  0.176E-02    0.17       1.0  T
   3    -95.0763011  0.657976E-04  0.389E-02    0.19       1.0  T
   4    -95.0763766 -0.754909E-04  0.970E-03    0.18       1.2  T
   5    -95.0763815 -0.487784E-05  0.188E-03    0.18       6.1  T
   6    -95.0763813  0.139670E-06  0.192E-03    0.18       6.0  T
   7    -95.0763816 -0.256385E-06  0.848E-04    0.18      13.6  T
   8    -95.0763816 -0.408552E-07  0.259E-04    0.18      44.6  T
   9    -95.0763816  0.983846E-09  0.275E-04    0.18      42.0  T
     SCC iter.                  ...        0 min,  0.331 sec
     gradient                   ...        0 min,  0.152 sec
 * total energy  :   -93.7872999 Eh     change       -0.9565306E-05 Eh
   gradient norm :     0.0006829 Eh/α   predicted    -0.3944050E-05 ( -58.77%)
   displ. norm   :     0.2628656 α      lambda       -0.1325178E-04
   maximum displ.:     0.1314672 α      in ANC's #2, #4, #3, ...

........................................................................
.............................. CYCLE  210 ..............................
........................................................................

 iter      E             dE          RMSdq      gap      omega  full diag
   1    -95.0761107 -0.950761E+02  0.260E-02    0.18       0.0  T
   2    -95.0760174  0.933196E-04  0.414E-02    0.17       1.0  T
   3    -95.0760004  0.169972E-04  0.481E-02    0.19       1.0  T
   4    -95.0760672 -0.668322E-04  0.268E-02    0.19       1.0  T
   5    -95.0761115 -0.442944E-04  0.410E-03    0.18       2.8  T
   6    -95.0761122 -0.692772E-06  0.203E-03    0.18       5.7  T
   7    -95.0761123 -0.778321E-07  0.191E-03    0.18       6.0  T
   8    -95.0761125 -0.212399E-06  0.861E-04    0.18      13.4  T
   9    -95.0761126 -0.358600E-07  0.439E-04    0.18      26.3  T
  10    -95.0761126 -0.113074E-07  0.553E-05    0.18     208.8  T
     SCC iter.                  ...        0 min,  0.424 sec
     gradient                   ...        0 min,  0.179 sec
 * total energy  :   -93.7873161 Eh     change       -0.1620200E-04 Eh
   gradient norm :     0.0010965 Eh/α   predicted    -0.6831495E-05 ( -57.84%)
   displ. norm   :     0.4123881 α      lambda       -0.2009162E-04
   maximum displ.:     0.2073356 α      in ANC's #2, #4, #3, ...

........................................................................
.............................. CYCLE  211 ..............................
........................................................................

 iter      E             dE          RMSdq      gap      omega  full diag
   1    -95.0755753 -0.950756E+02  0.397E-02    0.18       0.0  T
   2    -95.0755440  0.313005E-04  0.314E-02    0.17       1.0  T
   3    -95.0748957  0.648287E-03  0.109E-01    0.22       1.0  T
   4    -95.0755493 -0.653592E-03  0.230E-02    0.18       1.0  T
   5    -95.0755740 -0.246974E-04  0.872E-03    0.17       1.3  T
   6    -95.0755703  0.366811E-05  0.963E-03    0.17       1.2  T
   7    -95.0755765 -0.613892E-05  0.310E-03    0.18       3.7  T
   8    -95.0755769 -0.449051E-06  0.709E-04    0.18      16.3  T
   9    -95.0755769  0.976300E-08  0.744E-04    0.18      15.5  T
  10    -95.0755769 -0.146166E-07  0.537E-04    0.18      21.5  T
  11    -95.0755769 -0.145453E-07  0.140E-04    0.18      82.4  T
  12    -95.0755769 -0.917495E-09  0.261E-05    0.18     443.2  T
     SCC iter.                  ...        0 min,  0.534 sec
     gradient                   ...        0 min,  0.174 sec
 * total energy  :   -93.7873408 Eh     change       -0.2466220E-04 Eh
   gradient norm :     0.0017624 Eh/α   predicted    -0.1080795E-04 ( -56.18%)
   displ. norm   :     0.5989443 α      lambda       -0.3239418E-04
   maximum displ.:     0.3026600 α      in ANC's #2, #4, #3, ...

........................................................................
.............................. CYCLE  212 ..............................
........................................................................

 iter      E             dE          RMSdq      gap      omega  full diag
   1    -95.0748669 -0.950749E+02  0.583E-02    0.18       0.0  T
   2    -95.0748568  0.100315E-04  0.354E-02    0.17       1.0  T
   3    -95.0741643  0.692542E-03  0.106E-01    0.21       1.0  T
   4    -95.0748690 -0.704735E-03  0.186E-02    0.18       1.0  T
   5    -95.0748491  0.198906E-04  0.168E-02    0.17       1.0  T
   6    -95.0748677 -0.185129E-04  0.628E-03    0.18       1.8  T
   7    -95.0748691 -0.140611E-05  0.257E-03    0.18       4.5  T
   8    -95.0748689  0.186535E-06  0.369E-03    0.17       3.1  T
   9    -95.0748696 -0.718433E-06  0.908E-04    0.18      12.7  T
  10    -95.0748696  0.197185E-07  0.107E-03    0.18      10.8  T
  11    -95.0748696 -0.618919E-07  0.123E-04    0.18      93.8  T
  12    -95.0748696 -0.600593E-09  0.387E-05    0.18     298.0  T
     SCC iter.                  ...        0 min,  0.544 sec
     gradient                   ...        0 min,  0.200 sec
 * total energy  :   -93.7873754 Eh     change       -0.3457330E-04 Eh
   gradient norm :     0.0025432 Eh/α   predicted    -0.1878392E-04 ( -45.67%)
   displ. norm   :     0.2371218 α      lambda       -0.3529352E-04
   maximum displ.:     0.1190935 α      in ANC's #2, #4, #3, ...

........................................................................
.............................. CYCLE  213 ..............................
........................................................................

 iter      E             dE          RMSdq      gap      omega  full diag
   1    -95.0760567 -0.950761E+02  0.272E-02    0.18       0.0  T
   2    -95.0760557  0.101775E-05  0.164E-02    0.17       1.0  T
   3    -95.0759318  0.123948E-03  0.453E-02    0.19       1.0  T
   4    -95.0760500 -0.118209E-03  0.158E-02    0.17       1.0  T
   5    -95.0760567 -0.676023E-05  0.339E-03    0.18       3.4  T
   6    -95.0760568 -0.243804E-07  0.271E-03    0.18       4.3  T
   7    -95.0760573 -0.489869E-06  0.101E-03    0.18      11.5  T
   8    -95.0760573 -0.674599E-07  0.260E-04    0.18      44.3  T
   9    -95.0760573  0.545346E-08  0.368E-04    0.18      31.4  T
     SCC iter.                  ...        0 min,  0.353 sec
     gradient                   ...        0 min,  0.200 sec
 * total energy  :   -93.7874024 Eh     change       -0.2701892E-04 Eh
   gradient norm :     0.0016069 Eh/α   predicted    -0.1864123E-04 ( -31.01%)
   displ. norm   :     0.5387579 α      lambda       -0.4720264E-04
   maximum displ.:     0.2696100 α      in ANC's #2, #4, #3, ...

........................................................................
.............................. CYCLE  214 ..............................
........................................................................

 iter      E             dE          RMSdq      gap      omega  full diag
   1    -95.0771243 -0.950771E+02  0.671E-02    0.17       0.0  T
   2    -95.0769380  0.186211E-03  0.731E-02    0.19       1.0  T
   3    -95.0739778  0.296026E-02  0.237E-01    0.13       1.0  T
   4    -95.0768859 -0.290808E-02  0.697E-02    0.20       1.0  T
   5    -95.0769683 -0.824183E-04  0.504E-02    0.19       1.0  T
   6    -95.0771191 -0.150792E-03  0.161E-02    0.18       1.0  T
   7    -95.0771233 -0.421806E-05  0.113E-02    0.18       1.0  T
   8    -95.0771272 -0.395033E-05  0.786E-03    0.17       1.5  T
   9    -95.0771305 -0.328884E-05  0.428E-04    0.18      27.0  T
  10    -95.0771305 -0.205885E-08  0.373E-04    0.18      31.0  T
  11    -95.0771305  0.173610E-08  0.261E-04    0.18      44.2  T
     SCC iter.                  ...        0 min,  0.495 sec
     gradient                   ...        0 min,  0.183 sec
 * total energy  :   -93.7874453 Eh     change       -0.4290695E-04 Eh
   gradient norm :     0.0020167 Eh/α   predicted    -0.2665132E-04 ( -37.89%)
   displ. norm   :     0.0892546 α      lambda       -0.3409210E-04
   maximum displ.:     0.0370068 α      in ANC's #10, #2, #9, ...

........................................................................
.............................. CYCLE  215 ..............................
........................................................................

 iter      E             dE          RMSdq      gap      omega  full diag
   1    -95.0785850 -0.950786E+02  0.249E-02    0.17       0.0  T
   2    -95.0783952  0.189894E-03  0.596E-02    0.19       1.0  T
   3    -95.0785203 -0.125183E-03  0.371E-02    0.17       1.0  T
   4    -95.0785850 -0.646305E-04  0.135E-02    0.18       1.0  T
   5    -95.0785748  0.101501E-04  0.138E-02    0.18       1.0  T
   6    -95.0785892 -0.143958E-04  0.130E-03    0.18       8.9  T
   7    -95.0785893 -0.656034E-07  0.980E-04    0.18      11.8  T
   8    -95.0785893 -0.249127E-07  0.638E-04    0.18      18.1  T
   9    -95.0785893 -0.135666E-07  0.405E-04    0.18      28.5  T
  10    -95.0785893 -0.937659E-08  0.150E-04    0.18      76.8  T
     SCC iter.                  ...        0 min,  0.431 sec
     gradient                   ...        0 min,  0.180 sec
 * total energy  :   -93.7874632 Eh     change       -0.1788425E-04 Eh
   gradient norm :     0.0014753 Eh/α   predicted    -0.1718685E-04 (  -3.90%)
   displ. norm   :     0.2731585 α      lambda       -0.2226346E-04
   maximum displ.:     0.1374586 α      in ANC's #2, #4, #3, ...

........................................................................
.............................. CYCLE  216 ..............................
........................................................................

 iter      E             dE          RMSdq      gap      omega  full diag
   1    -95.0768573 -0.950769E+02  0.365E-02    0.18       0.0  T
   2    -95.0768262  0.311200E-04  0.320E-02    0.18       1.0  T
   3    -95.0758162  0.101002E-02  0.135E-01    0.15       1.0  T
   4    -95.0768301 -0.101389E-02  0.283E-02    0.18       1.0  T
   5    -95.0767851  0.449834E-04  0.315E-02    0.19       1.0  T
   6    -95.0768568 -0.716841E-04  0.669E-03    0.18       1.7  T
   7    -95.0768586 -0.186861E-05  0.160E-03    0.18       7.2  T
   8    -95.0768585  0.111238E-06  0.210E-03    0.17       5.5  T
   9    -95.0768587 -0.210418E-06  0.378E-04    0.18      30.6  T
  10    -95.0768587 -0.300930E-08  0.266E-04    0.18      43.5  T
     SCC iter.                  ...        0 min,  0.422 sec
     gradient                   ...        0 min,  0.180 sec
 * total energy  :   -93.7874853 Eh     change       -0.2209236E-04 Eh
   gradient norm :     0.0012459 Eh/α   predicted    -0.1150598E-04 ( -47.92%)
   displ. norm   :     0.1169482 α      lambda       -0.1750723E-04
   maximum displ.:     0.0539304 α      in ANC's #10, #3, #2, ...

........................................................................
.............................. CYCLE  217 ..............................
........................................................................

 iter      E             dE          RMSdq      gap      omega  full diag
   1    -95.0766904 -0.950767E+02  0.222E-02    0.18       0.0  T
   2    -95.0766877  0.270671E-05  0.150E-02    0.17       1.0  T
   3    -95.0764312  0.256534E-03  0.695E-02    0.20       1.0  T
   4    -95.0766877 -0.256527E-03  0.961E-03    0.18       1.2  T
   5    -95.0766779  0.979076E-05  0.130E-02    0.18       1.0  T
   6    -95.0766906 -0.127296E-04  0.106E-03    0.18      10.9  T
   7    -95.0766907 -0.435106E-07  0.654E-04    0.18      17.6  T
   8    -95.0766907 -0.475221E-08  0.362E-04    0.18      31.9  T
   9    -95.0766907 -0.813598E-08  0.115E-04    0.18     100.3  T
     SCC iter.                  ...        0 min,  0.374 sec
     gradient                   ...        0 min,  0.131 sec
 * total energy  :   -93.7875038 Eh     change       -0.1848344E-04 Eh
   gradient norm :     0.0014123 Eh/α   predicted    -0.8811134E-05 ( -52.33%)
   displ. norm   :     0.1220010 α      lambda       -0.1677053E-04
   maximum displ.:     0.0587789 α      in ANC's #10, #3, #2, ...

........................................................................
.............................. CYCLE  218 ..............................
........................................................................

 iter      E             dE          RMSdq      gap      omega  full diag
   1    -95.0764064 -0.950764E+02  0.196E-02    0.18       0.0  T
   2    -95.0764064  0.965676E-08  0.119E-02    0.18       1.0  T
   3    -95.0763976  0.878228E-05  0.168E-02    0.17       1.0  T
   4    -95.0763732  0.244669E-04  0.239E-02    0.18       1.0  T
   5    -95.0764029 -0.297216E-04  0.671E-03    0.17       1.7  T
   6    -95.0764064 -0.355114E-05  0.186E-03    0.18       6.2  T
   7    -95.0764066 -0.193879E-06  0.393E-04    0.18      29.4  T
   8    -95.0764066 -0.653635E-08  0.147E-04    0.18      78.4  T
     SCC iter.                  ...        0 min,  0.195 sec
     gradient                   ...        0 min,  0.146 sec
 * total energy  :   -93.7875201 Eh     change       -0.1636617E-04 Eh
   gradient norm :     0.0010309 Eh/α   predicted    -0.8444450E-05 ( -48.40%)
   displ. norm   :     0.1027653 α      lambda       -0.1027554E-04
   maximum displ.:     0.0535263 α      in ANC's #10, #3, #2, ...

........................................................................
.............................. CYCLE  219 ..............................
........................................................................

 iter      E             dE          RMSdq      gap      omega  full diag
   1    -95.0766711 -0.950767E+02  0.186E-02    0.18       0.0  T
   2    -95.0766709  0.220403E-06  0.112E-02    0.17       1.0  T
   3    -95.0766063  0.646134E-04  0.344E-02    0.19       1.0  T
   4    -95.0766623 -0.559494E-04  0.124E-02    0.17       1.0  T
   5    -95.0766710 -0.870159E-05  0.263E-03    0.18       4.4  T
   6    -95.0766710  0.494857E-08  0.207E-03    0.18       5.6  T
   7    -95.0766713 -0.294886E-06  0.577E-04    0.18      20.0  T
   8    -95.0766713 -0.205853E-07  0.175E-04    0.18      65.8  T
   9    -95.0766713 -0.146366E-08  0.828E-05    0.18     139.4  T
     SCC iter.                  ...        0 min,  0.378 sec
     gradient                   ...        0 min,  0.167 sec
 * total energy  :   -93.7875314 Eh     change       -0.1127837E-04 Eh
   gradient norm :     0.0009408 Eh/α   predicted    -0.5166927E-05 ( -54.19%)
   displ. norm   :     0.1266262 α      lambda       -0.1128784E-04
   maximum displ.:     0.0667505 α      in ANC's #10, #2, #3, ...
 * RMSD in coord.:     0.4015870 α      energy gain  -0.7053601E-03 Eh

generating ANC from exact Hessian ...
Using Lindh-Hessian (1995)
 Shifting diagonal of input Hessian by    1.0176153620268044E-002
 Lowest  eigenvalues of input Hessian
    0.010000    0.010073    0.010096    0.000000    0.000000    0.000000
    0.000000    0.000000    0.000000    0.010296    0.010407    0.010449
    0.010616    0.010718    0.010825    0.010896    0.010970    0.011128
 Highest eigenvalues
    1.627661    1.887563    1.976687    2.015453    2.223146    2.309426


........................................................................
.............................. CYCLE  220 ..............................
........................................................................

 iter      E             dE          RMSdq      gap      omega  full diag
   1    -95.0771894 -0.950772E+02  0.229E-02    0.17       0.0  T
   2    -95.0771748  0.145121E-04  0.213E-02    0.18       1.0  T
   3    -95.0768472  0.327675E-03  0.788E-02    0.16       1.0  T
   4    -95.0771830 -0.335780E-03  0.987E-03    0.18       1.2  T
   5    -95.0771882 -0.529477E-05  0.428E-03    0.18       2.7  T
   6    -95.0771895 -0.122745E-05  0.231E-03    0.18       5.0  T
   7    -95.0771897 -0.271638E-06  0.107E-03    0.18      10.8  T
   8    -95.0771898 -0.784360E-07  0.126E-04    0.18      91.8  T
   9    -95.0771898 -0.241116E-09  0.815E-05    0.18     141.7  T
     SCC iter.                  ...        0 min,  0.217 sec
     gradient                   ...        0 min,  0.142 sec
 * total energy  :   -93.7875433 Eh     change       -0.1192174E-04 Eh
   gradient norm :     0.0007771 Eh/α   predicted     0.0000000E+00 (-100.00%)
   displ. norm   :     0.0589305 α      lambda       -0.1742320E-04
   maximum displ.:     0.0486613 α      in ANC's #3, #2, #10, ...

........................................................................
.............................. CYCLE  221 ..............................
........................................................................

 iter      E             dE          RMSdq      gap      omega  full diag
   1    -95.0771600 -0.950772E+02  0.825E-03    0.18       0.0  T
   2    -95.0771262  0.338003E-04  0.254E-02    0.17       1.0  T
   3    -95.0771579 -0.316928E-04  0.778E-03    0.18       1.5  T
   4    -95.0771599 -0.199320E-05  0.463E-03    0.17       2.5  T
   5    -95.0771605 -0.531524E-06  0.148E-03    0.18       7.8  T
   6    -95.0771603  0.129196E-06  0.193E-03    0.18       6.0  T
   7    -95.0771606 -0.265605E-06  0.811E-04    0.18      14.2  T
   8    -95.0771606 -0.418842E-07  0.921E-05    0.18     125.4  T
   9    -95.0771606 -0.415241E-10  0.862E-05    0.18     134.0  T
     SCC iter.                  ...        0 min,  0.223 sec
     gradient                   ...        0 min,  0.145 sec
 * total energy  :   -93.7875670 Eh     change       -0.2366923E-04 Eh
   gradient norm :     0.0006428 Eh/α   predicted    -0.8735159E-05 ( -63.09%)
   displ. norm   :     0.1399495 α      lambda       -0.3801297E-04
   maximum displ.:     0.0973835 α      in ANC's #3, #2, #10, ...

........................................................................
.............................. CYCLE  222 ..............................
........................................................................

 iter      E             dE          RMSdq      gap      omega  full diag
   1    -95.0770834 -0.950771E+02  0.184E-02    0.18       0.0  T
   2    -95.0769174  0.166029E-03  0.564E-02    0.16       1.0  T
   3    -95.0770629 -0.145482E-03  0.222E-02    0.18       1.0  T
   4    -95.0770843 -0.214563E-04  0.741E-03    0.18       1.6  T
   5    -95.0770678  0.165205E-04  0.150E-02    0.18       1.0  T
   6    -95.0770860 -0.181790E-04  0.158E-03    0.18       7.3  T
   7    -95.0770862 -0.186277E-06  0.324E-04    0.18      35.7  T
   8    -95.0770862 -0.206953E-09  0.186E-04    0.18      62.1  T
     SCC iter.                  ...        0 min,  0.339 sec
     gradient                   ...        0 min,  0.161 sec
 * total energy  :   -93.7876109 Eh     change       -0.4395662E-04 Eh
   gradient norm :     0.0018391 Eh/α   predicted    -0.1917235E-04 ( -56.38%)
   displ. norm   :     0.2958134 α      lambda       -0.7974124E-04
   maximum displ.:     0.1943811 α      in ANC's #3, #2, #10, ...

........................................................................
.............................. CYCLE  223 ..............................
........................................................................

 iter      E             dE          RMSdq      gap      omega  full diag
   1    -95.0765439 -0.950765E+02  0.409E-02    0.18       0.0  T
   2    -95.0751615  0.138243E-02  0.164E-01    0.14       1.0  T
   3    -95.0765455 -0.138400E-02  0.251E-02    0.18       1.0  T
   4    -95.0764397  0.105789E-03  0.380E-02    0.17       1.0  T
   5    -95.0764984 -0.587243E-04  0.307E-02    0.19       1.0  T
   6    -95.0765634 -0.649945E-04  0.327E-03    0.18       3.5  T
   7    -95.0765626  0.790004E-06  0.512E-03    0.18       2.3  T
   8    -95.0765642 -0.153160E-05  0.389E-04    0.18      29.7  T
   9    -95.0765641  0.324845E-07  0.796E-04    0.18      14.5  T
  10    -95.0765642 -0.346552E-07  0.104E-04    0.18     110.7  T
  11    -95.0765642  0.870557E-09  0.142E-04    0.18      81.2  T
     SCC iter.                  ...        0 min,  0.461 sec
     gradient                   ...        0 min,  0.180 sec
 * total energy  :   -93.7876571 Eh     change       -0.4610869E-04 Eh
   gradient norm :     0.0046291 Eh/α   predicted    -0.4142167E-04 ( -10.17%)
   displ. norm   :     0.1896261 α      lambda       -0.1101545E-03
   maximum displ.:     0.1251060 α      in ANC's #3, #2, #5, ...

........................................................................
.............................. CYCLE  224 ..............................
........................................................................

 iter      E             dE          RMSdq      gap      omega  full diag
   1    -95.0764279 -0.950764E+02  0.302E-02    0.17       0.0  T
   2    -95.0763936  0.342825E-04  0.353E-02    0.19       1.0  T
   3    -95.0762817  0.111854E-03  0.573E-02    0.16       1.0  T
   4    -95.0763320 -0.503023E-04  0.393E-02    0.19       1.0  T
   5    -95.0763659 -0.339053E-04  0.313E-02    0.17       1.0  T
   6    -95.0764353 -0.693305E-04  0.696E-03    0.18       1.7  T
   7    -95.0764382 -0.296261E-05  0.287E-03    0.18       4.0  T
   8    -95.0764388 -0.515608E-06  0.371E-04    0.18      31.1  T
   9    -95.0764388 -0.246467E-08  0.162E-04    0.18      71.1  T
  10    -95.0764388 -0.833040E-10  0.798E-05    0.18     144.7  T
     SCC iter.                  ...        0 min,  0.465 sec
     gradient                   ...        0 min,  0.169 sec
 * total energy  :   -93.7877369 Eh     change       -0.7984163E-04 Eh
   gradient norm :     0.0025317 Eh/α   predicted    -0.5706012E-04 ( -28.53%)
   displ. norm   :     0.2296219 α      lambda       -0.1000837E-03
   maximum displ.:     0.1538917 α      in ANC's #3, #2, #5, ...

........................................................................
.............................. CYCLE  225 ..............................
........................................................................

 iter      E             dE          RMSdq      gap      omega  full diag
   1    -95.0767675 -0.950768E+02  0.353E-02    0.17       0.0  T
   2    -95.0767580  0.944243E-05  0.275E-02    0.18       1.0  T
   3    -95.0767609 -0.283271E-05  0.236E-02    0.17       1.0  T
   4    -95.0767745 -0.136179E-04  0.101E-02    0.18       1.1  T
   5    -95.0767501  0.243576E-04  0.205E-02    0.17       1.0  T
   6    -95.0767635 -0.133638E-04  0.131E-02    0.18       1.0  T
   7    -95.0767753 -0.117941E-04  0.215E-03    0.18       5.4  T
   8    -95.0767756 -0.290567E-06  0.913E-04    0.18      12.7  T
   9    -95.0767756 -0.253024E-07  0.597E-04    0.18      19.3  T
  10    -95.0767756 -0.160445E-07  0.122E-04    0.18      94.9  T
  11    -95.0767756  0.400178E-09  0.144E-04    0.18      80.3  T
     SCC iter.                  ...        0 min,  0.481 sec
     gradient                   ...        0 min,  0.171 sec
 * total energy  :   -93.7877927 Eh     change       -0.5582777E-04 Eh
   gradient norm :     0.0029315 Eh/α   predicted    -0.5268222E-04 (  -5.63%)
   displ. norm   :     0.2054006 α      lambda       -0.8104758E-04
   maximum displ.:     0.1378689 α      in ANC's #3, #2, #5, ...

........................................................................
.............................. CYCLE  226 ..............................
........................................................................

 iter      E             dE          RMSdq      gap      omega  full diag
   1    -95.0771996 -0.950772E+02  0.304E-02    0.18       0.0  T
   2    -95.0771142  0.853933E-04  0.411E-02    0.17       1.0  T
   3    -95.0769370  0.177286E-03  0.703E-02    0.20       1.0  T
   4    -95.0771903 -0.253336E-03  0.167E-02    0.18       1.0  T
   5    -95.0771966 -0.626242E-05  0.923E-03    0.17       1.3  T
   6    -95.0772010 -0.441607E-05  0.415E-03    0.18       2.8  T
   7    -95.0772023 -0.133194E-05  0.736E-04    0.18      15.7  T
   8    -95.0772023 -0.922927E-08  0.372E-04    0.18      31.1  T
   9    -95.0772023  0.743782E-09  0.294E-04    0.18      39.3  T
     SCC iter.                  ...        0 min,  0.406 sec
     gradient                   ...        0 min,  0.150 sec
 * total energy  :   -93.7878491 Eh     change       -0.5637757E-04 Eh
   gradient norm :     0.0027376 Eh/α   predicted    -0.4223389E-04 ( -25.09%)
   displ. norm   :     0.2137569 α      lambda       -0.7510366E-04
   maximum displ.:     0.1436409 α      in ANC's #3, #2, #5, ...

........................................................................
.............................. CYCLE  227 ..............................
........................................................................

 iter      E             dE          RMSdq      gap      omega  full diag
   1    -95.0773763 -0.950774E+02  0.279E-02    0.18       0.0  T
   2    -95.0773067  0.695701E-04  0.429E-02    0.17       1.0  T
   3    -95.0772299  0.768205E-04  0.511E-02    0.19       1.0  T
   4    -95.0773167 -0.868687E-04  0.293E-02    0.17       1.0  T
   5    -95.0773306 -0.138669E-04  0.248E-02    0.18       1.0  T
   6    -95.0773780 -0.474311E-04  0.280E-03    0.18       4.1  T
   7    -95.0773780 -0.936210E-08  0.237E-03    0.18       4.9  T
   8    -95.0773784 -0.322600E-06  0.435E-04    0.18      26.6  T
   9    -95.0773784 -0.646916E-08  0.237E-04    0.18      48.8  T
     SCC iter.                  ...        0 min,  0.215 sec
     gradient                   ...        0 min,  0.137 sec
 * total energy  :   -93.7879119 Eh     change       -0.6278168E-04 Eh
   gradient norm :     0.0020885 Eh/α   predicted    -0.3927204E-04 ( -37.45%)
   displ. norm   :     0.2944817 α      lambda       -0.1004951E-03
   maximum displ.:     0.1973555 α      in ANC's #3, #2, #5, ...

........................................................................
.............................. CYCLE  228 ..............................
........................................................................

 iter      E             dE          RMSdq      gap      omega  full diag
   1    -95.0772391 -0.950772E+02  0.361E-02    0.18       0.0  T
   2    -95.0770326  0.206523E-03  0.700E-02    0.16       1.0  T
   3    -95.0771171 -0.844896E-04  0.487E-02    0.19       1.0  T
   4    -95.0770672  0.498919E-04  0.447E-02    0.17       1.0  T
   5    -95.0772234 -0.156239E-03  0.184E-02    0.18       1.0  T
   6    -95.0772447 -0.212926E-04  0.128E-03    0.18       9.0  T
   7    -95.0772447  0.415610E-07  0.134E-03    0.18       8.6  T
   8    -95.0772447 -0.471862E-07  0.108E-03    0.18      10.7  T
   9    -95.0772448 -0.404907E-07  0.659E-04    0.18      17.5  T
  10    -95.0772448 -0.249073E-07  0.126E-04    0.18      91.9  T
  11    -95.0772448 -0.559297E-09  0.288E-05    0.18     400.9  T
     SCC iter.                  ...        0 min,  0.439 sec
     gradient                   ...        0 min,  0.174 sec
 * total energy  :   -93.7879963 Eh     change       -0.8437663E-04 Eh
   gradient norm :     0.0017667 Eh/α   predicted    -0.5460522E-04 ( -35.28%)
   displ. norm   :     0.5372309 α      lambda       -0.1027614E-03
   maximum displ.:     0.3600767 α      in ANC's #3, #2, #5, ...

........................................................................
.............................. CYCLE  229 ..............................
........................................................................

 iter      E             dE          RMSdq      gap      omega  full diag
   1    -95.0762697 -0.950763E+02  0.640E-02    0.18       0.0  T
   2    -95.0762572  0.124993E-04  0.411E-02    0.18       1.0  T
   3    -95.0745174  0.173975E-02  0.181E-01    0.14       1.0  T
   4    -95.0761914 -0.167396E-02  0.417E-02    0.19       1.0  T
   5    -95.0762687 -0.773237E-04  0.873E-03    0.18       1.3  T
   6    -95.0762609  0.785060E-05  0.133E-02    0.18       1.0  T
   7    -95.0762729 -0.120047E-04  0.251E-03    0.18       4.6  T
   8    -95.0762729 -0.660421E-08  0.216E-03    0.18       5.4  T
   9    -95.0762731 -0.251841E-06  0.286E-04    0.18      40.4  T
  10    -95.0762731  0.304382E-08  0.317E-04    0.18      36.4  T
     SCC iter.                  ...        0 min,  0.384 sec
     gradient                   ...        0 min,  0.146 sec
 * total energy  :   -93.7881154 Eh     change       -0.1190990E-03 Eh
   gradient norm :     0.0025694 Eh/α   predicted    -0.5797264E-04 ( -51.32%)
   displ. norm   :     0.3128412 α      lambda       -0.9039604E-04
   maximum displ.:     0.2109433 α      in ANC's #3, #2, #5, ...

........................................................................
.............................. CYCLE  230 ..............................
........................................................................

 iter      E             dE          RMSdq      gap      omega  full diag
   1    -95.0762688 -0.950763E+02  0.339E-02    0.18       0.0  T
   2    -95.0762486  0.202142E-04  0.276E-02    0.17       1.0  T
   3    -95.0758276  0.421029E-03  0.862E-02    0.21       1.0  T
   4    -95.0762481 -0.420511E-03  0.230E-02    0.17       1.0  T
   5    -95.0762615 -0.134265E-04  0.962E-03    0.18       1.2  T
   6    -95.0762682 -0.665282E-05  0.548E-03    0.18       2.1  T
   7    -95.0762690 -0.831576E-06  0.465E-03    0.18       2.5  T
   8    -95.0762702 -0.122303E-05  0.553E-04    0.18      20.9  T
   9    -95.0762703 -0.119974E-07  0.174E-04    0.18      66.2  T
  10    -95.0762703 -0.903427E-09  0.792E-05    0.18     145.8  T
     SCC iter.                  ...        0 min,  0.319 sec
     gradient                   ...        0 min,  0.146 sec
 * total energy  :   -93.7881926 Eh     change       -0.7727213E-04 Eh
   gradient norm :     0.0025573 Eh/α   predicted    -0.4962339E-04 ( -35.78%)
   displ. norm   :     0.3278316 α      lambda       -0.1016434E-03
   maximum displ.:     0.2228006 α      in ANC's #3, #2, #5, ...

........................................................................
.............................. CYCLE  231 ..............................
........................................................................

 iter      E             dE          RMSdq      gap      omega  full diag
   1    -95.0773653 -0.950774E+02  0.341E-02    0.18       0.0  T
   2    -95.0772750  0.903491E-04  0.429E-02    0.17       1.0  T
   3    -95.0770812  0.193748E-03  0.709E-02    0.20       1.0  T
   4    -95.0773430 -0.261794E-03  0.255E-02    0.18       1.0  T
   5    -95.0773355  0.749500E-05  0.214E-02    0.17       1.0  T
   6    -95.0773654 -0.298497E-04  0.941E-03    0.18       1.2  T
   7    -95.0773703 -0.493877E-05  0.430E-03    0.18       2.7  T
   8    -95.0773713 -0.945318E-06  0.950E-04    0.18      12.2  T
   9    -95.0773713 -0.530503E-07  0.258E-04    0.18      44.7  T
  10    -95.0773713 -0.201801E-08  0.842E-05    0.18     137.1  T
     SCC iter.                  ...        0 min,  0.384 sec
     gradient                   ...        0 min,  0.171 sec
 * total energy  :   -93.7882842 Eh     change       -0.9158007E-04 Eh
   gradient norm :     0.0017572 Eh/α   predicted    -0.5628569E-04 ( -38.54%)
   displ. norm   :     0.6099396 α      lambda       -0.1199683E-03
   maximum displ.:     0.4152503 α      in ANC's #3, #2, #5, ...

........................................................................
.............................. CYCLE  232 ..............................
........................................................................

 iter      E             dE          RMSdq      gap      omega  full diag
   1    -95.0779741 -0.950780E+02  0.581E-02    0.18       0.0  T
   2    -95.0779316  0.425020E-04  0.486E-02    0.19       1.0  T
   3    -95.0770521  0.879425E-03  0.141E-01    0.15       1.0  T
   4    -95.0775304 -0.478224E-03  0.785E-02    0.20       1.0  T
   5    -95.0778999 -0.369493E-03  0.329E-02    0.17       1.0  T
   6    -95.0779791 -0.792759E-04  0.108E-02    0.18       1.1  T
   7    -95.0779868 -0.762001E-05  0.348E-03    0.18       3.3  T
   8    -95.0779874 -0.662406E-06  0.894E-04    0.18      12.9  T
   9    -95.0779874 -0.870102E-09  0.717E-04    0.18      16.1  T
  10    -95.0779874 -0.270841E-07  0.110E-04    0.18     104.5  T
  11    -95.0779874  0.715730E-09  0.130E-04    0.18      88.6  T
     SCC iter.                  ...        0 min,  0.341 sec
     gradient                   ...        0 min,  0.143 sec
 * total energy  :   -93.7884360 Eh     change       -0.1517844E-03 Eh
   gradient norm :     0.0022778 Eh/α   predicted    -0.6990360E-04 ( -53.95%)
   displ. norm   :     0.4049813 α      lambda       -0.1015892E-03
   maximum displ.:     0.2776547 α      in ANC's #3, #2, #5, ...

........................................................................
.............................. CYCLE  233 ..............................
........................................................................

 iter      E             dE          RMSdq      gap      omega  full diag
   1    -95.0777017 -0.950777E+02  0.341E-02    0.18       0.0  T
   2    -95.0777021 -0.386092E-06  0.205E-02    0.18       1.0  T
   3    -95.0776812  0.208846E-04  0.180E-02    0.17       1.0  T
   4    -95.0774828  0.198334E-03  0.637E-02    0.20       1.0  T
   5    -95.0777008 -0.218007E-03  0.583E-03    0.18       2.0  T
   6    -95.0777011 -0.239677E-06  0.433E-03    0.18       2.7  T
   7    -95.0777015 -0.447586E-06  0.407E-03    0.18       2.8  T
   8    -95.0777026 -0.103457E-05  0.576E-04    0.18      20.1  T
   9    -95.0777026 -0.131272E-07  0.184E-04    0.18      62.8  T
  10    -95.0777026 -0.412314E-09  0.868E-05    0.18     133.0  T
     SCC iter.                  ...        0 min,  0.346 sec
     gradient                   ...        0 min,  0.151 sec
 * total energy  :   -93.7885292 Eh     change       -0.9321129E-04 Eh
   gradient norm :     0.0018517 Eh/α   predicted    -0.5912628E-04 ( -36.57%)
   displ. norm   :     0.6630309 α      lambda       -0.1115549E-03
   maximum displ.:     0.4578732 α      in ANC's #3, #2, #5, ...

........................................................................
.............................. CYCLE  234 ..............................
........................................................................

 iter      E             dE          RMSdq      gap      omega  full diag
   1    -95.0776501 -0.950777E+02  0.543E-02    0.18       0.0  T
   2    -95.0776511 -0.103703E-05  0.326E-02    0.18       1.0  T
   3    -95.0775990  0.521057E-04  0.360E-02    0.19       1.0  T
   4    -95.0772054  0.393572E-03  0.878E-02    0.16       1.0  T
   5    -95.0776466 -0.441152E-03  0.956E-03    0.18       1.2  T
   6    -95.0776516 -0.503993E-05  0.195E-03    0.18       5.9  T
   7    -95.0776515  0.723627E-07  0.196E-03    0.18       5.9  T
   8    -95.0776519 -0.308461E-06  0.403E-04    0.18      28.6  T
   9    -95.0776519  0.226879E-08  0.277E-04    0.18      41.7  T
     SCC iter.                  ...        0 min,  0.281 sec
     gradient                   ...        0 min,  0.117 sec
 * total energy  :   -93.7886738 Eh     change       -0.1445495E-03 Eh
   gradient norm :     0.0015283 Eh/α   predicted    -0.6667741E-04 ( -53.87%)
   displ. norm   :     0.6635961 α      lambda       -0.1069564E-03
   maximum displ.:     0.4621402 α      in ANC's #3, #5, #2, ...

........................................................................
.............................. CYCLE  235 ..............................
........................................................................

 iter      E             dE          RMSdq      gap      omega  full diag
   1    -95.0770615 -0.950771E+02  0.506E-02    0.19       0.0  T
   2    -95.0762977  0.763745E-03  0.124E-01    0.15       1.0  T
   3    -95.0769314 -0.633668E-03  0.548E-02    0.20       1.0  T
   4    -95.0770132 -0.818257E-04  0.274E-02    0.18       1.0  T
   5    -95.0769934  0.198273E-04  0.323E-02    0.19       1.0  T
   6    -95.0770710 -0.776599E-04  0.625E-03    0.18       1.8  T
   7    -95.0770728 -0.173517E-05  0.695E-04    0.18      16.6  T
   8    -95.0770728  0.147760E-07  0.727E-04    0.18      15.9  T
   9    -95.0770728 -0.131172E-07  0.281E-04    0.18      41.1  T
  10    -95.0770728  0.213208E-07  0.649E-04    0.18      17.8  T
  11    -95.0770728 -0.247367E-07  0.421E-05    0.18     274.4  T
     SCC iter.                  ...        0 min,  0.349 sec
     gradient                   ...        0 min,  0.163 sec
 * total energy  :   -93.7887961 Eh     change       -0.1223023E-03 Eh
   gradient norm :     0.0028327 Eh/α   predicted    -0.6395033E-04 ( -47.71%)
   displ. norm   :     0.3777858 α      lambda       -0.9987050E-04
   maximum displ.:     0.2651497 α      in ANC's #3, #5, #2, ...

........................................................................
.............................. CYCLE  236 ..............................
........................................................................

 iter      E             dE          RMSdq      gap      omega  full diag
   1    -95.0769714 -0.950770E+02  0.310E-02    0.18       0.0  T
   2    -95.0766994  0.271964E-03  0.708E-02    0.21       1.0  T
   3    -95.0769306 -0.231194E-03  0.333E-02    0.18       1.0  T
   4    -95.0769766 -0.460229E-04  0.809E-03    0.18       1.4  T
   5    -95.0769764  0.244134E-06  0.526E-03    0.18       2.2  T
   6    -95.0769781 -0.170422E-05  0.318E-03    0.18       3.6  T
   7    -95.0769789 -0.772798E-06  0.457E-04    0.18      25.3  T
   8    -95.0769789 -0.627652E-08  0.238E-04    0.18      48.5  T
   9    -95.0769789  0.646965E-08  0.369E-04    0.18      31.3  T
     SCC iter.                  ...        0 min,  0.281 sec
     gradient                   ...        0 min,  0.149 sec
 * total energy  :   -93.7888850 Eh     change       -0.8896242E-04 Eh
   gradient norm :     0.0019336 Eh/α   predicted    -0.5706272E-04 ( -35.86%)
   displ. norm   :     0.5973202 α      lambda       -0.1061664E-03
   maximum displ.:     0.4250687 α      in ANC's #3, #5, #2, ...

........................................................................
.............................. CYCLE  237 ..............................
........................................................................

 iter      E             dE          RMSdq      gap      omega  full diag
   1    -95.0789267 -0.950789E+02  0.423E-02    0.19       0.0  T
   2    -95.0784056  0.521075E-03  0.990E-02    0.16       1.0  T
   3    -95.0789020 -0.496373E-03  0.340E-02    0.19       1.0  T
   4    -95.0788621  0.399659E-04  0.346E-02    0.20       1.0  T
   5    -95.0789155 -0.534163E-04  0.165E-02    0.19       1.0  T
   6    -95.0789338 -0.183235E-04  0.504E-03    0.19       2.3  T
   7    -95.0789343 -0.519946E-06  0.270E-03    0.18       4.3  T
   8    -95.0789345 -0.224845E-06  0.205E-03    0.18       5.6  T
   9    -95.0789348 -0.267351E-06  0.209E-04    0.18      55.3  T
  10    -95.0789348  0.254727E-08  0.250E-04    0.18      46.2  T
     SCC iter.                  ...        0 min,  0.314 sec
     gradient                   ...        0 min,  0.165 sec
 * total energy  :   -93.7890175 Eh     change       -0.1324430E-03 Eh
   gradient norm :     0.0017149 Eh/α   predicted    -0.6150367E-04 ( -53.56%)
   displ. norm   :     0.6241646 α      lambda       -0.9827086E-04
   maximum displ.:     0.4389300 α      in ANC's #3, #5, #2, ...

........................................................................
.............................. CYCLE  238 ..............................
........................................................................

 iter      E             dE          RMSdq      gap      omega  full diag
   1    -95.0769577 -0.950770E+02  0.450E-02    0.18       0.0  T
   2    -95.0760974  0.860323E-03  0.130E-01    0.24       1.0  T
   3    -95.0769612 -0.863747E-03  0.285E-02    0.18       1.0  T
   4    -95.0768843  0.768403E-04  0.339E-02    0.19       1.0  T
   5    -95.0769407 -0.563509E-04  0.281E-02    0.18       1.0  T
   6    -95.0769889 -0.482402E-04  0.543E-03    0.19       2.1  T
   7    -95.0769894 -0.446879E-06  0.307E-03    0.19       3.8  T
   8    -95.0769899 -0.491966E-06  0.831E-04    0.18      13.9  T
   9    -95.0769899 -0.302370E-07  0.312E-04    0.18      37.0  T
  10    -95.0769899 -0.255973E-08  0.211E-04    0.18      54.6  T
     SCC iter.                  ...        0 min,  0.372 sec
     gradient                   ...        0 min,  0.153 sec
 * total energy  :   -93.7891484 Eh     change       -0.1309011E-03 Eh
   gradient norm :     0.0031149 Eh/α   predicted    -0.5764479E-04 ( -55.96%)
   displ. norm   :     0.3882006 α      lambda       -0.1064446E-03
   maximum displ.:     0.2758277 α      in ANC's #3, #5, #2, ...

........................................................................
.............................. CYCLE  239 ..............................
........................................................................

 iter      E             dE          RMSdq      gap      omega  full diag
   1    -95.0777878 -0.950778E+02  0.233E-02    0.19       0.0  T
   2    -95.0774465  0.341241E-03  0.816E-02    0.16       1.0  T
   3    -95.0777825 -0.336033E-03  0.170E-02    0.19       1.0  T
   4    -95.0777736  0.892525E-05  0.163E-02    0.18       1.0  T
   5    -95.0777789 -0.530847E-05  0.131E-02    0.19       1.0  T
   6    -95.0777933 -0.143291E-04  0.126E-03    0.18       9.2  T
   7    -95.0777933 -0.399536E-07  0.432E-04    0.18      26.7  T
   8    -95.0777933  0.551793E-08  0.398E-04    0.18      29.0  T
     SCC iter.                  ...        0 min,  0.266 sec
     gradient                   ...        0 min,  0.183 sec
 * total energy  :   -93.7892483 Eh     change       -0.9997870E-04 Eh
   gradient norm :     0.0023973 Eh/α   predicted    -0.6124627E-04 ( -38.74%)
   displ. norm   :     0.4921632 α      lambda       -0.1360291E-03
   maximum displ.:     0.3483885 α      in ANC's #3, #5, #2, ...

........................................................................
.............................. CYCLE  240 ..............................
........................................................................

 iter      E             dE          RMSdq      gap      omega  full diag
   1    -95.0783119 -0.950783E+02  0.282E-02    0.19       0.0  T
   2    -95.0775576  0.754348E-03  0.117E-01    0.16       1.0  T
   3    -95.0783203 -0.762655E-03  0.161E-02    0.19       1.0  T
   4    -95.0783149  0.530843E-05  0.125E-02    0.19       1.0  T
   5    -95.0783210 -0.607874E-05  0.379E-03    0.18       3.1  T
   6    -95.0783213 -0.294019E-06  0.349E-03    0.19       3.3  T
   7    -95.0783223 -0.944637E-06  0.587E-04    0.19      19.7  T
   8    -95.0783223  0.918256E-08  0.537E-04    0.18      21.5  T
   9    -95.0783223 -0.153369E-07  0.187E-04    0.19      61.7  T
  10    -95.0783223 -0.155434E-08  0.839E-05    0.18     137.6  T
     SCC iter.                  ...        0 min,  0.376 sec
     gradient                   ...        0 min,  0.176 sec
 * total energy  :   -93.7893747 Eh     change       -0.1263077E-03 Eh
   gradient norm :     0.0012836 Eh/α   predicted    -0.8449321E-04 ( -33.11%)
   displ. norm   :     0.8204386 α      lambda       -0.1439059E-03
   maximum displ.:     0.5807495 α      in ANC's #3, #5, #2, ...

........................................................................
.............................. CYCLE  241 ..............................
........................................................................

 iter      E             dE          RMSdq      gap      omega  full diag
   1    -95.0784570 -0.950785E+02  0.442E-02    0.19       0.0  T
   2    -95.0781812  0.275804E-03  0.777E-02    0.17       1.0  T
   3    -95.0782410 -0.598143E-04  0.653E-02    0.21       1.0  T
   4    -95.0784410 -0.199972E-03  0.207E-02    0.18       1.0  T
   5    -95.0783940  0.470534E-04  0.285E-02    0.19       1.0  T
   6    -95.0784632 -0.692143E-04  0.198E-03    0.19       5.8  T
   7    -95.0784632  0.908055E-08  0.114E-03    0.19      10.1  T
   8    -95.0784632 -0.463389E-07  0.392E-04    0.19      29.5  T
   9    -95.0784632  0.616495E-09  0.236E-04    0.19      48.9  T
     SCC iter.                  ...        0 min,  0.323 sec
     gradient                   ...        0 min,  0.178 sec
 * total energy  :   -93.7895685 Eh     change       -0.1938569E-03 Eh
   gradient norm :     0.0014207 Eh/α   predicted    -0.9348144E-04 ( -51.78%)
   displ. norm   :     0.7605947 α      lambda       -0.1243448E-03
   maximum displ.:     0.5402360 α      in ANC's #3, #5, #2, ...

........................................................................
.............................. CYCLE  242 ..............................
........................................................................

 iter      E             dE          RMSdq      gap      omega  full diag
   1    -95.0779422 -0.950779E+02  0.363E-02    0.19       0.0  T
   2    -95.0779044  0.377818E-04  0.341E-02    0.18       1.0  T
   3    -95.0775796  0.324788E-03  0.815E-02    0.21       1.0  T
   4    -95.0779415 -0.361817E-03  0.134E-02    0.19       1.0  T
   5    -95.0779305  0.109823E-04  0.123E-02    0.19       1.0  T
   6    -95.0779431 -0.126028E-04  0.431E-03    0.18       2.7  T
   7    -95.0779443 -0.122657E-05  0.807E-04    0.19      14.3  T
   8    -95.0779443 -0.829156E-08  0.318E-04    0.19      36.3  T
   9    -95.0779443 -0.870457E-09  0.174E-04    0.19      66.3  T
     SCC iter.                  ...        0 min,  0.333 sec
     gradient                   ...        0 min,  0.173 sec
 * total energy  :   -93.7897410 Eh     change       -0.1724987E-03 Eh
   gradient norm :     0.0017831 Eh/α   predicted    -0.7816234E-04 ( -54.69%)
   displ. norm   :     0.7137469 α      lambda       -0.1252680E-03
   maximum displ.:     0.5094203 α      in ANC's #3, #1, #5, ...

........................................................................
.............................. CYCLE  243 ..............................
........................................................................

 iter      E             dE          RMSdq      gap      omega  full diag
   1    -95.0792050 -0.950792E+02  0.341E-02    0.19       0.0  T
   2    -95.0791433  0.617266E-04  0.360E-02    0.20       1.0  T
   3    -95.0784924  0.650938E-03  0.112E-01    0.16       1.0  T
   4    -95.0791983 -0.705897E-03  0.161E-02    0.19       1.0  T
   5    -95.0791615  0.368148E-04  0.232E-02    0.19       1.0  T
   6    -95.0792086 -0.471324E-04  0.190E-03    0.19       6.1  T
   7    -95.0792086 -0.335171E-07  0.122E-03    0.19       9.5  T
   8    -95.0792087 -0.586247E-07  0.410E-04    0.19      28.2  T
   9    -95.0792087 -0.142356E-08  0.318E-04    0.19      36.3  T
     SCC iter.                  ...        0 min,  0.304 sec
     gradient                   ...        0 min,  0.156 sec
 * total energy  :   -93.7899138 Eh     change       -0.1728165E-03 Eh
   gradient norm :     0.0017827 Eh/α   predicted    -0.7681732E-04 ( -55.55%)
   displ. norm   :     0.7769468 α      lambda       -0.1395649E-03
   maximum displ.:     0.5545103 α      in ANC's #3, #1, #5, ...

........................................................................
.............................. CYCLE  244 ..............................
........................................................................

 iter      E             dE          RMSdq      gap      omega  full diag
   1    -95.0787100 -0.950787E+02  0.373E-02    0.19       0.0  T
   2    -95.0782632  0.446774E-03  0.967E-02    0.16       1.0  T
   3    -95.0786007 -0.337496E-03  0.480E-02    0.20       1.0  T
   4    -95.0786886 -0.878641E-04  0.222E-02    0.18       1.0  T
   5    -95.0786480  0.405728E-04  0.298E-02    0.20       1.0  T
   6    -95.0787199 -0.718718E-04  0.189E-03    0.19       6.1  T
   7    -95.0787200 -0.871225E-07  0.938E-04    0.19      12.3  T
   8    -95.0787199  0.595455E-07  0.110E-03    0.19      10.5  T
   9    -95.0787199 -0.451950E-07  0.702E-04    0.19      16.5  T
  10    -95.0787200 -0.308377E-07  0.127E-04    0.19      91.1  T
  11    -95.0787200 -0.130782E-09  0.650E-05    0.19     177.7  T
     SCC iter.                  ...        0 min,  0.458 sec
     gradient                   ...        0 min,  0.178 sec
 * total energy  :   -93.7901078 Eh     change       -0.1940082E-03 Eh
   gradient norm :     0.0020860 Eh/α   predicted    -0.8850613E-04 ( -54.38%)
   displ. norm   :     0.5565132 α      lambda       -0.1550342E-03
   maximum displ.:     0.3972161 α      in ANC's #3, #1, #5, ...

........................................................................
.............................. CYCLE  245 ..............................
........................................................................

 iter      E             dE          RMSdq      gap      omega  full diag
   1    -95.0789988 -0.950790E+02  0.304E-02    0.18       0.0  T
   2    -95.0786645  0.334342E-03  0.807E-02    0.21       1.0  T
   3    -95.0789514 -0.286964E-03  0.337E-02    0.18       1.0  T
   4    -95.0789917 -0.403148E-04  0.190E-02    0.19       1.0  T
   5    -95.0790076 -0.158326E-04  0.572E-03    0.19       2.0  T
   6    -95.0790059  0.164171E-05  0.618E-03    0.18       1.9  T
   7    -95.0790085 -0.257665E-05  0.256E-03    0.19       4.5  T
   8    -95.0790089 -0.355888E-06  0.477E-04    0.19      24.2  T
   9    -95.0790089 -0.622880E-08  0.245E-04    0.19      47.2  T
     SCC iter.                  ...        0 min,  0.331 sec
     gradient                   ...        0 min,  0.146 sec
 * total energy  :   -93.7902545 Eh     change       -0.1466434E-03 Eh
   gradient norm :     0.0016336 Eh/α   predicted    -0.1015251E-03 ( -30.77%)
   displ. norm   :     0.9452289 α      lambda       -0.1801195E-03
   maximum displ.:     0.6738081 α      in ANC's #3, #1, #2, ...

........................................................................
.............................. CYCLE  246 ..............................
........................................................................

 iter      E             dE          RMSdq      gap      omega  full diag
   1    -95.0794137 -0.950794E+02  0.549E-02    0.19       0.0  T
   2    -95.0793970  0.167676E-04  0.434E-02    0.18       1.0  T
   3    -95.0793683  0.287124E-04  0.485E-02    0.20       1.0  T
   4    -95.0788274  0.540847E-03  0.971E-02    0.16       1.0  T
   5    -95.0792893 -0.461846E-03  0.438E-02    0.20       1.0  T
   6    -95.0794210 -0.131720E-03  0.968E-03    0.19       1.2  T
   7    -95.0794251 -0.413601E-05  0.134E-03    0.19       8.6  T
   8    -95.0794247  0.365029E-06  0.271E-03    0.19       4.3  T
   9    -95.0794251 -0.373793E-06  0.409E-04    0.19      28.3  T
  10    -95.0794251  0.122251E-07  0.543E-04    0.19      21.2  T
  11    -95.0794251 -0.193929E-07  0.783E-05    0.19     147.5  T
     SCC iter.                  ...        0 min,  0.422 sec
     gradient                   ...        0 min,  0.165 sec
 * total energy  :   -93.7905015 Eh     change       -0.2470404E-03 Eh
   gradient norm :     0.0019335 Eh/α   predicted    -0.1258277E-03 ( -49.07%)
   displ. norm   :     0.9914834 α      lambda       -0.1753074E-03
   maximum displ.:     0.7057057 α      in ANC's #3, #1, #2, ...

........................................................................
.............................. CYCLE  247 ..............................
........................................................................

 iter      E             dE          RMSdq      gap      omega  full diag
   1    -95.0779984 -0.950780E+02  0.678E-02    0.18       0.0  T
   2    -95.0764580  0.154042E-02  0.168E-01    0.26       1.0  T
   3    -95.0779096 -0.145154E-02  0.589E-02    0.18       1.0  T
   4    -95.0780104 -0.100809E-03  0.388E-02    0.20       1.0  T
   5    -95.0780379 -0.275324E-04  0.179E-02    0.19       1.0  T
   6    -95.0780350  0.289668E-05  0.219E-02    0.18       1.0  T
   7    -95.0780605 -0.254718E-04  0.103E-02    0.19       1.1  T
   8    -95.0780652 -0.471969E-05  0.313E-03    0.19       3.7  T
   9    -95.0780655 -0.273224E-06  0.219E-03    0.19       5.3  T
  10    -95.0780657 -0.252270E-06  0.319E-04    0.19      36.2  T
  11    -95.0780657 -0.266728E-08  0.116E-04    0.19     100.0  T
     SCC iter.                  ...        0 min,  0.441 sec
     gradient                   ...        0 min,  0.161 sec
 * total energy  :   -93.7907349 Eh     change       -0.2333409E-03 Eh
   gradient norm :     0.0030603 Eh/α   predicted    -0.1259543E-03 ( -46.02%)
   displ. norm   :     0.6606850 α      lambda       -0.1761565E-03
   maximum displ.:     0.4684545 α      in ANC's #3, #1, #2, ...

........................................................................
.............................. CYCLE  248 ..............................
........................................................................

 iter      E             dE          RMSdq      gap      omega  full diag
   1    -95.0789903 -0.950790E+02  0.479E-02    0.20       0.0  T
   2    -95.0780976  0.892703E-03  0.139E-01    0.16       1.0  T
   3    -95.0788659 -0.768276E-03  0.519E-02    0.21       1.0  T
   4    -95.0788546  0.113034E-04  0.441E-02    0.18       1.0  T
   5    -95.0789169 -0.623290E-04  0.362E-02    0.20       1.0  T
   6    -95.0790080 -0.911071E-04  0.579E-03    0.19       2.0  T
   7    -95.0790091 -0.115550E-05  0.134E-03    0.19       8.6  T
   8    -95.0790088  0.300756E-06  0.250E-03    0.19       4.6  T
   9    -95.0790092 -0.350870E-06  0.255E-04    0.19      45.2  T
  10    -95.0790092  0.681680E-09  0.180E-04    0.19      64.1  T
     SCC iter.                  ...        0 min,  0.375 sec
     gradient                   ...        0 min,  0.179 sec
 * total energy  :   -93.7908920 Eh     change       -0.1571117E-03 Eh
   gradient norm :     0.0025857 Eh/α   predicted    -0.1265300E-03 ( -19.46%)
   displ. norm   :     0.7270393 α      lambda       -0.1786598E-03
   maximum displ.:     0.5141808 α      in ANC's #3, #1, #2, ...

........................................................................
.............................. CYCLE  249 ..............................
........................................................................

 iter      E             dE          RMSdq      gap      omega  full diag
   1    -95.0794238 -0.950794E+02  0.520E-02    0.19       0.0  T
   2    -95.0793892  0.345795E-04  0.371E-02    0.20       1.0  T
   3    -95.0775552  0.183400E-02  0.175E-01    0.15       1.0  T
   4    -95.0794033 -0.184813E-02  0.300E-02    0.19       1.0  T
   5    -95.0793172  0.861125E-04  0.376E-02    0.20       1.0  T
   6    -95.0794241 -0.106837E-03  0.996E-03    0.20       1.2  T
   7    -95.0794279 -0.380120E-05  0.347E-03    0.19       3.3  T
   8    -95.0794278  0.993993E-07  0.350E-03    0.19       3.3  T
   9    -95.0794283 -0.589589E-06  0.101E-03    0.19      11.5  T
  10    -95.0794284 -0.489429E-07  0.134E-04    0.19      85.9  T
  11    -95.0794284  0.614726E-08  0.326E-04    0.19      35.4  T
     SCC iter.                  ...        0 min,  0.408 sec
     gradient                   ...        0 min,  0.154 sec
 * total energy  :   -93.7910581 Eh     change       -0.1661252E-03 Eh
   gradient norm :     0.0024348 Eh/α   predicted    -0.1365517E-03 ( -17.80%)
   displ. norm   :     0.7688746 α      lambda       -0.1887810E-03
   maximum displ.:     0.5413164 α      in ANC's #3, #1, #2, ...

........................................................................
.............................. CYCLE  250 ..............................
........................................................................

 iter      E             dE          RMSdq      gap      omega  full diag
   1    -95.0796548 -0.950797E+02  0.578E-02    0.19       0.0  T
   2    -95.0793527  0.302070E-03  0.803E-02    0.22       1.0  T
   3    -95.0785417  0.811076E-03  0.143E-01    0.16       1.0  T
   4    -95.0796171 -0.107547E-02  0.406E-02    0.20       1.0  T
   5    -95.0794748  0.142302E-03  0.496E-02    0.21       1.0  T
   6    -95.0796638 -0.188981E-03  0.755E-03    0.19       1.5  T
   7    -95.0796659 -0.214161E-05  0.144E-03    0.19       8.0  T
   8    -95.0796653  0.693241E-06  0.353E-03    0.19       3.3  T
   9    -95.0796659 -0.608701E-06  0.129E-03    0.19       9.0  T
  10    -95.0796660 -0.893195E-07  0.474E-04    0.19      24.4  T
  11    -95.0796660 -0.635129E-08  0.135E-04    0.19      85.6  T
     SCC iter.                  ...        0 min,  0.395 sec
     gradient                   ...        0 min,  0.180 sec
 * total energy  :   -93.7912344 Eh     change       -0.1763256E-03 Eh
   gradient norm :     0.0020727 Eh/α   predicted    -0.1501933E-03 ( -14.82%)
   displ. norm   :     0.7966723 α      lambda       -0.1981428E-03
   maximum displ.:     0.5582458 α      in ANC's #3, #1, #2, ...

........................................................................
.............................. CYCLE  251 ..............................
........................................................................

 iter      E             dE          RMSdq      gap      omega  full diag
   1    -95.0797182 -0.950797E+02  0.641E-02    0.19       0.0  T
   2    -95.0793380  0.380169E-03  0.924E-02    0.22       1.0  T
   3    -95.0784631  0.874872E-03  0.151E-01    0.16       1.0  T
   4    -95.0796058 -0.114270E-02  0.551E-02    0.21       1.0  T
   5    -95.0795311  0.746978E-04  0.511E-02    0.21       1.0  T
   6    -95.0797283 -0.197179E-03  0.914E-03    0.20       1.3  T
   7    -95.0797316 -0.325432E-05  0.168E-03    0.19       6.9  T
   8    -95.0797306  0.921784E-06  0.402E-03    0.19       2.9  T
   9    -95.0797314 -0.798788E-06  0.155E-03    0.19       7.5  T
  10    -95.0797316 -0.123607E-06  0.611E-04    0.19      18.9  T
  11    -95.0797316 -0.105345E-07  0.279E-04    0.19      41.3  T
  12    -95.0797316 -0.288432E-08  0.571E-05    0.19     202.4  T
     SCC iter.                  ...        0 min,  0.474 sec
     gradient                   ...        0 min,  0.149 sec
 * total energy  :   -93.7914179 Eh     change       -0.1834712E-03 Eh
   gradient norm :     0.0019315 Eh/α   predicted    -0.1619541E-03 ( -11.73%)
   displ. norm   :     1.2126463 α      lambda       -0.2013166E-03
   maximum displ.:     0.8418607 α      in ANC's #3, #1, #2, ...

........................................................................
.............................. CYCLE  252 ..............................
........................................................................

 iter      E             dE          RMSdq      gap      omega  full diag
   1    -95.0798187 -0.950798E+02  0.104E-01    0.19       0.0  T
   2    -95.0796625  0.156212E-03  0.807E-02    0.21       1.0  T
   3    -95.0685803  0.110822E-01  0.446E-01    0.12       1.0  T
   4    -95.0796276 -0.110473E-01  0.789E-02    0.22       1.0  T
   5    -95.0791011  0.526506E-03  0.100E-01    0.23       1.0  T
   6    -95.0797148 -0.613652E-03  0.498E-02    0.21       1.0  T
   7    -95.0797670 -0.521982E-04  0.356E-02    0.21       1.0  T
   8    -95.0798265 -0.595413E-04  0.110E-02    0.20       1.0  T
   9    -95.0798315 -0.498117E-05  0.220E-03    0.19       5.3  T
  10    -95.0798316 -0.112480E-06  0.925E-04    0.19      12.5  T
  11    -95.0798316 -0.411609E-07  0.215E-04    0.19      53.8  T
  12    -95.0798316  0.164324E-08  0.251E-04    0.19      46.0  T
     SCC iter.                  ...        0 min,  0.317 sec
     gradient                   ...        0 min,  0.149 sec
 * total energy  :   -93.7916796 Eh     change       -0.2616848E-03 Eh
   gradient norm :     0.0025117 Eh/α   predicted    -0.1664470E-03 ( -36.39%)
   displ. norm   :     0.7523996 α      lambda       -0.1696203E-03
   maximum displ.:     0.5226451 α      in ANC's #3, #1, #2, ...

........................................................................
.............................. CYCLE  253 ..............................
........................................................................

 iter      E             dE          RMSdq      gap      omega  full diag
   1    -95.0792651 -0.950793E+02  0.669E-02    0.19       0.0  T
   2    -95.0792657 -0.673830E-06  0.400E-02    0.19       1.0  T
   3    -95.0792349  0.308068E-04  0.341E-02    0.19       1.0  T
   4    -95.0787488  0.486098E-03  0.898E-02    0.23       1.0  T
   5    -95.0792513 -0.502466E-03  0.139E-02    0.20       1.0  T
   6    -95.0792675 -0.161521E-04  0.335E-03    0.19       3.4  T
   7    -95.0792679 -0.431301E-06  0.264E-03    0.20       4.4  T
   8    -95.0792680 -0.135549E-06  0.231E-03    0.19       5.0  T
   9    -95.0792683 -0.242639E-06  0.941E-04    0.19      12.3  T
  10    -95.0792683 -0.201033E-07  0.537E-04    0.19      21.5  T
  11    -95.0792683 -0.116036E-07  0.303E-04    0.19      38.1  T
  12    -95.0792683 -0.513779E-08  0.549E-05    0.19     210.4  T
     SCC iter.                  ...        0 min,  0.560 sec
     gradient                   ...        0 min,  0.177 sec
 * total energy  :   -93.7918276 Eh     change       -0.1480487E-03 Eh
   gradient norm :     0.0025667 Eh/α   predicted    -0.1328236E-03 ( -10.28%)
   displ. norm   :     0.7629506 α      lambda       -0.1690937E-03
   maximum displ.:     0.5224056 α      in ANC's #3, #1, #2, ...

........................................................................
.............................. CYCLE  254 ..............................
........................................................................

 iter      E             dE          RMSdq      gap      omega  full diag
   1    -95.0808231 -0.950808E+02  0.744E-02    0.20       0.0  T
   2    -95.0806803  0.142821E-03  0.676E-02    0.18       1.0  T
   3    -95.0796163  0.106403E-02  0.153E-01    0.26       1.0  T
   4    -95.0807639 -0.114759E-02  0.445E-02    0.21       1.0  T
   5    -95.0805425  0.221378E-03  0.594E-02    0.22       1.0  T
   6    -95.0808238 -0.281317E-03  0.113E-02    0.19       1.0  T
   7    -95.0808297 -0.590749E-05  0.375E-03    0.20       3.1  T
   8    -95.0808300 -0.297312E-06  0.191E-03    0.20       6.0  T
   9    -95.0808301 -0.725117E-07  0.155E-03    0.20       7.4  T
  10    -95.0808302 -0.975662E-07  0.873E-04    0.20      13.2  T
  11    -95.0808302 -0.406847E-07  0.758E-05    0.20     152.4  T
  12    -95.0808302  0.110276E-10  0.359E-05    0.20     322.0  T
     SCC iter.                  ...        0 min,  0.544 sec
     gradient                   ...        0 min,  0.190 sec
 * total energy  :   -93.7919746 Eh     change       -0.1469522E-03 Eh
   gradient norm :     0.0024350 Eh/α   predicted    -0.1337664E-03 (  -8.97%)
   displ. norm   :     0.8027221 α      lambda       -0.1532560E-03
   maximum displ.:     0.5613226 α      in ANC's #3, #1, #2, ...

........................................................................
.............................. CYCLE  255 ..............................
........................................................................

 iter      E             dE          RMSdq      gap      omega  full diag
   1    -95.0780972 -0.950781E+02  0.754E-02    0.20       0.0  T
   2    -95.0780825  0.146892E-04  0.482E-02    0.20       1.0  T
   3    -95.0777860  0.296474E-03  0.668E-02    0.19       1.0  T
   4    -95.0771430  0.643000E-03  0.132E-01    0.25       1.0  T
   5    -95.0779523 -0.809288E-03  0.453E-02    0.21       1.0  T
   6    -95.0781077 -0.155334E-03  0.495E-03    0.20       2.3  T
   7    -95.0781083 -0.671732E-06  0.154E-03    0.20       7.5  T
   8    -95.0781082  0.191140E-06  0.200E-03    0.20       5.8  T
   9    -95.0781082 -0.964147E-07  0.166E-03    0.20       7.0  T
  10    -95.0781084 -0.134626E-06  0.790E-04    0.20      14.6  T
  11    -95.0781084 -0.266976E-07  0.153E-04    0.20      75.7  T
  12    -95.0781084 -0.481194E-09  0.883E-05    0.20     130.7  T
     SCC iter.                  ...        0 min,  0.532 sec
     gradient                   ...        0 min,  0.181 sec
 * total energy  :   -93.7921028 Eh     change       -0.1282570E-03 Eh
   gradient norm :     0.0027369 Eh/α   predicted    -0.1260098E-03 (  -1.75%)
   displ. norm   :     0.6890021 α      lambda       -0.1520337E-03
   maximum displ.:     0.4746967 α      in ANC's #3, #1, #2, ...

........................................................................
.............................. CYCLE  256 ..............................
........................................................................

 iter      E             dE          RMSdq      gap      omega  full diag
   1    -95.0807608 -0.950808E+02  0.737E-02    0.20       0.0  T
   2    -95.0807434  0.174212E-04  0.466E-02    0.20       1.0  T
   3    -95.0801741  0.569243E-03  0.849E-02    0.22       1.0  T
   4    -95.0804562 -0.282031E-03  0.896E-02    0.18       1.0  T
   5    -95.0807501 -0.293916E-03  0.220E-02    0.20       1.0  T
   6    -95.0807660 -0.159243E-04  0.646E-03    0.20       1.8  T
   7    -95.0807679 -0.194711E-05  0.145E-03    0.20       8.0  T
   8    -95.0807675  0.447433E-06  0.290E-03    0.20       4.0  T
   9    -95.0807680 -0.463000E-06  0.953E-04    0.20      12.1  T
  10    -95.0807680 -0.538512E-07  0.150E-04    0.20      76.7  T
  11    -95.0807680 -0.819682E-10  0.115E-04    0.20     100.3  T
     SCC iter.                  ...        0 min,  0.480 sec
     gradient                   ...        0 min,  0.173 sec
 * total energy  :   -93.7922245 Eh     change       -0.1216848E-03 Eh
   gradient norm :     0.0042816 Eh/α   predicted    -0.1121097E-03 (  -7.87%)
   displ. norm   :     0.6955608 α      lambda       -0.1356302E-03
   maximum displ.:     0.4872892 α      in ANC's #3, #1, #2, ...

........................................................................
.............................. CYCLE  257 ..............................
........................................................................

 iter      E             dE          RMSdq      gap      omega  full diag
   1    -95.0801325 -0.950801E+02  0.735E-02    0.20       0.0  T
   2    -95.0800577  0.748838E-04  0.685E-02    0.19       1.0  T
   3    -95.0798954  0.162224E-03  0.877E-02    0.23       1.0  T
   4    -95.0789398  0.955592E-03  0.132E-01    0.17       1.0  T
   5    -95.0798482 -0.908327E-03  0.703E-02    0.22       1.0  T
   6    -95.0801458 -0.297668E-03  0.197E-02    0.20       1.0  T
   7    -95.0801636 -0.177148E-04  0.424E-03    0.20       2.7  T
   8    -95.0801644 -0.854137E-06  0.160E-03    0.20       7.2  T
   9    -95.0801646 -0.150394E-06  0.386E-04    0.20      29.9  T
  10    -95.0801646  0.626636E-08  0.493E-04    0.20      23.4  T
     SCC iter.                  ...        0 min,  0.306 sec
     gradient                   ...        0 min,  0.168 sec
 * total energy  :   -93.7923288 Eh     change       -0.1042632E-03 Eh
   gradient norm :     0.0034962 Eh/α   predicted    -0.1006296E-03 (  -3.49%)
   displ. norm   :     0.6309487 α      lambda       -0.1228246E-03
   maximum displ.:     0.4466874 α      in ANC's #3, #1, #2, ...

........................................................................
.............................. CYCLE  258 ..............................
........................................................................

 iter      E             dE          RMSdq      gap      omega  full diag
   1    -95.0802840 -0.950803E+02  0.636E-02    0.20       0.0  T
   2    -95.0802634  0.206284E-04  0.398E-02    0.19       1.0  T
   3    -95.0793558  0.907542E-03  0.114E-01    0.24       1.0  T
   4    -95.0802801 -0.924225E-03  0.237E-02    0.20       1.0  T
   5    -95.0802439  0.361376E-04  0.228E-02    0.19       1.0  T
   6    -95.0802875 -0.435512E-04  0.377E-03    0.20       3.1  T
   7    -95.0802882 -0.687848E-06  0.106E-03    0.20      10.9  T
   8    -95.0802881  0.205488E-07  0.756E-04    0.20      15.3  T
   9    -95.0802881 -0.129476E-07  0.651E-04    0.20      17.7  T
  10    -95.0802882 -0.158181E-07  0.334E-04    0.20      34.5  T
  11    -95.0802882 -0.472511E-10  0.329E-04    0.20      35.1  T
     SCC iter.                  ...        0 min,  0.477 sec
     gradient                   ...        0 min,  0.169 sec
 * total energy  :   -93.7924255 Eh     change       -0.9672256E-04 Eh
   gradient norm :     0.0022335 Eh/α   predicted    -0.8586377E-04 ( -11.23%)
   displ. norm   :     0.6080434 α      lambda       -0.1042061E-03
   maximum displ.:     0.4332599 α      in ANC's #3, #1, #2, ...

   *** FAILED TO CONVERGE GEOMETRY OPTIMIZATION IN 258 ITERATIONS ***


 ANCopt (total)                0 d,  0 h,  2 min, 43.835 sec
 optimizer setup                ...        0 min,  0.003 sec (  0.002%)
 model hessian                  ...        0 min,  2.079 sec (  1.269%)
 ANC generation                 ...        0 min,  0.410 sec (  0.250%)
 coordinate transformation      ...        0 min,  0.139 sec (  0.085%)
 single point calculation       ...        2 min, 40.241 sec ( 97.806%)
 optimization log               ...        0 min,  0.397 sec (  0.242%)
 hessian update                 ...        0 min,  0.127 sec (  0.078%)
 rational function              ...        0 min,  0.276 sec (  0.169%)

================
 final structure:
================
75
 xtb: 6.7.1 (edcfbbe)
Ru           0.28997984562635       -0.53881271904610       -0.62506797986686
N            0.77228670115514       -2.50253452054025        0.23735969361683
C            2.20516940642850       -2.77856484769222        0.30370511610723
C            2.92020760834675       -1.57459122098294        0.91399385736029
P            2.47438726537429       -0.08733329888360       -0.12480825072940
C            3.76296092418702       -0.21574361733913       -1.48610038507016
C            5.21909107359135       -0.38606498858284       -1.05930817255683
C            3.60221505481537        0.98589809908895       -2.41487154549608
C            3.07712304755725        1.38447716583372        0.86857556414934
C            2.21989292458535        2.58203259832359        0.46196068997004
C            2.97874589601993        1.16730349690362        2.37497810924254
C           -0.00350186461649       -3.58300891332796       -0.36955279179516
C           -1.48795406376812       -3.26272678657147       -0.22835613539805
P           -1.79462221958188       -1.49500953904226       -0.77235817855480
C           -3.26817001472354       -1.13286720372871        0.33582137738912
C           -3.98105790118803        0.14673098693909       -0.09667579068928
C           -2.83085767298108       -0.98520665752084        1.79102645498926
C           -2.68251385216346       -1.69713735852016       -2.41938918729199
C           -2.56225341625810       -0.37885132047503       -3.18335038053190
C           -2.13823655255365       -2.82806302906403       -3.29070511488005
H            2.57498947062390       -2.96502378020087       -0.71405344237335
H            2.39880822301799       -3.68371664405252        0.90487733374358
H            2.52124922610813       -1.40389773555045        1.91740552406277
H            3.99548529105371       -1.74285354152371        0.98819495065684
H            3.46450148547318       -1.11309840558739       -2.04630178519337
H            5.85451106188065       -0.33100513285028       -1.94306752042196
H            5.53490590000112        0.39737026021260       -0.37428602412496
H            5.39375795041004       -1.35135262700427       -0.58929599761242
H            2.54168591175529        1.16771017800112       -2.60566405575199
H            4.09835807226040        0.80348741904931       -3.36759932170921
H            4.03636834745569        1.87865232304946       -1.96934333557971
H            4.12205077830227        1.58004841768267        0.60045949837442
H            2.52391452376892        3.47526791008133        1.00635143892369
H            2.29626518879753        2.77865096252523       -0.60545131637168
H            1.17482647203352        2.36491762387293        0.68157897825375
H            3.18748755123222        2.10166710536596        2.89479145415182
H            1.96989398218359        0.85551704795380        2.63917372662642
H            3.69002526169217        0.42183242502959        2.72620354416554
H            0.22131354879977       -4.54436603050800        0.12298677349941
H            0.27575451833972       -3.67067163645444       -1.42750932286838
H           -1.75666425937566       -3.33951312213044        0.82849003906370
H           -2.10306281659932       -3.97069207005797       -0.78481419515101
H           -3.94817327137113       -1.99266882822976        0.24112668484566
H           -4.49047054170467        0.02547372236235       -1.04901552931387
H           -3.25290486982415        0.95449328909256       -0.18025403992085
H           -4.72479898699044        0.42887886099206        0.64855063936612
H           -2.30401439980372       -1.86518571655076        2.16167517399315
H           -3.69962236415068       -0.81774942503510        2.42770148998093
H           -2.16489377592471       -0.12732312893341        1.87566063899236
H           -3.73837927977923       -1.90306942083130       -2.19805477729727
H           -3.18078085650840       -0.39569511010671       -4.07954594054814
H           -2.85391613361423        0.46931387401583       -2.57015690430343
H           -1.52522252137080       -0.22037188798915       -3.47765082277219
H           -1.06548878178625       -2.72283951293691       -3.43658057169436
H           -2.33996099502518       -3.81246743717408       -2.87340975515870
H           -2.60999875689204       -2.78276655788778       -4.27299606121984
C            0.75199112409793       -1.07938913110206       -2.31293104816833
O            1.11853041855923       -1.43927008415598       -3.35839363333482
H           -0.11653547749563        0.88590157471653       -1.12934772825449
O            0.22163411045529       -2.87637087040039        3.07216153504637
C            1.11548689741064       -2.56026483378240        3.84143504713000
C            1.24332930598621       -1.29035434808280        4.53479537311318
C            0.23063835401831       -0.32567908996925        4.45780160335335
C            0.37588567221704        0.88344222054179        5.10869417130449
C            1.53065272230081        1.15011006739650        5.83244466749317
C            2.54400171756103        0.20251266937003        5.90835958153954
C            2.40278691147792       -1.01264510842455        5.26985085461147
H            0.43605593813829       -2.42471897692729        1.20725780053554
H           -0.03309975606630       -0.03833766114086        0.84115719422264
H            1.94310780892971       -3.27080671397220        4.04216399213249
H           -0.65510297208689       -0.54699648638656        3.88160659806488
H           -0.40771376949571        1.62437550353965        5.04932239661266
H            1.64265486519000        2.09871229995576        6.33702492872116
H            3.44407119716836        0.41637908026260        6.46699724702951
H            3.18847077634442       -1.75535977303284        5.32509992949354

 Bond Distances (Angstroems)
 ---------------------------
Ru1-N2=2.1983        Ru1-P5=2.2860        Ru1-P14=2.2982       Ru1-C57=1.8315       Ru1-H59=1.5650       Ru1-H69=1.5826       
N2-Ru1=2.1983        N2-C3=1.4607         N2-C12=1.4621        N2-H68=1.0295        C3-N2=1.4607         C3-C4=1.5275         
C3-H21=1.0988        C3-H22=1.1037        C4-C3=1.5275         C4-P5=1.8681         C4-H23=1.0932        C4-H24=1.0909        
P5-Ru1=2.2860        P5-C4=1.8681         P5-C6=1.8788         P5-C9=1.8752         C6-P5=1.8788         C6-C7=1.5269         
C6-C8=1.5272         C6-H25=1.0992        C7-C6=1.5269         C7-H26=1.0899        C7-H27=1.0876        C7-H28=1.0878        
C8-C6=1.5272         C8-H29=1.0928        C8-H30=1.0896        C8-H31=1.0881        C9-P5=1.8752         C9-C10=1.5278        
C9-C11=1.5252        C9-H32=1.0964        C10-C9=1.5278        C10-H33=1.0893       C10-H34=1.0881       C10-H35=1.0897       
C11-C9=1.5252        C11-H36=1.0894       C11-H37=1.0885       C11-H38=1.0886       C12-N2=1.4621        C12-C13=1.5252       
C12-H39=1.1033       C12-H40=1.0977       C13-C12=1.5252       C13-P14=1.8748       C13-H41=1.0932       C13-H42=1.0905       
P14-Ru1=2.2982       P14-C13=1.8748       P14-C15=1.8790       P14-C18=1.8820       C15-P14=1.8790       C15-C16=1.5273       
C15-C17=1.5267       C15-H43=1.1003       C16-C15=1.5273       C16-H44=1.0868       C16-H45=1.0907       C16-H46=1.0900       
C17-C15=1.5267       C17-H47=1.0906       C17-H48=1.0900       C17-H49=1.0893       C18-P14=1.8820       C18-C19=1.5284       
C18-C20=1.5279       C18-H50=1.0983       C19-C18=1.5284       C19-H51=1.0890       C19-H52=1.0865       C19-H53=1.0896       
C20-C18=1.5279       C20-H54=1.0877       C20-H55=1.0881       C20-H56=1.0906       H21-C3=1.0988        H22-C3=1.1037        
H23-C4=1.0932        H24-C4=1.0909        H25-C6=1.0992        H26-C7=1.0899        H27-C7=1.0876        H28-C7=1.0878        
H29-C8=1.0928        H30-C8=1.0896        H31-C8=1.0881        H32-C9=1.0964        H33-C10=1.0893       H34-C10=1.0881       
H35-C10=1.0897       H36-C11=1.0894       H37-C11=1.0885       H38-C11=1.0886       H39-C12=1.1033       H40-C12=1.0977       
H41-C13=1.0932       H42-C13=1.0905       H43-C15=1.1003       H44-C16=1.0868       H45-C16=1.0907       H46-C16=1.0900       
H47-C17=1.0906       H48-C17=1.0900       H49-C17=1.0893       H50-C18=1.0983       H51-C19=1.0890       H52-C19=1.0865       
H53-C19=1.0896       H54-C20=1.0877       H55-C20=1.0881       H56-C20=1.0906       C57-Ru1=1.8315       C57-O58=1.1648       
O58-C57=1.1648       H59-Ru1=1.5650       O60-C61=1.2209       C61-O60=1.2209       C61-C62=1.4525       C61-H70=1.1091       
C62-C61=1.4525       C62-C63=1.4007       C62-C67=1.4006       C63-C62=1.4007       C63-C64=1.3808       C63-H71=1.0796       
C64-C63=1.3808       C64-C65=1.3887       C64-H72=1.0801       C65-C64=1.3887       C65-C66=1.3895       C65-H73=1.0803       
C66-C65=1.3895       C66-C67=1.3799       C66-H74=1.0807       C67-C62=1.4006       C67-C66=1.3799       C67-H75=1.0826       
H68-N2=1.0295        H69-Ru1=1.5826       H70-C61=1.1091       H71-C63=1.0796       H72-C64=1.0801       H73-C65=1.0803       
H74-C66=1.0807       H75-C67=1.0826       
 C  H  Rav=1.0909 sigma=0.0063  Rmin=1.0796  Rmax=1.1091    42
 C  C  Rav=1.4743 sigma=0.0647  Rmin=1.3799  Rmax=1.5284    17
 N  H  Rav=1.0295 sigma=0.0000  Rmin=1.0295  Rmax=1.0295     1
 N  C  Rav=1.4614 sigma=0.0007  Rmin=1.4607  Rmax=1.4621     2
 O  C  Rav=1.1929 sigma=0.0280  Rmin=1.1648  Rmax=1.2209     2
 P  C  Rav=1.8763 sigma=0.0044  Rmin=1.8681  Rmax=1.8820     6
 Ru H  Rav=1.5738 sigma=0.0088  Rmin=1.5650  Rmax=1.5826     2
 Ru C  Rav=1.8315 sigma=0.0000  Rmin=1.8315  Rmax=1.8315     1
 Ru N  Rav=2.1983 sigma=0.0000  Rmin=2.1983  Rmax=2.1983     1
 Ru P  Rav=2.2921 sigma=0.0061  Rmin=2.2860  Rmax=2.2982     2

 selected bond angles (degree)
 --------------------
P5-Ru1-N2= 83.16               P14-Ru1-N2= 81.52              P14-Ru1-P5=164.36              C57-Ru1-N2= 92.44              
C57-Ru1-P5= 91.08              C57-Ru1-P14= 92.69             H59-Ru1-N2=175.26              H59-Ru1-P5= 97.99              
H59-Ru1-P14= 97.04             H59-Ru1-C57= 92.14             H69-Ru1-N2= 87.93              H69-Ru1-P5= 85.98              
H69-Ru1-P14= 90.33             H69-Ru1-C57=176.98             H69-Ru1-H59= 87.57             C3-N2-Ru1=113.69               
C12-N2-Ru1=112.39              C12-N2-C3=113.56               H68-N2-Ru1=103.32              H68-N2-C3=106.97               
H68-N2-C12=105.88              C4-C3-N2=109.17                H21-C3-N2=108.67               H21-C3-C4=110.26               
H22-C3-N2=110.60               H22-C3-C4=110.28               H22-C3-H21=107.84              P5-C4-C3=107.08                
H23-C4-C3=108.60               H23-C4-P5=107.40               H24-C4-C3=111.53               H24-C4-P5=113.32               
H24-C4-H23=108.75              C4-P5-Ru1=101.10               C6-P5-Ru1=118.90               C6-P5-C4=100.65                
C9-P5-Ru1=125.32               C9-P5-C4=104.69                C9-P5-C6=102.53                C7-C6-P5=117.33                
C8-C6-P5=108.34                C8-C6-C7=110.99                H25-C6-P5=103.82               H25-C6-C7=108.08               
H25-C6-C8=107.69               H26-C7-C6=108.89               H27-C7-C6=111.88               H27-C7-H26=107.76              
H28-C7-C6=111.89               H28-C7-H26=107.55              H28-C7-H27=108.69              H29-C8-C6=109.83               
H30-C8-C6=110.62               H30-C8-H29=108.49              H31-C8-C6=110.77               H31-C8-H29=108.80              
H31-C8-H30=108.28              C10-C9-P5=107.09               C11-C9-P5=113.00               C11-C9-C10=109.77              
H32-C9-P5=108.47               H32-C9-C10=109.26              H32-C9-C11=109.17              H33-C10-C9=110.68              
H34-C10-C9=111.31              H34-C10-H33=108.81             H35-C10-C9=109.16              H35-C10-H33=109.29             
H35-C10-H34=107.52             

 selected dihedral angles (degree)
 ---------------------------------
C3-N2-Ru1-P5=341.48           C3-N2-Ru1-P14=164.64          C3-N2-Ru1-C57= 72.28          C3-N2-Ru1-H59=237.18          
C3-N2-Ru1-H69=255.28          C12-N2-Ru1-P5=210.72          C12-N2-Ru1-P14= 33.88         C12-N2-Ru1-C57=301.52         
C12-N2-Ru1-H59=106.42         C12-N2-Ru1-H69=124.53         H68-N2-Ru1-P5= 97.04          H68-N2-Ru1-P14=280.20         
H68-N2-Ru1-C57=187.84         H68-N2-Ru1-H59=352.74         H68-N2-Ru1-H69= 10.84         C4-C3-N2-Ru1= 48.19           
C4-C3-N2-C12=178.37           C4-C3-N2-H68=294.80           H21-C3-N2-Ru1=287.90          H21-C3-N2-C12= 58.07          
H21-C3-N2-H68=174.51          H22-C3-N2-Ru1=169.71          H22-C3-N2-C12=299.88          H22-C3-N2-H68= 56.32          
P5-C4-C3-N2=304.10            P5-C4-C3-H21= 63.42           P5-C4-C3-H22=182.39           H23-C4-C3-N2= 59.78           
H23-C4-C3-H21=179.10          H23-C4-C3-H22=298.08          H24-C4-C3-N2=179.60           H24-C4-C3-H21=298.92          
H24-C4-C3-H22= 57.90          C4-P5-Ru1-N2=349.75           C4-P5-Ru1-P14=  1.41          C4-P5-Ru1-C57=257.42          
C4-P5-Ru1-H59=165.11          C4-P5-Ru1-H69= 78.14          C6-P5-Ru1-N2= 98.62           C6-P5-Ru1-P14=110.28          
C6-P5-Ru1-C57=  6.29          C6-P5-Ru1-H59=273.98          C6-P5-Ru1-H69=187.01          C9-P5-Ru1-N2=232.64           
C9-P5-Ru1-P14=244.30          C9-P5-Ru1-C57=140.31          C9-P5-Ru1-H59= 48.01          C9-P5-Ru1-H69=321.03          
Ru1-P5-C4-C3= 37.23           Ru1-P5-C4-H23=280.74          Ru1-P5-C4-H24=160.63          C6-P5-C4-C3=274.67            
C6-P5-C4-H23=158.19           C6-P5-C4-H24= 38.08           C9-P5-C4-C3=168.56            C9-P5-C4-H23= 52.08           
C9-P5-C4-H24=291.96           C7-C6-P5-Ru1=200.49           C7-C6-P5-C4=309.61            C7-C6-P5-C9= 57.44            
C8-C6-P5-Ru1= 73.91           C8-C6-P5-C4=183.03            C8-C6-P5-C9=290.85            H25-C6-P5-Ru1=319.63          
H25-C6-P5-C4= 68.75           H25-C6-P5-C9=176.58           H26-C7-C6-P5=186.40           H26-C7-C6-C8=311.68           
H26-C7-C6-H25= 69.56          H27-C7-C6-P5=305.40           H27-C7-C6-C8= 70.68           H27-C7-C6-H25=188.56          
H28-C7-C6-P5= 67.65           H28-C7-C6-C8=192.93           H28-C7-C6-H25=310.80          H29-C8-C6-P5=317.39           
H29-C8-C6-C7=187.21           H29-C8-C6-H25= 69.10          H30-C8-C6-P5=197.67           H30-C8-C6-C7= 67.49           
H30-C8-C6-H25=309.37          H31-C8-C6-P5= 77.60           H31-C8-C6-C7=307.41           H31-C8-C6-H25=189.30          
C10-C9-P5-Ru1=321.39          C10-C9-P5-C4=205.95           C10-C9-P5-C6=101.23           C11-C9-P5-Ru1= 82.39          
C11-C9-P5-C4=326.94           C11-C9-P5-C6=222.23           H32-C9-P5-Ru1=203.58          H32-C9-P5-C4= 88.14           
H32-C9-P5-C6=343.42           H33-C10-C9-P5=180.11          H33-C10-C9-C11= 57.09         H33-C10-C9-H32=297.41         
H34-C10-C9-P5=301.26          H34-C10-C9-C11=178.24         H34-C10-C9-H32= 58.55         H35-C10-C9-P5= 59.79          
H35-C10-C9-C11=296.77         H35-C10-C9-H32=177.08         

 CMA Distance (Angstroems)
 ---------------------------
R(CMA):  5.3664
           -------------------------------------------------
          |                Final Singlepoint                |
           -------------------------------------------------

          ...................................................
          :                      SETUP                      :
          :.................................................:
          :  # basis functions                 183          :
          :  # atomic orbitals                 180          :
          :  # shells                          108          :
          :  # electrons                       176          :
          :  max. iterations                   500          :
          :  Hamiltonian                  GFN2-xTB          :
          :  restarted?                      false          :
          :  GBSA solvation                   true          :
          :  PC potential                    false          :
          :  electronic temp.          300.0000000     K    :
          :  accuracy                    0.5000000          :
          :  -> integral cutoff          0.2801030E+02      :
          :  -> integral neglect         0.5000000E-08      :
          :  -> SCF convergence          0.5000000E-06 Eh   :
          :  -> wf. convergence          0.5000000E-04 e    :
          :  Broyden damping             0.4000000          :
          :  net charge                          0          :
          :  unpaired electrons                  0          :
          ...................................................

 iter      E             dE          RMSdq      gap      omega  full diag
   1    -95.0802970 -0.950803E+02  0.612E-02    0.20       0.0  T
   2    -95.0802975 -0.437700E-06  0.361E-02    0.20       1.0  T
   3    -95.0802592  0.382216E-04  0.325E-02    0.21       1.0  T
   4    -95.0794098  0.849413E-03  0.129E-01    0.17       1.0  T
   5    -95.0802875 -0.877713E-03  0.129E-02    0.20       1.0  T
   6    -95.0802987 -0.111361E-04  0.279E-03    0.20       4.1  T
   7    -95.0802986  0.597452E-07  0.292E-03    0.20       4.0  T
   8    -95.0802989 -0.262795E-06  0.205E-03    0.20       5.6  T
   9    -95.0802991 -0.254053E-06  0.253E-04    0.20      45.7  T
  10    -95.0802991 -0.306214E-08  0.110E-04    0.20     105.0  T

   *** convergence criteria satisfied after 10 iterations ***

         #    Occupation            Energy/Eh            Energy/eV
      -------------------------------------------------------------
         1        2.0000           -0.7171349             -19.5142
       ...           ...                  ...                  ...
        82        2.0000           -0.3962722             -10.7831
        83        2.0000           -0.3877117             -10.5502
        84        2.0000           -0.3655889              -9.9482
        85        2.0000           -0.3548432              -9.6558
        86        2.0000           -0.3159840              -8.5984
        87        1.9991           -0.3104324              -8.4473
        88        1.9586           -0.3067535              -8.3472 (HOMO)
        89        0.0423           -0.2994456              -8.1483 (LUMO)
        90                         -0.2380565              -6.4778
        91                         -0.2052538              -5.5852
        92                         -0.1968109              -5.3555
        93                         -0.1893477              -5.1524
       ...                                ...                  ...
       180                          3.1414513              85.4832
      -------------------------------------------------------------
                  HL-Gap            0.0073079 Eh            0.1989 eV
             Fermi-level           -0.3030893 Eh           -8.2475 eV

 SCC (total)                   0 d,  0 h,  0 min,  0.691 sec
 SCC setup                      ...        0 min,  0.007 sec (  1.070%)
 Dispersion                     ...        0 min,  0.004 sec (  0.650%)
 classical contributions        ...        0 min,  0.001 sec (  0.163%)
 integral evaluation            ...        0 min,  0.047 sec (  6.875%)
 iterations                     ...        0 min,  0.448 sec ( 64.811%)
 molecular gradient             ...        0 min,  0.179 sec ( 25.868%)
 printout                       ...        0 min,  0.004 sec (  0.542%)

         :::::::::::::::::::::::::::::::::::::::::::::::::::::
         ::                     SUMMARY                     ::
         :::::::::::::::::::::::::::::::::::::::::::::::::::::
         :: total energy             -93.792502605645 Eh    ::
         :: total w/o Gsasa/hb       -93.752547663123 Eh    ::
         :: gradient norm              0.002944266344 Eh/a0 ::
         :: HOMO-LUMO gap              0.198856961473 eV    ::
         ::.................................................::
         :: SCC energy               -95.075749993610 Eh    ::
         :: -> isotropic ES            0.053775219180 Eh    ::
         :: -> anisotropic ES          0.019865101731 Eh    ::
         :: -> anisotropic XC          0.048894273477 Eh    ::
         :: -> dispersion             -0.101790232452 Eh    ::
         :: -> Gsolv                  -0.045879025076 Eh    ::
         ::    -> Gelec               -0.005924082554 Eh    ::
         ::    -> Gsasa               -0.042163085661 Eh    ::
         ::    -> Ghb                  0.000000000000 Eh    ::
         ::    -> Gshift               0.002208143139 Eh    ::
         :: repulsion energy           1.283247387965 Eh    ::
         :: add. restraining           0.000000000000 Eh    ::
         :: total charge               0.000000000000 e     ::
         :::::::::::::::::::::::::::::::::::::::::::::::::::::

           -------------------------------------------------
          |                Property Printout                |
           -------------------------------------------------

    * Orbital Energies and Occupations

         #    Occupation            Energy/Eh            Energy/eV
      -------------------------------------------------------------
         1        2.0000           -0.7171349             -19.5142
       ...           ...                  ...                  ...
        76        2.0000           -0.4200854             -11.4311
        77        2.0000           -0.4180626             -11.3761
        78        2.0000           -0.4104322             -11.1684
        79        2.0000           -0.4079901             -11.1020
        80        2.0000           -0.4054516             -11.0329
        81        2.0000           -0.4045809             -11.0092
        82        2.0000           -0.3962722             -10.7831
        83        2.0000           -0.3877117             -10.5502
        84        2.0000           -0.3655889              -9.9482
        85        2.0000           -0.3548432              -9.6558
        86        2.0000           -0.3159840              -8.5984
        87        1.9991           -0.3104324              -8.4473
        88        1.9586           -0.3067535              -8.3472 (HOMO)
        89        0.0423           -0.2994456              -8.1483 (LUMO)
        90                         -0.2380565              -6.4778
        91                         -0.2052538              -5.5852
        92                         -0.1968109              -5.3555
        93                         -0.1893477              -5.1524
        94                         -0.1673771              -4.5546
        95                         -0.1498475              -4.0776
        96                         -0.1431594              -3.8956
        97                         -0.1279152              -3.4807
        98                         -0.1212066              -3.2982
        99                         -0.0985342              -2.6813
       ...                                ...                  ...
       180                          3.1414513              85.4832
      -------------------------------------------------------------
                  HL-Gap            0.0073079 Eh            0.1989 eV
             Fermi-level           -0.3030893 Eh           -8.2475 eV

     #   Z          covCN         q      C6AA      α(0)
     1  44 Ru       5.549    -0.357   323.772    30.266
     2   7 N        3.441    -0.095    23.091     7.137
     3   6 C        3.856     0.027    20.078     6.373
     4   6 C        3.752    -0.049    21.514     6.614
     5  15 P        4.155    -0.017   160.987    22.792
     6   6 C        3.797    -0.001    20.607     6.464
     7   6 C        3.777    -0.102    22.474     6.754
     8   6 C        3.841    -0.096    22.305     6.718
     9   6 C        3.797     0.007    20.462     6.441
    10   6 C        3.860    -0.106    22.480     6.743
    11   6 C        3.803    -0.099    22.381     6.735
    12   6 C        3.827     0.025    20.138     6.385
    13   6 C        3.752    -0.057    21.666     6.638
    14  15 P        4.103     0.002   160.119    22.731
    15   6 C        3.796    -0.000    20.590     6.461
    16   6 C        3.815    -0.103    22.459     6.745
    17   6 C        3.818    -0.096    22.319     6.724
    18   6 C        3.796    -0.003    20.636     6.469
    19   6 C        3.846    -0.101    22.397     6.732
    20   6 C        3.792    -0.096    22.339     6.731
    21   1 H        0.923     0.044     2.396     2.421
    22   1 H        0.923     0.023     2.685     2.563
    23   1 H        0.925     0.059     2.208     2.324
    24   1 H        0.925     0.056     2.247     2.344
    25   1 H        0.926     0.047     2.355     2.400
    26   1 H        0.925     0.044     2.391     2.418
    27   1 H        0.925     0.044     2.396     2.421
    28   1 H        0.925     0.035     2.514     2.479
    29   1 H        0.924     0.057     2.236     2.338
    30   1 H        0.925     0.037     2.492     2.469
    31   1 H        0.925     0.043     2.404     2.425
    32   1 H        0.925     0.049     2.327     2.386
    33   1 H        0.925     0.039     2.463     2.454
    34   1 H        0.925     0.052     2.299     2.371
    35   1 H        0.925     0.075     2.027     2.226
    36   1 H        0.925     0.042     2.419     2.432
    37   1 H        0.925     0.049     2.328     2.386
    38   1 H        0.925     0.032     2.565     2.504
    39   1 H        0.923     0.026     2.642     2.542
    40   1 H        0.924     0.046     2.365     2.405
    41   1 H        0.925     0.066     2.134     2.284
    42   1 H        0.925     0.057     2.234     2.338
    43   1 H        0.924     0.043     2.415     2.430
    44   1 H        0.925     0.041     2.430     2.438
    45   1 H        0.924     0.058     2.221     2.331
    46   1 H        0.925     0.043     2.410     2.428
    47   1 H        0.924     0.039     2.465     2.455
    48   1 H        0.925     0.034     2.525     2.485
    49   1 H        0.925     0.063     2.169     2.303
    50   1 H        0.924     0.047     2.360     2.402
    51   1 H        0.925     0.037     2.495     2.470
    52   1 H        0.925     0.057     2.230     2.335
    53   1 H        0.925     0.057     2.239     2.340
    54   1 H        0.925     0.044     2.401     2.423
    55   1 H        0.925     0.032     2.562     2.503
    56   1 H        0.924     0.040     2.445     2.445
    57   6 C        1.810     0.156    27.414     8.461
    58   8 O        0.857    -0.305    19.869     5.976
    59   1 H        0.960    -0.119     6.260     3.911
    60   8 O        0.856    -0.405    21.779     6.257
    61   6 C        2.768     0.201    23.715     7.975
    62   6 C        2.969    -0.013    28.335     8.731
    63   6 C        2.921    -0.010    28.257     8.717
    64   6 C        2.916    -0.022    28.565     8.764
    65   6 C        2.920    -0.017    28.435     8.745
    66   6 C        2.916    -0.024    28.605     8.770
    67   6 C        2.922    -0.026    28.663     8.780
    68   1 H        0.859     0.215     1.031     1.590
    69   1 H        0.954    -0.207    11.314     5.258
    70   1 H        0.922    -0.001     3.074     2.742
    71   1 H        0.926     0.060     2.204     2.322
    72   1 H        0.926     0.047     2.351     2.398
    73   1 H        0.926     0.047     2.353     2.399
    74   1 H        0.926     0.045     2.387     2.416
    75   1 H        0.925     0.037     2.485     2.465

 Mol. C6AA /au·bohr⁶  :      59861.246541
 Mol. C8AA /au·bohr⁸  :    1701519.432506
 Mol. α(0) /au        :        382.047122


Wiberg/Mayer (AO) data.
largest (>0.10) Wiberg bond orders for each atom

 ---------------------------------------------------------------------------
     #   Z sym  total        # sym  WBO       # sym  WBO       # sym  WBO
 ---------------------------------------------------------------------------
     1  44 Ru   6.432 --    57 C    1.398     5 P    0.993    14 P    0.981
                            59 H    0.878    69 H    0.773     2 N    0.461
                            58 O    0.320
     2   7 N    3.471 --     3 C    0.990    12 C    0.987    68 H    0.872
                             1 Ru   0.461
     3   6 C    3.984 --     4 C    0.992     2 N    0.990    22 H    0.964
                            21 H    0.957
     4   6 C    3.993 --     3 C    0.992     5 P    0.974    24 H    0.943
                            23 H    0.937
     5  15 P    4.446 --     1 Ru   0.993     4 C    0.974     6 C    0.961
                             9 C    0.960
     6   6 C    3.988 --     7 C    0.999     8 C    0.997     5 P    0.961
                            25 H    0.929
     7   6 C    3.995 --     6 C    0.999    28 H    0.981    26 H    0.980
                            27 H    0.976
     8   6 C    3.995 --     6 C    0.997    30 H    0.984    31 H    0.981
                            29 H    0.960
     9   6 C    3.989 --    11 C    0.999    10 C    0.994     5 P    0.960
                            32 H    0.932
    10   6 C    3.991 --     9 C    0.994    33 H    0.982    34 H    0.970
                            35 H    0.961
    11   6 C    3.995 --     9 C    0.999    38 H    0.982    36 H    0.981
                            37 H    0.973
    12   6 C    3.981 --    13 C    0.997     2 N    0.987    39 H    0.965
                            40 H    0.957
    13   6 C    3.993 --    12 C    0.997    14 P    0.974    42 H    0.943
                            41 H    0.938
    14  15 P    4.401 --     1 Ru   0.981    13 C    0.974    15 C    0.961
                            18 C    0.958
    15   6 C    3.988 --    17 C    1.000    16 C    0.999    14 P    0.961
                            43 H    0.936
    16   6 C    3.993 --    15 C    0.999    46 H    0.981    44 H    0.979
                            45 H    0.972
    17   6 C    3.991 --    15 C    1.000    48 H    0.982    47 H    0.971
                            49 H    0.968
    18   6 C    3.990 --    20 C    1.001    19 C    0.998    14 P    0.958
                            50 H    0.938
    19   6 C    3.994 --    18 C    0.998    51 H    0.983    53 H    0.966
                            52 H    0.966
    20   6 C    3.995 --    18 C    1.001    56 H    0.981    55 H    0.980
                            54 H    0.975
    21   1 H    0.998 --     3 C    0.957
    22   1 H    0.998 --     3 C    0.964
    23   1 H    0.996 --     4 C    0.937
    24   1 H    0.996 --     4 C    0.943
    25   1 H    0.997 --     6 C    0.929
    26   1 H    0.997 --     7 C    0.980
    27   1 H    0.998 --     7 C    0.976
    28   1 H    0.999 --     7 C    0.981
    29   1 H    0.996 --     8 C    0.960
    30   1 H    0.998 --     8 C    0.984
    31   1 H    0.998 --     8 C    0.981
    32   1 H    0.997 --     9 C    0.932
    33   1 H    0.998 --    10 C    0.982
    34   1 H    0.997 --    10 C    0.970
    35   1 H    0.994 --    10 C    0.961
    36   1 H    0.998 --    11 C    0.981
    37   1 H    0.997 --    11 C    0.973
    38   1 H    0.999 --    11 C    0.982
    39   1 H    0.998 --    12 C    0.965
    40   1 H    0.997 --    12 C    0.957
    41   1 H    0.995 --    13 C    0.938
    42   1 H    0.996 --    13 C    0.943
    43   1 H    0.997 --    15 C    0.936
    44   1 H    0.998 --    16 C    0.979
    45   1 H    0.996 --    16 C    0.972
    46   1 H    0.998 --    16 C    0.981
    47   1 H    0.998 --    17 C    0.971
    48   1 H    0.998 --    17 C    0.982
    49   1 H    0.996 --    17 C    0.968
    50   1 H    0.997 --    18 C    0.938
    51   1 H    0.998 --    19 C    0.983
    52   1 H    0.996 --    19 C    0.966
    53   1 H    0.997 --    19 C    0.966
    54   1 H    0.998 --    20 C    0.975
    55   1 H    0.999 --    20 C    0.980
    56   1 H    0.998 --    20 C    0.981
    57   6 C    3.578 --    58 O    1.985     1 Ru   1.398
    58   8 O    2.362 --    57 C    1.985     1 Ru   0.320
    59   1 H    0.984 --     1 Ru   0.878
    60   8 O    2.009 --    61 C    1.750
    61   6 C    3.899 --    60 O    1.750    62 C    1.103    70 H    0.934
    62   6 C    3.981 --    63 C    1.348    67 C    1.347    61 C    1.103
    63   6 C    3.977 --    64 C    1.465    62 C    1.348    71 H    0.964
                            66 C    0.101
    64   6 C    3.990 --    63 C    1.465    65 C    1.425    72 H    0.969
                            67 C    0.101
    65   6 C    3.965 --    64 C    1.425    66 C    1.419    73 H    0.971
    66   6 C    3.991 --    67 C    1.472    65 C    1.419    74 H    0.970
                            63 C    0.101
    67   6 C    3.971 --    66 C    1.472    62 C    1.347    75 H    0.968
                            64 C    0.101
    68   1 H    0.953 --     2 N    0.872
    69   1 H    0.956 --     1 Ru   0.773
    70   1 H    0.999 --    61 C    0.934
    71   1 H    0.996 --    63 C    0.964
    72   1 H    0.997 --    64 C    0.969
    73   1 H    0.997 --    65 C    0.971
    74   1 H    0.998 --    66 C    0.970
    75   1 H    0.999 --    67 C    0.968
 ---------------------------------------------------------------------------

Topologies differ in total number of bonds
Writing topology from bond orders to xtbtopo.mol

molecular dipole:
                 x           y           z       tot (Debye)
 q only:        0.617      -0.077       1.894
   full:        1.152      -1.405       2.125       7.107
molecular quadrupole (traceless):
                xx          xy          yy          xz          yz          zz
 q only:       16.102       4.213      -6.953      16.018       6.017      -9.149
  q+dip:       15.696       0.952      -5.247      17.805       8.077     -10.449
   full:       14.419       1.135      -5.016      16.717       5.700      -9.404

           -------------------------------------------------
          |                Geometry Summary                 |
           -------------------------------------------------

      molecular mass/u    :      542.6329725
   center of mass at/Å    :        0.5810114      -0.8018216       0.4127909
  moments of inertia/u·Å² :        0.3165979E+04   0.4692611E+04   0.6118901E+04
rotational constants/cm⁻¹ :        0.5324618E-02   0.3592378E-02   0.2755010E-02

 * 73 selected distances

     #   Z          #   Z                                           value/Å
     2   7 N        3   6 C                                       1.4607353
     3   6 C        4   6 C                                       1.5275094
     1  44 Ru       5  15 P                                       2.2859856
     4   6 C        5  15 P                                       1.8681013
     5  15 P        6   6 C                                       1.8788369
     6   6 C        7   6 C                                       1.5269173
     6   6 C        8   6 C                                       1.5272192
     5  15 P        9   6 C                                       1.8751876
     9   6 C       10   6 C                                       1.5278477
     9   6 C       11   6 C                                       1.5251530
     2   7 N       12   6 C                                       1.4620588
    12   6 C       13   6 C                                       1.5251609
     1  44 Ru      14  15 P                                       2.2981674 (max)
    13   6 C       14  15 P                                       1.8747823
    14  15 P       15   6 C                                       1.8789765
    15   6 C       16   6 C                                       1.5272966
    15   6 C       17   6 C                                       1.5266525
    14  15 P       18   6 C                                       1.8819987
    18   6 C       19   6 C                                       1.5283906
    18   6 C       20   6 C                                       1.5278817
     3   6 C       21   1 H                                       1.0988023
     3   6 C       22   1 H                                       1.1037228
     4   6 C       23   1 H                                       1.0932242
     4   6 C       24   1 H                                       1.0908897
     6   6 C       25   1 H                                       1.0991585
     7   6 C       26   1 H                                       1.0898720
     7   6 C       27   1 H                                       1.0875502
     7   6 C       28   1 H                                       1.0877502
     8   6 C       29   1 H                                       1.0927853
     8   6 C       30   1 H                                       1.0895513
     8   6 C       31   1 H                                       1.0881152
     9   6 C       32   1 H                                       1.0963615
    10   6 C       33   1 H                                       1.0893392
    10   6 C       34   1 H                                       1.0880534
    10   6 C       35   1 H                                       1.0897409
    11   6 C       36   1 H                                       1.0894102
    11   6 C       37   1 H                                       1.0884817
    11   6 C       38   1 H                                       1.0885793
    12   6 C       39   1 H                                       1.1033336
    12   6 C       40   1 H                                       1.0976981
    13   6 C       41   1 H                                       1.0931722
    13   6 C       42   1 H                                       1.0905134
    15   6 C       43   1 H                                       1.1002866
    16   6 C       44   1 H                                       1.0868099
    16   6 C       45   1 H                                       1.0907210
    16   6 C       46   1 H                                       1.0900096
    17   6 C       47   1 H                                       1.0905538
    17   6 C       48   1 H                                       1.0900226
    17   6 C       49   1 H                                       1.0893279
    18   6 C       50   1 H                                       1.0982937
    19   6 C       51   1 H                                       1.0890485
    19   6 C       52   1 H                                       1.0864887
    19   6 C       53   1 H                                       1.0895695
    20   6 C       54   1 H                                       1.0877222
    20   6 C       55   1 H                                       1.0880627
    20   6 C       56   1 H                                       1.0906453
     1  44 Ru      57   6 C                                       1.8315457
    57   6 C       58   8 O                                       1.1648423
     1  44 Ru      59   1 H                                       1.5650444
    60   8 O       61   6 C                                       1.2209332
    62   6 C       63   6 C                                       1.4007390
    63   6 C       64   6 C                                       1.3808449
    64   6 C       65   6 C                                       1.3886734
    65   6 C       66   6 C                                       1.3894533
    62   6 C       67   6 C                                       1.4006325
    66   6 C       67   6 C                                       1.3799434
     2   7 N       68   1 H                                       1.0294702 (min)
     1  44 Ru      69   1 H                                       1.5826157
    63   6 C       71   1 H                                       1.0795925
    64   6 C       72   1 H                                       1.0800627
    65   6 C       73   1 H                                       1.0802741
    66   6 C       74   1 H                                       1.0807128
    67   6 C       75   1 H                                       1.0825788

 * 9 distinct bonds (by element types)

   Z      Z             #   av. dist./Å        max./Å        min./Å
   1 H    6 C          41     1.0904119     1.1037228     1.0795925
   6 C    6 C          16     1.4756447     1.5283906     1.3799434
   1 H    7 N           1     1.0294702     1.0294702     1.0294702
   6 C    7 N           2     1.4613971     1.4620588     1.4607353
   6 C    8 O           2     1.1928878     1.2209332     1.1648423
   6 C   15 P           6     1.8763139     1.8819987     1.8681013
   1 H   44 Ru          2     1.5738301     1.5826157     1.5650444
   6 C   44 Ru          1     1.8315457     1.8315457     1.8315457
  15 P   44 Ru          2     2.2920765     2.2981674     2.2859856


optimized geometry written to: xtbopt.xyz


           -------------------------------------------------
          | TOTAL ENERGY              -93.792502605645 Eh   |
          | GRADIENT NORM               0.002944266344 Eh/α |
          | HOMO-LUMO GAP               0.198856961473 eV   |
           -------------------------------------------------

------------------------------------------------------------------------
 * finished run on 2026/09/13 at 03:03:31.455     
------------------------------------------------------------------------
 total:
 * wall-time:     0 d,  0 h,  2 min, 45.717 sec
 *  cpu-time:     0 d,  0 h,  0 min, 39.188 sec
 * ratio c/w:     0.236 speedup
 SCF:
 * wall-time:     0 d,  0 h,  0 min,  0.921 sec
 *  cpu-time:     0 d,  0 h,  0 min,  0.359 sec
 * ratio c/w:     0.390 speedup
 ANC optimizer:
 * wall-time:     0 d,  0 h,  2 min, 44.560 sec
 *  cpu-time:     0 d,  0 h,  0 min, 38.781 sec
 * ratio c/w:     0.236 speedup


normal termination of xtb
Note: The following floating-point exceptions are signalling: IEEE_DIVIDE_BY_ZERO IEEE_UNDERFLOW_FLAG IEEE_DENORMAL
