76

Mn      0.232337789636610     -0.084016445551960      0.542489285075860
N       0.074444644369490     -1.909293053572480      0.749609192741790
C       1.133606827862810     -2.894861592090150      0.559207371655480
C       2.208755264932600     -2.417252101629290     -0.416843746824930
P       2.273794538290170     -0.587525133697960     -0.240259257415180
C       2.831448346214140      0.004902521741120     -1.926056318004790
C       4.136673494987890     -0.613483688514950     -2.423316234019340
C       1.711707433972330     -0.208456605494040     -2.944920571190080
C       3.803969989167210     -0.321624502365650      0.789167775556060
C       3.632295872020910     -0.993100791788870      2.149537042690090
C       4.030581756393310      1.179343593890420      0.950896064322520
C      -1.070613365737790     -2.629486713274030      1.291779591460200
C      -2.244623920291440     -1.712279882764660      1.631421957965420
P      -1.988155658301780     -0.200100482806410      0.625131662195640
C      -3.154392585459980      1.021164619996980      1.417514585217830
C      -3.394285395845940      2.221895141802270      0.503512319717480
C      -2.560935510274040      1.506452035230660      2.737837933861600
C      -2.833432923246120     -0.536218426047520     -1.013544154230710
C      -4.302905765434630     -0.942392758403860     -0.923585047023710
C      -2.044933395319460     -1.569703614342740     -1.817312750619040
H       1.588067842421060     -3.137409970787620      1.535375683898790
H       0.700837524400050     -3.837234713303150      0.176566936698060
H       3.175737097643250     -2.890603905763450     -0.228572981636730
H       1.896064036113440     -2.643075543492580     -1.441377684113910
H       2.961254931359770      1.088783925510030     -1.801666039243350
H       4.316817848389790     -0.294681357789650     -3.449537402626380
H       4.085122059194050     -1.700890110263880     -2.413379114413980
H       4.986899006031640     -0.296294633905470     -1.825192507250060
H       1.937168297393810      0.323870289286180     -3.868093362725230
H       1.589965224599620     -1.263569108322820     -3.187855475712160
H       0.767230132763400      0.176630284515590     -2.555812710904250
H       4.655548226281350     -0.780655501101530      0.271992579629120
H       4.447080657878860     -0.709079106934250      2.814390794455620
H       3.634134641866320     -2.077796155690080      2.060012002696930
H       2.692638202674630     -0.679822011160610      2.606381978423380
H       3.117685763717400      1.649462448358640      1.323049563217130
H       4.833512489569260      1.369892192580080      1.661459534470020
H       4.295941044277620      1.646412759956580      0.004567834418640
H      -0.757606927811050     -3.184883926785720      2.195410453568420
H      -1.401143177020200     -3.393513149035790      0.564419063909600
H      -2.188971309667470     -1.401971709219010      2.679004518427420
H      -3.210416344641840     -2.191716868657510      1.457699465749100
H      -4.097886330203340      0.495982137332830      1.619510924139340
H      -3.994496557991850      1.966735135172280     -0.366452094626060
H      -3.914557457589880      3.006264748440020      1.051741809360230
H      -2.438547237460290      2.622607858605380      0.164292775660840
H      -3.277509502484510      2.135696186660480      3.264173545172660
H      -2.289367797180750      0.680104295027270      3.392623928941640
H      -1.663509912800340      2.092941023410330      2.542072740650710
H      -2.752462739319660      0.426576073806280     -1.539517378530260
H      -4.415399199361940     -1.901682891457720     -0.421092596561600
H      -4.903220397635460     -0.204276878501880     -0.398095764604170
H      -4.705831481775110     -1.047601086129740     -1.930924551804080
H      -0.973088203959540     -1.362402132415550     -1.755668114933620
H      -2.226930846883380     -2.575732969070680     -1.441745935881630
H      -2.339250490485010     -1.541963515607860     -2.866320351384470
C       0.194389444364210      1.444106255453150     -0.335542480992970
O       0.175258226526080      2.467562774441980     -0.899737515085320
C       0.593488036880340      0.740558068239710      2.061766208921910
O       0.831113493611270      1.243018914707020      3.088619495377220
O       2.005591131342475     -1.745363242355048      2.584996375999317
C       1.642739403869387     -0.410099286273570      2.805264637080459
C       0.417258874861592     -0.344743474075631      3.674251467841241
C      -0.860458320026235     -0.278864384438075      3.094372982840361
C      -2.000353382506288     -0.252255437849199      3.904279046462419
C      -1.872854441933639     -0.302334997808455      5.295260769138685
C      -0.605311402864712     -0.383682253540478      5.878611095919371
C       0.537066326187895     -0.410591611389552      5.072228664137009
H       1.367690320538070     -2.105711547913496      1.914680383726990
H       2.486511712458296      0.111352842516696      3.305466889712743
H       1.469332732736458      0.110909104004697      1.835890094698447
H      -0.973488256020234     -0.248602271813047      2.017690621466208
H      -2.982724513781850     -0.196350828086227      3.453368387692846
H      -2.756047017638436     -0.282921657737468      5.920608759890666
H      -0.508034021266302     -0.429416733197735      6.955617740978330
H       1.513114624979192     -0.482638906830076      5.536054699390721
