20
Generated +60 degree methyl torsion after rejected -50.49 cm-1 rotor; not a literature coordinate
C -3.2456806327 0.2350088289 0.2170555454
N -1.8488493528 -0.1307460452 0.1513138461
C -1.4517024325 -1.4225567358 0.0332454660
N -0.2450183709 -1.8359779620 -0.0317033536
C 0.7557235877 -0.8980365262 0.0215872394
C 2.0896160250 -1.3139384110 -0.0467721754
C 3.1021597748 -0.3839765564 0.0055537147
C 2.8153379990 0.9758158578 0.1265360880
C 1.5091942491 1.4029032044 0.1951331510
C 0.4676723569 0.4736867505 0.1435981805
C -0.9202868608 0.9146724111 0.2154144956
O -1.3000802781 2.0630208034 0.3210451659
H -3.3352815485 1.3199041742 0.2924036545
H -3.7481827987 -0.0787180365 -0.6993346035
H -3.7114835917 -0.2379157984 1.0779407802
H -2.2423357882 -2.1622093244 -0.0087426311
H 2.2929604797 -2.3688390890 -0.1401455527
H 4.1313321265 -0.7077449255 -0.0474305097
H 3.6220559777 1.6921528897 0.1661686375
H 1.2573882346 2.4485424981 0.2889510518
