20

C     -3.268746    0.221344    0.216489
N     -1.866172   -0.132175    0.151636
C     -1.482044   -1.444887    0.032146
N     -0.260957   -1.856792   -0.033039
C      0.753392   -0.889448    0.022368
C      2.085316   -1.304462   -0.045872
C      3.125716   -0.371934    0.005964
C      2.841438    0.988466    0.126936
C      1.516478    1.417109    0.196142
C      0.482740    0.474777    0.143315
C     -0.930823    0.891518    0.213748
O     -1.222244    2.079899    0.320503
H     -3.460194    0.747827    1.156864
H     -3.504705    0.895837   -0.612681
H     -3.908411   -0.663383    0.158577
H     -2.310341   -2.169912   -0.007670
H      2.310717   -2.363780   -0.140172
H      4.157787   -0.709948   -0.048290
H      3.650920    1.713348    0.167211
H      1.290133    2.476597    0.290480
