61
 energy: -71.557489868365 gnorm: 0.000050922124 xtb: 6.7.1 (edcfbbe)
Fe           0.02957948807176       -0.31979605181275       -0.41778076542482
N           -0.20164204132218       -2.41077975692800       -0.56537790318261
C            0.85935230644734       -3.01712071131412       -1.37200981302585
C            2.21716606522144       -2.57754134530216       -0.83373748194041
P            2.13075164762600       -0.71824690241991       -0.57930694091774
C            3.06903165515723       -0.15184864074844       -2.10586032569677
C            4.55977723316918       -0.47576597589183       -2.14917812108916
C            2.81598912048189        1.33008780678599       -2.37992623773162
C            3.34182126464532       -0.45294135834484        0.82294076621189
C            3.34560920899967        1.04727088871552        1.10373173494859
C            2.92339786211732       -1.20737629545536        2.08087703331077
C           -1.54824846089296       -2.79305010411728       -0.99785626790125
C           -2.57144039060951       -2.09223746062403       -0.11171612904139
P           -2.07763308309005       -0.28356048836930       -0.01480796076908
C           -2.84490855987441        0.14963049395516        1.64493583653167
C           -2.74576009938271        1.65622049797525        1.87172958809154
C           -2.14373737601058       -0.56784594753564        2.79360508952620
C           -3.31497002275977        0.56196111989005       -1.15471373359208
C           -2.73605381135560        1.91866898481483       -1.55561918221994
C           -3.63368382997195       -0.23037250856265       -2.42045371659242
H           -0.08233549321751       -2.73732450078214        0.39642002474034
H            0.73525852607131       -2.67028415431253       -2.40308856192101
H            0.77547812467952       -4.11537015698332       -1.36853751850877
H            2.39672936005269       -3.05681529757813        0.13145477781388
H            3.01584404721928       -2.86625738735810       -1.51985903493503
H            2.56239773974035       -0.72628465852661       -2.89741521318114
H            4.94161111924845       -0.29519417523644       -3.15417042136409
H            5.11516587370443        0.16075836246152       -1.46344610714307
H            4.75927147889195       -1.51540515148085       -1.89476962303664
H            1.81953303996978        1.60311044342772       -2.03211835091060
H            2.88710500945744        1.54258984811584       -3.44637346735712
H            3.54032700839134        1.95751454917148       -1.86506368382076
H            4.33615824279626       -0.79380624860592        0.50906141183210
H            3.90847455871002        1.27473101614016        2.00882544957857
H            3.78388036860019        1.60522528772078        0.27981284424041
H            2.31462497121606        1.37781803222366        1.23030969499887
H            3.50591689912735       -0.85935667287701        2.93317846504195
H            1.87139327001116       -1.01458101404642        2.28338364269812
H            3.07960308907821       -2.28098112978658        1.99047867944728
H           -1.67656518407289       -3.88617498825624       -0.95503617383474
H           -1.66832611645083       -2.47601827122938       -2.03799264925977
H           -2.51112909053378       -2.50734141542313        0.89753257361632
H           -3.58916720035520       -2.23565693432617       -0.47683328794359
H           -3.89999265201258       -0.16105562071169        1.60625841825352
H           -3.41235942985691        2.20945154350383        1.21405277399725
H           -1.71872525090231        1.97265578218822        1.68950935074224
H           -3.00850346776539        1.90461655705665        2.90006489770550
H           -2.28333242001564       -1.64663924714506        2.76055528907148
H           -2.53304032297035       -0.21353098023108        3.74754666921068
H           -1.07841372465403       -0.35177008022457        2.75158917064114
H           -4.24303073123354        0.70910906035626       -0.58466806444115
H           -3.49554882408527        2.53759009472399       -2.03397048193133
H           -2.33002813406516        2.45071172699954       -0.69964252393177
H           -1.91666090463521        1.77296996168863       -2.25463968839037
H           -2.71926437130650       -0.47781184783016       -2.95496679779310
H           -4.18140172702311       -1.14742345762011       -2.21468590644363
H           -4.24830457178057        0.37978000230394       -3.08290654983547
C           -0.12671256352500       -0.08537134364488       -2.12151508797914
O           -0.19427961022491        0.03356288874471       -3.27938954332213
H            0.20801875673403       -0.46505991464864        1.03023971952520
H            0.19562471249247        1.11799389633354       -0.19313228333440
