15
Properties=species:S:1:pos:R:3 energy:=T -17.450494480185=T gnorm:=T 0.000023917573=T xtb:=T 6.7.1=T (edcfbbe)=T pbc="F F F"
C       -1.17583502      -0.74038435      -0.29218817
C        0.12050891       0.08295409      -0.49202365
C        0.00368910       1.36839145       0.36374068
C        1.29900654      -0.75318767       0.07770383
O        0.35422583       0.36001433      -1.80415721
H       -1.11166515      -1.65289375      -0.88024872
H       -1.31690677      -1.00037504       0.75362037
H       -2.03814690      -0.16194774      -0.63475037
H       -0.85130229       1.96065469       0.02626190
H        0.90825519       1.95993654       0.24290132
H       -0.12585246       1.12761420       1.41561162
H        1.39020139      -1.67260018      -0.49375673
H        2.22062997      -0.18888786      -0.03364432
H        1.14122483      -0.99015972       1.12644408
K       -0.78012858       1.46894054      -3.25790740
