57
Properties=species:S:1:pos:R:3 energy:=T -81.098656571221=T gnorm:=T 0.000479799464=T xtb:=T 6.7.1=T (edcfbbe)=T pbc="F F F"
Ru      -0.34946284      -0.28611997      -1.33792653
C        2.11952596      -2.26366431      -1.46953741
P        1.91563075      -0.41623055      -1.47539282
C        2.96729694       0.09922700      -2.85224687
C        4.33594480      -0.16348021      -2.84141177
C        5.10899772       0.21806420      -3.92174775
C        4.52379804       0.86022331      -5.00389402
C        3.16388055       1.12829673      -5.00870488
C        2.38007540       0.74966490      -3.93215545
C        2.81077767       0.14022621       0.00647452
C        3.36264400       1.42030652      -0.00195175
C        3.98743454       1.90918262       1.13052403
C        4.05454573       1.13284474       2.27775108
C        3.48784439      -0.13192353       2.29617518
C        2.85984369      -0.62853138       1.16754813
C        1.00727271      -2.87812279      -0.68455452
C        1.12988735      -4.09925257      -0.03790712
C        0.04068789      -4.62461173       0.64019505
C       -1.15368861      -3.92024648       0.64740031
C       -1.21045159      -2.70427755      -0.01435927
C       -2.47506924      -1.90295306      -0.13424650
N       -2.22913729      -0.47060233      -0.38955554
C       -1.42637558       0.20461565       0.63637837
C       -1.49175583      -0.35736885       2.05313616
C       -3.51913829       0.20563546      -0.66517983
C       -3.37510568       1.45610692      -1.51697082
N       -0.14913644      -2.19569695      -0.64781444
H        2.01440484      -2.55980385      -2.52391423
H        3.10463080      -2.58277785      -1.11733274
H        4.78784994      -0.65355194      -1.98927479
H        6.17018909       0.01739239      -3.92198941
H        5.13377761       1.15643779      -5.84435665
H        2.71523960       1.63436528      -5.85027463
H        1.31677265       0.95827202      -3.90435207
H        3.29777410       2.01847703      -0.90109898
H        4.42297945       2.89751532       1.11978359
H        4.54658954       1.51451238       3.15989901
H        3.53764876      -0.73358914       3.19182074
H        2.41801501      -1.61689992       1.19286288
H        2.06780547      -4.63072281      -0.07397880
H        0.11925866      -5.57197366       1.14989273
H       -2.02637034      -4.30401082       1.15151778
H       -3.01881106      -2.29543101      -1.00488607
H       -3.11182387      -2.04184812       0.74885768
H       -1.72897755       1.26006824       0.66445836
H       -0.28764163       0.20726348       0.31757230
H       -0.93470313       0.30148403       2.71750207
H       -2.52632629      -0.38210099       2.39572475
H       -1.06520639      -1.35599895       2.13960542
H       -4.00746202       0.44141650       0.28844321
H       -4.15186903      -0.49845567      -1.21007778
H       -4.36638367       1.84383271      -1.73952581
H       -2.81015799       2.24036041      -1.01864618
H       -2.87686852       1.21244853      -2.45584562
C       -0.62916802      -0.76234679      -3.09301565
O       -0.86577827      -1.05830875      -4.17701754
H       -0.45586519       1.19439624      -1.73172182
