51
 energy: -81.962535606596 gnorm: 0.000173765099 xtb: 6.7.1 (edcfbbe)
Ru           0.09815833356940       -0.09903043703842        0.04904701974164
C            2.31896146494304       -2.32297646829311       -0.03396584925280
P            2.31460260028783       -0.49788963461402        0.34375003894907
C            3.10705123142771       -0.43996320116549        1.98295037514393
C            3.95269906570461        0.61724276748080        2.30617698883941
C            4.51088029786096        0.69764101370021        3.56925734599156
C            4.22285815669562       -0.26901006367560        4.51950515136803
C            3.36231412482284       -1.31028324201434        4.20963076996519
C            2.79971671193129       -1.39362437234678        2.94898019003254
C            3.67629799291344        0.07556133496849       -0.72400693709240
C            3.44767303552072        1.14439033634942       -1.58197584213997
C            4.45819962512553        1.59479650971559       -2.41466655256111
C            5.69883467568971        0.97886242967000       -2.39054119237259
C            5.93371905636640       -0.08182380791567       -1.52787578219621
C            4.92877923530869       -0.53285809248051       -0.69260229586731
C            0.97471661764860       -2.89773988943865        0.30039900020576
C            0.82910942732451       -4.24036293270081        0.59681883382452
C           -0.44112206850721       -4.75953314447354        0.83330651268827
C           -1.52587178229176       -3.91480957643308        0.73126901961655
C           -1.32277519829789       -2.56470924848738        0.43399885140614
C           -2.39587894037578       -1.59443159155379        0.27079430084605
C           -3.75043581091937       -1.92073827608651        0.32273989738420
C           -4.69845865087305       -0.93540847930154        0.11459138425064
C           -4.27752260315449        0.35688547886940       -0.13434739529041
C           -2.90802715424663        0.62709954168369       -0.16325959959873
O           -2.51197376806372        1.87436342600324       -0.39628574165096
N           -1.98371209170827       -0.32352471557472        0.02556200435308
N           -0.07843428507037       -2.06051979412072        0.25511287568218
H            2.46730239308427       -2.39297185885045       -1.12165190827208
H            3.12975844088481       -2.86467682183681        0.46095348318306
H            4.16534562692549        1.37437027577538        1.56278610584007
H            5.16974566788026        1.51809820826039        3.81457877214542
H            4.66033804536448       -0.20598951490348        5.50522148383039
H            3.12562521434919       -2.05649075170735        4.95483203279975
H            2.10892462375749       -2.19473647675976        2.71736620208838
H            2.47048039364640        1.61470149748226       -1.57818726339215
H            4.27772151009476        2.42594192858336       -3.08091969463996
H            6.48747116176493        1.32814816513216       -3.04098485346721
H            6.90466447390330       -0.55550842909156       -1.50655771540675
H            5.11379492366673       -1.34976282522807       -0.00814416809620
H            1.69998826125764       -4.87651473627881        0.63938712649050
H           -0.57167820488561       -5.80169264596580        1.07820939480024
H           -2.52239041042322       -4.29181021076144        0.89006934378597
H           -4.05927986269840       -2.93359590096456        0.51797950436253
H           -5.75064385653606       -1.17050034778336        0.14737688391773
H           -4.96387166807009        1.16947701301441       -0.30229589066573
H           -1.52868358762084        1.90985346691671       -0.29700987944343
C            0.24932246353862       -0.13823340994152       -1.79392278969727
O            0.34205823276709       -0.20552662174838       -2.94579540240403
H           -0.03655924363696        0.05616765991244        1.61841291731378
H            0.20238250569608        1.47999824110870        0.04980061418953
