80
Properties=species:S:1:pos:R:3:forces:R:3 charge=0 unpaired=0 uhf=0 energy=-3282.7940621743764 pbc="F F F"
Mn       0.22681213      -0.19565706      -0.55770986       0.00302199      -0.00490216       0.00010794
N        0.47290156      -2.45519125      -0.50795111      -0.00107340      -0.00159311       0.00204306
C        1.62757209      -2.82352789       0.31476229       0.00061204       0.00147034       0.00038191
C        2.85766604      -2.10433762      -0.23194607       0.00169021       0.00275467       0.00009366
P        2.42755838      -0.30398546      -0.38602935      -0.00276173      -0.00244547      -0.00110492
C        3.16228006       0.46584881       1.09858518       0.00051402       0.00002863      -0.00079560
C        3.48590266      -0.20764990       2.26998447      -0.00015975      -0.00040771       0.00164574
C        3.96338755       0.49472508       3.36377348      -0.00133175      -0.00056871      -0.00047713
C        4.10936843       1.86977514       3.30273239       0.00164766       0.00099706      -0.00020008
C        3.76620087       2.55069679       2.14425298      -0.00122879       0.00074953      -0.00039059
C        3.29081297       1.85367257       1.05128461       0.00076088      -0.00049586      -0.00086699
C        3.66071406       0.28387123      -1.59894660       0.00127732       0.00103350       0.00193100
C        3.23918127       1.17547145      -2.57825462      -0.00165196      -0.00362395      -0.00354079
C        4.15182635       1.69795387      -3.47908300       0.00205197      -0.00012335       0.00060026
C        5.48378286       1.32280206      -3.41025820      -0.00148574      -0.00177001      -0.00168299
C        5.90666451       0.43420288      -2.43300972       0.00146501       0.00261840       0.00272817
C        5.00244694      -0.07856350      -1.52106004      -0.00111401       0.00056372      -0.00027487
C       -0.74350487      -3.23010333      -0.21125068      -0.00140532       0.00022301      -0.00046845
C       -1.71815114      -2.41090640       0.63190479       0.00016394      -0.00137011      -0.00060956
P       -1.87596237      -0.80247738      -0.27364347      -0.00048489       0.00083534       0.00219275
C       -2.94564556       0.22345622       0.77882479      -0.00076533       0.00085676      -0.00009055
C       -3.39352038      -0.10793685       2.05129583       0.00196258      -0.00030073      -0.00027645
C       -4.17913557       0.78770547       2.75826650      -0.00030233       0.00001782      -0.00005485
C       -4.52012273       2.00975882       2.20424021       0.00022024       0.00023635       0.00032301
C       -4.07271923       2.34617561       0.93495849      -0.00035419      -0.00021427      -0.00024115
C       -3.28738555       1.45807048       0.22726631      -0.00033252       0.00060078       0.00019602
C       -3.11206923      -1.28154745      -1.54442690       0.00090054      -0.00006651       0.00074493
C       -2.76932151      -1.22729640      -2.88925629      -0.00213336       0.00056851      -0.00072725
C       -3.68739765      -1.59851063      -3.85695225       0.00184451       0.00015397       0.00116650
C       -4.95129708      -2.02478815      -3.48507072      -0.00033850      -0.00189529      -0.00004483
C       -5.30142043      -2.07112599      -2.14356437       0.00168626      -0.00172921       0.00092026
C       -4.38893172      -1.69795958      -1.17484917      -0.00260423      -0.00006838      -0.00097202
H        1.78863434      -3.91311639       0.28967203      -0.00018594      -0.00029162      -0.00124993
H        1.43904455      -2.52601705       1.35423820      -0.00116145      -0.00025286      -0.00018799
H        3.06939091      -2.46555004      -1.24574483       0.00083384       0.00086549      -0.00050463
H        3.73976664      -2.26877182       0.39109181       0.00091550       0.00030483      -0.00034912
H        3.36245366      -1.27955916       2.34660002      -0.00029740      -0.00023706       0.00089959
H        4.21585563      -0.03586721       4.27146587      -0.00056240       0.00015401      -0.00004975
H        4.47952615       2.41255374       4.16056425      -0.00116043       0.00012909       0.00029857
H        3.86295427       3.62614655       2.09875897      -0.00013796       0.00022344      -0.00066414
H        2.99996889       2.37553410       0.14615415      -0.00007306       0.00014934      -0.00026761
H        2.18751547       1.44055710      -2.61526848       0.00012550       0.00021357      -0.00033899
H        3.82555868       2.40214810      -4.23174787       0.00054844      -0.00056951      -0.00022695
H        6.19675920       1.72646222      -4.11475854       0.00019135      -0.00025035       0.00010213
H        6.94738742       0.14803976      -2.37781870       0.00001701       0.00023493       0.00008968
H        5.33762284      -0.75347949      -0.74510427       0.00031226       0.00063983       0.00057396
H       -1.23558485      -3.47617567      -1.15993965       0.00012201       0.00108171      -0.00059454
H       -0.48552886      -4.17141438       0.29241652       0.00045415       0.00005598      -0.00030580
H       -2.67978393      -2.92140471       0.73609077       0.00002379       0.00047429      -0.00064678
H       -1.29910058      -2.21346674       1.62423667      -0.00028893       0.00025648      -0.00015440
H       -3.13251123      -1.05582691       2.50092618      -0.00027095      -0.00033199       0.00052113
H       -4.52395204       0.52918422       3.74983060      -0.00070044      -0.00115238      -0.00023057
H       -5.13027536       2.70390258       2.76406561      -0.00020913       0.00052004      -0.00073893
H       -4.33191812       3.30266401       0.50418372       0.00032145       0.00037918       0.00015246
H       -2.91213305       1.70518295      -0.76092177       0.00038849       0.00017452       0.00074864
H       -1.78059060      -0.87997517      -3.16215240      -0.00065466       0.00055170      -0.00084290
H       -3.41791237      -1.54551448      -4.90221486      -0.00040097       0.00025792       0.00027808
H       -5.66982242      -2.31410197      -4.23852684       0.00013365       0.00054605       0.00015124
H       -6.29141290      -2.39442605      -1.85435350       0.00041434       0.00050373       0.00048622
H       -4.66869431      -1.71662905      -0.12902197       0.00049574       0.00020774       0.00018576
C        0.04500005       1.55613168      -0.56275071       0.00005917      -0.00138832       0.00148175
O       -0.07317763       2.71264693      -0.43946540      -0.00024225       0.00143533       0.00032682
C        0.16838762       0.02689525       1.17464271       0.00131308      -0.00056654      -0.00143921
O        0.10362430       0.32481021       2.29772184       0.00056340       0.00048447       0.00089140
O        0.66091774      -3.71564841      -3.09273469      -0.00065546       0.00108122       0.00077334
C        0.02455224      -3.35430538      -4.06164922       0.00127596       0.00027085      -0.00195131
C        0.35239432      -2.23223293      -4.92854929       0.00144808      -0.00154887      -0.00052452
C        1.47530435      -1.43895691      -4.67446753      -0.00037673       0.00002386       0.00111615
C        1.77223815      -0.37522450      -5.50240571       0.00218352      -0.00105618      -0.00089529
C        0.95240904      -0.08878405      -6.58389100      -0.00117897       0.00018256       0.00097615
C       -0.16546375      -0.87003328      -6.84418575      -0.00001628      -0.00067383      -0.00089287
C       -0.46533733      -1.93833435      -6.02347306      -0.00208025       0.00233597       0.00155934
H        0.74021844      -2.69260611      -1.47088991      -0.00109797      -0.00005290      -0.00032268
H        0.24057606      -0.28730595      -2.08121994      -0.00177829       0.00131495      -0.00034971
H       -0.89754345      -3.89762466      -4.34937049       0.00015287       0.00082485       0.00022179
H        2.09949386      -1.66314494      -3.82169163       0.00049195       0.00001551       0.00028557
H        2.64074145       0.23304143      -5.30079479      -0.00002986       0.00007118      -0.00001070
H        1.18344762       0.74726110      -7.22779593      -0.00000970       0.00002348      -0.00051327
H       -0.79950101      -0.64081039      -7.68815885       0.00003618       0.00009850      -0.00027780
H       -1.33054566      -2.55608554      -6.22061660       0.00045637       0.00015225       0.00015449
