60
Properties=species:S:1:pos:R:3 energy:=T -70.811455911299=T gnorm:=T 0.000218283253=T xtb:=T 6.7.1=T (edcfbbe)=T pbc="F F F"
Ru      -0.02790130      -0.27805716      -0.50748949
N       -0.23454846      -2.39798869      -0.37175350
C        1.03557913      -3.08953050      -0.65832882
C        2.19970428      -2.39077585       0.06230127
P        2.21122738      -0.64012158      -0.56275554
C        3.21207959      -0.75852206      -2.12889507
C        4.59375380      -1.38104170      -1.94461805
C        3.30631395       0.63117377      -2.75861577
C        3.15724465       0.51633985       0.53935017
C        2.44318936       1.86781478       0.36861219
C        3.16030075       0.05304639       1.99223073
C       -1.37946840      -2.87614797      -1.17075421
C       -2.66952420      -2.05704988      -0.92912874
P       -2.26127106      -0.40705049      -0.15535756
C       -3.10454239      -0.55052711       1.49558304
C       -2.97846796       0.75902357       2.26999454
C       -2.49440972      -1.69024599       2.30950857
C       -3.14451552       1.01356247      -0.97399123
C       -2.16514779       2.18954452      -0.80338379
C       -3.48085556       0.76034238      -2.43988038
H       -0.45217185      -2.54480229       0.62624422
H        1.19540455      -3.06164543      -1.74434522
H        0.97179343      -4.13877301      -0.34432061
H        2.00805887      -2.36354064       1.13957957
H        3.13775763      -2.91872211      -0.11816917
H        2.61660899      -1.39738505      -2.79790017
H        5.16807495      -1.25270161      -2.86059476
H        5.14428727      -0.90262315      -1.13711117
H        4.53439598      -2.44723602      -1.74141661
H        2.33505594       1.13284292      -2.74524272
H        3.63066788       0.55450019      -3.79508816
H        4.02719561       1.25062559      -2.22822265
H        4.19197437       0.60367362       0.18767465
H        2.65439870       2.52357948       1.21145803
H        2.75617374       2.37503438      -0.54258901
H        1.33744379       1.72616123       0.32302383
H        3.63882011       0.80517253       2.61716727
H        2.14231680      -0.08760859       2.35056701
H        3.71216990      -0.87859612       2.10208832
H       -1.56494006      -3.93398899      -0.94770188
H       -1.08489922      -2.80181929      -2.22395106
H       -3.37169301      -2.59750917      -0.28835060
H       -3.16553554      -1.88182134      -1.88585414
H       -4.16252473      -0.76467894       1.28226233
H       -3.55761691       1.56040261       1.81645345
H       -1.93108880       1.05914153       2.32333425
H       -3.34312830       0.62436333       3.28685431
H       -2.58728148      -2.65421069       1.81109119
H       -3.00433613      -1.76683187       3.26817587
H       -1.44343214      -1.47909859       2.50793034
H       -4.07373819       1.23035494      -0.43238604
H       -2.44126255       3.02231369      -1.44866774
H       -2.15283856       2.54515663       0.22655364
H       -1.11946288       1.88945749      -1.06931373
H       -2.60612427       0.43973572      -3.00203056
H       -4.26001255       0.00696992      -2.53741444
H       -3.85111405       1.67857402      -2.89337147
C       -0.14801392      -0.25071311      -2.35805152
O       -0.11443225      -0.19334039      -3.50407460
H        0.16400093      -0.21417151       1.01860970
