28
Properties=species:S:1:pos:R:3:forces:R:3 energy:=T -41.446831717917=T gnorm:=T 0.000032131053=T xtb:=T 6.7.1=T (edcfbbe)=T energy=-1127.825737362139 pbc="F F F"
O        0.02317806      -1.60315676      -1.43309310       0.00036094       0.00001511       0.00001582
C        0.25421595      -0.37742599      -0.77115352       0.00006191       0.00028445       0.00005104
N       -0.41079396      -0.34736096       0.51101497      -0.00005678       0.00013601       0.00027436
C       -1.75402567      -0.04683938       0.65194935       0.00007107      -0.00005538      -0.00007528
C       -2.66151147      -0.23812786      -0.39049635       0.00002123      -0.00001791       0.00000968
C       -4.00297195       0.03742515      -0.20247692      -0.00001090       0.00002237      -0.00027860
C       -4.46799264       0.49534981       1.01896602      -0.00019150      -0.00016212       0.00007868
C       -3.57293382       0.67478522       2.06165936      -0.00009265       0.00010427       0.00006978
C       -2.22972246       0.41105211       1.88265726      -0.00010198       0.00027815       0.00001128
C        1.73339187      -0.12221662      -0.57098593       0.00009276      -0.00001045       0.00003556
C        2.47884831      -0.96723905       0.24508050      -0.00000514       0.00038883       0.00054834
C        3.83271704      -0.74876295       0.42766800       0.00003461      -0.00013124      -0.00003215
C        4.45541356       0.31557475      -0.20322840       0.00013720      -0.00025549      -0.00028507
C        3.71895644       1.15983602      -1.01687684       0.00008857       0.00009464       0.00008544
C        2.36406923       0.94134422      -1.20133991       0.00024953      -0.00019005      -0.00038157
H        0.32156516      -2.32126675      -0.86113685      -0.00015119      -0.00004991       0.00026507
H       -0.16968705       0.37546796      -1.45351232      -0.00003890       0.00000540      -0.00009653
H        0.16858992      -0.07135783       1.29007342      -0.00046572      -0.00000195       0.00010269
H       -2.31618728      -0.61643136      -1.34005799       0.00009349      -0.00010513      -0.00015230
H       -4.69353982      -0.11282730      -1.02051892       0.00000036      -0.00024395      -0.00008224
H       -5.51780411       0.70674459       1.15938393      -0.00003274      -0.00015202      -0.00003585
H       -3.92367294       1.02901212       3.02093632      -0.00008157       0.00011652       0.00000208
H       -1.53431091       0.55744850       2.69841018       0.00008212       0.00018841      -0.00009488
H        1.99756196      -1.79665527       0.74587675      -0.00007094       0.00020978       0.00034371
H        4.40243238      -1.41101007       1.06315342      -0.00002613       0.00021510       0.00030730
H        5.51244326       0.48586480      -0.06080803      -0.00002101      -0.00022213      -0.00022654
H        4.20016718       1.99087805      -1.51141933       0.00007360      -0.00029629      -0.00042587
H        1.79160377       1.59989488      -1.83868445      -0.00002024      -0.00016501      -0.00003396
