      -----------------------------------------------------------      
     |                   =====================                   |     
     |                           x T B                           |     
     |                   =====================                   |     
     |                         S. Grimme                         |     
     |          Mulliken Center for Theoretical Chemistry        |     
     |                    University of Bonn                     |     
      -----------------------------------------------------------      

   * xtb version 6.7.1 (edcfbbe) compiled by 'VssAdministrator@runnervm171ch' on 2026-06-10

   xtb is free software: you can redistribute it and/or modify it under
   the terms of the GNU Lesser General Public License as published by
   the Free Software Foundation, either version 3 of the License, or
   (at your option) any later version.
   
   xtb is distributed in the hope that it will be useful,
   but WITHOUT ANY WARRANTY; without even the implied warranty of
   MERCHANTABILITY or FITNESS FOR A PARTICULAR PURPOSE.  See the
   GNU Lesser General Public License for more details.
   
   Cite this work as:
   * C. Bannwarth, E. Caldeweyher, S. Ehlert, A. Hansen, P. Pracht,
     J. Seibert, S. Spicher, S. Grimme, WIREs Comput. Mol. Sci., 2020, 11,
     e01493. DOI: 10.1002/wcms.1493
   
   for GFN2-xTB:
   * C. Bannwarth, S. Ehlert and S. Grimme., J. Chem. Theory Comput., 2019,
     15, 1652-1671. DOI: 10.1021/acs.jctc.8b01176
   for GFN1-xTB:
   * S. Grimme, C. Bannwarth, P. Shushkov, J. Chem. Theory Comput., 2017,
     13, 1989-2009. DOI: 10.1021/acs.jctc.7b00118
   for GFN0-xTB:
   * P. Pracht, E. Caldeweyher, S. Ehlert, S. Grimme, ChemRxiv, 2019, preprint.
     DOI: 10.26434/chemrxiv.8326202.v1
   for GFN-FF:
   * S. Spicher and S. Grimme, Angew. Chem. Int. Ed., 2020, 59, 15665-15673.
     DOI: 10.1002/anie.202004239
   
   for ALPB and GBSA implicit solvation:
   * S. Ehlert, M. Stahn, S. Spicher, S. Grimme, J. Chem. Theory Comput.,
     2021, 17, 4250-4261. DOI: 10.1021/acs.jctc.1c00471
   
   for ddCOSMO and CPCM-X implicit solvation:
   * M. Stahn, S. Ehlert, S. Grimme, J. Phys. Chem. A,
     2023, XX, XXXX-XXXX. DOI: 10.1021/acs.jpca.3c04382
   
   for DFT-D4:
   * E. Caldeweyher, C. Bannwarth and S. Grimme, J. Chem. Phys., 2017,
     147, 034112. DOI: 10.1063/1.4993215
   * E. Caldeweyher, S. Ehlert, A. Hansen, H. Neugebauer, S. Spicher,
     C. Bannwarth and S. Grimme, J. Chem. Phys., 2019, 150, 154122.
     DOI: 10.1063/1.5090222
   * E. Caldeweyher, J.-M. Mewes, S. Ehlert and S. Grimme, Phys. Chem. Chem. Phys.
     2020, 22, 8499-8512. DOI: 10.1039/D0CP00502A
   
   for sTDA-xTB:
   * S. Grimme and C. Bannwarth, J. Chem. Phys., 2016, 145, 054103.
     DOI: 10.1063/1.4959605
   
   in the mass-spec context:
   * V. Asgeirsson, C. Bauer and S. Grimme, Chem. Sci., 2017, 8, 4879.
     DOI: 10.1039/c7sc00601b
   * J. Koopman and S. Grimme, ACS Omega 2019, 4, 12, 15120-15133.
     DOI: 10.1021/acsomega.9b02011
   
   for metadynamics refer to:
   * S. Grimme, J. Chem. Theory Comput., 2019, 155, 2847-2862
     DOI: 10.1021/acs.jctc.9b00143
   
   for SPH calculations refer to:
   * S. Spicher and S. Grimme, J. Chem. Theory Comput., 2021, 17, 1701-1714
     DOI: 10.1021/acs.jctc.0c01306
   
   for ONIOM refer to:
   * C. Plett, A. Katbashev, S. Ehlert, S. Grimme, M. Bursch,
     Phys. Chem. Chem. Phys., 2023, 25, 17860-17868. DOI: 10.1039/D3CP02178E
   
   for DIPRO refer to:
   * J. Kohn, N. Gildemeister, S. Grimme, D. Fazzi, A. Hansen,
     J. Chem. Phys., 2023, just accepted.
   
   for PTB refer to:
   * S. Grimme, M. Mueller, A. Hansen, J. Chem. Phys., 2023, 158, 124111.
     DOI: 10.1063/5.0137838
   
   with help from (in alphabetical order)
   P. Atkinson, C. Bannwarth, F. Bohle, G. Brandenburg, E. Caldeweyher
   M. Checinski, S. Dohm, S. Ehlert, S. Ehrlich, I. Gerasimov, C. Hölzer
   A. Katbashev, J. Kohn, J. Koopman, C. Lavigne, S. Lehtola, F. März, M. Müller,
   F. Musil, H. Neugebauer, J. Pisarek, C. Plett, P. Pracht, F. Pultar,
   J. Seibert, P. Shushkov, S. Spicher, M. Stahn, M. Steiner, T. Strunk,
   J. Stückrath, T. Rose, and J. Unsleber
   
 * started run on 2026/09/20 at 00:12:14.001     
   ID    Z sym.   atoms
    1    6 C      1, 3, 5-11
    2    7 N      2, 4
    3    8 O      12
    4    1 H      13-20

           -------------------------------------------------
          |                Calculation Setup                |
           -------------------------------------------------

          program call               : C:\Users\HUIWEI\miniconda3\envs\phase2ff\Library\bin\xtb.exe input.xyz --gfn 1 --chrg 0 --uhf 0 --acc 0.1 --iterations 250
          coordinate file            : input.xyz
          omp threads                :                     2


           -------------------------------------------------
          |                 G F N 1 - x T B                 |
           -------------------------------------------------

        Reference                      10.1021/acs.jctc.7b00118
      * Hamiltonian:
        H0-scaling (s, p, d)           1.850000    2.250000    2.000000
        zeta-weighting                 0.000000
      * Dispersion:
        s8                             2.400000
        a1                             0.630000
        a2                             5.000000
        s9                             0.000000
      * Repulsion:
        kExp                           1.500000
        rExp                           1.000000
      * Coulomb:
        alpha                          2.000000
        third order                    atomic
        anisotropic                    false
      * Halogen bond correction:
        rad-scale                      1.300000
        damping                        0.440000


          ...................................................
          :                      SETUP                      :
          :.................................................:
          :  # basis functions                  64          :
          :  # atomic orbitals                  64          :
          :  # shells                           40          :
          :  # electrons                        60          :
          :  # halogen bonds                     0          :
          :  max. iterations                   250          :
          :  Hamiltonian                  GFN1-xTB          :
          :  restarted?                      false          :
          :  GBSA solvation                  false          :
          :  PC potential                    false          :
          :  electronic temp.          300.0000000     K    :
          :  accuracy                    0.1000000          :
          :  -> integral cutoff          0.3500000E+02      :
          :  -> integral neglect         0.1000000E-08      :
          :  -> SCF convergence          0.1000000E-06 Eh   :
          :  -> wf. convergence          0.2000000E-05 e    :
          :  Broyden damping             0.4000000          :
          :  net charge                          0          :
          :  unpaired electrons                  0          :
          ...................................................

 iter      E             dE          RMSdq      gap      omega  full diag
   1    -34.7893719 -0.347894E+02  0.944E+00    3.31       0.0  T
   2    -34.8923584 -0.102986E+00  0.566E+00    3.40       1.0  T
   3    -34.8772821  0.150763E-01  0.144E+00    3.34       1.0  T
   4    -34.9008855 -0.236034E-01  0.164E-01    3.41       1.0  T
   5    -34.9013211 -0.435598E-03  0.507E-02    3.42       1.0  T
   6    -34.9013753 -0.542437E-04  0.965E-03    3.42       2.3  T
   7    -34.9013772 -0.187547E-05  0.225E-03    3.42       9.9  T
   8    -34.9013773 -0.875163E-07  0.682E-04    3.42      32.8  T
   9    -34.9013773 -0.394493E-08  0.267E-04    3.42      83.7  T
  10    -34.9013773 -0.279229E-09  0.919E-05    3.42     243.2  T
  11    -34.9013773 -0.250822E-10  0.280E-05    3.42     799.9  T
  12    -34.9013773 -0.169109E-11  0.673E-06    3.42    3321.2  T
  13    -34.9013773 -0.383693E-12  0.949E-07    3.42   23560.1  T

   *** convergence criteria satisfied after 13 iterations ***

         #    Occupation            Energy/Eh            Energy/eV
      -------------------------------------------------------------
         1        2.0000           -0.8229951             -22.3948
       ...           ...                  ...                  ...
        24        2.0000           -0.4905473             -13.3485
        25        2.0000           -0.4867865             -13.2461
        26        2.0000           -0.4625187             -12.5858
        27        2.0000           -0.4492525             -12.2248
        28        2.0000           -0.4435078             -12.0685
        29        2.0000           -0.4351044             -11.8398
        30        2.0000           -0.4209765             -11.4554 (HOMO)
        31                         -0.2953918              -8.0380 (LUMO)
        32                         -0.2905469              -7.9062
        33                         -0.2365880              -6.4379
        34                         -0.2068480              -5.6286
        35                         -0.1547236              -4.2102
       ...                                ...                  ...
        64                          0.7274632              19.7953
      -------------------------------------------------------------
                  HL-Gap            0.1255847 Eh            3.4173 eV
             Fermi-level           -0.3581842 Eh           -9.7467 eV

 SCC (total)                   0 d,  0 h,  0 min,  0.044 sec
 SCC setup                      ...        0 min,  0.000 sec (  0.388%)
 Dispersion                     ...        0 min,  0.001 sec (  1.481%)
 classical contributions        ...        0 min,  0.000 sec (  0.083%)
 integral evaluation            ...        0 min,  0.003 sec (  6.816%)
 iterations                     ...        0 min,  0.034 sec ( 77.017%)
 molecular gradient             ...        0 min,  0.006 sec ( 13.607%)
 printout                       ...        0 min,  0.000 sec (  0.579%)

         :::::::::::::::::::::::::::::::::::::::::::::::::::::
         ::                     SUMMARY                     ::
         :::::::::::::::::::::::::::::::::::::::::::::::::::::
         :: total energy             -34.421131055134 Eh    ::
         :: gradient norm              0.023370490612 Eh/a0 ::
         :: HOMO-LUMO gap              3.417332356427 eV    ::
         ::.................................................::
         :: SCC energy               -34.901377311242 Eh    ::
         :: -> electrostatic           0.085637843253 Eh    ::
         :: repulsion energy           0.491239396691 Eh    ::
         :: dispersion energy         -0.010993140584 Eh    ::
         :: halogen bond corr.         0.000000000000 Eh    ::
         :: add. restraining           0.000000000000 Eh    ::
         :: total charge              -0.000000000000 e     ::
         :::::::::::::::::::::::::::::::::::::::::::::::::::::

           -------------------------------------------------
          |                Property Printout                |
           -------------------------------------------------

    * Orbital Energies and Occupations

         #    Occupation            Energy/Eh            Energy/eV
      -------------------------------------------------------------
         1        2.0000           -0.8229951             -22.3948
       ...           ...                  ...                  ...
        18        2.0000           -0.5459905             -14.8572
        19        2.0000           -0.5387871             -14.6611
        20        2.0000           -0.5348667             -14.5545
        21        2.0000           -0.5335755             -14.5193
        22        2.0000           -0.5272667             -14.3477
        23        2.0000           -0.5086711             -13.8416
        24        2.0000           -0.4905473             -13.3485
        25        2.0000           -0.4867865             -13.2461
        26        2.0000           -0.4625187             -12.5858
        27        2.0000           -0.4492525             -12.2248
        28        2.0000           -0.4435078             -12.0685
        29        2.0000           -0.4351044             -11.8398
        30        2.0000           -0.4209765             -11.4554 (HOMO)
        31                         -0.2953918              -8.0380 (LUMO)
        32                         -0.2905469              -7.9062
        33                         -0.2365880              -6.4379
        34                         -0.2068480              -5.6286
        35                         -0.1547236              -4.2102
        36                         -0.1228234              -3.3422
        37                         -0.1148474              -3.1252
        38                         -0.1060594              -2.8860
        39                         -0.0992841              -2.7017
        40                         -0.0830316              -2.2594
        41                         -0.0826712              -2.2496
       ...                                ...                  ...
        64                          0.7274632              19.7953
      -------------------------------------------------------------
                  HL-Gap            0.1255847 Eh            3.4173 eV
             Fermi-level           -0.3581842 Eh           -9.7467 eV

  Mulliken/CM5 charges         n(s)   n(p)   n(d)
     1C     0.06277 -0.02288   0.982  2.955  0.000
     2N    -0.22322 -0.48117   1.446  3.777  0.000
     3C     0.27448  0.38329   0.981  2.744  0.000
     4N    -0.37607 -0.56472   1.529  3.847  0.000
     5C     0.16083  0.22818   1.044  2.795  0.000
     6C    -0.04426 -0.09168   1.060  2.984  0.000
     7C    -0.01714 -0.07298   1.061  2.956  0.000
     8C    -0.03573 -0.09180   1.056  2.979  0.000
     9C    -0.00387 -0.05571   1.061  2.943  0.000
    10C    -0.07146 -0.06295   1.085  2.986  0.000
    11C     0.46307  0.56242   0.992  2.545  0.000
    12O    -0.55003 -0.59485   1.724  4.826  0.000
    13H     0.06022  0.12472   0.940  0.000  0.000
    14H     0.06022  0.12472   0.940  0.000  0.000
    15H     0.03510  0.09803   0.965  0.000  0.000
    16H     0.03502  0.11331   0.965  0.000  0.000
    17H     0.04472  0.10507   0.955  0.000  0.000
    18H     0.03470  0.09124   0.965  0.000  0.000
    19H     0.03588  0.09243   0.964  0.000  0.000
    20H     0.05475  0.11534   0.945  0.000  0.000

Wiberg/Mayer (AO) data.
largest (>0.10) Wiberg bond orders for each atom

 ---------------------------------------------------------------------------
     #   Z sym  total        # sym  WBO       # sym  WBO       # sym  WBO
 ---------------------------------------------------------------------------
     1   6 C    3.942 --    15 H    0.988    14 H    0.978    13 H    0.978
                             2 N    0.947
     2   7 N    3.490 --     3 C    1.191    11 C    1.070     1 C    0.947
                            12 O    0.118
     3   6 C    3.945 --     4 N    1.631     2 N    1.191    16 H    0.965
     4   7 N    3.030 --     3 C    1.631     5 C    1.146
     5   6 C    3.968 --     6 C    1.335    10 C    1.307     4 N    1.146
     6   6 C    3.994 --     7 C    1.500     5 C    1.335    17 H    0.972
                             9 C    0.111
     7   6 C    3.994 --     6 C    1.500     8 C    1.381    18 H    0.974
     8   6 C    3.995 --     9 C    1.492     7 C    1.381    19 H    0.974
     9   6 C    3.992 --     8 C    1.492    10 C    1.358    20 H    0.969
                             6 C    0.111
    10   6 C    3.988 --     9 C    1.358     5 C    1.307    11 C    1.075
    11   6 C    3.897 --    12 O    1.629    10 C    1.075     2 N    1.070
    12   8 O    1.937 --    11 C    1.629     2 N    0.118
    13   1 H    1.005 --     1 C    0.978
    14   1 H    1.005 --     1 C    0.978
    15   1 H    1.003 --     1 C    0.988
    16   1 H    1.012 --     3 C    0.965
    17   1 H    1.003 --     6 C    0.972
    18   1 H    1.003 --     7 C    0.974
    19   1 H    1.003 --     8 C    0.974
    20   1 H    1.005 --     9 C    0.969
 ---------------------------------------------------------------------------

Topologies differ in total number of bonds
Writing topology from bond orders to xtbtopo.mol

 dipole moment from electron density (au)
     X       Y       Z   
  -0.3954  -0.8506  -0.0612  total (Debye):    2.389


           -------------------------------------------------
          | TOTAL ENERGY              -34.421131055134 Eh   |
          | GRADIENT NORM               0.023370490612 Eh/α |
          | HOMO-LUMO GAP               3.417332356427 eV   |
           -------------------------------------------------

------------------------------------------------------------------------
 * finished run on 2026/09/20 at 00:12:14.067     
------------------------------------------------------------------------
 total:
 * wall-time:     0 d,  0 h,  0 min,  0.066 sec
 *  cpu-time:     0 d,  0 h,  0 min,  0.000 sec
 * ratio c/w:     0.000 speedup
 SCF:
 * wall-time:     0 d,  0 h,  0 min,  0.044 sec
 *  cpu-time:     0 d,  0 h,  0 min,  0.000 sec
 * ratio c/w:     0.000 speedup

