75
Properties=species:S:1:pos:R:3:forces:R:3 charge=0 unpaired=0 uhf=0 endpoint_role="hydrogenated catalyst plus aldehyde; requires optimization" energy=-2551.5764937700296 pbc="F F F"
Ru       0.01516251       0.09666625      -0.42045750      -0.00179400       0.00002353      -0.01298986
N       -0.15755205      -2.15340973      -0.51754079      -0.00149429       0.00261193       0.00441942
C        1.08088364      -2.90607260      -0.71637858      -0.00031712       0.00531276       0.00116539
C        2.24864972      -2.19028935      -0.03999963       0.00084348       0.00569055      -0.00135635
P        2.25833748      -0.40051164      -0.58784094       0.00001606       0.00449578      -0.00442766
C        3.16054730      -0.68869864      -2.22628252       0.00313001       0.00625080      -0.00351074
C        4.65554095      -0.97962786      -2.10322039       0.00172037       0.00059371      -0.00176214
C        2.92385986       0.41488559      -3.25288814       0.01017067       0.01142682       0.00010229
C        3.58032220       0.37165705       0.49076128      -0.00081574       0.00360882      -0.00273417
C        3.74524509       1.81151374       0.00619219       0.00072692       0.00476433       0.00111938
C        3.17581943       0.37473845       1.96142673      -0.00095180      -0.00034472      -0.00272059
C       -1.31413404      -2.75546045      -1.18830660       0.00208975       0.00600590      -0.00514365
C       -2.47436775      -1.75984198      -1.35329882      -0.00284856       0.00190421       0.00029564
P       -2.25774975      -0.18991114      -0.34870452      -0.00072106       0.00236566      -0.00086845
C       -3.25739543      -0.62851155       1.18240676       0.00094765       0.00136794      -0.00014950
C       -3.32464563       0.58358563       2.10681694      -0.00056229       0.00049215       0.00092407
C       -2.65987922      -1.81157811       1.93712265       0.00246648       0.00145769      -0.00109622
C       -3.50061989       0.96310436      -1.16446495      -0.00311957       0.00486685       0.00406273
C       -3.03076404       2.39429361      -0.89684612       0.00521685       0.00302863      -0.00097929
C       -3.69992577       0.76613779      -2.66630485      -0.01525698       0.00372091       0.00592494
H        1.26255209      -2.98707554      -1.79540854      -0.00219114       0.00801043       0.00052297
H        0.98261412      -3.93002160      -0.31654404       0.00228205       0.00419553      -0.00093913
H        2.08689504      -2.18354340       1.04007481       0.00263505       0.00785793      -0.00097497
H        3.18939394      -2.70215691      -0.25631106      -0.00004537       0.00484167      -0.00198938
H        2.67398651      -1.59454488      -2.61770182      -0.00012009       0.00961433      -0.00765690
H        5.02448667      -1.35642523      -3.05699909       0.00179788       0.00013348      -0.00147776
H        5.21172102      -0.07608871      -1.86662499       0.00443177      -0.00134332      -0.00035266
H        4.86851751      -1.73037910      -1.34501609      -0.00151668      -0.00062795      -0.00193338
H        1.86584734       0.52234488      -3.46612355       0.01119146       0.02086006       0.00130383
H        3.43060133       0.16608034      -4.18558213       0.00780101       0.01034689      -0.00093148
H        3.29371997       1.37688479      -2.90823165       0.01821790       0.00726225       0.00287874
H        4.52013751      -0.18010670       0.37867355      -0.00130065       0.00334624      -0.00371818
H        4.40887107       2.36667183       0.66782676      -0.00253328       0.00353623       0.00545891
H        4.15792203       1.85333169      -0.99911807       0.00585808       0.00684047       0.00330621
H        2.76705314       2.29734855       0.00065192       0.00077972       0.00461460      -0.00267002
H        3.82238679       1.04825149       2.52237589       0.00417250      -0.00774678       0.00035949
H        2.14905067       0.72521899       2.05933775       0.00154813       0.00641887      -0.00107829
H        3.26003974      -0.61267137       2.40808790      -0.00813383      -0.00315481      -0.00730233
H       -1.64780178      -3.64598096      -0.63302530       0.00376086      -0.00136112      -0.01580867
H       -0.98943862      -3.09560498      -2.17875129       0.00713780       0.01795626      -0.00774934
H       -3.43702022      -2.22786673      -1.13031455       0.00023579      -0.00127605       0.00598202
H       -2.48961681      -1.42508762      -2.39223189      -0.01013094       0.00130167       0.00020805
H       -4.26700614      -0.89882187       0.83933889       0.00127521       0.00041334       0.00007358
H       -3.94616808       1.37269747       1.68981594      -0.00068011       0.00057363       0.00116873
H       -2.31770172       0.97308215       2.26329709      -0.00113426       0.00113138       0.00243822
H       -3.73751554       0.30104685       3.07449909      -0.00157309      -0.00082932       0.00016153
H       -2.61787906      -2.70892789       1.32082024       0.00565861       0.00266593      -0.00274015
H       -3.26893813      -2.03827596       2.81181709       0.00114291      -0.00175890      -0.00277575
H       -1.66327522      -1.55635484       2.29545078       0.00117897       0.00320062       0.00133931
H       -4.46531236       0.80060681      -0.66481163      -0.00004151       0.00970760       0.01110535
H       -3.82032180       3.10870191      -1.12795123       0.01088553       0.00715000      -0.00758329
H       -2.72746052       2.52343824       0.14087369       0.00148568       0.00567095      -0.00019982
H       -2.16268727       2.61822847      -1.51595761       0.00968480      -0.00617101       0.00172339
H       -2.74868945       0.77967451      -3.19323986      -0.02016649       0.00640933      -0.00255739
H       -4.22293692      -0.16087514      -2.89279893      -0.01457122       0.00199696       0.01105700
H       -4.29810649       1.58957388      -3.05542194      -0.02140096       0.00170181       0.01112203
C       -0.19808938       0.64674911      -2.15488268      -0.00496078      -0.05230518       0.00212609
O       -0.38178487       1.16378134      -3.18284398      -0.02151727      -0.06972943      -0.05847587
H        0.12568298       1.60435211      -0.05331785      -0.00068551       0.00487690      -0.03085618
O       -0.13553695      -1.68371645       4.74581539      -0.00139745      -0.01094552       0.00699908
C        0.84633729      -1.94558947       4.09264175       0.00081344      -0.01473391       0.00643825
C        2.15678380      -2.32131191       4.63037582       0.00059162      -0.00822509       0.00814246
C        2.41849669      -2.17489585       5.99403373       0.00208852      -0.00036877       0.00725823
C        3.66111025      -2.49938675       6.50213469       0.00253446       0.00317085       0.00787026
C        4.65559837      -2.97060493       5.65733296       0.00176262      -0.00199030       0.00966677
C        4.40067901      -3.13507787       4.30413849       0.00058969      -0.00937991       0.01069578
C        3.15717646      -2.81846843       3.79357201       0.00044844      -0.01193131       0.00977382
H       -0.35867204      -2.16717876       0.48632160      -0.00449538      -0.00486075       0.00372944
H        0.14533979      -0.13466094       1.14195068       0.00142387       0.01499727      -0.00647205
H        0.81049245      -1.90435016       2.98463444      -0.00198163      -0.02380319       0.00682263
H        1.63227814      -1.79698433       6.63092680       0.00241809       0.00275852       0.00593258
H        3.85924102      -2.38428801       7.55726887       0.00376922       0.00955329       0.00702834
H        5.63003334      -3.21475122       6.05362482       0.00195552      -0.00008616       0.01031745
H        5.17325010      -3.50810193       3.64790862       0.00016580      -0.01345782       0.01241162
H        2.95386677      -2.97243805       2.74395017      -0.00059218      -0.01667294       0.01054560
