75
Properties=species:S:1:pos:R:3:forces:R:3 charge=0 unpaired=0 uhf=0 endpoint_role="alcohol encounter complex; requires optimization" energy=-2551.64578491358 pbc="F F F"
Ru       0.07323341       0.00932050      -0.57370313      -0.00450139       0.00028489      -0.00039468
N        0.01448913      -1.87836739      -1.02265244       0.00110282      -0.00046528       0.00004068
C        1.16008276      -2.75022344      -1.24943936      -0.00003997       0.00024486      -0.00063910
C        2.49156802      -2.07864416      -0.90736022       0.00002611      -0.00053434      -0.00001907
P        2.24410000      -0.28261389      -1.21971818      -0.00057805      -0.00042711       0.00016237
C        2.53450382      -0.25808930      -3.07596328       0.00033992       0.00039015       0.00073268
C        3.99797601      -0.33458287      -3.50301068      -0.00034687      -0.00027905      -0.00038992
C        1.81493740       0.91292315      -3.74055032       0.00004461       0.00002485      -0.00006755
C        3.74303946       0.52516971      -0.46146583      -0.00010018      -0.00057323      -0.00082177
C        3.70645229       2.01963293      -0.77435209       0.00062448      -0.00031882       0.00018430
C        3.71444373       0.32223791       1.05088848       0.00000038      -0.00001812       0.00016494
C       -1.19096759      -2.68458150      -1.14976047      -0.00004172       0.00011095      -0.00065225
C       -2.45201585      -1.83048407      -1.28377475       0.00039683       0.00013224       0.00001074
P       -2.19178889      -0.26295742      -0.33708150      -0.00072791      -0.00113229       0.00002356
C       -3.00008860      -0.68137559       1.30299222       0.00001836      -0.00068533      -0.00052714
C       -2.86828581       0.48828116       2.27633470       0.00042748      -0.00125252       0.00034101
C       -2.36431685      -1.93664906       1.89712011       0.00012896      -0.00067836      -0.00028699
C       -3.49016379       0.89006998      -1.05294411       0.00045894       0.00069572       0.00030593
C       -3.16195933       2.33623847      -0.67119603       0.00009596       0.00012031       0.00070953
C       -3.59581540       0.79213620      -2.57379485      -0.00022393       0.00021807       0.00042284
H        1.16739237      -3.08734092      -2.30372312       0.00023074       0.00012582      -0.00063474
H        1.04707503      -3.66034292      -0.63311337       0.00001969      -0.00019309      -0.00086177
H        2.69858189      -2.21503380       0.15564278      -0.00009133      -0.00043110      -0.00008555
H        3.31563867      -2.50070697      -1.48926212       0.00018878      -0.00021411       0.00000983
H        2.03238538      -1.17903126      -3.41084690      -0.00023209       0.00019000       0.00049170
H        4.05295252      -0.52065810      -4.57546442      -0.00012409       0.00051697      -0.00013327
H        4.51833065       0.59810727      -3.29940384       0.00022691      -0.00101257       0.00058925
H        4.52084712      -1.14343384      -2.99513552      -0.00051916      -0.00071369      -0.00079095
H        0.75824064       0.90570899      -3.46189940       0.00003480      -0.00013082       0.00011402
H        1.88595577       0.83555540      -4.82551633       0.00017757       0.00047584       0.00017491
H        2.23642956       1.86867182      -3.43661628      -0.00016995      -0.00019294       0.00071404
H        4.64830462       0.06770430      -0.87764719       0.00028877      -0.00064614       0.00027353
H        4.50296483       2.53895904      -0.24281937       0.00020220      -0.00013928       0.00025750
H        3.82674847       2.21530657      -1.83730674       0.00086109      -0.00056596       0.00016441
H        2.74940654       2.43432682      -0.45354025       0.00027965      -0.00027666      -0.00041824
H        4.52238368       0.88218475       1.51983062      -0.00010485      -0.00018364       0.00035228
H        2.76494994       0.69180235       1.44209278      -0.00031103       0.00003780      -0.00008340
H        3.82650562      -0.72429160       1.32541925      -0.00036034      -0.00017580       0.00020536
H       -1.26856711      -3.36428193      -0.28417038      -0.00009865      -0.00004671      -0.00072420
H       -1.10689314      -3.33259105      -2.04343053       0.00007324       0.00007673      -0.00089977
H       -3.34949535      -2.36937366      -0.96718093       0.00010120       0.00027471      -0.00101163
H       -2.56094070      -1.55002719      -2.33499459       0.00061420       0.00078898      -0.00028799
H       -4.06361168      -0.87694534       1.10516283       0.00013455      -0.00059389       0.00010237
H       -3.52544820       1.30928912       2.00101138       0.00061885      -0.00076123       0.00027442
H       -1.83718316       0.84676240       2.28322127       0.00034012      -0.00118349       0.00060480
H       -3.13349072       0.17330642       3.28501968      -0.00007729      -0.00107928       0.00021297
H       -2.68607429      -2.83342189       1.37225164       0.00018981      -0.00055574      -0.00090298
H       -2.65099026      -2.04659058       2.94269987       0.00003745      -0.00132538      -0.00043600
H       -1.27793239      -1.86928754       1.84541513       0.00025067      -0.00078717      -0.00037308
H       -4.45112158       0.60422291      -0.60480277       0.00042451       0.00021907       0.00061209
H       -4.05705410       2.95512651      -0.71929736       0.00026895       0.00019282       0.00087339
H       -2.73694273       2.40743353       0.32735834       0.00050225      -0.00009612       0.00079225
H       -2.43025844       2.74499757      -1.36364481       0.00011571       0.00003308       0.00059484
H       -2.60117154       0.83846651      -3.02188669      -0.00028612       0.00039465       0.00039679
H       -4.09247442      -0.12184126      -2.89302038      -0.00022397       0.00051040       0.00047312
H       -4.17373780       1.63419261      -2.95285903      -0.00012770       0.00045580       0.00082259
C        0.04997271       1.77564954      -1.07859383       0.00454653      -0.00040343       0.00157843
O        0.06306500       2.85349575      -1.51998069      -0.00138706       0.00045915      -0.00103576
H        0.32046163       0.54665978       0.88115724       0.00046702       0.00000853      -0.00016841
O        1.27093312      -2.12561300       2.06071973       0.00003656       0.00053025      -0.00006963
C        1.34232186      -1.60772604       3.36795833       0.00011491       0.00068847      -0.00022532
C        2.16982801      -2.50040510       4.25794344      -0.00019471       0.00102189      -0.00013363
C        2.03500084      -2.41541070       5.63886480      -0.00080411       0.00087820      -0.00035299
C        2.80639577      -3.20789087       6.46918083      -0.00000661       0.00056320       0.00024695
C        3.71974716      -4.09928448       5.92940974      -0.00001582       0.00117762       0.00054082
C        3.85625008      -4.19140034       4.55540832      -0.00083091       0.00033850      -0.00070616
C        3.08777755      -3.39398145       3.72486623       0.00015286      -0.00015771      -0.00011872
H        0.91983122      -1.43326334       1.46503254      -0.00003250       0.00069308      -0.00035880
H        1.79894747      -0.60487563       3.35879030      -0.00082460       0.00068369      -0.00021067
H        0.33227741      -1.50429647       3.79584951      -0.00033406       0.00013955      -0.00042823
H        1.32094107      -1.72285900       6.06282430      -0.00017414       0.00154202      -0.00010069
H        2.69312412      -3.13318281       7.54138574      -0.00048380       0.00112194       0.00026484
H        4.32003045      -4.72054335       6.57851778      -0.00072996       0.00047258       0.00021146
H        4.56509873      -4.88613998       4.12728803      -0.00014787       0.00070001       0.00017731
H        3.18601555      -3.46886763       2.65252821       0.00008828       0.00069706       0.00012618
