75
Properties=species:S:1:pos:R:3 charge=0 unpaired=0 uhf=0 endpoint_role="hydrogenated catalyst plus aldehyde; requires optimization" pbc="F F F"
Ru       0.02571117       0.10842236      -0.31842607
N       -0.08953165      -2.15021129      -0.81383985
C        1.09498836      -2.99603101      -0.80127346
C        2.21257216      -2.28791636      -0.02843018
P        2.25429498      -0.46987613      -0.49124634
C        3.11860010      -0.74752003      -2.14830757
C        4.62136150      -1.00311573      -2.05258569
C        2.80857440       0.32582858      -3.18442046
C        3.58630472       0.31701876       0.56574056
C        3.71539259       1.74192636       0.02565011
C        3.20869726       0.38785972       2.04300252
C       -1.32816857      -2.82698066      -1.17163061
C       -2.46546542      -1.81215057      -1.34123083
P       -2.25387252      -0.23368196      -0.33926739
C       -3.25251855      -0.64562995       1.19738259
C       -3.29927849       0.58896520       2.09356137
C       -2.65242292      -1.81699203       1.96868083
C       -3.47979062       0.90505538      -1.19464776
C       -3.04519272       2.34680843      -0.91883024
C       -3.59581854       0.69658076      -2.70329943
H        1.39736184      -3.21538476      -1.83465296
H        0.87530027      -3.96497695      -0.31573608
H        1.96452343      -2.33229912       1.03381013
H        3.17296404      -2.78336761      -0.18923262
H        2.64873117      -1.67107781      -2.51349047
H        4.98347723      -1.35622648      -3.01761061
H        5.16493730      -0.09497959      -1.80572894
H        4.85624148      -1.76413139      -1.31061967
H        1.73571248       0.39147316      -3.34112086
H        3.27146237       0.06793227      -4.13642423
H        3.16597948       1.30685831      -2.88218803
H        4.53142185      -0.22588772       0.45794648
H        4.41107559       2.32082994       0.63116202
H        4.06699044       1.75771918      -1.00274822
H        2.73336473       2.22068813       0.06380816
H        3.79086747       1.16775270       2.53256089
H        2.15413114       0.64160360       2.14818649
H        3.40860552      -0.54433429       2.56213338
H       -1.58542237      -3.57907955      -0.40442773
H       -1.18001046      -3.36851878      -2.11570284
H       -3.43533162      -2.26818247      -1.12275580
H       -2.46323054      -1.48665652      -2.38293021
H       -4.26689703      -0.91590959       0.86992267
H       -3.92181301       1.37065036       1.66435354
H       -2.28708261       0.97502978       2.22619214
H       -3.69862736       0.33433741       3.07410073
H       -2.68371320      -2.74290984       1.39610608
H       -3.20577902      -1.97572509       2.89341690
H       -1.62420044      -1.59231771       2.24658557
H       -4.46169712       0.72659824      -0.73622004
H       -3.86766184       3.03783527      -1.09788895
H       -2.69206294       2.46926687       0.10395073
H       -2.22158970       2.61610786      -1.57662210
H       -2.60820280       0.67754400      -3.16461930
H       -4.12922576      -0.21876109      -2.95187876
H       -4.14609094       1.53002375      -3.13800812
C       -0.02032629       1.09590320      -1.87041383
O       -0.02883343       1.95157093      -2.66020722
H        0.11169585       1.50257703       0.34608351
O       -0.12719196      -1.47692176       4.60792494
C        0.84991527      -1.74697205       3.95041777
C        2.13653981      -2.20525942       4.48222288
C        2.37001912      -2.15867650       5.85649624
C        3.60074985      -2.52502157       6.36443597
C        4.61479483      -2.92871251       5.50811054
C        4.38643648      -2.99965005       4.14275609
C        3.15040044      -2.65344836       3.63432228
H       -0.21845865      -1.82505031       0.14430846
H        0.09590114      -0.36810597       1.20735049
H        0.83523242      -1.63048356       2.84998154
H        1.56992319      -1.82141821       6.49869413
H        3.77470686      -2.49036431       7.42892941
H        5.58375605      -3.19337748       5.90345826
H        5.17181189      -3.31782375       3.47274663
H        2.97151902      -2.74052936       2.57472509
