63
Properties=species:S:1:pos:R:3 energy:=T -92.079473967035=T gnorm:=T 0.000143987799=T xtb:=T 6.7.1=T (edcfbbe)=T pbc="F F F"
Fe       0.40301039      -0.30191797      -0.90219785
N       -0.12980196      -1.98966579      -0.49044905
C        0.63443500      -2.96148026       0.29124843
C        1.74135603      -2.26774290       1.08068463
P        2.27051813      -0.92765596      -0.06850553
C        3.42260927      -1.86239818      -1.14497502
C        2.98134379      -2.24025043      -2.40802111
C        3.79375561      -2.99678789      -3.23380657
C        5.05383307      -3.37797808      -2.80146097
C        5.49945781      -3.00181722      -1.54361981
C        4.68860599      -2.24782081      -0.71439800
C        3.44487375       0.09823013       0.86943349
C        3.90542423      -0.18191628       2.15109666
C        4.80601845       0.67499023       2.76240188
C        5.24991886       1.80904446       2.10315359
C        4.78704243       2.09642960       0.82751398
C        3.88552594       1.24689334       0.21553121
C       -1.39123201      -2.61299101      -0.89262669
C       -2.05915492      -1.81346153      -2.00848344
P       -1.61919674      -0.07810671      -1.55751351
C       -2.17265914       0.95833679      -2.94617482
C       -1.87372802       2.31417981      -2.82403888
C       -2.23980724       3.20117352      -3.81778953
C       -2.90277225       2.73905422      -4.94538030
C       -3.19490518       1.39156338      -5.07497504
C       -2.83220885       0.49850779      -4.08007647
C       -2.93400103       0.25745562      -0.32993111
C       -4.26207501       0.43157490      -0.70877080
C       -5.23473470       0.61259738       0.25798009
C       -4.89041857       0.61595134       1.60123366
C       -3.56873078       0.44379043       1.98040742
C       -2.59152924       0.26699724       1.01659242
H       -0.04153577      -3.49930879       0.97491553
H        1.07863524      -3.70934720      -0.38783997
H        1.32099704      -1.78254757       1.96874183
H        2.54364543      -2.95485964       1.36434633
H        1.99572282      -1.92264029      -2.73161315
H        3.44796065      -3.28720061      -4.21614364
H        5.69173283      -3.96570452      -3.44623198
H        6.48392223      -3.29804975      -1.20942814
H        5.03906903      -1.95117346       0.26519726
H        3.56590807      -1.06385056       2.67603012
H        5.16341998       0.45591966       3.75905160
H        5.95309672       2.47301499       2.58547638
H        5.12804596       2.98541610       0.31606107
H        3.49494881       1.46132287      -0.77178322
H       -2.06770566      -2.66738504      -0.02274707
H       -1.19890782      -3.64564762      -1.22464065
H       -3.13447105      -2.00193085      -2.06988614
H       -1.58007508      -2.03767172      -2.96850244
H       -1.33983872       2.64529169      -1.94127863
H       -2.00588799       4.25194853      -3.72078588
H       -3.18701624       3.42980512      -5.72645424
H       -3.70749263       1.03314218      -5.95696717
H       -3.06491696      -0.55128658      -4.19266391
H       -4.52990670       0.43188494      -1.75746855
H       -6.26607741       0.75165971      -0.03520127
H       -5.65498668       0.75708627       2.35222616
H       -3.30224152       0.45105164       3.02812359
H       -1.54690340       0.15059457       1.28168637
C        1.08115161       0.61935642      -2.21273866
O        1.49704388       1.15384635      -3.15927614
H        0.32778406       0.85223097       0.02929685
