48
 energy: -80.801236343270 gnorm: 0.000109797956 xtb: 6.7.1 (edcfbbe)
Co           0.07751079325070       -0.44579155180295       -0.22554109295259
C            2.42047524058858       -2.40007877641000        0.21756968623236
P            2.22570523913638       -0.62854218433634       -0.34766294298903
C            2.90088335257193       -0.70441447899602       -2.03872327674072
C            2.60407217216635       -1.77710719536484       -2.87502031687939
C            3.07294329701927       -1.79569338969462       -4.17642660095929
C            3.82898394639596       -0.73954937251132       -4.65877168595459
C            4.10405991401818        0.34367431886280       -3.83919351215088
C            3.63726148455138        0.36659945242452       -2.53749995519206
C            3.58809623044007        0.17945002985091        0.55233689778116
C            4.89575052973584       -0.29384620851596        0.47366485598702
C            5.90055143490961        0.33595633860753        1.18379398965644
C            5.60894272249154        1.43971944698019        1.97185782708287
C            4.31071426196026        1.91649219092961        2.04726651844018
C            3.29963260060454        1.28787126842861        1.33958743968710
C            1.11394615330008       -3.10283235469342        0.00195969883917
C            1.00656448500673       -4.48635347767794       -0.03114472291184
C           -0.24519996982253       -5.06841617203264       -0.19360022698992
C           -1.35890579112606       -4.25475444830000       -0.31251892050107
C           -1.18785279923988       -2.87547935351429       -0.28243281999773
C           -2.22994324386293       -1.86530047424846       -0.39603297706542
C           -3.60151796526054       -2.02925929442876       -0.54826216274208
C           -4.39605899146184       -0.89421343010393       -0.63421712400869
C           -3.82934509446124        0.37199123883497       -0.58072348935289
C           -2.44714838639179        0.46848634007154       -0.43313767714760
O           -1.78091455912285        1.61230461486111       -0.37961382277341
N           -1.69373411760430       -0.62987755145725       -0.33294262503702
N            0.04123453926322       -2.31976884553381       -0.13914972770185
H            2.62798992218798       -2.35973966019634        1.29319590435662
H            3.24869692119703       -2.91965346339572       -0.27080266211862
H            2.00087205952626       -2.59794791480572       -2.51065207769685
H            2.84514295067883       -2.63500218386401       -4.81808954190361
H            4.19593378825191       -0.75660579434117       -5.67465405762042
H            4.68171995109270        1.17496055204352       -4.21702380130726
H            3.84023681161239        1.21616557859859       -1.89988721731336
H            5.12378785970870       -1.14600045743694       -0.15214053493587
H            6.91535255679820       -0.03036437705899        1.12208779867047
H            6.39769454092970        1.93037052263797        2.52369344320540
H            4.08515145291143        2.78065279709914        2.65522806259001
H            2.28366795863476        1.65624754189175        1.37519017146156
H            1.88947098325092       -5.09817498028789        0.07315715814950
H           -0.34630322535955       -6.14260678019896       -0.22158584961105
H           -2.34366745805751       -4.67693803273462       -0.43185507222633
H           -4.03935729348511       -3.01275317449575       -0.59902015516232
H           -5.46484763072365       -0.99265521422605       -0.74816889180415
H           -4.42434028808746        1.26713172701756       -0.65189237376439
C           -0.30787373138965        1.38487286481056       -0.24793077544655
O            0.30650719308197        2.41488313264108       -0.14419693030570
