61
Properties=species:S:1:pos:R:3:forces:R:3 energy:=T -71.557489868365=T gnorm:=T 0.000050922124=T xtb:=T 6.7.1=T (edcfbbe)=T energy=-1947.1784797413584 pbc="F F F"
Fe       0.02957949      -0.31979605      -0.41778077      -0.00009192       0.00003597      -0.00002935
N       -0.20164204      -2.41077976      -0.56537790       0.00003309       0.00000860      -0.00009674
C        0.85935231      -3.01712071      -1.37200981      -0.00004518       0.00004785      -0.00019232
C        2.21716607      -2.57754135      -0.83373748      -0.00002669       0.00001966      -0.00026144
P        2.13075165      -0.71824690      -0.57930694      -0.00003257      -0.00000604       0.00000806
C        3.06903166      -0.15184864      -2.10586033      -0.00000800       0.00024827       0.00006025
C        4.55977723      -0.47576598      -2.14917812      -0.00000742       0.00029927       0.00001785
C        2.81598912       1.33008781      -2.37992624      -0.00004480       0.00025980       0.00027024
C        3.34182126      -0.45294136       0.82294077       0.00004752      -0.00030396       0.00001829
C        3.34560921       1.04727089       1.10373173       0.00004616      -0.00036661       0.00028397
C        2.92339786      -1.20737630       2.08087703       0.00001430      -0.00046510      -0.00010574
C       -1.54824846      -2.79305010      -0.99785627       0.00000433       0.00003990       0.00007356
C       -2.57144039      -2.09223746      -0.11171613       0.00006639      -0.00000471       0.00017698
P       -2.07763308      -0.28356049      -0.01480796      -0.00003401       0.00002646      -0.00003991
C       -2.84490856       0.14963049       1.64493584       0.00006414       0.00010696      -0.00001286
C       -2.74576010       1.65622050       1.87172959       0.00010603       0.00010299      -0.00015485
C       -2.14373738      -0.56784595       2.79360509       0.00008231       0.00039022       0.00003613
C       -3.31497002       0.56196112      -1.15471373      -0.00002369      -0.00011870      -0.00010637
C       -2.73605381       1.91866898      -1.55561918      -0.00016708      -0.00007325      -0.00016098
C       -3.63368383      -0.23037251      -2.42045372      -0.00011840      -0.00027451       0.00001878
H       -0.08233549      -2.73732450       0.39642002       0.00010280      -0.00002651      -0.00011641
H        0.73525853      -2.67028415      -2.40308856      -0.00011776       0.00012556      -0.00016934
H        0.77547812      -4.11537016      -1.36853752      -0.00005006       0.00003104      -0.00028137
H        2.39672936      -3.05681530       0.13145478       0.00008811      -0.00010411      -0.00035113
H        3.01584405      -2.86625739      -1.51985903      -0.00010280       0.00010354      -0.00034593
H        2.56239774      -0.72628466      -2.89741521      -0.00000814       0.00035577      -0.00002414
H        4.94161112      -0.29519418      -3.15417042      -0.00000615       0.00041140       0.00004426
H        5.11516587       0.16075836      -1.46344611      -0.00000505       0.00021455       0.00011972
H        4.75927148      -1.51540515      -1.89476962       0.00000106       0.00028299      -0.00009594
H        1.81953304       1.60311044      -2.03211835      -0.00002893       0.00020507       0.00030447
H        2.88710501       1.54258985      -3.44637347      -0.00003995       0.00041176       0.00032177
H        3.54032701       1.95751455      -1.86506368      -0.00006990       0.00019962       0.00035912
H        4.33615824      -0.79380625       0.50906141       0.00003024      -0.00028340      -0.00002592
H        3.90847456       1.27473102       2.00882545       0.00008287      -0.00048965       0.00026796
H        3.78388037       1.60522529       0.27981284       0.00001996      -0.00027038       0.00037545
H        2.31462497       1.37781803       1.23030969       0.00005635      -0.00031577       0.00034190
H        3.50591690      -0.85935667       2.93317847       0.00000385      -0.00062154      -0.00004951
H        1.87139327      -1.01458101       2.28338364       0.00001540      -0.00050187      -0.00006228
H        3.07960309      -2.28098113       1.99047868      -0.00000743      -0.00041701      -0.00026922
H       -1.67656518      -3.88617499      -0.95503617       0.00000657       0.00005397       0.00005485
H       -1.66832612      -2.47601827      -2.03799265      -0.00008345       0.00001399       0.00002726
H       -2.51112909      -2.50734142       0.89753257       0.00013265       0.00000443       0.00020267
H       -3.58916720      -2.23565693      -0.47683329       0.00006846      -0.00002846       0.00024420
H       -3.89999265      -0.16105562       1.60625842       0.00002481       0.00015779       0.00007671
H       -3.41235943       2.20945154       1.21405277       0.00010640       0.00006176      -0.00010814
H       -1.71872525       1.97265578       1.68950935       0.00008719       0.00025484      -0.00024499
H       -3.00850347       1.90461656       2.90006490       0.00012854       0.00028280      -0.00022843
H       -2.28333242      -1.64663925       2.76055529       0.00018459       0.00050230       0.00007799
H       -2.53304032      -0.21353098       3.74754667       0.00016431       0.00030022      -0.00000028
H       -1.07841372      -0.35177008       2.75158917       0.00007134       0.00034217       0.00001875
H       -4.24303073       0.70910906      -0.58466806       0.00010246      -0.00012336      -0.00012825
H       -3.49554882       2.53759009      -2.03397048      -0.00019877      -0.00018828      -0.00022330
H       -2.33002813       2.45071173      -0.69964252      -0.00010533       0.00003563      -0.00020715
H       -1.91666090       1.77296996      -2.25463969      -0.00028269      -0.00020635      -0.00010360
H       -2.71926437      -0.47781185      -2.95496680      -0.00014862      -0.00023093       0.00012537
H       -4.18140173      -1.14742346      -2.21468591      -0.00009134      -0.00032743       0.00009039
H       -4.24830457       0.37978000      -3.08290655      -0.00012102      -0.00033742       0.00000448
C       -0.12671256      -0.08537134      -2.12151509       0.00009821      -0.00013314       0.00054575
O       -0.19427961       0.03356289      -3.27938954      -0.00011471       0.00033444      -0.00039926
H        0.20801876      -0.46505991       1.03023972       0.00010081      -0.00006391      -0.00000381
H        0.19562471       1.11799390      -0.19313228       0.00004061       0.00001083       0.00003177
