61
Properties=species:S:1:pos:R:3 energy:=T -71.557489868365=T gnorm:=T 0.000050922124=T xtb:=T 6.7.1=T (edcfbbe)=T pbc="F F F"
Fe       0.02957949      -0.31979605      -0.41778077
N       -0.20164204      -2.41077976      -0.56537790
C        0.85935231      -3.01712071      -1.37200981
C        2.21716607      -2.57754135      -0.83373748
P        2.13075165      -0.71824690      -0.57930694
C        3.06903166      -0.15184864      -2.10586033
C        4.55977723      -0.47576598      -2.14917812
C        2.81598912       1.33008781      -2.37992624
C        3.34182126      -0.45294136       0.82294077
C        3.34560921       1.04727089       1.10373173
C        2.92339786      -1.20737630       2.08087703
C       -1.54824846      -2.79305010      -0.99785627
C       -2.57144039      -2.09223746      -0.11171613
P       -2.07763308      -0.28356049      -0.01480796
C       -2.84490856       0.14963049       1.64493584
C       -2.74576010       1.65622050       1.87172959
C       -2.14373738      -0.56784595       2.79360509
C       -3.31497002       0.56196112      -1.15471373
C       -2.73605381       1.91866898      -1.55561918
C       -3.63368383      -0.23037251      -2.42045372
H       -0.08233549      -2.73732450       0.39642002
H        0.73525853      -2.67028415      -2.40308856
H        0.77547812      -4.11537016      -1.36853752
H        2.39672936      -3.05681530       0.13145478
H        3.01584405      -2.86625739      -1.51985903
H        2.56239774      -0.72628466      -2.89741521
H        4.94161112      -0.29519418      -3.15417042
H        5.11516587       0.16075836      -1.46344611
H        4.75927148      -1.51540515      -1.89476962
H        1.81953304       1.60311044      -2.03211835
H        2.88710501       1.54258985      -3.44637347
H        3.54032701       1.95751455      -1.86506368
H        4.33615824      -0.79380625       0.50906141
H        3.90847456       1.27473102       2.00882545
H        3.78388037       1.60522529       0.27981284
H        2.31462497       1.37781803       1.23030969
H        3.50591690      -0.85935667       2.93317847
H        1.87139327      -1.01458101       2.28338364
H        3.07960309      -2.28098113       1.99047868
H       -1.67656518      -3.88617499      -0.95503617
H       -1.66832612      -2.47601827      -2.03799265
H       -2.51112909      -2.50734142       0.89753257
H       -3.58916720      -2.23565693      -0.47683329
H       -3.89999265      -0.16105562       1.60625842
H       -3.41235943       2.20945154       1.21405277
H       -1.71872525       1.97265578       1.68950935
H       -3.00850347       1.90461656       2.90006490
H       -2.28333242      -1.64663925       2.76055529
H       -2.53304032      -0.21353098       3.74754667
H       -1.07841372      -0.35177008       2.75158917
H       -4.24303073       0.70910906      -0.58466806
H       -3.49554882       2.53759009      -2.03397048
H       -2.33002813       2.45071173      -0.69964252
H       -1.91666090       1.77296996      -2.25463969
H       -2.71926437      -0.47781185      -2.95496680
H       -4.18140173      -1.14742346      -2.21468591
H       -4.24830457       0.37978000      -3.08290655
C       -0.12671256      -0.08537134      -2.12151509
O       -0.19427961       0.03356289      -3.27938954
H        0.20801876      -0.46505991       1.03023972
H        0.19562471       1.11799390      -0.19313228
