63
Properties=species:S:1:pos:R:3:forces:R:3 energy:=T -92.215438889559=T gnorm:=T 0.000089331883=T xtb:=T 6.7.1=T (edcfbbe)=T energy=-2509.3099050130672 pbc="F F F"
Ru       0.06218201      -0.38489205      -0.35758231      -0.00039683       0.00078777      -0.00040704
N        0.71406328      -2.48244036      -0.14561297       0.00008717      -0.00004615       0.00059405
C        0.98753535      -1.88797612       0.99156183      -0.00015344      -0.00037600      -0.00022787
C        2.38380362      -1.29747410       1.12932793      -0.00067860      -0.00007005      -0.00010695
P        2.32041109       0.01699383      -0.17390643       0.00035278       0.00004930      -0.00016180
C        3.16379165       1.42612406       0.60504232      -0.00013621      -0.00001590      -0.00016986
C        2.48151721       2.63046732       0.72247286      -0.00018718       0.00039556       0.00020154
C        3.09699596       3.71479668       1.32490444      -0.00038137      -0.00042841       0.00056586
C        4.38905771       3.59439479       1.81045592      -0.00007315       0.00003730       0.00065884
C        5.06983299       2.39054374       1.69693366      -0.00014194      -0.00010180      -0.00033214
C        4.46202342       1.30514812       1.09435605       0.00020595       0.00033021      -0.00011070
C        3.51413607      -0.51328973      -1.44251457      -0.00050496      -0.00067131       0.00019796
C        4.34179563       0.40801453      -2.07745544       0.00006767       0.00024203      -0.00011390
C        5.18605090      -0.00521043      -3.09281485       0.00049824       0.00008581      -0.00002161
C        5.20096060      -1.33255991      -3.48963890       0.00034202       0.00032188       0.00000085
C        4.35923420      -2.24801173      -2.87704583       0.00029420      -0.00023485       0.00039244
C        3.51310271      -1.84141116      -1.86227616       0.00007362       0.00020515       0.00036079
C       -0.36432945      -3.44540118      -0.20931260       0.00000399       0.00004277      -0.00033530
C       -1.69132967      -3.01701990       0.43833591       0.00018016      -0.00018764       0.00003459
P       -2.03030067      -1.28101737      -0.12001875      -0.00064812      -0.00052960       0.00000699
C       -3.27728897      -0.68118120       1.06876762       0.00018568      -0.00060842      -0.00010674
C       -4.13079492      -1.50436998       1.79518744       0.00040730      -0.00001131      -0.00019241
C       -5.08130105      -0.94362936       2.63117850       0.00019249       0.00004668       0.00013919
C       -5.19147793       0.43279960       2.74120589       0.00025800       0.00007784      -0.00001643
C       -4.34403030       1.25624191       2.01619327       0.00013778       0.00005812      -0.00005482
C       -3.39048572       0.70136499       1.18318195       0.00014500       0.00030030      -0.00010402
C       -3.12863164      -1.47143444      -1.57267809      -0.00002252       0.00029923      -0.00012281
C       -2.95652583      -0.58090033      -2.62730701       0.00008300      -0.00003926       0.00008456
C       -3.77742704      -0.64566291      -3.73910683      -0.00019334      -0.00024825      -0.00020404
C       -4.78143998      -1.59797776      -3.80302249       0.00002637       0.00016780       0.00004959
C       -4.97434150      -2.47104269      -2.74408271      -0.00028263       0.00016759       0.00028845
C       -4.15918442      -2.40468453      -1.62861598      -0.00035818       0.00022110       0.00007582
H        0.50479148      -2.19734479       1.93194440      -0.00025315       0.00031573      -0.00009591
H       -0.05859319       0.23667703       1.08108785       0.00015620       0.00027798      -0.00051758
H        3.16509855      -2.05178907       0.98243929       0.00002934       0.00008662       0.00021191
H        2.50923068      -0.81934170       2.10556284      -0.00013421       0.00040771       0.00013090
H        1.46830599       2.69038661       0.34251173      -0.00036117       0.00002805       0.00014214
H        2.56974295       4.65334863       1.41691881      -0.00050315       0.00042406       0.00020389
H        4.86989563       4.43996261       2.28096963      -0.00019739      -0.00004850       0.00009542
H        6.07680896       2.30141995       2.07913897       0.00025946      -0.00008181       0.00027040
H        4.98759911       0.36401095       0.99430928       0.00026161      -0.00025306       0.00003915
H        4.32175097       1.44668668      -1.77472831      -0.00007093       0.00016931       0.00002975
H        5.83117053       0.71222996      -3.57975844       0.00000950       0.00018229      -0.00021762
H        5.86076570      -1.65213288      -4.28339942       0.00033424       0.00006731       0.00007372
H        4.35888208      -3.28052879      -3.19711352       0.00041396      -0.00018945       0.00030853
H        2.83348756      -2.54655175      -1.39959258       0.00038946      -0.00002234       0.00035385
H       -0.54078545      -3.65437691      -1.27306457       0.00020522       0.00011090      -0.00026454
H       -0.00773247      -4.37680833       0.25666347       0.00002786       0.00000193      -0.00022864
H       -2.47748802      -3.72013272       0.15583460       0.00008448       0.00000887      -0.00037469
H       -1.60838333      -2.99752285       1.53103108      -0.00001663      -0.00007841      -0.00013031
H       -4.05692392      -2.58024359       1.72186604       0.00034446      -0.00006216       0.00021259
H       -5.74016268      -1.58528099       3.19928280       0.00035481       0.00006408       0.00011251
H       -5.93625178       0.86290974       3.39530590       0.00017380       0.00009878      -0.00004503
H       -4.42622484       2.32996374       2.10447883       0.00007552       0.00006857      -0.00019805
H       -2.70256388       1.32167954       0.62076422       0.00006946      -0.00012579      -0.00026293
H       -2.16941260       0.16280117      -2.55975859      -0.00011881      -0.00009498      -0.00023833
H       -3.63298349       0.04622706      -4.55647453      -0.00014706      -0.00009728      -0.00004271
H       -5.41905749      -1.65584060      -4.67329286      -0.00027764       0.00011875       0.00009101
H       -5.76663062      -3.20498502      -2.78659144      -0.00022219       0.00039900       0.00027851
H       -4.33715435      -3.07786441      -0.80186110      -0.00003218       0.00036325       0.00021712
C        0.22718678      -0.88572526      -2.12997522       0.00146090      -0.00183514      -0.00014259
O        0.40764241      -1.25494231      -3.20612395      -0.00180872      -0.00039984      -0.00019286
H       -0.40398156       1.02872745      -0.79804241       0.00010998      -0.00017190      -0.00068272
