79
Properties=species:S:1:pos:R:3:forces:R:3 charge=0 unpaired=0 uhf=0 endpoint_role="alcohol encounter complex; requires optimization" energy=-3138.922985556188 pbc="F F F"
Ru      -0.10522499      -0.53637263      -0.46736464      -0.00069363      -0.00137347       0.00082357
N        0.55242138      -2.64027511      -0.29370608      -0.00047976       0.00007527       0.00041824
C        0.77287465      -2.09233307       0.87646913       0.00021106      -0.00061937       0.00038025
C        2.14904565      -1.48404859       1.10474957      -0.00036781       0.00046527       0.00011994
P        2.13786590      -0.12621479      -0.15204967       0.00003175      -0.00021996      -0.00043851
C        2.90442248       1.28062341       0.70354073       0.00005550       0.00019916       0.00016105
C        2.24270352       2.50189440       0.69697029       0.00047812      -0.00010735       0.00012977
C        2.81143345       3.59710593       1.32493266       0.00033093       0.00000693       0.00004531
C        4.03453619       3.46942442       1.96368915       0.00059433      -0.00018292      -0.00009105
C        4.69320680       2.24828284       1.97473313       0.00024024       0.00000326       0.00002802
C        4.13403942       1.15308643       1.34312111       0.00021026      -0.00018742       0.00010349
C        3.41486091      -0.59415614      -1.36310930      -0.00000205       0.00017966       0.00002691
C        4.28967096       0.35059542      -1.89107952      -0.00018199      -0.00019235      -0.00013203
C        5.20365320      -0.01981943      -2.86174642       0.00000787      -0.00022888      -0.00002177
C        5.24293470      -1.32680899      -3.31943251      -0.00011972      -0.00039698       0.00020088
C        4.35669728      -2.26510037      -2.81305702      -0.00010109      -0.00020105       0.00014866
C        3.44073519      -1.90135592      -1.84376857      -0.00010438      -0.00020435       0.00007543
C       -0.51737850      -3.60502899      -0.44125148       0.00033168      -0.00052173      -0.00002977
C       -1.88517089      -3.20107100       0.13634811       0.00031209       0.00043365      -0.00007569
P       -2.20348291      -1.45605258      -0.40115910      -0.00002506       0.00014329       0.00051993
C       -3.54299615      -0.88950761       0.70298382      -0.00043159      -0.00066860      -0.00091232
C       -4.50917010      -1.73109672       1.24217515       0.00034255      -0.00037135      -0.00039121
C       -5.50098072      -1.20814877       2.05266898      -0.00002555      -0.00085666       0.00043079
C       -5.54047934       0.15028301       2.32299242       0.00023706       0.00010498       0.00044962
C       -4.58306849       0.99301607       1.78097257      -0.00030675      -0.00007469       0.00034767
C       -3.58764477       0.47494686       0.97263108       0.00004678       0.00029177      -0.00059735
C       -3.17996674      -1.60565147      -1.94406453      -0.00034687       0.00048240       0.00068448
C       -2.98930321      -0.61744242      -2.90564850       0.00028921       0.00060048      -0.00007023
C       -3.71835474      -0.63252398      -4.08091006       0.00060575      -0.00005770      -0.00005198
C       -4.64991830      -1.63349179      -4.30402777       0.00064282       0.00022428      -0.00047949
C       -4.85994558      -2.60776432      -3.34159603       0.00003516       0.00017545      -0.00003297
C       -4.13627829      -2.59221661      -2.16247169      -0.00043596       0.00061904      -0.00011953
H        0.25670755      -2.44877803       1.77944298      -0.00015290       0.00014650       0.00017349
H       -0.28174057       0.06022048       0.97341158       0.00014292       0.00019017       0.00024557
H        2.94889818      -2.22150718       0.97250164      -0.00011837       0.00007795       0.00011218
H        2.21178861      -1.04069350       2.10336056       0.00015125      -0.00004521       0.00016523
H        1.28074843       2.56648016       0.20187474       0.00042044       0.00009727       0.00000001
H        2.30105679       4.54977423       1.31886692       0.00059400      -0.00003138      -0.00008957
H        4.47785292       4.32288568       2.45657546       0.00044469      -0.00014489       0.00002146
H        5.64707299       2.15454159       2.47452049       0.00021687      -0.00018548       0.00010436
H        4.64547689       0.19917156       1.33684878       0.00010026      -0.00004431       0.00020015
H        4.25225944       1.37361170      -1.54111547       0.00022775      -0.00008889       0.00013751
H        5.88492125       0.71549880      -3.26563717      -0.00014310      -0.00025799      -0.00020720
H        5.95752833      -1.61264955      -4.07776506      -0.00037239      -0.00030227      -0.00033645
H        4.37703558      -3.28141778      -3.18057593      -0.00035281      -0.00027959       0.00005151
H        2.72877531      -2.62336280      -1.46265271      -0.00005117      -0.00006031       0.00030876
H       -0.62887797      -3.78822038      -1.51869750       0.00047620      -0.00033861       0.00013389
H       -0.18456104      -4.54566070       0.02257979       0.00020064       0.00020605       0.00058865
H       -2.64412052      -3.90213174      -0.21602962       0.00028410       0.00004238      -0.00049759
H       -1.87904532      -3.21050407       1.23135618      -0.00022922      -0.00017585      -0.00005000
H       -4.48334458      -2.79317262       1.04741339       0.00078956      -0.00036952       0.00059761
H       -6.24610916      -1.86461074       2.47911015       0.00048943      -0.00054058       0.00033938
H       -6.31558595       0.55068041       2.96052174      -0.00038059      -0.00032721      -0.00033186
H       -4.61081948       2.05234394       1.99362047      -0.00090307      -0.00012234      -0.00086717
H       -2.81615391       1.10996268       0.55172474      -0.00048139       0.00003604      -0.00051994
H       -2.25693916       0.16043332      -2.71595672       0.00008108       0.00042550       0.00015975
H       -3.55854673       0.13544555      -4.82399185      -0.00014379       0.00105382       0.00012977
H       -5.21574787      -1.65263199      -5.22414260      -0.00020042       0.00084490      -0.00001763
H       -5.59399454      -3.38319771      -3.50904785       0.00012360       0.00038295      -0.00031543
H       -4.32754414      -3.35181779      -1.41809046       0.00038721      -0.00026718      -0.00017503
C        0.14548770      -0.98939963      -2.24264812       0.00394353       0.00207818       0.00221986
O        0.37030253      -1.31932081      -3.32215174      -0.00230733      -0.00007342      -0.00192454
H       -0.55452163       0.88393206      -0.89940929      -0.00032118      -0.00008275      -0.00010693
O       -1.77889415      -1.55934657       3.08586442       0.00019815      -0.00083579       0.00042042
C       -1.65603028      -0.64792950       4.16025597      -0.00004577      -0.00037777       0.00051808
C       -0.24554723      -0.12499813       4.27822141      -0.00214426      -0.00099828      -0.00024878
C        0.76924482      -0.97066340       4.71045531       0.00082706      -0.00078402       0.00062484
C        2.07760349      -0.52370131       4.77248629       0.00022860      -0.00174341      -0.00007510
C        2.38317500       0.77690658       4.40533459       0.00266219       0.00112636      -0.00032880
C        1.37797447       1.62301554       3.96957354      -0.00170346       0.00283689      -0.00106813
C        0.07131094       1.17199170       3.89814768      -0.00137888       0.00160845      -0.00087261
H       -1.50826623      -1.07918724       2.28467765      -0.00072483      -0.00032627       0.00024466
H       -1.93598684      -1.21055445       5.05657238       0.00004805      -0.00055022       0.00072477
H       -2.36408713       0.18283484       4.02907253      -0.00044240      -0.00006325       0.00032328
H        0.52620740      -1.98519680       4.99553562       0.00025047      -0.00102694      -0.00007213
H        2.85894082      -1.19034464       5.11037969       0.00055269       0.00034170      -0.00072171
H        3.40291785       1.13019205       4.45543795      -0.00045600       0.00074694      -0.00096756
H        1.61433719       2.63567768       3.67971439      -0.00105130       0.00067482      -0.00060731
H       -0.70898477       1.83162047       3.54598225      -0.00111706      -0.00001321       0.00020618
