25
Properties=species:S:1:pos:R:3:forces:R:3 energy:=T -36.340180423316=T gnorm:=T 0.000032055791=T xtb:=T 6.7.1=T (edcfbbe)=T energy=-988.8666776857872 pbc="F F F"
C        4.53545670      -0.23772250      -0.59655375      -0.00007256       0.00038768      -0.00026895
C        4.13533797       0.84633143       0.16905332       0.00022305      -0.00021469       0.00048288
C        2.79458996       1.04645926       0.43902135       0.00000023      -0.00022926       0.00063079
C        1.83546446       0.16145245      -0.05585655       0.00005952       0.00007985      -0.00000777
C        0.42882808       0.38158695       0.22986142      -0.00006994       0.00008281       0.00018209
N       -0.46702498      -0.41937879      -0.17321256       0.00006840      -0.00001153      -0.00050232
C       -1.81649712      -0.21005648       0.01353093      -0.00022249       0.00038993       0.00013938
C       -2.61252241      -1.29709326       0.38428738       0.00001042      -0.00002600      -0.00006793
C       -3.97703978      -1.14370827       0.52245141      -0.00004848      -0.00002133      -0.00044969
C       -4.57468046       0.08180188       0.26734827       0.00020029       0.00011765       0.00021016
C       -3.79516636       1.15813068      -0.12352035      -0.00026327      -0.00010570      -0.00005723
C       -2.42540178       1.02138126      -0.24374769       0.00015813      -0.00009623      -0.00022229
C        2.24920635      -0.92789318      -0.82664223       0.00004189      -0.00000985      -0.00014698
C        3.58957754      -1.12338560      -1.09298071      -0.00018415       0.00007290      -0.00027444
H        5.58392953      -0.39228937      -0.80624786       0.00010028      -0.00007089       0.00010598
H        4.87173765       1.53601915       0.55579093      -0.00010661      -0.00018689       0.00004385
H        2.48278467       1.89211757       1.03677003       0.00006920      -0.00017518       0.00001330
H        0.19688912       1.26968027       0.83659099      -0.00004036      -0.00023892       0.00026779
H       -2.13645898      -2.24617366       0.58069688       0.00014223       0.00005219      -0.00030294
H       -4.58278213      -1.98663805       0.82332432       0.00005634      -0.00001868      -0.00009495
H       -5.64439170       0.19481064       0.36581686       0.00000568      -0.00006738      -0.00000216
H       -4.25721859       2.11272413      -0.33322168       0.00000039      -0.00009092       0.00026431
H       -1.81694212       1.85490090      -0.56752284      -0.00009562       0.00007252       0.00021481
H        1.49868059      -1.60538200      -1.20368323      -0.00001948       0.00016183      -0.00008881
H        3.90364379      -1.96767542      -1.68954804      -0.00001307       0.00014609      -0.00006888
