      -----------------------------------------------------------      
     |                   =====================                   |     
     |                           x T B                           |     
     |                   =====================                   |     
     |                         S. Grimme                         |     
     |          Mulliken Center for Theoretical Chemistry        |     
     |                    University of Bonn                     |     
      -----------------------------------------------------------      

   * xtb version 6.7.1 (edcfbbe) compiled by 'VssAdministrator@runnervm171ch' on 2026-06-10

   xtb is free software: you can redistribute it and/or modify it under
   the terms of the GNU Lesser General Public License as published by
   the Free Software Foundation, either version 3 of the License, or
   (at your option) any later version.
   
   xtb is distributed in the hope that it will be useful,
   but WITHOUT ANY WARRANTY; without even the implied warranty of
   MERCHANTABILITY or FITNESS FOR A PARTICULAR PURPOSE.  See the
   GNU Lesser General Public License for more details.
   
   Cite this work as:
   * C. Bannwarth, E. Caldeweyher, S. Ehlert, A. Hansen, P. Pracht,
     J. Seibert, S. Spicher, S. Grimme, WIREs Comput. Mol. Sci., 2020, 11,
     e01493. DOI: 10.1002/wcms.1493
   
   for GFN2-xTB:
   * C. Bannwarth, S. Ehlert and S. Grimme., J. Chem. Theory Comput., 2019,
     15, 1652-1671. DOI: 10.1021/acs.jctc.8b01176
   for GFN1-xTB:
   * S. Grimme, C. Bannwarth, P. Shushkov, J. Chem. Theory Comput., 2017,
     13, 1989-2009. DOI: 10.1021/acs.jctc.7b00118
   for GFN0-xTB:
   * P. Pracht, E. Caldeweyher, S. Ehlert, S. Grimme, ChemRxiv, 2019, preprint.
     DOI: 10.26434/chemrxiv.8326202.v1
   for GFN-FF:
   * S. Spicher and S. Grimme, Angew. Chem. Int. Ed., 2020, 59, 15665-15673.
     DOI: 10.1002/anie.202004239
   
   for ALPB and GBSA implicit solvation:
   * S. Ehlert, M. Stahn, S. Spicher, S. Grimme, J. Chem. Theory Comput.,
     2021, 17, 4250-4261. DOI: 10.1021/acs.jctc.1c00471
   
   for ddCOSMO and CPCM-X implicit solvation:
   * M. Stahn, S. Ehlert, S. Grimme, J. Phys. Chem. A,
     2023, XX, XXXX-XXXX. DOI: 10.1021/acs.jpca.3c04382
   
   for DFT-D4:
   * E. Caldeweyher, C. Bannwarth and S. Grimme, J. Chem. Phys., 2017,
     147, 034112. DOI: 10.1063/1.4993215
   * E. Caldeweyher, S. Ehlert, A. Hansen, H. Neugebauer, S. Spicher,
     C. Bannwarth and S. Grimme, J. Chem. Phys., 2019, 150, 154122.
     DOI: 10.1063/1.5090222
   * E. Caldeweyher, J.-M. Mewes, S. Ehlert and S. Grimme, Phys. Chem. Chem. Phys.
     2020, 22, 8499-8512. DOI: 10.1039/D0CP00502A
   
   for sTDA-xTB:
   * S. Grimme and C. Bannwarth, J. Chem. Phys., 2016, 145, 054103.
     DOI: 10.1063/1.4959605
   
   in the mass-spec context:
   * V. Asgeirsson, C. Bauer and S. Grimme, Chem. Sci., 2017, 8, 4879.
     DOI: 10.1039/c7sc00601b
   * J. Koopman and S. Grimme, ACS Omega 2019, 4, 12, 15120-15133.
     DOI: 10.1021/acsomega.9b02011
   
   for metadynamics refer to:
   * S. Grimme, J. Chem. Theory Comput., 2019, 155, 2847-2862
     DOI: 10.1021/acs.jctc.9b00143
   
   for SPH calculations refer to:
   * S. Spicher and S. Grimme, J. Chem. Theory Comput., 2021, 17, 1701-1714
     DOI: 10.1021/acs.jctc.0c01306
   
   for ONIOM refer to:
   * C. Plett, A. Katbashev, S. Ehlert, S. Grimme, M. Bursch,
     Phys. Chem. Chem. Phys., 2023, 25, 17860-17868. DOI: 10.1039/D3CP02178E
   
   for DIPRO refer to:
   * J. Kohn, N. Gildemeister, S. Grimme, D. Fazzi, A. Hansen,
     J. Chem. Phys., 2023, just accepted.
   
   for PTB refer to:
   * S. Grimme, M. Mueller, A. Hansen, J. Chem. Phys., 2023, 158, 124111.
     DOI: 10.1063/5.0137838
   
   with help from (in alphabetical order)
   P. Atkinson, C. Bannwarth, F. Bohle, G. Brandenburg, E. Caldeweyher
   M. Checinski, S. Dohm, S. Ehlert, S. Ehrlich, I. Gerasimov, C. Hölzer
   A. Katbashev, J. Kohn, J. Koopman, C. Lavigne, S. Lehtola, F. März, M. Müller,
   F. Musil, H. Neugebauer, J. Pisarek, C. Plett, P. Pracht, F. Pultar,
   J. Seibert, P. Shushkov, S. Spicher, M. Stahn, M. Steiner, T. Strunk,
   J. Stückrath, T. Rose, and J. Unsleber
   
 * started run on 2026/09/13 at 01:37:43.289     
   ID    Z sym.   atoms
    1   25 Mn     1
    2    7 N      2
    3    6 C      3, 4, 6-13, 15-20, 57, 59, 62-68
    4   15 P      5, 14
    5    1 H      21-56, 69-76
    6    8 O      58, 60, 61

           -------------------------------------------------
          |                Calculation Setup                |
           -------------------------------------------------

          program call               : C:\Users\HUIWEI\miniconda3\envs\phase2ff\Library\bin\xtb.exe input.xyz --gfn 2 --chrg 0 --uhf 0 --etemp 300.0 --iterations 500 --acc 0.5 --opt tight --cycles 250 --grad --alpb toluene gsolv
          coordinate file            : input.xyz
          omp threads                :                     2

########################################################################
[WARNING] Please study the warnings concerning your input carefully
-1- prog_main_parseArguments: Unknown reference state 'gsolv'
########################################################################

           -------------------------------------------------
          |                 G F N 2 - x T B                 |
           -------------------------------------------------

        Reference                      10.1021/acs.jctc.8b01176
      * Hamiltonian:
        H0-scaling (s, p, d)           1.850000    2.230000    2.230000
        zeta-weighting                 0.500000
      * Dispersion:
        s8                             2.700000
        a1                             0.520000
        a2                             5.000000
        s9                             5.000000
      * Repulsion:
        kExp                           1.500000    1.000000
        rExp                           1.000000
      * Coulomb:
        alpha                          2.000000
        third order                    shell-resolved
        anisotropic                    true
        a3                             3.000000
        a5                             4.000000
        cn-shift                       1.200000
        cn-exp                         4.000000
        max-rad                        5.000000

      * Solvation model:               ALPB
        Solvent                        toluene
        Parameter file                 internal GFN2-xTB/ALPB
        Dielectric constant                7.0000E+00
        Reference state                gsolv [1 M gas/solution]
        Free energy shift                  2.2081E-03 Eh       1.3856E+00 kcal/mol
        Temperature                        2.9815E+02 K
        Density                            8.6700E-01 kg/L
        Solvent mass                       7.8110E+01 g/mol
        Interaction kernel             P16
        Born radius scaling (c1)           1.7172E+00
        Born radii integrator          GBOBC
        Born offset                        0.0000E+00 a0       0.0000E+00 AA
        H-bond correction              false
        Ion screening                  false
        Surface tension                    1.0000E-05 Eh       1.5569E+01 dyn/cm
        Grid points                               230 per atom

          ...................................................
          :                      SETUP                      :
          :.................................................:
          :  # basis functions                 190          :
          :  # atomic orbitals                 187          :
          :  # shells                          111          :
          :  # electrons                       184          :
          :  max. iterations                   500          :
          :  Hamiltonian                  GFN2-xTB          :
          :  restarted?                      false          :
          :  GBSA solvation                   true          :
          :  PC potential                    false          :
          :  electronic temp.          300.0000000     K    :
          :  accuracy                    0.5000000          :
          :  -> integral cutoff          0.2801030E+02      :
          :  -> integral neglect         0.5000000E-08      :
          :  -> SCF convergence          0.5000000E-06 Eh   :
          :  -> wf. convergence          0.5000000E-04 e    :
          :  Broyden damping             0.4000000          :
          :  net charge                          0          :
          :  unpaired electrons                  0          :
          ...................................................

 iter      E             dE          RMSdq      gap      omega  full diag
   1    -98.9561417 -0.989561E+02  0.616E+00    1.29       0.0  T
   2    -97.7922167  0.116392E+01  0.607E+00    0.90       1.0  T
   3    -99.3254560 -0.153324E+01  0.384E+00    0.76       1.0  T
   4    -99.6697844 -0.344328E+00  0.165E+00    0.43       1.0  T
   5    -99.6250402  0.447443E-01  0.151E+00    0.41       1.0  T
   6    -99.6865958 -0.615556E-01  0.806E-01    0.59       1.0  T
   7    -99.6982008 -0.116050E-01  0.617E-01    0.44       1.0  T
   8    -99.6772133  0.209875E-01  0.840E-01    0.56       1.0  T
   9    -99.7048706 -0.276573E-01  0.352E-01    0.49       1.0  T
  10    -99.7119658 -0.709516E-02  0.168E-01    0.41       1.0  T
  11    -99.7122955 -0.329748E-03  0.753E-02    0.43       1.0  T
  12    -99.7124693 -0.173825E-03  0.435E-02    0.44       1.0  T
  13    -99.7125320 -0.626910E-04  0.251E-02    0.43       1.0  T
  14    -99.7125423 -0.102337E-04  0.184E-02    0.43       1.0  T
  15    -99.7125481 -0.585067E-05  0.118E-02    0.43       1.0  T
  16    -99.7125522 -0.404659E-05  0.472E-03    0.43       2.4  T
  17    -99.7125523 -0.173478E-06  0.288E-03    0.43       4.0  T
  18    -99.7125525 -0.181007E-06  0.164E-03    0.43       7.0  T
  19    -99.7125526 -0.660160E-07  0.103E-03    0.43      11.1  T
  20    -99.7125526 -0.147608E-07  0.488E-04    0.43      23.5  T
  21    -99.7125526 -0.172160E-08  0.307E-04    0.43      37.4  T

   *** convergence criteria satisfied after 21 iterations ***

         #    Occupation            Energy/Eh            Energy/eV
      -------------------------------------------------------------
         1        2.0000           -0.8136433             -22.1404
       ...           ...                  ...                  ...
        86        2.0000           -0.3996716             -10.8756
        87        2.0000           -0.3688215             -10.0361
        88        2.0000           -0.3602866              -9.8039
        89        2.0000           -0.3526947              -9.5973
        90        2.0000           -0.3448376              -9.3835
        91        2.0000           -0.3215849              -8.7508
        92        1.9995           -0.2961231              -8.0579 (HOMO)
        93        0.0005           -0.2803326              -7.6282 (LUMO)
        94                         -0.2377258              -6.4688
        95                         -0.2337988              -6.3620
        96                         -0.2204400              -5.9985
        97                         -0.2157907              -5.8720
       ...                                ...                  ...
       187                          5.8028408             157.9033
      -------------------------------------------------------------
                  HL-Gap            0.0157905 Eh            0.4297 eV
             Fermi-level           -0.2882278 Eh           -7.8431 eV

 SCC (total)                   0 d,  0 h,  0 min,  0.383 sec
 SCC setup                      ...        0 min,  0.003 sec (  0.909%)
 Dispersion                     ...        0 min,  0.002 sec (  0.450%)
 classical contributions        ...        0 min,  0.000 sec (  0.099%)
 integral evaluation            ...        0 min,  0.019 sec (  4.941%)
 iterations                     ...        0 min,  0.274 sec ( 71.609%)
 molecular gradient             ...        0 min,  0.083 sec ( 21.707%)
 printout                       ...        0 min,  0.001 sec (  0.276%)

         :::::::::::::::::::::::::::::::::::::::::::::::::::::
         ::                     SUMMARY                     ::
         :::::::::::::::::::::::::::::::::::::::::::::::::::::
         :: total energy             -98.310453423282 Eh    ::
         :: total w/o Gsasa/hb       -98.276393043710 Eh    ::
         :: gradient norm              0.568427727762 Eh/a0 ::
         :: HOMO-LUMO gap              0.429681443756 eV    ::
         ::.................................................::
         :: SCC energy               -99.707122380855 Eh    ::
         :: -> isotropic ES            0.108782873435 Eh    ::
         :: -> anisotropic ES          0.020442607858 Eh    ::
         :: -> anisotropic XC          0.006245964773 Eh    ::
         :: -> dispersion             -0.117160840123 Eh    ::
         :: -> Gsolv                  -0.056197150652 Eh    ::
         ::    -> Gelec               -0.022136771080 Eh    ::
         ::    -> Gsasa               -0.036268522710 Eh    ::
         ::    -> Ghb                  0.000000000000 Eh    ::
         ::    -> Gshift               0.002208143139 Eh    ::
         :: repulsion energy           1.396668957574 Eh    ::
         :: add. restraining           0.000000000000 Eh    ::
         :: total charge              -0.000000000000 e     ::
         :::::::::::::::::::::::::::::::::::::::::::::::::::::

      ----------------------------------------------------------- 
     |                   =====================                   |
     |                        A N C O P T                        |
     |                   =====================                   |
     |               Approximate Normal Coordinate               |
     |                Rational Function Optimizer                |
      ----------------------------------------------------------- 
      ----------------------------------------------------------- 
     |                   =====================                   |
     |                        A N C O P T                        |
     |                   =====================                   |
     |               Approximate Normal Coordinate               |
     |                Rational Function Optimizer                |
      ----------------------------------------------------------- 

          ...................................................
          :                      SETUP                      :
          :.................................................:
          :   optimization level             tight          :
          :   max. optcycles                   250          :
          :   ANC micro-cycles                  20          :
          :   degrees of freedom               222          :
          :.................................................:
          :   RF solver                   davidson          :
          :   write xtbopt.log                true          :
          :   linear?                        false          :
          :   energy convergence         0.1000000E-05 Eh   :
          :   grad. convergence          0.8000000E-03 Eh/α :
          :   maxmium RF displ.          1.0000000          :
          :   Hlow (freq-cutoff)         0.1000000E-01      :
          :   Hmax (freq-cutoff)         5.0000000          :
          :   S6 in model hess.         20.0000000          :
          ...................................................

generating ANC from exact Hessian ...
Using Lindh-Hessian (1995)
 Shifting diagonal of input Hessian by    9.6300208045540479E-003
 Lowest  eigenvalues of input Hessian
    0.000000    0.000000    0.000000    0.000000    0.000000    0.000000
    0.010000    0.010212    0.010342    0.010635    0.010826    0.011082
    0.011359    0.011474    0.011519    0.012394    0.012951    0.013281
 Highest eigenvalues
    1.915769    1.961215    2.141615    2.405562    2.525421    2.558536


........................................................................
.............................. CYCLE    1 ..............................
........................................................................

 iter      E             dE          RMSdq      gap      omega  full diag
   1    -99.7125526 -0.997126E+02  0.179E-04    0.43       0.0  T
   2    -99.7125526  0.123011E-07  0.469E-04    0.43      24.4  T
   3    -99.7125526 -0.135411E-07  0.781E-05    0.43     146.8  T
     SCC iter.                  ...        0 min,  0.047 sec
     gradient                   ...        0 min,  0.080 sec
 * total energy  :   -98.3104534 Eh     change       -0.2848907E-08 Eh
   gradient norm :     0.5684398 Eh/α   predicted     0.0000000E+00 (-100.00%)
   displ. norm   :     0.6004487 α      lambda       -0.2369283E+00
   maximum displ.:     0.1586179 α      in ANC's #222, #100, #86, ...

........................................................................
.............................. CYCLE    2 ..............................
........................................................................

 iter      E             dE          RMSdq      gap      omega  full diag
   1    -99.7297510 -0.997298E+02  0.148E+00    0.64       0.0  T
   2    -99.4992211  0.230530E+00  0.253E+00    1.04       1.0  T
   3    -99.8230845 -0.323863E+00  0.771E-01    0.60       1.0  T
   4    -99.8633563 -0.402718E-01  0.405E-01    0.41       1.0  T
   5    -99.8712052 -0.784890E-02  0.166E-01    0.44       1.0  T
   6    -99.8663409  0.486427E-02  0.251E-01    0.43       1.0  T
   7    -99.8709778 -0.463690E-02  0.806E-02    0.44       1.0  T
   8    -99.8713523 -0.374491E-03  0.434E-02    0.44       1.0  T
   9    -99.8713950 -0.427102E-04  0.353E-02    0.44       1.0  T
  10    -99.8714543 -0.593394E-04  0.146E-02    0.44       1.0  T
  11    -99.8714335  0.208933E-04  0.190E-02    0.44       1.0  T
  12    -99.8714502 -0.167968E-04  0.122E-02    0.44       1.0  T
  13    -99.8714589 -0.869380E-05  0.593E-03    0.44       1.9  T
  14    -99.8714612 -0.226832E-05  0.985E-04    0.44      11.7  T
  15    -99.8714612 -0.377994E-07  0.314E-04    0.44      36.6  T
  16    -99.8714612  0.949342E-09  0.252E-04    0.44      45.6  T
     SCC iter.                  ...        0 min,  0.273 sec
     gradient                   ...        0 min,  0.077 sec
 * total energy  :   -98.4968946 Eh     change       -0.1864412E+00 Eh
   gradient norm :     0.3119262 Eh/α   predicted    -0.1614502E+00 ( -13.40%)
   displ. norm   :     0.6400067 α      lambda       -0.1594791E+00
   maximum displ.:     0.1478890 α      in ANC's #100, #222, #86, ...

........................................................................
.............................. CYCLE    3 ..............................
........................................................................

 iter      E             dE          RMSdq      gap      omega  full diag
   1    -99.9120932 -0.999121E+02  0.123E+00    0.61       0.0  T
   2    -99.6041546  0.307939E+00  0.232E+00    1.01       1.0  T
   3    -99.9727412 -0.368587E+00  0.801E-01    0.59       1.0  T
   4    -99.9882564 -0.155152E-01  0.494E-01    0.48       1.0  T
   5   -100.0009776 -0.127212E-01  0.169E-01    0.43       1.0  T
   6    -99.9928487  0.812889E-02  0.339E-01    0.50       1.0  T
   7   -100.0017388 -0.889011E-02  0.831E-02    0.44       1.0  T
   8   -100.0018977 -0.158881E-03  0.505E-02    0.43       1.0  T
   9   -100.0019686 -0.709302E-04  0.275E-02    0.43       1.0  T
  10   -100.0018616  0.107006E-03  0.443E-02    0.44       1.0  T
  11   -100.0019769 -0.115293E-03  0.162E-02    0.43       1.0  T
  12   -100.0019823 -0.541651E-05  0.856E-03    0.43       1.3  T
  13   -100.0019825 -0.146988E-06  0.664E-03    0.43       1.7  T
  14   -100.0019855 -0.302086E-05  0.156E-03    0.43       7.4  T
  15   -100.0019856 -0.119251E-06  0.660E-04    0.43      17.4  T
  16   -100.0019856 -0.178015E-07  0.274E-04    0.43      41.8  T
  17   -100.0019857 -0.245731E-08  0.121E-04    0.43      94.6  T
     SCC iter.                  ...        0 min,  0.265 sec
     gradient                   ...        0 min,  0.080 sec
 * total energy  :   -98.6235697 Eh     change       -0.1266751E+00 Eh
   gradient norm :     0.2187858 Eh/α   predicted    -0.1124018E+00 ( -11.27%)
   displ. norm   :     0.7345748 α      lambda       -0.1307759E+00
   maximum displ.:     0.1683320 α      in ANC's #47, #125, #147, ...

........................................................................
.............................. CYCLE    4 ..............................
........................................................................

 iter      E             dE          RMSdq      gap      omega  full diag
   1   -100.0582606 -0.100058E+03  0.764E-01    0.71       0.0  T
   2    -99.9708157  0.874449E-01  0.121E+00    0.34       1.0  T
   3   -100.0684979 -0.976822E-01  0.584E-01    0.81       1.0  T
   4   -100.0750951 -0.659715E-02  0.422E-01    0.74       1.0  T
   5   -100.0826601 -0.756503E-02  0.219E-01    0.58       1.0  T
   6   -100.0834694 -0.809248E-03  0.119E-01    0.56       1.0  T
   7   -100.0840248 -0.555394E-03  0.320E-02    0.51       1.0  T
   8   -100.0839810  0.437477E-04  0.383E-02    0.53       1.0  T
   9   -100.0840405 -0.595355E-04  0.120E-02    0.52       1.0  T
  10   -100.0840399  0.688682E-06  0.108E-02    0.51       1.1  T
  11   -100.0840440 -0.414733E-05  0.684E-03    0.51       1.7  T
  12   -100.0840453 -0.129122E-05  0.304E-03    0.51       3.8  T
  13   -100.0840456 -0.343040E-06  0.146E-03    0.52       7.9  T
  14   -100.0840457 -0.700591E-07  0.596E-04    0.52      19.2  T
  15   -100.0840457 -0.128696E-07  0.294E-04    0.52      39.0  T
  16   -100.0840457 -0.250887E-08  0.115E-04    0.52      99.8  T
     SCC iter.                  ...        0 min,  0.236 sec
     gradient                   ...        0 min,  0.078 sec
 * total energy  :   -98.7042363 Eh     change       -0.8066661E-01 Eh
   gradient norm :     0.1949629 Eh/α   predicted    -0.1006713E+00 (  24.80%)
   displ. norm   :     0.6998214 α      lambda       -0.7718537E-01
   maximum displ.:     0.2626554 α      in ANC's #47, #86, #49, ...

........................................................................
.............................. CYCLE    5 ..............................
........................................................................

 iter      E             dE          RMSdq      gap      omega  full diag
   1   -100.1302614 -0.100130E+03  0.402E-01    0.72       0.0  T
   2   -100.1294829  0.778575E-03  0.380E-01    0.82       1.0  T
   3   -100.1274253  0.205758E-02  0.462E-01    0.78       1.0  T
   4   -100.1357447 -0.831946E-02  0.124E-01    0.78       1.0  T
   5   -100.1357576 -0.128355E-04  0.101E-01    0.78       1.0  T
   6   -100.1360792 -0.321574E-03  0.295E-02    0.78       1.0  T
   7   -100.1361103 -0.311808E-04  0.145E-02    0.78       1.0  T
   8   -100.1361106 -0.297917E-06  0.100E-02    0.78       1.1  T
   9   -100.1361144 -0.375979E-05  0.563E-03    0.78       2.0  T
  10   -100.1361138  0.598109E-06  0.587E-03    0.78       2.0  T
  11   -100.1361147 -0.935251E-06  0.241E-03    0.78       4.8  T
  12   -100.1361149 -0.137528E-06  0.100E-03    0.78      11.4  T
  13   -100.1361149 -0.229298E-07  0.435E-04    0.78      26.4  T
  14   -100.1361149 -0.384421E-08  0.218E-04    0.78      52.7  T
     SCC iter.                  ...        0 min,  0.219 sec
     gradient                   ...        0 min,  0.071 sec
 * total energy  :   -98.7730444 Eh     change       -0.6880806E-01 Eh
   gradient norm :     0.2015907 Eh/α   predicted    -0.5749417E-01 ( -16.44%)
   displ. norm   :     0.7634541 α      lambda       -0.9051698E-01
   maximum displ.:     0.2420423 α      in ANC's #47, #86, #215, ...

........................................................................
.............................. CYCLE    6 ..............................
........................................................................

 iter      E             dE          RMSdq      gap      omega  full diag
   1   -100.1884932 -0.100188E+03  0.634E-01    0.79       0.0  T
   2   -100.1102249  0.782683E-01  0.132E+00    0.95       1.0  T
   3   -100.2012572 -0.910323E-01  0.288E-01    0.83       1.0  T
   4   -100.2028659 -0.160871E-02  0.141E-01    0.81       1.0  T
   5   -100.2029985 -0.132609E-03  0.796E-02    0.82       1.0  T
   6   -100.2034228 -0.424324E-03  0.303E-02    0.81       1.0  T
   7   -100.2034526 -0.297748E-04  0.151E-02    0.81       1.0  T
   8   -100.2034553 -0.268937E-05  0.106E-02    0.81       1.1  T
   9   -100.2034579 -0.263010E-05  0.628E-03    0.81       1.8  T
  10   -100.2034579  0.217515E-07  0.511E-03    0.81       2.2  T
  11   -100.2034585 -0.607696E-06  0.244E-03    0.81       4.7  T
  12   -100.2034584  0.840497E-07  0.221E-03    0.81       5.2  T
  13   -100.2034586 -0.230709E-06  0.562E-04    0.81      20.4  T
  14   -100.2034587 -0.496060E-08  0.304E-04    0.81      37.7  T
  15   -100.2034587 -0.177496E-08  0.153E-04    0.81      74.9  T
     SCC iter.                  ...        0 min,  0.236 sec
     gradient                   ...        0 min,  0.083 sec
 * total energy  :   -98.8494535 Eh     change       -0.7640911E-01 Eh
   gradient norm :     0.1848562 Eh/α   predicted    -0.7163797E-01 (  -6.24%)
   displ. norm   :     0.6864837 α      lambda       -0.7871111E-01
   maximum displ.:     0.2277855 α      in ANC's #215, #47, #86, ...

........................................................................
.............................. CYCLE    7 ..............................
........................................................................

 iter      E             dE          RMSdq      gap      omega  full diag
   1   -100.2304022 -0.100230E+03  0.853E-01    1.05       0.0  T
   2   -100.0878755  0.142527E+00  0.181E+00    0.89       1.0  T
   3   -100.2545179 -0.166642E+00  0.342E-01    0.94       1.0  T
   4   -100.2579443 -0.342635E-02  0.156E-01    0.90       1.0  T
   5   -100.2582082 -0.263864E-03  0.879E-02    0.87       1.0  T
   6   -100.2586610 -0.452795E-03  0.302E-02    0.88       1.0  T
   7   -100.2586666 -0.563565E-05  0.176E-02    0.89       1.0  T
   8   -100.2586756 -0.905572E-05  0.711E-03    0.89       1.6  T
   9   -100.2586769 -0.129230E-05  0.384E-03    0.89       3.0  T
  10   -100.2586768  0.140856E-06  0.308E-03    0.89       3.7  T
  11   -100.2586771 -0.347593E-06  0.154E-03    0.89       7.4  T
  12   -100.2586771  0.239660E-07  0.132E-03    0.89       8.7  T
  13   -100.2586772 -0.601757E-07  0.496E-04    0.89      23.1  T
  14   -100.2586772 -0.160244E-08  0.313E-04    0.89      36.7  T
     SCC iter.                  ...        0 min,  0.203 sec
     gradient                   ...        0 min,  0.082 sec
 * total energy  :   -98.9002919 Eh     change       -0.5083836E-01 Eh
   gradient norm :     0.1172059 Eh/α   predicted    -0.5790228E-01 (  13.89%)
   displ. norm   :     0.6584507 α      lambda       -0.3840384E-01
   maximum displ.:     0.3008551 α      in ANC's #47, #28, #49, ...

........................................................................
.............................. CYCLE    8 ..............................
........................................................................

 iter      E             dE          RMSdq      gap      omega  full diag
   1   -100.2769322 -0.100277E+03  0.599E-01    1.11       0.0  T
   2   -100.2047106  0.722217E-01  0.125E+00    0.82       1.0  T
   3   -100.2889633 -0.842528E-01  0.293E-01    1.00       1.0  T
   4   -100.2913487 -0.238532E-02  0.141E-01    0.96       1.0  T
   5   -100.2920039 -0.655214E-03  0.462E-02    0.93       1.0  T
   6   -100.2920734 -0.695644E-04  0.280E-02    0.93       1.0  T
   7   -100.2920827 -0.924355E-05  0.176E-02    0.93       1.0  T
   8   -100.2920820  0.642246E-06  0.151E-02    0.94       1.0  T
   9   -100.2920827 -0.687433E-06  0.110E-02    0.94       1.0  T
  10   -100.2920868 -0.402724E-05  0.491E-03    0.94       2.3  T
  11   -100.2920872 -0.418393E-06  0.212E-03    0.94       5.4  T
  12   -100.2920872 -0.264114E-07  0.167E-03    0.94       6.9  T
  13   -100.2920873 -0.958301E-07  0.562E-04    0.94      20.4  T
  14   -100.2920873 -0.102234E-07  0.251E-04    0.94      45.7  T
  15   -100.2920873 -0.144914E-08  0.118E-04    0.94      97.4  T
     SCC iter.                  ...        0 min,  0.223 sec
     gradient                   ...        0 min,  0.075 sec
 * total energy  :   -98.9345160 Eh     change       -0.3422418E-01 Eh
   gradient norm :     0.0868236 Eh/α   predicted    -0.2752707E-01 ( -19.57%)
   displ. norm   :     0.7094612 α      lambda       -0.2766407E-01
   maximum displ.:     0.3228509 α      in ANC's #47, #39, #86, ...

........................................................................
.............................. CYCLE    9 ..............................
........................................................................

 iter      E             dE          RMSdq      gap      omega  full diag
   1   -100.3016146 -0.100302E+03  0.384E-01    1.01       0.0  T
   2   -100.2730310  0.285836E-01  0.776E-01    0.75       1.0  T
   3   -100.3065898 -0.335588E-01  0.173E-01    0.93       1.0  T
   4   -100.3070393 -0.449509E-03  0.101E-01    0.91       1.0  T
   5   -100.3073945 -0.355289E-03  0.372E-02    0.89       1.0  T
   6   -100.3074361 -0.415031E-04  0.170E-02    0.89       1.0  T
   7   -100.3074346  0.148109E-05  0.145E-02    0.89       1.0  T
   8   -100.3074391 -0.452496E-05  0.842E-03    0.89       1.4  T
   9   -100.3074394 -0.290648E-06  0.632E-03    0.89       1.8  T
  10   -100.3074397 -0.362435E-06  0.397E-03    0.89       2.9  T
  11   -100.3074403 -0.503470E-06  0.144E-03    0.89       8.0  T
  12   -100.3074403 -0.390745E-07  0.864E-04    0.89      13.3  T
  13   -100.3074403 -0.232194E-07  0.341E-04    0.89      33.6  T
  14   -100.3074403 -0.339230E-08  0.154E-04    0.89      74.5  T
     SCC iter.                  ...        0 min,  0.197 sec
     gradient                   ...        0 min,  0.075 sec
 * total energy  :   -98.9558928 Eh     change       -0.2137673E-01 Eh
   gradient norm :     0.0724123 Eh/α   predicted    -0.2079419E-01 (  -2.73%)
   displ. norm   :     0.7697333 α      lambda       -0.2599430E-01
   maximum displ.:     0.3260298 α      in ANC's #47, #28, #86, ...

........................................................................
.............................. CYCLE   10 ..............................
........................................................................

 iter      E             dE          RMSdq      gap      omega  full diag
   1   -100.3148876 -0.100315E+03  0.358E-01    0.89       0.0  T
   2   -100.3000018  0.148858E-01  0.559E-01    0.70       1.0  T
   3   -100.3167101 -0.167082E-01  0.216E-01    0.88       1.0  T
   4   -100.3177176 -0.100751E-02  0.107E-01    0.85       1.0  T
   5   -100.3179409 -0.223284E-03  0.595E-02    0.83       1.0  T
   6   -100.3180691 -0.128235E-03  0.247E-02    0.83       1.0  T
   7   -100.3180759 -0.676989E-05  0.181E-02    0.83       1.0  T
   8   -100.3180796 -0.375732E-05  0.106E-02    0.83       1.1  T
   9   -100.3180793  0.285416E-06  0.735E-03    0.83       1.6  T
  10   -100.3180818 -0.245569E-05  0.333E-03    0.83       3.4  T
  11   -100.3180820 -0.240186E-06  0.139E-03    0.83       8.3  T
  12   -100.3180820  0.453653E-09  0.101E-03    0.83      11.4  T
  13   -100.3180821 -0.285009E-07  0.483E-04    0.83      23.7  T
  14   -100.3180821 -0.519721E-08  0.264E-04    0.83      43.5  T
     SCC iter.                  ...        0 min,  0.196 sec
     gradient                   ...        0 min,  0.074 sec
 * total energy  :   -98.9729914 Eh     change       -0.1709868E-01 Eh
   gradient norm :     0.0608281 Eh/α   predicted    -0.2069784E-01 (  21.05%)
   displ. norm   :     0.6719062 α      lambda       -0.1594960E-01
   maximum displ.:     0.2626951 α      in ANC's #47, #15, #39, ...

........................................................................
.............................. CYCLE   11 ..............................
........................................................................

 iter      E             dE          RMSdq      gap      omega  full diag
   1   -100.3314366 -0.100331E+03  0.265E-01    0.83       0.0  T
   2   -100.3136940  0.177426E-01  0.599E-01    0.61       1.0  T
   3   -100.3339592 -0.202652E-01  0.115E-01    0.78       1.0  T
   4   -100.3340718 -0.112604E-03  0.672E-02    0.77       1.0  T
   5   -100.3342360 -0.164203E-03  0.287E-02    0.75       1.0  T
   6   -100.3342693 -0.333039E-04  0.129E-02    0.75       1.0  T
   7   -100.3342702 -0.863985E-06  0.977E-03    0.75       1.2  T
   8   -100.3342717 -0.155363E-05  0.613E-03    0.75       1.9  T
   9   -100.3342720 -0.258768E-06  0.401E-03    0.75       2.9  T
  10   -100.3342719  0.143125E-06  0.325E-03    0.75       3.5  T
  11   -100.3342724 -0.531235E-06  0.888E-04    0.75      12.9  T
  12   -100.3342724 -0.930343E-08  0.563E-04    0.75      20.4  T
  13   -100.3342724 -0.107018E-07  0.252E-04    0.75      45.6  T
  14   -100.3342724 -0.166158E-08  0.122E-04    0.75      94.2  T
     SCC iter.                  ...        0 min,  0.212 sec
     gradient                   ...        0 min,  0.083 sec
 * total energy  :   -98.9858097 Eh     change       -0.1281821E-01 Eh
   gradient norm :     0.0516833 Eh/α   predicted    -0.1157509E-01 (  -9.70%)
   displ. norm   :     0.7022302 α      lambda       -0.1294355E-01
   maximum displ.:     0.2605864 α      in ANC's #47, #15, #39, ...

........................................................................
.............................. CYCLE   12 ..............................
........................................................................

 iter      E             dE          RMSdq      gap      omega  full diag
   1   -100.3391104 -0.100339E+03  0.208E-01    0.72       0.0  T
   2   -100.3284627  0.106478E-01  0.464E-01    0.54       1.0  T
   3   -100.3403665 -0.119039E-01  0.102E-01    0.70       1.0  T
   4   -100.3405153 -0.148712E-03  0.525E-02    0.68       1.0  T
   5   -100.3406041 -0.888343E-04  0.182E-02    0.66       1.0  T
   6   -100.3406224 -0.183328E-04  0.955E-03    0.66       1.2  T
   7   -100.3406254 -0.296092E-05  0.392E-03    0.66       2.9  T
   8   -100.3406257 -0.369194E-06  0.209E-03    0.66       5.5  T
   9   -100.3406258 -0.664812E-07  0.136E-03    0.67       8.4  T
  10   -100.3406258  0.221302E-07  0.135E-03    0.66       8.5  T
  11   -100.3406258 -0.499903E-07  0.834E-04    0.67      13.8  T
  12   -100.3406259 -0.213031E-07  0.294E-04    0.67      39.0  T
  13   -100.3406259 -0.128166E-08  0.204E-04    0.67      56.2  T
     SCC iter.                  ...        0 min,  0.197 sec
     gradient                   ...        0 min,  0.082 sec
 * total energy  :   -98.9956702 Eh     change       -0.9860527E-02 Eh
   gradient norm :     0.0332398 Eh/α   predicted    -0.9663206E-02 (  -2.00%)
   displ. norm   :     0.7123994 α      lambda       -0.9754403E-02
   maximum displ.:     0.2138232 α      in ANC's #15, #47, #28, ...

........................................................................
.............................. CYCLE   13 ..............................
........................................................................

 iter      E             dE          RMSdq      gap      omega  full diag
   1   -100.3465501 -0.100347E+03  0.227E-01    0.69       0.0  T
   2   -100.3294928  0.170573E-01  0.586E-01    0.46       1.0  T
   3   -100.3481203 -0.186275E-01  0.103E-01    0.64       1.0  T
   4   -100.3483932 -0.272916E-03  0.414E-02    0.62       1.0  T
   5   -100.3484263 -0.331053E-04  0.217E-02    0.60       1.0  T
   6   -100.3484492 -0.228777E-04  0.120E-02    0.60       1.0  T
   7   -100.3484523 -0.310403E-05  0.650E-03    0.61       1.8  T
   8   -100.3484536 -0.130451E-05  0.332E-03    0.61       3.5  T
   9   -100.3484536 -0.345065E-07  0.224E-03    0.61       5.1  T
  10   -100.3484537 -0.101771E-06  0.160E-03    0.61       7.2  T
  11   -100.3484538 -0.515334E-07  0.994E-04    0.61      11.5  T
  12   -100.3484538 -0.416002E-07  0.267E-04    0.61      43.0  T
  13   -100.3484538  0.726047E-09  0.252E-04    0.61      45.5  T
     SCC iter.                  ...        0 min,  0.195 sec
     gradient                   ...        0 min,  0.080 sec
 * total energy  :   -99.0035249 Eh     change       -0.7854681E-02 Eh
   gradient norm :     0.0208353 Eh/α   predicted    -0.7352450E-02 (  -6.39%)
   displ. norm   :     0.7094453 α      lambda       -0.6820752E-02
   maximum displ.:     0.2128012 α      in ANC's #28, #15, #47, ...

........................................................................
.............................. CYCLE   14 ..............................
........................................................................

 iter      E             dE          RMSdq      gap      omega  full diag
   1   -100.3487185 -0.100349E+03  0.148E-01    0.59       0.0  T
   2   -100.3455739  0.314461E-02  0.262E-01    0.47       1.0  T
   3   -100.3490404 -0.346656E-02  0.880E-02    0.58       1.0  T
   4   -100.3492026 -0.162199E-03  0.382E-02    0.56       1.0  T
   5   -100.3492408 -0.381891E-04  0.196E-02    0.55       1.0  T
   6   -100.3492609 -0.200819E-04  0.813E-03    0.55       1.4  T
   7   -100.3492603  0.562071E-06  0.685E-03    0.55       1.7  T
   8   -100.3492619 -0.160099E-05  0.301E-03    0.55       3.8  T
   9   -100.3492620 -0.681014E-07  0.196E-03    0.55       5.9  T
  10   -100.3492621 -0.705150E-07  0.129E-03    0.55       8.9  T
  11   -100.3492621 -0.436921E-07  0.580E-04    0.55      19.8  T
  12   -100.3492621 -0.150108E-07  0.194E-04    0.55      59.1  T
  13   -100.3492621 -0.780659E-09  0.113E-04    0.55     101.8  T
     SCC iter.                  ...        0 min,  0.158 sec
     gradient                   ...        0 min,  0.087 sec
 * total energy  :   -99.0087552 Eh     change       -0.5230390E-02 Eh
   gradient norm :     0.0813432 Eh/α   predicted    -0.5126864E-02 (  -1.98%)
   displ. norm   :     0.7113512 α      lambda       -0.7844860E-02
   maximum displ.:     0.2153092 α      in ANC's #28, #15, #47, ...

........................................................................
.............................. CYCLE   15 ..............................
........................................................................

 iter      E             dE          RMSdq      gap      omega  full diag
   1   -100.3468053 -0.100347E+03  0.157E-01    0.53       0.0  T
   2   -100.3444426  0.236267E-02  0.233E-01    0.44       1.0  T
   3   -100.3467367 -0.229406E-02  0.116E-01    0.55       1.0  T
   4   -100.3471819 -0.445222E-03  0.411E-02    0.51       1.0  T
   5   -100.3472169 -0.350234E-04  0.230E-02    0.50       1.0  T
   6   -100.3472330 -0.161137E-04  0.121E-02    0.50       1.0  T
   7   -100.3472376 -0.454596E-05  0.543E-03    0.51       2.1  T
   8   -100.3472380 -0.436798E-06  0.343E-03    0.51       3.3  T
   9   -100.3472382 -0.180527E-06  0.186E-03    0.51       6.2  T
  10   -100.3472381  0.524123E-07  0.197E-03    0.51       5.8  T
  11   -100.3472383 -0.149087E-06  0.797E-04    0.51      14.4  T
  12   -100.3472383 -0.216674E-07  0.354E-04    0.51      32.4  T
  13   -100.3472383  0.789143E-09  0.331E-04    0.51      34.7  T
     SCC iter.                  ...        0 min,  0.183 sec
     gradient                   ...        0 min,  0.084 sec
 * total energy  :   -99.0123838 Eh     change       -0.3628583E-02 Eh
   gradient norm :     0.0333306 Eh/α   predicted    -0.5907269E-02 (  62.80%)
   displ. norm   :     0.5494759 α      lambda       -0.3388730E-02
   maximum displ.:     0.1653303 α      in ANC's #28, #15, #2, ...

........................................................................
.............................. CYCLE   16 ..............................
........................................................................

 iter      E             dE          RMSdq      gap      omega  full diag
   1   -100.3490655 -0.100349E+03  0.175E-01    0.57       0.0  T
   2   -100.3391606  0.990493E-02  0.451E-01    0.37       1.0  T
   3   -100.3498441 -0.106835E-01  0.799E-02    0.53       1.0  T
   4   -100.3500712 -0.227062E-03  0.316E-02    0.49       1.0  T
   5   -100.3500616  0.963003E-05  0.279E-02    0.48       1.0  T
   6   -100.3500969 -0.353858E-04  0.147E-02    0.49       1.0  T
   7   -100.3501027 -0.572369E-05  0.759E-03    0.49       1.5  T
   8   -100.3501039 -0.127022E-05  0.477E-03    0.49       2.4  T
   9   -100.3501041 -0.141098E-06  0.269E-03    0.49       4.3  T
  10   -100.3501041 -0.534991E-07  0.242E-03    0.49       4.7  T
  11   -100.3501043 -0.196912E-06  0.116E-03    0.49       9.9  T
  12   -100.3501044 -0.595918E-07  0.390E-04    0.49      29.4  T
  13   -100.3501044 -0.223541E-08  0.265E-04    0.49      43.3  T
     SCC iter.                  ...        0 min,  0.187 sec
     gradient                   ...        0 min,  0.071 sec
 * total energy  :   -99.0150834 Eh     change       -0.2699614E-02 Eh
   gradient norm :     0.0229477 Eh/α   predicted    -0.2205945E-02 ( -18.29%)
   displ. norm   :     0.6395681 α      lambda       -0.3202560E-02
   maximum displ.:     0.1990182 α      in ANC's #28, #2, #15, ...

........................................................................
.............................. CYCLE   17 ..............................
........................................................................

 iter      E             dE          RMSdq      gap      omega  full diag
   1   -100.3556160 -0.100356E+03  0.134E-01    0.53       0.0  T
   2   -100.3524515  0.316455E-02  0.266E-01    0.39       1.0  T
   3   -100.3559626 -0.351111E-02  0.676E-02    0.51       1.0  T
   4   -100.3560462 -0.835834E-04  0.387E-02    0.47       1.0  T
   5   -100.3560795 -0.332902E-04  0.261E-02    0.47       1.0  T
   6   -100.3561062 -0.267666E-04  0.119E-02    0.48       1.0  T
   7   -100.3561074 -0.119614E-05  0.838E-03    0.48       1.4  T
   8   -100.3561081 -0.701590E-06  0.507E-03    0.48       2.3  T
   9   -100.3561082 -0.334475E-07  0.293E-03    0.48       3.9  T
  10   -100.3561084 -0.195265E-06  0.223E-03    0.48       5.1  T
  11   -100.3561086 -0.223243E-06  0.488E-04    0.48      23.5  T
  12   -100.3561086  0.714941E-08  0.556E-04    0.48      20.6  T
  13   -100.3561086 -0.792576E-08  0.326E-04    0.48      35.2  T
     SCC iter.                  ...        0 min,  0.173 sec
     gradient                   ...        0 min,  0.076 sec
 * total energy  :   -99.0177498 Eh     change       -0.2666336E-02 Eh
   gradient norm :     0.0225133 Eh/α   predicted    -0.2256286E-02 ( -15.38%)
   displ. norm   :     0.6891111 α      lambda       -0.3186387E-02
   maximum displ.:     0.2120212 α      in ANC's #2, #28, #11, ...

........................................................................
.............................. CYCLE   18 ..............................
........................................................................

 iter      E             dE          RMSdq      gap      omega  full diag
   1   -100.3586837 -0.100359E+03  0.103E-01    0.49       0.0  T
   2   -100.3584415  0.242223E-03  0.970E-02    0.44       1.0  T
   3   -100.3585468 -0.105313E-03  0.794E-02    0.51       1.0  T
   4   -100.3587568 -0.210006E-03  0.381E-02    0.47       1.0  T
   5   -100.3587838 -0.269801E-04  0.219E-02    0.46       1.0  T
   6   -100.3588032 -0.194338E-04  0.115E-02    0.47       1.0  T
   7   -100.3588032 -0.493981E-07  0.903E-03    0.47       1.3  T
   8   -100.3588047 -0.142614E-05  0.389E-03    0.47       3.0  T
   9   -100.3588046  0.329383E-07  0.243E-03    0.47       4.7  T
  10   -100.3588049 -0.215999E-06  0.113E-03    0.47      10.1  T
  11   -100.3588049 -0.440321E-07  0.425E-04    0.47      27.0  T
  12   -100.3588049  0.752166E-09  0.370E-04    0.47      31.0  T
     SCC iter.                  ...        0 min,  0.193 sec
     gradient                   ...        0 min,  0.084 sec
 * total energy  :   -99.0204926 Eh     change       -0.2742794E-02 Eh
   gradient norm :     0.0235852 Eh/α   predicted    -0.2349764E-02 ( -14.33%)
   displ. norm   :     0.6874766 α      lambda       -0.3403628E-02
   maximum displ.:     0.2156957 α      in ANC's #2, #28, #30, ...

........................................................................
.............................. CYCLE   19 ..............................
........................................................................

 iter      E             dE          RMSdq      gap      omega  full diag
   1   -100.3632237 -0.100363E+03  0.117E-01    0.44       0.0  T
   2   -100.3626995  0.524259E-03  0.137E-01    0.53       1.0  T
   3   -100.3632636 -0.564127E-03  0.713E-02    0.45       1.0  T
   4   -100.3633789 -0.115265E-03  0.371E-02    0.48       1.0  T
   5   -100.3633980 -0.191870E-04  0.226E-02    0.46       1.0  T
   6   -100.3634114 -0.133199E-04  0.149E-02    0.46       1.0  T
   7   -100.3634129 -0.152104E-05  0.108E-02    0.47       1.1  T
   8   -100.3634154 -0.248195E-05  0.482E-03    0.47       2.4  T
   9   -100.3634159 -0.534851E-06  0.210E-03    0.47       5.5  T
  10   -100.3634160 -0.630981E-07  0.145E-03    0.47       7.9  T
  11   -100.3634161 -0.102457E-06  0.609E-04    0.47      18.8  T
  12   -100.3634161 -0.139451E-07  0.266E-04    0.47      43.2  T
  13   -100.3634161 -0.106560E-08  0.162E-04    0.47      71.0  T
     SCC iter.                  ...        0 min,  0.183 sec
     gradient                   ...        0 min,  0.074 sec
 * total energy  :   -99.0221301 Eh     change       -0.1637519E-02 Eh
   gradient norm :     0.2350551 Eh/α   predicted    -0.2506154E-02 (  53.05%)
   displ. norm   :     0.2901227 α      lambda       -0.6590387E-02
   maximum displ.:     0.0872762 α      in ANC's #2, #28, #13, ...

........................................................................
.............................. CYCLE   20 ..............................
........................................................................

 iter      E             dE          RMSdq      gap      omega  full diag
   1   -100.3682120 -0.100368E+03  0.122E-01    0.42       0.0  T
   2   -100.3674059  0.806118E-03  0.156E-01    0.53       1.0  T
   3   -100.3682669 -0.860955E-03  0.629E-02    0.43       1.0  T
   4   -100.3684009 -0.134025E-03  0.440E-02    0.47       1.0  T
   5   -100.3684412 -0.403238E-04  0.207E-02    0.46       1.0  T
   6   -100.3684557 -0.144900E-04  0.107E-02    0.45       1.1  T
   7   -100.3684579 -0.219038E-05  0.897E-03    0.46       1.3  T
   8   -100.3684586 -0.694869E-06  0.681E-03    0.46       1.7  T
   9   -100.3684608 -0.222268E-05  0.181E-03    0.45       6.3  T
  10   -100.3684609 -0.934825E-07  0.982E-04    0.45      11.7  T
  11   -100.3684610 -0.349102E-07  0.292E-04    0.45      39.2  T
  12   -100.3684610 -0.705427E-09  0.184E-04    0.45      62.3  T
     SCC iter.                  ...        0 min,  0.169 sec
     gradient                   ...        0 min,  0.082 sec
 * total energy  :   -99.0243049 Eh     change       -0.2174776E-02 Eh
   gradient norm :     0.0235140 Eh/α   predicted    -0.3572551E-02 (  64.27%)
   displ. norm   :     0.5644094 α      lambda       -0.2095747E-02
   maximum displ.:     0.1682425 α      in ANC's #2, #28, #30, ...
 * RMSD in coord.:     1.2085469 α      energy gain  -0.7138514E+00 Eh

generating ANC from exact Hessian ...
Using Lindh-Hessian (1995)
 Shifting diagonal of input Hessian by    9.9434832616716196E-003
 Lowest  eigenvalues of input Hessian
    0.000000    0.000000    0.000000    0.000000    0.000000    0.000000
    0.010000    0.010018    0.010110    0.010192    0.010258    0.010440
    0.010520    0.010623    0.010738    0.010804    0.010930    0.011037
 Highest eigenvalues
    1.888254    1.968037    2.025462    2.191506    2.353654    2.382359


........................................................................
.............................. CYCLE   21 ..............................
........................................................................

 iter      E             dE          RMSdq      gap      omega  full diag
   1   -100.3623301 -0.100362E+03  0.952E-02    0.45       0.0  T
   2   -100.3621903  0.139728E-03  0.933E-02    0.47       1.0  T
   3   -100.3622917 -0.101370E-03  0.632E-02    0.43       1.0  T
   4   -100.3623340 -0.422458E-04  0.465E-02    0.47       1.0  T
   5   -100.3624236 -0.896088E-04  0.175E-02    0.44       1.0  T
   6   -100.3624403 -0.167326E-04  0.881E-03    0.45       1.3  T
   7   -100.3624410 -0.670453E-06  0.675E-03    0.45       1.7  T
   8   -100.3624411 -0.136375E-06  0.435E-03    0.45       2.6  T
   9   -100.3624416 -0.460448E-06  0.237E-03    0.45       4.8  T
  10   -100.3624417 -0.160086E-06  0.117E-03    0.45       9.8  T
  11   -100.3624418 -0.338773E-07  0.514E-04    0.45      22.3  T
  12   -100.3624418 -0.375151E-08  0.307E-04    0.45      37.3  T
  13   -100.3624418 -0.104977E-08  0.194E-04    0.45      59.3  T
     SCC iter.                  ...        0 min,  0.185 sec
     gradient                   ...        0 min,  0.069 sec
 * total energy  :   -99.0259064 Eh     change       -0.1601483E-02 Eh
   gradient norm :     0.0190764 Eh/α   predicted     0.0000000E+00 (-100.00%)
   displ. norm   :     0.3075938 α      lambda       -0.2455647E-02
   maximum displ.:     0.1424374 α      in ANC's #6, #23, #8, ...

........................................................................
.............................. CYCLE   22 ..............................
........................................................................

 iter      E             dE          RMSdq      gap      omega  full diag
   1   -100.3589198 -0.100359E+03  0.139E-01    0.46       0.0  T
   2   -100.3587253  0.194488E-03  0.104E-01    0.48       1.0  T
   3   -100.3586368  0.885514E-04  0.101E-01    0.43       1.0  T
   4   -100.3589600 -0.323181E-03  0.512E-02    0.48       1.0  T
   5   -100.3590357 -0.757530E-04  0.222E-02    0.45       1.0  T
   6   -100.3590629 -0.271709E-04  0.650E-03    0.46       1.8  T
   7   -100.3590649 -0.203702E-05  0.243E-03    0.46       4.7  T
   8   -100.3590649 -0.284879E-07  0.154E-03    0.46       7.5  T
   9   -100.3590649 -0.697385E-08  0.118E-03    0.46       9.7  T
  10   -100.3590650 -0.512148E-07  0.484E-04    0.46      23.7  T
  11   -100.3590650 -0.430846E-08  0.280E-04    0.46      40.9  T
     SCC iter.                  ...        0 min,  0.158 sec
     gradient                   ...        0 min,  0.066 sec
 * total energy  :   -99.0195566 Eh     change        0.6349786E-02 Eh
   gradient norm :     0.0167931 Eh/α   predicted    -0.1344010E-02 (-121.17%)
   displ. norm   :     0.4454801 α      lambda       -0.2730082E-02
   maximum displ.:     0.2296875 α      in ANC's #6, #18, #8, ...

........................................................................
.............................. CYCLE   23 ..............................
........................................................................

 iter      E             dE          RMSdq      gap      omega  full diag
   1   -100.3655614 -0.100366E+03  0.169E-01    0.43       0.0  T
   2   -100.3652104  0.351011E-03  0.129E-01    0.51       1.0  T
   3   -100.3645064  0.704049E-03  0.156E-01    0.40       1.0  T
   4   -100.3656086 -0.110225E-02  0.633E-02    0.47       1.0  T
   5   -100.3656793 -0.707135E-04  0.312E-02    0.47       1.0  T
   6   -100.3657175 -0.382148E-04  0.182E-02    0.45       1.0  T
   7   -100.3657246 -0.706254E-05  0.105E-02    0.46       1.1  T
   8   -100.3657233  0.135715E-05  0.757E-03    0.46       1.5  T
   9   -100.3657256 -0.229823E-05  0.307E-03    0.45       3.7  T
  10   -100.3657258 -0.273721E-06  0.198E-03    0.45       5.8  T
  11   -100.3657259 -0.116612E-06  0.806E-04    0.45      14.2  T
  12   -100.3657260 -0.175122E-07  0.360E-04    0.45      31.9  T
  13   -100.3657260 -0.286401E-08  0.193E-04    0.45      59.6  T
     SCC iter.                  ...        0 min,  0.197 sec
     gradient                   ...        0 min,  0.070 sec
 * total energy  :   -99.0208620 Eh     change       -0.1305387E-02 Eh
   gradient norm :     0.0184087 Eh/α   predicted    -0.1635954E-02 (  25.32%)
   displ. norm   :     0.4693469 α      lambda       -0.2291954E-02
   maximum displ.:     0.2649307 α      in ANC's #6, #8, #18, ...

........................................................................
.............................. CYCLE   24 ..............................
........................................................................

 iter      E             dE          RMSdq      gap      omega  full diag
   1   -100.3663941 -0.100366E+03  0.107E-01    0.44       0.0  T
   2   -100.3663986 -0.449930E-05  0.616E-02    0.43       1.0  T
   3   -100.3663694  0.291881E-04  0.501E-02    0.45       1.0  T
   4   -100.3664113 -0.418205E-04  0.246E-02    0.42       1.0  T
   5   -100.3664094  0.188341E-05  0.324E-02    0.45       1.0  T
   6   -100.3664577 -0.483668E-04  0.656E-03    0.44       1.7  T
   7   -100.3664585 -0.760207E-06  0.485E-03    0.44       2.4  T
   8   -100.3664587 -0.210500E-06  0.312E-03    0.44       3.7  T
   9   -100.3664589 -0.218083E-06  0.172E-03    0.44       6.7  T
  10   -100.3664590 -0.619774E-07  0.801E-04    0.44      14.3  T
  11   -100.3664590 -0.129580E-07  0.315E-04    0.44      36.4  T
  12   -100.3664590 -0.204241E-08  0.167E-04    0.44      68.8  T
     SCC iter.                  ...        0 min,  0.180 sec
     gradient                   ...        0 min,  0.079 sec
 * total energy  :   -99.0224903 Eh     change       -0.1628327E-02 Eh
   gradient norm :     0.0192585 Eh/α   predicted    -0.1398420E-02 ( -14.12%)
   displ. norm   :     0.6053662 α      lambda       -0.2977564E-02
   maximum displ.:     0.3534742 α      in ANC's #6, #8, #38, ...

........................................................................
.............................. CYCLE   25 ..............................
........................................................................

 iter      E             dE          RMSdq      gap      omega  full diag
   1   -100.3630691 -0.100363E+03  0.123E-01    0.42       0.0  T
   2   -100.3628524  0.216715E-03  0.108E-01    0.44       1.0  T
   3   -100.3627458  0.106585E-03  0.103E-01    0.39       1.0  T
   4   -100.3630946 -0.348857E-03  0.516E-02    0.44       1.0  T
   5   -100.3631715 -0.768970E-04  0.252E-02    0.41       1.0  T
   6   -100.3632075 -0.359761E-04  0.115E-02    0.42       1.0  T
   7   -100.3632098 -0.229682E-05  0.887E-03    0.42       1.3  T
   8   -100.3632099 -0.120850E-06  0.640E-03    0.42       1.8  T
   9   -100.3632109 -0.979418E-06  0.305E-03    0.42       3.8  T
  10   -100.3632111 -0.214294E-06  0.167E-03    0.42       6.9  T
  11   -100.3632112 -0.101810E-06  0.459E-04    0.42      25.0  T
  12   -100.3632112 -0.219443E-08  0.209E-04    0.42      55.0  T
     SCC iter.                  ...        0 min,  0.177 sec
     gradient                   ...        0 min,  0.074 sec
 * total energy  :   -99.0249742 Eh     change       -0.2483910E-02 Eh
   gradient norm :     0.0189328 Eh/α   predicted    -0.2034379E-02 ( -18.10%)
   displ. norm   :     0.6786914 α      lambda       -0.3929585E-02
   maximum displ.:     0.4106093 α      in ANC's #6, #8, #4, ...

........................................................................
.............................. CYCLE   26 ..............................
........................................................................

 iter      E             dE          RMSdq      gap      omega  full diag
   1   -100.3583707 -0.100358E+03  0.176E-01    0.37       0.0  T
   2   -100.3557434  0.262728E-02  0.272E-01    0.50       1.0  T
   3   -100.3586888 -0.294542E-02  0.901E-02    0.37       1.0  T
   4   -100.3588810 -0.192192E-03  0.551E-02    0.42       1.0  T
   5   -100.3589106 -0.296048E-04  0.357E-02    0.38       1.0  T
   6   -100.3590039 -0.932602E-04  0.751E-03    0.39       1.5  T
   7   -100.3590053 -0.139536E-05  0.359E-03    0.39       3.2  T
   8   -100.3590056 -0.385672E-06  0.248E-03    0.40       4.6  T
   9   -100.3590057 -0.483271E-07  0.174E-03    0.40       6.6  T
  10   -100.3590058 -0.634445E-07  0.129E-03    0.40       8.9  T
  11   -100.3590058 -0.615249E-07  0.527E-04    0.40      21.8  T
  12   -100.3590058 -0.624277E-08  0.251E-04    0.40      45.8  T
  13   -100.3590058  0.715801E-10  0.210E-04    0.40      54.7  T
     SCC iter.                  ...        0 min,  0.187 sec
     gradient                   ...        0 min,  0.077 sec
 * total energy  :   -99.0279967 Eh     change       -0.3022483E-02 Eh
   gradient norm :     0.0177218 Eh/α   predicted    -0.2869820E-02 (  -5.05%)
   displ. norm   :     0.6741888 α      lambda       -0.3392058E-02
   maximum displ.:     0.4146141 α      in ANC's #6, #8, #4, ...

........................................................................
.............................. CYCLE   27 ..............................
........................................................................

 iter      E             dE          RMSdq      gap      omega  full diag
   1   -100.3601562 -0.100360E+03  0.156E-01    0.36       0.0  T
   2   -100.3598853  0.270877E-03  0.121E-01    0.38       1.0  T
   3   -100.3592366  0.648743E-03  0.159E-01    0.32       1.0  T
   4   -100.3601980 -0.961382E-03  0.620E-02    0.38       1.0  T
   5   -100.3602864 -0.884537E-04  0.321E-02    0.35       1.0  T
   6   -100.3603262 -0.397889E-04  0.181E-02    0.37       1.0  T
   7   -100.3603357 -0.948163E-05  0.132E-02    0.36       1.0  T
   8   -100.3603392 -0.346048E-05  0.836E-03    0.36       1.4  T
   9   -100.3603419 -0.272799E-05  0.337E-03    0.36       3.4  T
  10   -100.3603422 -0.306061E-06  0.169E-03    0.36       6.8  T
  11   -100.3603422 -0.209694E-07  0.954E-04    0.36      12.0  T
  12   -100.3603422 -0.273305E-07  0.548E-04    0.36      20.9  T
  13   -100.3603422 -0.529889E-08  0.369E-04    0.36      31.1  T
  14   -100.3603422 -0.156381E-08  0.245E-04    0.36      46.8  T
     SCC iter.                  ...        0 min,  0.200 sec
     gradient                   ...        0 min,  0.072 sec
 * total energy  :   -99.0304747 Eh     change       -0.2477998E-02 Eh
   gradient norm :     0.0180151 Eh/α   predicted    -0.2466934E-02 (  -0.45%)
   displ. norm   :     0.6115708 α      lambda       -0.2246429E-02
   maximum displ.:     0.3877537 α      in ANC's #6, #8, #4, ...

........................................................................
.............................. CYCLE   28 ..............................
........................................................................

 iter      E             dE          RMSdq      gap      omega  full diag
   1   -100.3635946 -0.100364E+03  0.106E-01    0.34       0.0  T
   2   -100.3635815  0.131307E-04  0.646E-02    0.33       1.0  T
   3   -100.3635761  0.539543E-05  0.555E-02    0.33       1.0  T
   4   -100.3635113  0.648253E-04  0.600E-02    0.36       1.0  T
   5   -100.3636153 -0.104003E-03  0.271E-02    0.32       1.0  T
   6   -100.3636576 -0.423038E-04  0.143E-02    0.34       1.0  T
   7   -100.3636663 -0.869479E-05  0.716E-03    0.33       1.6  T
   8   -100.3636662  0.592061E-07  0.633E-03    0.33       1.8  T
   9   -100.3636683 -0.210702E-05  0.196E-03    0.33       5.8  T
  10   -100.3636683  0.127503E-07  0.150E-03    0.33       7.6  T
  11   -100.3636684 -0.581143E-07  0.646E-04    0.33      17.8  T
  12   -100.3636684 -0.384938E-08  0.369E-04    0.33      31.1  T
  13   -100.3636684 -0.252730E-08  0.176E-04    0.33      65.0  T
     SCC iter.                  ...        0 min,  0.195 sec
     gradient                   ...        0 min,  0.079 sec
 * total energy  :   -99.0321512 Eh     change       -0.1676531E-02 Eh
   gradient norm :     0.0127663 Eh/α   predicted    -0.1543318E-02 (  -7.95%)
   displ. norm   :     0.5304086 α      lambda       -0.1420839E-02
   maximum displ.:     0.3499145 α      in ANC's #6, #8, #4, ...

........................................................................
.............................. CYCLE   29 ..............................
........................................................................

 iter      E             dE          RMSdq      gap      omega  full diag
   1   -100.3731009 -0.100373E+03  0.913E-02    0.33       0.0  T
   2   -100.3705684  0.253250E-02  0.227E-01    0.25       1.0  T
   3   -100.3730885 -0.252009E-02  0.638E-02    0.33       1.0  T
   4   -100.3732227 -0.134157E-03  0.278E-02    0.31       1.0  T
   5   -100.3732271 -0.444280E-05  0.171E-02    0.31       1.0  T
   6   -100.3732366 -0.949710E-05  0.893E-03    0.31       1.3  T
   7   -100.3732391 -0.242671E-05  0.621E-03    0.31       1.8  T
   8   -100.3732403 -0.127030E-05  0.318E-03    0.31       3.6  T
   9   -100.3732406 -0.317881E-06  0.161E-03    0.31       7.1  T
  10   -100.3732407 -0.503526E-07  0.864E-04    0.31      13.3  T
  11   -100.3732407 -0.207409E-07  0.420E-04    0.31      27.3  T
  12   -100.3732407 -0.189895E-08  0.247E-04    0.31      46.5  T
     SCC iter.                  ...        0 min,  0.166 sec
     gradient                   ...        0 min,  0.069 sec
 * total energy  :   -99.0330960 Eh     change       -0.9448124E-03 Eh
   gradient norm :     0.0075269 Eh/α   predicted    -0.9102858E-03 (  -3.65%)
   displ. norm   :     0.6295295 α      lambda       -0.1076905E-02
   maximum displ.:     0.3981930 α      in ANC's #6, #8, #4, ...

........................................................................
.............................. CYCLE   30 ..............................
........................................................................

 iter      E             dE          RMSdq      gap      omega  full diag
   1   -100.3653738 -0.100365E+03  0.882E-02    0.30       0.0  T
   2   -100.3652292  0.144625E-03  0.755E-02    0.27       1.0  T
   3   -100.3649956  0.233532E-03  0.947E-02    0.33       1.0  T
   4   -100.3653429 -0.347250E-03  0.568E-02    0.28       1.0  T
   5   -100.3654341 -0.911964E-04  0.220E-02    0.28       1.0  T
   6   -100.3654634 -0.293679E-04  0.971E-03    0.30       1.2  T
   7   -100.3654662 -0.273868E-05  0.668E-03    0.29       1.7  T
   8   -100.3654629  0.325046E-05  0.871E-03    0.29       1.3  T
   9   -100.3654670 -0.406695E-05  0.286E-03    0.29       4.0  T
  10   -100.3654672 -0.190275E-06  0.126E-03    0.29       9.1  T
  11   -100.3654672 -0.385704E-07  0.737E-04    0.29      15.6  T
  12   -100.3654672  0.146377E-08  0.593E-04    0.29      19.3  T
  13   -100.3654672 -0.127233E-07  0.229E-04    0.29      50.1  T
  14   -100.3654672  0.352429E-11  0.170E-04    0.29      67.7  T
     SCC iter.                  ...        0 min,  0.208 sec
     gradient                   ...        0 min,  0.073 sec
 * total energy  :   -99.0335882 Eh     change       -0.4921564E-03 Eh
   gradient norm :     0.0155847 Eh/α   predicted    -0.7518452E-03 (  52.77%)
   displ. norm   :     0.2790671 α      lambda       -0.6945996E-03
   maximum displ.:     0.1736984 α      in ANC's #6, #4, #8, ...

........................................................................
.............................. CYCLE   31 ..............................
........................................................................

 iter      E             dE          RMSdq      gap      omega  full diag
   1   -100.3713855 -0.100371E+03  0.553E-02    0.29       0.0  T
   2   -100.3693292  0.205635E-02  0.206E-01    0.24       1.0  T
   3   -100.3714783 -0.214911E-02  0.270E-02    0.29       1.0  T
   4   -100.3714735  0.481838E-05  0.204E-02    0.28       1.0  T
   5   -100.3714731  0.362197E-06  0.186E-02    0.29       1.0  T
   6   -100.3714952 -0.220982E-04  0.309E-03    0.28       3.7  T
   7   -100.3714953 -0.434878E-07  0.293E-03    0.28       3.9  T
   8   -100.3714955 -0.217229E-06  0.168E-03    0.28       6.8  T
   9   -100.3714955 -0.614756E-07  0.971E-04    0.28      11.8  T
  10   -100.3714956 -0.336008E-07  0.504E-04    0.28      22.7  T
  11   -100.3714956 -0.794913E-09  0.426E-04    0.28      26.9  T
  12   -100.3714956 -0.572167E-08  0.152E-04    0.28      75.3  T
     SCC iter.                  ...        0 min,  0.161 sec
     gradient                   ...        0 min,  0.080 sec
 * total energy  :   -99.0340938 Eh     change       -0.5056313E-03 Eh
   gradient norm :     0.0081931 Eh/α   predicted    -0.3743506E-03 ( -25.96%)
   displ. norm   :     0.4133171 α      lambda       -0.6529748E-03
   maximum displ.:     0.2609192 α      in ANC's #6, #4, #8, ...

........................................................................
.............................. CYCLE   32 ..............................
........................................................................

 iter      E             dE          RMSdq      gap      omega  full diag
   1   -100.3736784 -0.100374E+03  0.590E-02    0.28       0.0  T
   2   -100.3727287  0.949663E-03  0.138E-01    0.24       1.0  T
   3   -100.3736759 -0.947199E-03  0.404E-02    0.29       1.0  T
   4   -100.3737029 -0.269532E-04  0.215E-02    0.28       1.0  T
   5   -100.3737113 -0.838871E-05  0.114E-02    0.28       1.0  T
   6   -100.3737204 -0.915065E-05  0.342E-03    0.27       3.4  T
   7   -100.3737204  0.660788E-08  0.285E-03    0.28       4.0  T
   8   -100.3737205 -0.110664E-06  0.207E-03    0.28       5.5  T
   9   -100.3737206 -0.100945E-06  0.119E-03    0.28       9.6  T
  10   -100.3737206  0.160016E-08  0.756E-04    0.28      15.2  T
  11   -100.3737206 -0.149410E-07  0.555E-04    0.27      20.7  T
  12   -100.3737207 -0.155790E-07  0.192E-04    0.27      59.8  T
  13   -100.3737207 -0.115722E-08  0.970E-05    0.27     118.2  T
     SCC iter.                  ...        0 min,  0.187 sec
     gradient                   ...        0 min,  0.072 sec
 * total energy  :   -99.0345599 Eh     change       -0.4661229E-03 Eh
   gradient norm :     0.0084774 Eh/α   predicted    -0.3822653E-03 ( -17.99%)
   displ. norm   :     0.4762121 α      lambda       -0.6468357E-03
   maximum displ.:     0.2866088 α      in ANC's #6, #4, #8, ...

........................................................................
.............................. CYCLE   33 ..............................
........................................................................

 iter      E             dE          RMSdq      gap      omega  full diag
   1   -100.3756947 -0.100376E+03  0.745E-02    0.28       0.0  T
   2   -100.3734922  0.220256E-02  0.213E-01    0.22       1.0  T
   3   -100.3757545 -0.226232E-02  0.443E-02    0.28       1.0  T
   4   -100.3757824 -0.279001E-04  0.278E-02    0.27       1.0  T
   5   -100.3757228  0.596275E-04  0.354E-02    0.28       1.0  T
   6   -100.3758074 -0.846751E-04  0.677E-03    0.27       1.7  T
   7   -100.3758074  0.705550E-07  0.566E-03    0.27       2.0  T
   8   -100.3758077 -0.363513E-06  0.390E-03    0.27       2.9  T
   9   -100.3758079 -0.212401E-06  0.225E-03    0.27       5.1  T
  10   -100.3758081 -0.196670E-06  0.108E-03    0.27      10.6  T
  11   -100.3758082 -0.308727E-07  0.467E-04    0.27      24.6  T
  12   -100.3758082  0.570844E-08  0.477E-04    0.27      24.0  T
     SCC iter.                  ...        0 min,  0.174 sec
     gradient                   ...        0 min,  0.074 sec
 * total energy  :   -99.0350514 Eh     change       -0.4914257E-03 Eh
   gradient norm :     0.0130134 Eh/α   predicted    -0.3967663E-03 ( -19.26%)
   displ. norm   :     0.5190799 α      lambda       -0.6474179E-03
   maximum displ.:     0.3112542 α      in ANC's #6, #4, #8, ...

........................................................................
.............................. CYCLE   34 ..............................
........................................................................

 iter      E             dE          RMSdq      gap      omega  full diag
   1   -100.3727563 -0.100373E+03  0.719E-02    0.27       0.0  T
   2   -100.3727496  0.675900E-05  0.429E-02    0.27       1.0  T
   3   -100.3725163  0.233287E-03  0.735E-02    0.29       1.0  T
   4   -100.3727146 -0.198347E-03  0.372E-02    0.26       1.0  T
   5   -100.3727581 -0.434764E-04  0.172E-02    0.27       1.0  T
   6   -100.3727691 -0.109649E-04  0.910E-03    0.27       1.3  T
   7   -100.3727654  0.370804E-05  0.107E-02    0.27       1.1  T
   8   -100.3727710 -0.560319E-05  0.442E-03    0.27       2.6  T
   9   -100.3727715 -0.547196E-06  0.163E-03    0.27       7.1  T
  10   -100.3727716 -0.728801E-07  0.727E-04    0.27      15.8  T
  11   -100.3727716 -0.914160E-08  0.418E-04    0.27      27.4  T
  12   -100.3727716 -0.164707E-08  0.267E-04    0.27      43.0  T
     SCC iter.                  ...        0 min,  0.155 sec
     gradient                   ...        0 min,  0.077 sec
 * total energy  :   -99.0355684 Eh     change       -0.5170681E-03 Eh
   gradient norm :     0.0099616 Eh/α   predicted    -0.4109326E-03 ( -20.53%)
   displ. norm   :     0.5191046 α      lambda       -0.5878008E-03
   maximum displ.:     0.3040629 α      in ANC's #6, #4, #8, ...

........................................................................
.............................. CYCLE   35 ..............................
........................................................................

 iter      E             dE          RMSdq      gap      omega  full diag
   1   -100.3730194 -0.100373E+03  0.695E-02    0.27       0.0  T
   2   -100.3727835  0.235928E-03  0.818E-02    0.31       1.0  T
   3   -100.3727456  0.378386E-04  0.804E-02    0.26       1.0  T
   4   -100.3730136 -0.267954E-03  0.344E-02    0.29       1.0  T
   5   -100.3730423 -0.286933E-04  0.167E-02    0.29       1.0  T
   6   -100.3730521 -0.987637E-05  0.103E-02    0.28       1.1  T
   7   -100.3730505  0.169363E-05  0.104E-02    0.28       1.1  T
   8   -100.3730546 -0.413730E-05  0.488E-03    0.28       2.4  T
   9   -100.3730553 -0.685199E-06  0.191E-03    0.28       6.0  T
  10   -100.3730553 -0.121535E-07  0.162E-03    0.28       7.1  T
  11   -100.3730554 -0.145203E-06  0.498E-04    0.28      23.0  T
  12   -100.3730554 -0.200582E-08  0.386E-04    0.28      29.7  T
     SCC iter.                  ...        0 min,  0.162 sec
     gradient                   ...        0 min,  0.074 sec
 * total energy  :   -99.0360167 Eh     change       -0.4483189E-03 Eh
   gradient norm :     0.0062840 Eh/α   predicted    -0.3731022E-03 ( -16.78%)
   displ. norm   :     0.5050415 α      lambda       -0.4382737E-03
   maximum displ.:     0.2968505 α      in ANC's #6, #4, #3, ...

........................................................................
.............................. CYCLE   36 ..............................
........................................................................

 iter      E             dE          RMSdq      gap      omega  full diag
   1   -100.3718821 -0.100372E+03  0.711E-02    0.28       0.0  T
   2   -100.3708406  0.104152E-02  0.155E-01    0.37       1.0  T
   3   -100.3720053 -0.116474E-02  0.326E-02    0.30       1.0  T
   4   -100.3719954  0.993258E-05  0.239E-02    0.30       1.0  T
   5   -100.3720079 -0.124874E-04  0.136E-02    0.30       1.0  T
   6   -100.3720065  0.142480E-05  0.113E-02    0.29       1.0  T
   7   -100.3720058  0.635334E-06  0.120E-02    0.30       1.0  T
   8   -100.3720127 -0.682708E-05  0.369E-03    0.30       3.1  T
   9   -100.3720125  0.195179E-06  0.260E-03    0.30       4.4  T
  10   -100.3720129 -0.400501E-06  0.948E-04    0.30      12.1  T
  11   -100.3720129 -0.847682E-08  0.724E-04    0.30      15.8  T
  12   -100.3720129 -0.118312E-07  0.294E-04    0.30      39.0  T
  13   -100.3720129  0.160972E-08  0.251E-04    0.30      45.7  T
     SCC iter.                  ...        0 min,  0.183 sec
     gradient                   ...        0 min,  0.070 sec
 * total energy  :   -99.0363600 Eh     change       -0.3432265E-03 Eh
   gradient norm :     0.0059779 Eh/α   predicted    -0.2750332E-03 ( -19.87%)
   displ. norm   :     0.4873238 α      lambda       -0.4123361E-03
   maximum displ.:     0.2783589 α      in ANC's #6, #3, #4, ...

........................................................................
.............................. CYCLE   37 ..............................
........................................................................

 iter      E             dE          RMSdq      gap      omega  full diag
   1   -100.3743185 -0.100374E+03  0.924E-02    0.30       0.0  T
   2   -100.3721351  0.218335E-02  0.226E-01    0.44       1.0  T
   3   -100.3746128 -0.247773E-02  0.488E-02    0.34       1.0  T
   4   -100.3746529 -0.400707E-04  0.271E-02    0.32       1.0  T
   5   -100.3746629 -0.997413E-05  0.204E-02    0.32       1.0  T
   6   -100.3746608  0.207514E-05  0.153E-02    0.32       1.0  T
   7   -100.3746690 -0.816555E-05  0.111E-02    0.33       1.0  T
   8   -100.3746734 -0.445343E-05  0.554E-03    0.33       2.1  T
   9   -100.3746744 -0.972780E-06  0.286E-03    0.32       4.0  T
  10   -100.3746748 -0.348446E-06  0.113E-03    0.32      10.1  T
  11   -100.3746748 -0.140007E-07  0.779E-04    0.33      14.7  T
  12   -100.3746748 -0.128331E-07  0.291E-04    0.33      39.5  T
  13   -100.3746748  0.144792E-08  0.255E-04    0.33      45.0  T
     SCC iter.                  ...        0 min,  0.182 sec
     gradient                   ...        0 min,  0.072 sec
 * total energy  :   -99.0366756 Eh     change       -0.3156275E-03 Eh
   gradient norm :     0.0066409 Eh/α   predicted    -0.2551342E-03 ( -19.17%)
   displ. norm   :     0.5007318 α      lambda       -0.3706187E-03
   maximum displ.:     0.2854398 α      in ANC's #6, #3, #1, ...

........................................................................
.............................. CYCLE   38 ..............................
........................................................................

 iter      E             dE          RMSdq      gap      omega  full diag
   1   -100.3734421 -0.100373E+03  0.102E-01    0.32       0.0  T
   2   -100.3710656  0.237652E-02  0.235E-01    0.48       1.0  T
   3   -100.3738261 -0.276052E-02  0.464E-02    0.36       1.0  T
   4   -100.3738463 -0.201527E-04  0.284E-02    0.35       1.0  T
   5   -100.3738689 -0.225851E-04  0.157E-02    0.35       1.0  T
   6   -100.3738630  0.585022E-05  0.133E-02    0.34       1.0  T
   7   -100.3738727 -0.964952E-05  0.705E-03    0.35       1.6  T
   8   -100.3738737 -0.990051E-06  0.496E-03    0.35       2.3  T
   9   -100.3738745 -0.823194E-06  0.262E-03    0.35       4.4  T
  10   -100.3738747 -0.244873E-06  0.989E-04    0.35      11.6  T
  11   -100.3738747 -0.133037E-07  0.480E-04    0.35      23.9  T
  12   -100.3738747  0.100546E-08  0.376E-04    0.35      30.5  T
     SCC iter.                  ...        0 min,  0.173 sec
     gradient                   ...        0 min,  0.077 sec
 * total energy  :   -99.0369532 Eh     change       -0.2775905E-03 Eh
   gradient norm :     0.0064969 Eh/α   predicted    -0.2317773E-03 ( -16.50%)
   displ. norm   :     0.4154368 α      lambda       -0.3318275E-03
   maximum displ.:     0.2076871 α      in ANC's #6, #3, #18, ...

........................................................................
.............................. CYCLE   39 ..............................
........................................................................

 iter      E             dE          RMSdq      gap      omega  full diag
   1   -100.3768621 -0.100377E+03  0.101E-01    0.35       0.0  T
   2   -100.3745998  0.226223E-02  0.229E-01    0.50       1.0  T
   3   -100.3772455 -0.264563E-02  0.407E-02    0.39       1.0  T
   4   -100.3772395  0.600054E-05  0.288E-02    0.37       1.0  T
   5   -100.3772733 -0.338829E-04  0.120E-02    0.37       1.0  T
   6   -100.3772692  0.417107E-05  0.102E-02    0.37       1.1  T
   7   -100.3772761 -0.689274E-05  0.443E-03    0.38       2.6  T
   8   -100.3772764 -0.356430E-06  0.312E-03    0.38       3.7  T
   9   -100.3772768 -0.385613E-06  0.132E-03    0.38       8.7  T
  10   -100.3772768 -0.226328E-07  0.926E-04    0.38      12.4  T
  11   -100.3772768 -0.159668E-07  0.498E-04    0.38      23.0  T
  12   -100.3772768 -0.239245E-08  0.327E-04    0.38      35.1  T
     SCC iter.                  ...        0 min,  0.179 sec
     gradient                   ...        0 min,  0.074 sec
 * total energy  :   -99.0371691 Eh     change       -0.2159072E-03 Eh
   gradient norm :     0.0070474 Eh/α   predicted    -0.1945506E-03 (  -9.89%)
   displ. norm   :     0.3588458 α      lambda       -0.2254584E-03
   maximum displ.:     0.1842412 α      in ANC's #6, #3, #18, ...

........................................................................
.............................. CYCLE   40 ..............................
........................................................................

 iter      E             dE          RMSdq      gap      omega  full diag
   1   -100.3757237 -0.100376E+03  0.637E-02    0.38       0.0  T
   2   -100.3754162  0.307520E-03  0.856E-02    0.43       1.0  T
   3   -100.3756932 -0.276978E-03  0.507E-02    0.37       1.0  T
   4   -100.3757584 -0.652676E-04  0.277E-02    0.39       1.0  T
   5   -100.3757834 -0.249955E-04  0.136E-02    0.39       1.0  T
   6   -100.3757943 -0.108380E-04  0.319E-03    0.39       3.6  T
   7   -100.3757945 -0.209787E-06  0.235E-03    0.39       4.9  T
   8   -100.3757947 -0.193060E-06  0.151E-03    0.39       7.6  T
   9   -100.3757947 -0.252270E-07  0.107E-03    0.39      10.8  T
  10   -100.3757947 -0.149129E-07  0.646E-04    0.39      17.8  T
  11   -100.3757947 -0.127708E-07  0.201E-04    0.39      57.2  T
  12   -100.3757947 -0.491085E-09  0.119E-04    0.39      96.8  T
     SCC iter.                  ...        0 min,  0.169 sec
     gradient                   ...        0 min,  0.067 sec
 * total energy  :   -99.0373156 Eh     change       -0.1465490E-03 Eh
   gradient norm :     0.0049248 Eh/α   predicted    -0.1272460E-03 ( -13.17%)
   displ. norm   :     0.2330196 α      lambda       -0.1588877E-03
   maximum displ.:     0.1166867 α      in ANC's #3, #6, #18, ...

........................................................................
.............................. CYCLE   41 ..............................
........................................................................

 iter      E             dE          RMSdq      gap      omega  full diag
   1   -100.3760136 -0.100376E+03  0.450E-02    0.39       0.0  T
   2   -100.3759747  0.388702E-04  0.374E-02    0.41       1.0  T
   3   -100.3758495  0.125182E-03  0.597E-02    0.37       1.0  T
   4   -100.3760171 -0.167590E-03  0.705E-03    0.39       1.6  T
   5   -100.3760196 -0.244217E-05  0.351E-03    0.39       3.3  T
   6   -100.3760201 -0.534769E-06  0.217E-03    0.39       5.3  T
   7   -100.3760201 -0.109755E-07  0.162E-03    0.39       7.1  T
   8   -100.3760202 -0.421748E-07  0.101E-03    0.39      11.3  T
   9   -100.3760202 -0.598868E-08  0.662E-04    0.39      17.3  T
  10   -100.3760202 -0.398408E-08  0.429E-04    0.39      26.7  T
  11   -100.3760202 -0.717213E-08  0.218E-04    0.39      52.6  T
     SCC iter.                  ...        0 min,  0.161 sec
     gradient                   ...        0 min,  0.077 sec
 * total energy  :   -99.0374182 Eh     change       -0.1025390E-03 Eh
   gradient norm :     0.0036195 Eh/α   predicted    -0.8376180E-04 ( -18.31%)
   displ. norm   :     0.2076572 α      lambda       -0.1283236E-03
   maximum displ.:     0.1107296 α      in ANC's #3, #18, #9, ...

........................................................................
.............................. CYCLE   42 ..............................
........................................................................

 iter      E             dE          RMSdq      gap      omega  full diag
   1   -100.3776671 -0.100378E+03  0.472E-02    0.39       0.0  T
   2   -100.3776659  0.117423E-05  0.290E-02    0.40       1.0  T
   3   -100.3776491  0.168139E-04  0.237E-02    0.39       1.0  T
   4   -100.3776583 -0.925244E-05  0.173E-02    0.40       1.0  T
   5   -100.3776778 -0.194474E-04  0.482E-03    0.39       2.4  T
   6   -100.3776784 -0.586423E-06  0.204E-03    0.39       5.6  T
   7   -100.3776784  0.180621E-07  0.182E-03    0.39       6.3  T
   8   -100.3776784 -0.421250E-07  0.122E-03    0.39       9.4  T
   9   -100.3776784 -0.493171E-07  0.610E-04    0.39      18.8  T
  10   -100.3776785 -0.591434E-08  0.236E-04    0.39      48.5  T
  11   -100.3776785  0.301299E-09  0.169E-04    0.39      67.9  T
     SCC iter.                  ...        0 min,  0.144 sec
     gradient                   ...        0 min,  0.076 sec
 * total energy  :   -99.0374958 Eh     change       -0.7757432E-04 Eh
   gradient norm :     0.0052604 Eh/α   predicted    -0.6693180E-04 ( -13.72%)
   displ. norm   :     0.2209995 α      lambda       -0.1087404E-03
   maximum displ.:     0.1200235 α      in ANC's #3, #6, #9, ...
 * RMSD in coord.:     0.9621244 α      energy gain  -0.1319088E-01 Eh

generating ANC from exact Hessian ...
Using Lindh-Hessian (1995)
 Shifting diagonal of input Hessian by    9.9347548355160319E-003
 Lowest  eigenvalues of input Hessian
    0.000000    0.000000    0.000000    0.000000    0.000000    0.000000
    0.010000    0.010048    0.010097    0.010142    0.010308    0.010383
    0.010614    0.010684    0.010757    0.010876    0.011094    0.011131
 Highest eigenvalues
    1.887306    1.970972    2.018748    2.192787    2.307157    2.383573


........................................................................
.............................. CYCLE   43 ..............................
........................................................................

 iter      E             dE          RMSdq      gap      omega  full diag
   1   -100.3764906 -0.100376E+03  0.460E-02    0.39       0.0  T
   2   -100.3764446  0.460025E-04  0.413E-02    0.41       1.0  T
   3   -100.3763735  0.711209E-04  0.515E-02    0.38       1.0  T
   4   -100.3764914 -0.117994E-03  0.126E-02    0.40       1.0  T
   5   -100.3764973 -0.584274E-05  0.487E-03    0.40       2.4  T
   6   -100.3764983 -0.977904E-06  0.241E-03    0.40       4.8  T
   7   -100.3764981  0.133931E-06  0.228E-03    0.40       5.0  T
   8   -100.3764983 -0.207324E-06  0.800E-04    0.40      14.3  T
   9   -100.3764983  0.443151E-08  0.633E-04    0.40      18.1  T
  10   -100.3764984 -0.163157E-07  0.250E-04    0.40      46.0  T
  11   -100.3764984 -0.789584E-09  0.173E-04    0.40      66.3  T
     SCC iter.                  ...        0 min,  0.160 sec
     gradient                   ...        0 min,  0.072 sec
 * total energy  :   -99.0375751 Eh     change       -0.7930288E-04 Eh
   gradient norm :     0.0038355 Eh/α   predicted     0.0000000E+00 (-100.00%)
   displ. norm   :     0.0573596 α      lambda       -0.6795868E-04
   maximum displ.:     0.0279904 α      in ANC's #2, #6, #8, ...

........................................................................
.............................. CYCLE   44 ..............................
........................................................................

 iter      E             dE          RMSdq      gap      omega  full diag
   1   -100.3766473 -0.100377E+03  0.250E-02    0.40       0.0  T
   2   -100.3766347  0.126168E-04  0.207E-02    0.39       1.0  T
   3   -100.3766190  0.156433E-04  0.255E-02    0.40       1.0  T
   4   -100.3766480 -0.289091E-04  0.942E-03    0.39       1.2  T
   5   -100.3766500 -0.208958E-05  0.396E-03    0.39       2.9  T
   6   -100.3766508 -0.754227E-06  0.171E-03    0.39       6.7  T
   7   -100.3766509 -0.120346E-06  0.865E-04    0.39      13.3  T
   8   -100.3766509  0.876099E-08  0.642E-04    0.39      17.9  T
   9   -100.3766509 -0.169821E-07  0.199E-04    0.39      57.8  T
  10   -100.3766509 -0.213817E-09  0.118E-04    0.39      96.9  T
     SCC iter.                  ...        0 min,  0.125 sec
     gradient                   ...        0 min,  0.078 sec
 * total energy  :   -99.0376143 Eh     change       -0.3925864E-04 Eh
   gradient norm :     0.0024456 Eh/α   predicted    -0.3410308E-04 ( -13.13%)
   displ. norm   :     0.1695315 α      lambda       -0.1607898E-03
   maximum displ.:     0.0878207 α      in ANC's #2, #6, #19, ...

........................................................................
.............................. CYCLE   45 ..............................
........................................................................

 iter      E             dE          RMSdq      gap      omega  full diag
   1   -100.3770023 -0.100377E+03  0.438E-02    0.39       0.0  T
   2   -100.3769993  0.296984E-05  0.281E-02    0.38       1.0  T
   3   -100.3769344  0.649036E-04  0.393E-02    0.40       1.0  T
   4   -100.3769755 -0.410428E-04  0.245E-02    0.38       1.0  T
   5   -100.3770058 -0.303241E-04  0.482E-03    0.39       2.4  T
   6   -100.3770061 -0.308838E-06  0.397E-03    0.39       2.9  T
   7   -100.3770066 -0.475809E-06  0.236E-03    0.39       4.9  T
   8   -100.3770067 -0.119357E-06  0.135E-03    0.39       8.5  T
   9   -100.3770066  0.706395E-07  0.137E-03    0.39       8.4  T
  10   -100.3770067 -0.988178E-07  0.536E-04    0.39      21.4  T
  11   -100.3770067 -0.576246E-08  0.237E-04    0.39      48.4  T
  12   -100.3770067 -0.836408E-09  0.132E-04    0.39      86.8  T
     SCC iter.                  ...        0 min,  0.165 sec
     gradient                   ...        0 min,  0.077 sec
 * total energy  :   -99.0376432 Eh     change       -0.2891929E-04 Eh
   gradient norm :     0.0054639 Eh/α   predicted    -0.8270586E-04 ( 185.99%)
   displ. norm   :     0.0602556 α      lambda       -0.1100842E-03
   maximum displ.:     0.0254601 α      in ANC's #2, #8, #6, ...

........................................................................
.............................. CYCLE   46 ..............................
........................................................................

 iter      E             dE          RMSdq      gap      omega  full diag
   1   -100.3768583 -0.100377E+03  0.353E-02    0.39       0.0  T
   2   -100.3768510  0.736950E-05  0.255E-02    0.38       1.0  T
   3   -100.3767995  0.514411E-04  0.368E-02    0.40       1.0  T
   4   -100.3768549 -0.553337E-04  0.165E-02    0.38       1.0  T
   5   -100.3768611 -0.623067E-05  0.817E-03    0.39       1.4  T
   6   -100.3768628 -0.167298E-05  0.563E-03    0.39       2.0  T
   7   -100.3768632 -0.469378E-06  0.276E-03    0.39       4.2  T
   8   -100.3768633 -0.767203E-07  0.140E-03    0.39       8.2  T
   9   -100.3768634 -0.641716E-07  0.441E-04    0.39      26.0  T
  10   -100.3768634  0.369735E-08  0.409E-04    0.39      28.1  T
     SCC iter.                  ...        0 min,  0.151 sec
     gradient                   ...        0 min,  0.076 sec
 * total energy  :   -99.0376785 Eh     change       -0.3522670E-04 Eh
   gradient norm :     0.0043556 Eh/α   predicted    -0.5524243E-04 (  56.82%)
   displ. norm   :     0.0830555 α      lambda       -0.1551081E-03
   maximum displ.:     0.0336702 α      in ANC's #2, #45, #8, ...

........................................................................
.............................. CYCLE   47 ..............................
........................................................................

 iter      E             dE          RMSdq      gap      omega  full diag
   1   -100.3765893 -0.100377E+03  0.447E-02    0.38       0.0  T
   2   -100.3765864  0.295845E-05  0.243E-02    0.38       1.0  T
   3   -100.3765382  0.481991E-04  0.362E-02    0.40       1.0  T
   4   -100.3765890 -0.508711E-04  0.149E-02    0.38       1.0  T
   5   -100.3765908 -0.174305E-05  0.102E-02    0.39       1.1  T
   6   -100.3765951 -0.426761E-05  0.435E-03    0.38       2.6  T
   7   -100.3765947  0.388966E-06  0.371E-03    0.39       3.1  T
   8   -100.3765951 -0.412058E-06  0.194E-03    0.38       5.9  T
   9   -100.3765953 -0.222537E-06  0.856E-04    0.39      13.4  T
  10   -100.3765953 -0.173285E-07  0.316E-04    0.39      36.3  T
  11   -100.3765953 -0.466471E-09  0.180E-04    0.39      63.9  T
     SCC iter.                  ...        0 min,  0.161 sec
     gradient                   ...        0 min,  0.078 sec
 * total energy  :   -99.0377147 Eh     change       -0.3621403E-04 Eh
   gradient norm :     0.0032391 Eh/α   predicted    -0.7809312E-04 ( 115.64%)
   displ. norm   :     0.0867101 α      lambda       -0.8218351E-04
   maximum displ.:     0.0485724 α      in ANC's #2, #6, #8, ...

........................................................................
.............................. CYCLE   48 ..............................
........................................................................

 iter      E             dE          RMSdq      gap      omega  full diag
   1   -100.3767163 -0.100377E+03  0.243E-02    0.39       0.0  T
   2   -100.3767088  0.750165E-05  0.189E-02    0.38       1.0  T
   3   -100.3766881  0.207236E-04  0.248E-02    0.39       1.0  T
   4   -100.3767136 -0.255161E-04  0.101E-02    0.38       1.1  T
   5   -100.3767175 -0.393619E-05  0.325E-03    0.38       3.5  T
   6   -100.3767179 -0.424599E-06  0.115E-03    0.38      10.0  T
   7   -100.3767179  0.351737E-08  0.106E-03    0.38      10.8  T
   8   -100.3767180 -0.406239E-07  0.556E-04    0.38      20.6  T
   9   -100.3767180 -0.125091E-08  0.394E-04    0.38      29.1  T
  10   -100.3767180 -0.566713E-08  0.160E-04    0.38      71.5  T
     SCC iter.                  ...        0 min,  0.148 sec
     gradient                   ...        0 min,  0.070 sec
 * total energy  :   -99.0377745 Eh     change       -0.5984550E-04 Eh
   gradient norm :     0.0015498 Eh/α   predicted    -0.4140093E-04 ( -30.82%)
   displ. norm   :     0.2625444 α      lambda       -0.7054263E-04
   maximum displ.:     0.1511331 α      in ANC's #2, #6, #8, ...

........................................................................
.............................. CYCLE   49 ..............................
........................................................................

 iter      E             dE          RMSdq      gap      omega  full diag
   1   -100.3762456 -0.100376E+03  0.580E-02    0.39       0.0  T
   2   -100.3761739  0.717091E-04  0.521E-02    0.37       1.0  T
   3   -100.3760895  0.843773E-04  0.597E-02    0.40       1.0  T
   4   -100.3762315 -0.142037E-03  0.213E-02    0.37       1.0  T
   5   -100.3762533 -0.218038E-04  0.469E-03    0.38       2.4  T
   6   -100.3762542 -0.853759E-06  0.238E-03    0.38       4.8  T
   7   -100.3762544 -0.237561E-06  0.145E-03    0.38       7.9  T
   8   -100.3762545 -0.300870E-07  0.823E-04    0.38      13.9  T
   9   -100.3762545 -0.918614E-08  0.461E-04    0.38      24.9  T
  10   -100.3762545 -0.267168E-08  0.259E-04    0.38      44.2  T
     SCC iter.                  ...        0 min,  0.152 sec
     gradient                   ...        0 min,  0.070 sec
 * total energy  :   -99.0378469 Eh     change       -0.7241037E-04 Eh
   gradient norm :     0.0021370 Eh/α   predicted    -0.3635182E-04 ( -49.80%)
   displ. norm   :     0.1762930 α      lambda        0.4214613E-05
   maximum displ.:     0.1014918 α      in ANC's #2, #6, #8, ...

........................................................................
.............................. CYCLE   50 ..............................
........................................................................

 iter      E             dE          RMSdq      gap      omega  full diag
   1   -100.3754076 -0.100375E+03  0.388E-02    0.38       0.0  T
   2   -100.3753828  0.248033E-04  0.326E-02    0.37       1.0  T
   3   -100.3753291  0.537895E-04  0.417E-02    0.39       1.0  T
   4   -100.3753986 -0.695962E-04  0.155E-02    0.37       1.0  T
   5   -100.3754105 -0.118298E-04  0.328E-03    0.38       3.5  T
   6   -100.3754109 -0.452514E-06  0.155E-03    0.38       7.4  T
   7   -100.3754110 -0.918014E-07  0.966E-04    0.38      11.9  T
   8   -100.3754110 -0.121338E-07  0.547E-04    0.38      21.0  T
   9   -100.3754110 -0.391981E-08  0.323E-04    0.38      35.5  T
  10   -100.3754110 -0.149730E-08  0.195E-04    0.38      58.7  T
     SCC iter.                  ...        0 min,  0.139 sec
     gradient                   ...        0 min,  0.065 sec
 * total energy  :   -99.0378574 Eh     change       -0.1049990E-04 Eh
   gradient norm :     0.0036354 Eh/α   predicted     0.2171772E-05 (-120.68%)
   displ. norm   :     0.0954807 α      lambda       -0.5204612E-04
   maximum displ.:     0.0573854 α      in ANC's #2, #6, #8, ...

........................................................................
.............................. CYCLE   51 ..............................
........................................................................

 iter      E             dE          RMSdq      gap      omega  full diag
   1   -100.3759177 -0.100376E+03  0.212E-02    0.38       0.0  T
   2   -100.3759080  0.967989E-05  0.188E-02    0.37       1.0  T
   3   -100.3758920  0.160174E-04  0.242E-02    0.39       1.0  T
   4   -100.3759186 -0.266485E-04  0.243E-03    0.38       4.7  T
   5   -100.3759187 -0.123002E-07  0.169E-03    0.38       6.8  T
   6   -100.3759189 -0.209281E-06  0.516E-04    0.38      22.2  T
   7   -100.3759189 -0.211301E-08  0.381E-04    0.38      30.1  T
   8   -100.3759189 -0.429281E-09  0.254E-04    0.38      45.1  T
     SCC iter.                  ...        0 min,  0.114 sec
     gradient                   ...        0 min,  0.070 sec
 * total energy  :   -99.0379015 Eh     change       -0.4406120E-04 Eh
   gradient norm :     0.0023067 Eh/α   predicted    -0.2626137E-04 ( -40.40%)
   displ. norm   :     0.2251458 α      lambda       -0.1014790E-03
   maximum displ.:     0.1378746 α      in ANC's #2, #6, #8, ...

........................................................................
.............................. CYCLE   52 ..............................
........................................................................

 iter      E             dE          RMSdq      gap      omega  full diag
   1   -100.3771414 -0.100377E+03  0.513E-02    0.38       0.0  T
   2   -100.3771306  0.108141E-04  0.336E-02    0.37       1.0  T
   3   -100.3769338  0.196786E-03  0.656E-02    0.40       1.0  T
   4   -100.3771423 -0.208530E-03  0.636E-03    0.38       1.8  T
   5   -100.3771426 -0.238742E-06  0.470E-03    0.38       2.4  T
   6   -100.3771439 -0.136921E-05  0.160E-03    0.38       7.2  T
   7   -100.3771439 -0.123659E-07  0.115E-03    0.38      10.0  T
   8   -100.3771439 -0.957824E-08  0.707E-04    0.38      16.2  T
   9   -100.3771439  0.122313E-07  0.649E-04    0.38      17.7  T
  10   -100.3771440 -0.227211E-07  0.190E-04    0.38      60.5  T
  11   -100.3771440 -0.199464E-09  0.116E-04    0.38      99.0  T
     SCC iter.                  ...        0 min,  0.154 sec
     gradient                   ...        0 min,  0.084 sec
 * total energy  :   -99.0379619 Eh     change       -0.6045581E-04 Eh
   gradient norm :     0.0018267 Eh/α   predicted    -0.5331303E-04 ( -11.81%)
   displ. norm   :     0.3103661 α      lambda       -0.4824684E-04
   maximum displ.:     0.1942508 α      in ANC's #2, #6, #8, ...

........................................................................
.............................. CYCLE   53 ..............................
........................................................................

 iter      E             dE          RMSdq      gap      omega  full diag
   1   -100.3766041 -0.100377E+03  0.644E-02    0.38       0.0  T
   2   -100.3766032  0.901939E-06  0.382E-02    0.38       1.0  T
   3   -100.3765163  0.869193E-04  0.440E-02    0.39       1.0  T
   4   -100.3765911 -0.748166E-04  0.156E-02    0.37       1.0  T
   5   -100.3766047 -0.135856E-04  0.446E-03    0.38       2.6  T
   6   -100.3766056 -0.978043E-06  0.175E-03    0.38       6.6  T
   7   -100.3766057 -0.257292E-07  0.105E-03    0.38      11.0  T
   8   -100.3766056  0.152939E-07  0.923E-04    0.38      12.4  T
   9   -100.3766057 -0.406254E-07  0.449E-04    0.38      25.5  T
  10   -100.3766057 -0.427373E-08  0.187E-04    0.38      61.5  T
     SCC iter.                  ...        0 min,  0.138 sec
     gradient                   ...        0 min,  0.074 sec
 * total energy  :   -99.0380019 Eh     change       -0.3997636E-04 Eh
   gradient norm :     0.0030029 Eh/α   predicted    -0.2515692E-04 ( -37.07%)
   displ. norm   :     0.1202912 α      lambda       -0.3923469E-04
   maximum displ.:     0.0791982 α      in ANC's #2, #6, #3, ...

........................................................................
.............................. CYCLE   54 ..............................
........................................................................

 iter      E             dE          RMSdq      gap      omega  full diag
   1   -100.3769299 -0.100377E+03  0.264E-02    0.38       0.0  T
   2   -100.3769277  0.216445E-05  0.164E-02    0.38       1.0  T
   3   -100.3768644  0.633263E-04  0.344E-02    0.37       1.0  T
   4   -100.3769287 -0.643020E-04  0.700E-03    0.38       1.6  T
   5   -100.3769304 -0.174372E-05  0.248E-03    0.38       4.6  T
   6   -100.3769307 -0.314281E-06  0.792E-04    0.38      14.5  T
   7   -100.3769307 -0.106884E-08  0.509E-04    0.38      22.6  T
   8   -100.3769307 -0.121160E-08  0.439E-04    0.38      26.1  T
   9   -100.3769307 -0.503832E-08  0.285E-04    0.38      40.2  T
     SCC iter.                  ...        0 min,  0.125 sec
     gradient                   ...        0 min,  0.081 sec
 * total energy  :   -99.0380366 Eh     change       -0.3467175E-04 Eh
   gradient norm :     0.0022071 Eh/α   predicted    -0.1990177E-04 ( -42.60%)
   displ. norm   :     0.2204603 α      lambda       -0.7782812E-04
   maximum displ.:     0.1446123 α      in ANC's #2, #3, #1, ...

........................................................................
.............................. CYCLE   55 ..............................
........................................................................

 iter      E             dE          RMSdq      gap      omega  full diag
   1   -100.3779052 -0.100378E+03  0.479E-02    0.38       0.0  T
   2   -100.3778546  0.506070E-04  0.413E-02    0.40       1.0  T
   3   -100.3777352  0.119399E-03  0.605E-02    0.36       1.0  T
   4   -100.3779089 -0.173727E-03  0.938E-03    0.38       1.2  T
   5   -100.3779107 -0.183487E-05  0.580E-03    0.38       2.0  T
   6   -100.3779127 -0.192171E-05  0.195E-03    0.38       5.9  T
   7   -100.3779127 -0.208727E-07  0.115E-03    0.38      10.0  T
   8   -100.3779127  0.302659E-07  0.110E-03    0.38      10.4  T
   9   -100.3779127 -0.438199E-07  0.567E-04    0.38      20.2  T
  10   -100.3779127 -0.713945E-08  0.256E-04    0.38      44.8  T
  11   -100.3779127 -0.256044E-08  0.142E-04    0.38      81.0  T
     SCC iter.                  ...        0 min,  0.168 sec
     gradient                   ...        0 min,  0.069 sec
 * total energy  :   -99.0380960 Eh     change       -0.5939922E-04 Eh
   gradient norm :     0.0011864 Eh/α   predicted    -0.4080922E-04 ( -31.30%)
   displ. norm   :     0.4283593 α      lambda       -0.6242500E-04
   maximum displ.:     0.2767010 α      in ANC's #2, #3, #1, ...

........................................................................
.............................. CYCLE   56 ..............................
........................................................................

 iter      E             dE          RMSdq      gap      omega  full diag
   1   -100.3765597 -0.100377E+03  0.909E-02    0.38       0.0  T
   2   -100.3763269  0.232852E-03  0.855E-02    0.42       1.0  T
   3   -100.3760729  0.253937E-03  0.105E-01    0.35       1.0  T
   4   -100.3765781 -0.505181E-03  0.192E-02    0.39       1.0  T
   5   -100.3765860 -0.790651E-05  0.115E-02    0.39       1.0  T
   6   -100.3765938 -0.780878E-05  0.360E-03    0.39       3.2  T
   7   -100.3765939 -0.703990E-07  0.208E-03    0.39       5.5  T
   8   -100.3765937  0.169993E-06  0.235E-03    0.39       4.9  T
   9   -100.3765939 -0.162456E-06  0.147E-03    0.39       7.8  T
  10   -100.3765940 -0.775878E-07  0.390E-04    0.39      29.4  T
  11   -100.3765940  0.153592E-08  0.358E-04    0.39      32.0  T
     SCC iter.                  ...        0 min,  0.153 sec
     gradient                   ...        0 min,  0.067 sec
 * total energy  :   -99.0381599 Eh     change       -0.6387103E-04 Eh
   gradient norm :     0.0025111 Eh/α   predicted    -0.3375943E-04 ( -47.14%)
   displ. norm   :     0.1771306 α      lambda       -0.3971210E-04
   maximum displ.:     0.1151629 α      in ANC's #2, #3, #1, ...

........................................................................
.............................. CYCLE   57 ..............................
........................................................................

 iter      E             dE          RMSdq      gap      omega  full diag
   1   -100.3771495 -0.100377E+03  0.341E-02    0.38       0.0  T
   2   -100.3771287  0.208322E-04  0.278E-02    0.40       1.0  T
   3   -100.3770488  0.798113E-04  0.453E-02    0.37       1.0  T
   4   -100.3771507 -0.101887E-03  0.660E-03    0.39       1.7  T
   5   -100.3771520 -0.131384E-05  0.389E-03    0.39       2.9  T
   6   -100.3771529 -0.824674E-06  0.177E-03    0.39       6.5  T
   7   -100.3771526  0.258702E-06  0.226E-03    0.39       5.1  T
   8   -100.3771528 -0.205070E-06  0.131E-03    0.39       8.8  T
   9   -100.3771529 -0.830678E-07  0.337E-04    0.39      34.1  T
  10   -100.3771529 -0.215105E-08  0.130E-04    0.39      88.1  T
     SCC iter.                  ...        0 min,  0.148 sec
     gradient                   ...        0 min,  0.081 sec
 * total energy  :   -99.0381937 Eh     change       -0.3386686E-04 Eh
   gradient norm :     0.0020379 Eh/α   predicted    -0.2047953E-04 ( -39.53%)
   displ. norm   :     0.2909140 α      lambda       -0.6124886E-04
   maximum displ.:     0.1905039 α      in ANC's #2, #3, #1, ...

........................................................................
.............................. CYCLE   58 ..............................
........................................................................

 iter      E             dE          RMSdq      gap      omega  full diag
   1   -100.3769003 -0.100377E+03  0.551E-02    0.38       0.0  T
   2   -100.3768943  0.600598E-05  0.337E-02    0.39       1.0  T
   3   -100.3765494  0.344927E-03  0.759E-02    0.36       1.0  T
   4   -100.3768977 -0.348314E-03  0.107E-02    0.38       1.1  T
   5   -100.3769025 -0.484754E-05  0.562E-03    0.39       2.0  T
   6   -100.3769037 -0.120064E-05  0.316E-03    0.39       3.6  T
   7   -100.3769036  0.168766E-06  0.275E-03    0.39       4.2  T
   8   -100.3769038 -0.208534E-06  0.142E-03    0.39       8.1  T
   9   -100.3769038 -0.653329E-07  0.635E-04    0.39      18.1  T
  10   -100.3769038 -0.151101E-07  0.293E-04    0.39      39.1  T
  11   -100.3769039 -0.440956E-08  0.563E-05    0.39     203.8  T
     SCC iter.                  ...        0 min,  0.148 sec
     gradient                   ...        0 min,  0.084 sec
 * total energy  :   -99.0382436 Eh     change       -0.4990834E-04 Eh
   gradient norm :     0.0014247 Eh/α   predicted    -0.3321694E-04 ( -33.44%)
   displ. norm   :     0.4754883 α      lambda       -0.5744093E-04
   maximum displ.:     0.3141971 α      in ANC's #2, #3, #1, ...

........................................................................
.............................. CYCLE   59 ..............................
........................................................................

 iter      E             dE          RMSdq      gap      omega  full diag
   1   -100.3763022 -0.100376E+03  0.867E-02    0.38       0.0  T
   2   -100.3762768  0.254244E-04  0.579E-02    0.37       1.0  T
   3   -100.3759042  0.372600E-03  0.951E-02    0.42       1.0  T
   4   -100.3762317 -0.327544E-03  0.334E-02    0.37       1.0  T
   5   -100.3763077 -0.760189E-04  0.968E-03    0.38       1.2  T
   6   -100.3763110 -0.325521E-05  0.631E-03    0.38       1.8  T
   7   -100.3763118 -0.797405E-06  0.314E-03    0.38       3.7  T
   8   -100.3763116  0.143022E-06  0.213E-03    0.38       5.4  T
   9   -100.3763119 -0.239918E-06  0.130E-03    0.38       8.8  T
  10   -100.3763120 -0.822892E-07  0.368E-04    0.38      31.2  T
  11   -100.3763120 -0.434630E-08  0.169E-04    0.38      67.7  T
     SCC iter.                  ...        0 min,  0.156 sec
     gradient                   ...        0 min,  0.071 sec
 * total energy  :   -99.0383082 Eh     change       -0.6453434E-04 Eh
   gradient norm :     0.0023136 Eh/α   predicted    -0.3161089E-04 ( -51.02%)
   displ. norm   :     0.2849351 α      lambda       -0.5137899E-04
   maximum displ.:     0.1892168 α      in ANC's #2, #3, #1, ...

........................................................................
.............................. CYCLE   60 ..............................
........................................................................

 iter      E             dE          RMSdq      gap      omega  full diag
   1   -100.3765594 -0.100377E+03  0.529E-02    0.38       0.0  T
   2   -100.3764387  0.120661E-03  0.605E-02    0.36       1.0  T
   3   -100.3764758 -0.370563E-04  0.476E-02    0.39       1.0  T
   4   -100.3765387 -0.629230E-04  0.215E-02    0.37       1.0  T
   5   -100.3765717 -0.329734E-04  0.549E-03    0.38       2.1  T
   6   -100.3765724 -0.716506E-06  0.392E-03    0.37       2.9  T
   7   -100.3765727 -0.299595E-06  0.166E-03    0.37       6.9  T
   8   -100.3765727 -0.417565E-07  0.779E-04    0.37      14.7  T
   9   -100.3765728 -0.126515E-07  0.375E-04    0.37      30.6  T
  10   -100.3765728 -0.149916E-08  0.230E-04    0.37      49.8  T
     SCC iter.                  ...        0 min,  0.134 sec
     gradient                   ...        0 min,  0.072 sec
 * total energy  :   -99.0383544 Eh     change       -0.4617423E-04 Eh
   gradient norm :     0.0023400 Eh/α   predicted    -0.2777688E-04 ( -39.84%)
   displ. norm   :     0.4731442 α      lambda       -0.9533340E-04
   maximum displ.:     0.3125957 α      in ANC's #2, #3, #1, ...

........................................................................
.............................. CYCLE   61 ..............................
........................................................................

 iter      E             dE          RMSdq      gap      omega  full diag
   1   -100.3769696 -0.100377E+03  0.896E-02    0.38       0.0  T
   2   -100.3761220  0.847531E-03  0.143E-01    0.32       1.0  T
   3   -100.3768629 -0.740897E-03  0.674E-02    0.39       1.0  T
   4   -100.3769510 -0.880389E-04  0.350E-02    0.35       1.0  T
   5   -100.3770345 -0.834877E-04  0.985E-03    0.37       1.2  T
   6   -100.3770367 -0.225470E-05  0.676E-03    0.37       1.7  T
   7   -100.3770367  0.527891E-08  0.480E-03    0.36       2.4  T
   8   -100.3770378 -0.103862E-05  0.223E-03    0.36       5.1  T
   9   -100.3770380 -0.220221E-06  0.110E-03    0.36      10.4  T
  10   -100.3770380 -0.296214E-07  0.504E-04    0.36      22.7  T
  11   -100.3770380 -0.799182E-08  0.250E-04    0.36      45.8  T
  12   -100.3770380 -0.148901E-08  0.141E-04    0.36      81.4  T
     SCC iter.                  ...        0 min,  0.167 sec
     gradient                   ...        0 min,  0.079 sec
 * total energy  :   -99.0384292 Eh     change       -0.7482898E-04 Eh
   gradient norm :     0.0021272 Eh/α   predicted    -0.5834036E-04 ( -22.04%)
   displ. norm   :     0.4672928 α      lambda       -0.7932945E-04
   maximum displ.:     0.3081367 α      in ANC's #2, #3, #1, ...

........................................................................
.............................. CYCLE   62 ..............................
........................................................................

 iter      E             dE          RMSdq      gap      omega  full diag
   1   -100.3767907 -0.100377E+03  0.869E-02    0.36       0.0  T
   2   -100.3759222  0.868503E-03  0.143E-01    0.31       1.0  T
   3   -100.3766883 -0.766083E-03  0.659E-02    0.38       1.0  T
   4   -100.3767741 -0.858133E-04  0.328E-02    0.34       1.0  T
   5   -100.3768497 -0.756287E-04  0.118E-02    0.36       1.0  T
   6   -100.3768562 -0.643324E-05  0.634E-03    0.35       1.8  T
   7   -100.3768562 -0.535468E-07  0.462E-03    0.35       2.5  T
   8   -100.3768571 -0.855647E-06  0.137E-03    0.35       8.4  T
   9   -100.3768571 -0.629657E-08  0.835E-04    0.35      13.7  T
  10   -100.3768571 -0.834272E-08  0.634E-04    0.35      18.1  T
  11   -100.3768571 -0.179530E-07  0.296E-04    0.35      38.7  T
  12   -100.3768571 -0.279407E-08  0.163E-04    0.35      70.2  T
     SCC iter.                  ...        0 min,  0.164 sec
     gradient                   ...        0 min,  0.078 sec
 * total energy  :   -99.0384875 Eh     change       -0.5835971E-04 Eh
   gradient norm :     0.0021430 Eh/α   predicted    -0.4832715E-04 ( -17.19%)
   displ. norm   :     0.3882114 α      lambda       -0.6580551E-04
   maximum displ.:     0.2497821 α      in ANC's #2, #1, #3, ...

........................................................................
.............................. CYCLE   63 ..............................
........................................................................

 iter      E             dE          RMSdq      gap      omega  full diag
   1   -100.3784884 -0.100378E+03  0.734E-02    0.36       0.0  T
   2   -100.3772714  0.121707E-02  0.162E-01    0.30       1.0  T
   3   -100.3784871 -0.121573E-02  0.473E-02    0.36       1.0  T
   4   -100.3784958 -0.870677E-05  0.303E-02    0.33       1.0  T
   5   -100.3785623 -0.665464E-04  0.974E-03    0.34       1.2  T
   6   -100.3785676 -0.524987E-05  0.528E-03    0.34       2.2  T
   7   -100.3785678 -0.222910E-06  0.354E-03    0.34       3.2  T
   8   -100.3785680 -0.228744E-06  0.129E-03    0.34       8.9  T
   9   -100.3785680  0.334289E-07  0.116E-03    0.34       9.9  T
  10   -100.3785681 -0.701390E-07  0.351E-04    0.34      32.7  T
  11   -100.3785681 -0.120791E-08  0.224E-04    0.34      51.2  T
     SCC iter.                  ...        0 min,  0.152 sec
     gradient                   ...        0 min,  0.070 sec
 * total energy  :   -99.0385343 Eh     change       -0.4675846E-04 Eh
   gradient norm :     0.0016366 Eh/α   predicted    -0.3786227E-04 ( -19.03%)
   displ. norm   :     0.7888529 α      lambda       -0.6167927E-04
   maximum displ.:     0.5117241 α      in ANC's #2, #1, #3, ...

........................................................................
.............................. CYCLE   64 ..............................
........................................................................

 iter      E             dE          RMSdq      gap      omega  full diag
   1   -100.3738362 -0.100374E+03  0.143E-01    0.34       0.0  T
   2   -100.3715840  0.225222E-02  0.228E-01    0.27       1.0  T
   3   -100.3733811 -0.179706E-02  0.120E-01    0.37       1.0  T
   4   -100.3738412 -0.460119E-03  0.438E-02    0.31       1.0  T
   5   -100.3739458 -0.104605E-03  0.216E-02    0.33       1.0  T
   6   -100.3739606 -0.147851E-04  0.123E-02    0.33       1.0  T
   7   -100.3739575  0.308756E-05  0.124E-02    0.32       1.0  T
   8   -100.3739659 -0.838102E-05  0.406E-03    0.32       2.8  T
   9   -100.3739662 -0.363693E-06  0.259E-03    0.32       4.4  T
  10   -100.3739665 -0.242899E-06  0.864E-04    0.32      13.3  T
  11   -100.3739665 -0.653294E-08  0.589E-04    0.32      19.5  T
  12   -100.3739665 -0.112235E-07  0.250E-04    0.32      45.9  T
  13   -100.3739665 -0.574346E-09  0.207E-04    0.32      55.3  T
     SCC iter.                  ...        0 min,  0.187 sec
     gradient                   ...        0 min,  0.077 sec
 * total energy  :   -99.0385665 Eh     change       -0.3215773E-04 Eh
   gradient norm :     0.0046306 Eh/α   predicted    -0.3937232E-04 (  22.44%)
   displ. norm   :     0.1064305 α      lambda       -0.7980793E-04
   maximum displ.:     0.0464740 α      in ANC's #1, #6, #14, ...

........................................................................
.............................. CYCLE   65 ..............................
........................................................................

 iter      E             dE          RMSdq      gap      omega  full diag
   1   -100.3787637 -0.100379E+03  0.216E-02    0.32       0.0  T
   2   -100.3786303  0.133413E-03  0.525E-02    0.30       1.0  T
   3   -100.3787728 -0.142463E-03  0.111E-02    0.32       1.0  T
   4   -100.3787719  0.816424E-06  0.842E-03    0.32       1.4  T
   5   -100.3787744 -0.247096E-05  0.364E-03    0.32       3.2  T
   6   -100.3787751 -0.661970E-06  0.127E-03    0.32       9.1  T
   7   -100.3787751  0.853944E-08  0.102E-03    0.32      11.3  T
   8   -100.3787751 -0.308153E-07  0.599E-04    0.32      19.2  T
   9   -100.3787751 -0.721680E-08  0.319E-04    0.32      36.0  T
  10   -100.3787751 -0.207228E-08  0.141E-04    0.32      81.5  T
     SCC iter.                  ...        0 min,  0.135 sec
     gradient                   ...        0 min,  0.066 sec
 * total energy  :   -99.0386104 Eh     change       -0.4397195E-04 Eh
   gradient norm :     0.0028614 Eh/α   predicted    -0.4035723E-04 (  -8.22%)
   displ. norm   :     0.1149921 α      lambda       -0.4277453E-04
   maximum displ.:     0.0553290 α      in ANC's #1, #2, #3, ...

........................................................................
.............................. CYCLE   66 ..............................
........................................................................

 iter      E             dE          RMSdq      gap      omega  full diag
   1   -100.3798544 -0.100380E+03  0.184E-02    0.32       0.0  T
   2   -100.3798106  0.437882E-04  0.310E-02    0.31       1.0  T
   3   -100.3798534 -0.427906E-04  0.123E-02    0.32       1.0  T
   4   -100.3798570 -0.368122E-05  0.486E-03    0.32       2.4  T
   5   -100.3798577 -0.655621E-06  0.187E-03    0.32       6.1  T
   6   -100.3798577 -0.534398E-07  0.126E-03    0.32       9.1  T
   7   -100.3798578 -0.388080E-07  0.909E-04    0.32      12.6  T
   8   -100.3798578 -0.301284E-07  0.362E-04    0.32      31.7  T
   9   -100.3798578  0.178430E-08  0.332E-04    0.32      34.5  T
     SCC iter.                  ...        0 min,  0.133 sec
     gradient                   ...        0 min,  0.069 sec
 * total energy  :   -99.0386411 Eh     change       -0.3065069E-04 Eh
   gradient norm :     0.0020164 Eh/α   predicted    -0.2167183E-04 ( -29.29%)
   displ. norm   :     0.2884066 α      lambda       -0.5831615E-04
   maximum displ.:     0.1497746 α      in ANC's #2, #1, #3, ...
 * RMSD in coord.:     0.6162750 α      energy gain  -0.1145324E-02 Eh

generating ANC from exact Hessian ...
Using Lindh-Hessian (1995)
 Shifting diagonal of input Hessian by    1.0117353832060879E-002
 Lowest  eigenvalues of input Hessian
    0.010000    0.000000    0.000000    0.000000    0.000000    0.000000
    0.000000    0.010178    0.010239    0.010265    0.010372    0.010530
    0.010730    0.010820    0.010883    0.010941    0.011051    0.011353
 Highest eigenvalues
    1.891633    1.976077    2.023010    2.204474    2.340137    2.382061


........................................................................
.............................. CYCLE   67 ..............................
........................................................................

 iter      E             dE          RMSdq      gap      omega  full diag
   1   -100.3798604 -0.100380E+03  0.457E-02    0.32       0.0  T
   2   -100.3797157  0.144669E-03  0.600E-02    0.30       1.0  T
   3   -100.3797976 -0.818374E-04  0.414E-02    0.33       1.0  T
   4   -100.3798605 -0.629088E-04  0.170E-02    0.31       1.0  T
   5   -100.3798719 -0.113654E-04  0.379E-03    0.31       3.0  T
   6   -100.3798718  0.895208E-07  0.356E-03    0.31       3.2  T
   7   -100.3798720 -0.231556E-06  0.265E-03    0.31       4.3  T
   8   -100.3798723 -0.263944E-06  0.103E-03    0.31      11.2  T
   9   -100.3798723 -0.435812E-07  0.577E-04    0.31      19.9  T
  10   -100.3798723 -0.887863E-08  0.245E-04    0.31      46.8  T
  11   -100.3798723 -0.261809E-08  0.110E-04    0.31     104.7  T
     SCC iter.                  ...        0 min,  0.165 sec
     gradient                   ...        0 min,  0.070 sec
 * total energy  :   -99.0386843 Eh     change       -0.4317238E-04 Eh
   gradient norm :     0.0024642 Eh/α   predicted     0.0000000E+00 (-100.00%)
   displ. norm   :     0.0303856 α      lambda       -0.2172760E-04
   maximum displ.:     0.0114474 α      in ANC's #8, #15, #2, ...

........................................................................
.............................. CYCLE   68 ..............................
........................................................................

 iter      E             dE          RMSdq      gap      omega  full diag
   1   -100.3792076 -0.100379E+03  0.947E-03    0.31       0.0  T
   2   -100.3792073  0.268369E-06  0.591E-03    0.31       1.9  T
   3   -100.3791970  0.103555E-04  0.138E-02    0.31       1.0  T
   4   -100.3792077 -0.107345E-04  0.224E-03    0.31       5.1  T
   5   -100.3792077  0.230265E-07  0.163E-03    0.31       7.0  T
   6   -100.3792078 -0.875529E-07  0.857E-04    0.31      13.4  T
   7   -100.3792078  0.335783E-08  0.707E-04    0.31      16.2  T
   8   -100.3792078 -0.842310E-08  0.372E-04    0.31      30.9  T
   9   -100.3792078 -0.282492E-08  0.277E-04    0.31      41.5  T
     SCC iter.                  ...        0 min,  0.125 sec
     gradient                   ...        0 min,  0.080 sec
 * total energy  :   -99.0386977 Eh     change       -0.1343512E-04 Eh
   gradient norm :     0.0011350 Eh/α   predicted    -0.1089952E-04 ( -18.87%)
   displ. norm   :     0.1357986 α      lambda       -0.4466353E-04
   maximum displ.:     0.0537361 α      in ANC's #8, #15, #2, ...

........................................................................
.............................. CYCLE   69 ..............................
........................................................................

 iter      E             dE          RMSdq      gap      omega  full diag
   1   -100.3768822 -0.100377E+03  0.420E-02    0.31       0.0  T
   2   -100.3767471  0.135151E-03  0.550E-02    0.34       1.0  T
   3   -100.3768338 -0.866595E-04  0.400E-02    0.30       1.0  T
   4   -100.3768909 -0.571428E-04  0.141E-02    0.31       1.0  T
   5   -100.3768967 -0.578477E-05  0.806E-03    0.32       1.4  T
   6   -100.3768986 -0.196378E-05  0.504E-03    0.31       2.3  T
   7   -100.3768989 -0.206372E-06  0.343E-03    0.31       3.3  T
   8   -100.3768984  0.490371E-06  0.346E-03    0.32       3.3  T
   9   -100.3768991 -0.696747E-06  0.863E-04    0.31      13.3  T
  10   -100.3768990  0.348670E-07  0.891E-04    0.31      12.9  T
  11   -100.3768991 -0.417742E-07  0.342E-04    0.31      33.5  T
  12   -100.3768991 -0.514213E-08  0.115E-04    0.31      99.5  T
     SCC iter.                  ...        0 min,  0.178 sec
     gradient                   ...        0 min,  0.069 sec
 * total energy  :   -99.0386203 Eh     change        0.7742335E-04 Eh
   gradient norm :     0.0073415 Eh/α   predicted    -0.2251946E-04 (-129.09%)
   displ. norm   :     0.0312073 α      lambda       -0.1307163E-03
   maximum displ.:     0.0146777 α      in ANC's #24, #23, #32, ...

........................................................................
.............................. CYCLE   70 ..............................
........................................................................

 iter      E             dE          RMSdq      gap      omega  full diag
   1   -100.3780527 -0.100378E+03  0.223E-02    0.32       0.0  T
   2   -100.3780348  0.178883E-04  0.223E-02    0.31       1.0  T
   3   -100.3780171  0.176719E-04  0.278E-02    0.32       1.0  T
   4   -100.3780542 -0.370985E-04  0.625E-03    0.31       1.8  T
   5   -100.3780544 -0.119786E-06  0.455E-03    0.31       2.5  T
   6   -100.3780550 -0.624511E-06  0.251E-03    0.31       4.6  T
   7   -100.3780549  0.107001E-06  0.228E-03    0.31       5.0  T
   8   -100.3780550 -0.144995E-06  0.129E-03    0.31       8.9  T
   9   -100.3780550  0.105445E-07  0.102E-03    0.31      11.2  T
  10   -100.3780551 -0.770791E-07  0.190E-04    0.31      60.3  T
  11   -100.3780551 -0.248122E-09  0.113E-04    0.31     101.6  T
     SCC iter.                  ...        0 min,  0.165 sec
     gradient                   ...        0 min,  0.066 sec
 * total energy  :   -99.0387079 Eh     change       -0.8763573E-04 Eh
   gradient norm :     0.0035877 Eh/α   predicted    -0.6542483E-04 ( -25.34%)
   displ. norm   :     0.0320529 α      lambda       -0.4671023E-04
   maximum displ.:     0.0158036 α      in ANC's #46, #42, #45, ...

........................................................................
.............................. CYCLE   71 ..............................
........................................................................

 iter      E             dE          RMSdq      gap      omega  full diag
   1   -100.3793016 -0.100379E+03  0.233E-02    0.31       0.0  T
   2   -100.3793019 -0.353375E-06  0.124E-02    0.32       1.0  T
   3   -100.3792942  0.772715E-05  0.146E-02    0.31       1.0  T
   4   -100.3792953 -0.104677E-05  0.128E-02    0.32       1.0  T
   5   -100.3793025 -0.719887E-05  0.341E-03    0.31       3.4  T
   6   -100.3793026 -0.136783E-06  0.277E-03    0.32       4.1  T
   7   -100.3793027 -0.113763E-06  0.181E-03    0.31       6.3  T
   8   -100.3793027 -0.332694E-07  0.102E-03    0.31      11.2  T
   9   -100.3793028 -0.279468E-07  0.686E-04    0.31      16.7  T
  10   -100.3793028 -0.273146E-07  0.197E-04    0.31      58.2  T
  11   -100.3793028 -0.515854E-09  0.134E-04    0.31      85.3  T
     SCC iter.                  ...        0 min,  0.132 sec
     gradient                   ...        0 min,  0.071 sec
 * total energy  :   -99.0387168 Eh     change       -0.8912572E-05 Eh
   gradient norm :     0.0016847 Eh/α   predicted    -0.2338118E-04 ( 162.34%)
   displ. norm   :     0.0659637 α      lambda       -0.4134922E-04
   maximum displ.:     0.0276876 α      in ANC's #46, #8, #2, ...

........................................................................
.............................. CYCLE   72 ..............................
........................................................................

 iter      E             dE          RMSdq      gap      omega  full diag
   1   -100.3799033 -0.100380E+03  0.372E-02    0.32       0.0  T
   2   -100.3798988  0.454670E-05  0.196E-02    0.31       1.0  T
   3   -100.3798331  0.656735E-04  0.371E-02    0.33       1.0  T
   4   -100.3799024 -0.692596E-04  0.112E-02    0.31       1.0  T
   5   -100.3799049 -0.252718E-05  0.552E-03    0.31       2.1  T
   6   -100.3799060 -0.112284E-05  0.212E-03    0.31       5.4  T
   7   -100.3799060  0.858471E-08  0.190E-03    0.31       6.0  T
   8   -100.3799061 -0.102691E-06  0.108E-03    0.31      10.7  T
   9   -100.3799062 -0.461925E-07  0.407E-04    0.31      28.2  T
  10   -100.3799062  0.329308E-09  0.264E-04    0.31      43.5  T
     SCC iter.                  ...        0 min,  0.142 sec
     gradient                   ...        0 min,  0.078 sec
 * total energy  :   -99.0387060 Eh     change        0.1081780E-04 Eh
   gradient norm :     0.0028716 Eh/α   predicted    -0.2071716E-04 (-291.51%)
   displ. norm   :     0.0273531 α      lambda       -0.4537573E-04
   maximum displ.:     0.0096046 α      in ANC's #46, #8, #24, ...

........................................................................
.............................. CYCLE   73 ..............................
........................................................................

 iter      E             dE          RMSdq      gap      omega  full diag
   1   -100.3793925 -0.100379E+03  0.152E-02    0.31       0.0  T
   2   -100.3793879  0.461248E-05  0.119E-02    0.32       1.0  T
   3   -100.3793670  0.208763E-04  0.220E-02    0.31       1.0  T
   4   -100.3793930 -0.259640E-04  0.450E-03    0.31       2.5  T
   5   -100.3793931 -0.110804E-06  0.278E-03    0.31       4.1  T
   6   -100.3793934 -0.333218E-06  0.802E-04    0.31      14.3  T
   7   -100.3793934 -0.312730E-07  0.328E-04    0.31      34.9  T
   8   -100.3793935 -0.183441E-08  0.207E-04    0.31      55.3  T
     SCC iter.                  ...        0 min,  0.115 sec
     gradient                   ...        0 min,  0.074 sec
 * total energy  :   -99.0387346 Eh     change       -0.2861198E-04 Eh
   gradient norm :     0.0012581 Eh/α   predicted    -0.2270711E-04 ( -20.64%)
   displ. norm   :     0.0415829 α      lambda        0.9834052E-05
   maximum displ.:     0.0145936 α      in ANC's #46, #8, #24, ...

........................................................................
.............................. CYCLE   74 ..............................
........................................................................

 iter      E             dE          RMSdq      gap      omega  full diag
   1   -100.3784579 -0.100378E+03  0.230E-02    0.31       0.0  T
   2   -100.3784432  0.147273E-04  0.200E-02    0.32       1.0  T
   3   -100.3783998  0.433965E-04  0.335E-02    0.30       1.0  T
   4   -100.3784596 -0.597586E-04  0.596E-03    0.31       1.9  T
   5   -100.3784593  0.262427E-06  0.407E-03    0.31       2.8  T
   6   -100.3784601 -0.810853E-06  0.119E-03    0.31       9.7  T
   7   -100.3784602 -0.685164E-07  0.413E-04    0.31      27.8  T
   8   -100.3784602  0.112927E-08  0.311E-04    0.31      36.9  T
     SCC iter.                  ...        0 min,  0.105 sec
     gradient                   ...        0 min,  0.080 sec
 * total energy  :   -99.0387146 Eh     change        0.1995510E-04 Eh
   gradient norm :     0.0036078 Eh/α   predicted     0.4919480E-05 ( -75.35%)
   displ. norm   :     0.0239312 α      lambda       -0.4687825E-04
   maximum displ.:     0.0110737 α      in ANC's #70, #28, #2, ...

........................................................................
.............................. CYCLE   75 ..............................
........................................................................

 iter      E             dE          RMSdq      gap      omega  full diag
   1   -100.3790930 -0.100379E+03  0.140E-02    0.32       0.0  T
   2   -100.3790924  0.672476E-06  0.904E-03    0.32       1.3  T
   3   -100.3790647  0.276261E-04  0.229E-02    0.31       1.0  T
   4   -100.3790929 -0.282145E-04  0.257E-03    0.32       4.5  T
   5   -100.3790932 -0.212665E-06  0.109E-03    0.32      10.6  T
   6   -100.3790932 -0.453955E-07  0.515E-04    0.32      22.3  T
   7   -100.3790932 -0.854098E-08  0.337E-04    0.32      34.1  T
   8   -100.3790932 -0.432890E-08  0.168E-04    0.32      68.2  T
     SCC iter.                  ...        0 min,  0.107 sec
     gradient                   ...        0 min,  0.078 sec
 * total energy  :   -99.0387416 Eh     change       -0.2691625E-04 Eh
   gradient norm :     0.0014840 Eh/α   predicted    -0.2345578E-04 ( -12.86%)
   displ. norm   :     0.0578414 α      lambda       -0.1888804E-04
   maximum displ.:     0.0261238 α      in ANC's #2, #8, #5, ...

........................................................................
.............................. CYCLE   76 ..............................
........................................................................

 iter      E             dE          RMSdq      gap      omega  full diag
   1   -100.3799694 -0.100380E+03  0.170E-02    0.32       0.0  T
   2   -100.3799634  0.595269E-05  0.142E-02    0.31       1.0  T
   3   -100.3799440  0.193768E-04  0.221E-02    0.32       1.0  T
   4   -100.3799697 -0.256629E-04  0.543E-03    0.32       2.1  T
   5   -100.3799701 -0.375162E-06  0.307E-03    0.32       3.7  T
   6   -100.3799704 -0.355342E-06  0.119E-03    0.32       9.6  T
   7   -100.3799704 -0.157842E-07  0.101E-03    0.32      11.3  T
   8   -100.3799705 -0.405480E-07  0.447E-04    0.32      25.7  T
   9   -100.3799705  0.103371E-07  0.478E-04    0.32      24.0  T
     SCC iter.                  ...        0 min,  0.124 sec
     gradient                   ...        0 min,  0.071 sec
 * total energy  :   -99.0387488 Eh     change       -0.7219439E-05 Eh
   gradient norm :     0.0016636 Eh/α   predicted    -0.9460190E-05 (  31.04%)
   displ. norm   :     0.0394317 α      lambda       -0.9055302E-05
   maximum displ.:     0.0174167 α      in ANC's #8, #2, #5, ...

........................................................................
.............................. CYCLE   77 ..............................
........................................................................

 iter      E             dE          RMSdq      gap      omega  full diag
   1   -100.3796670 -0.100380E+03  0.723E-03    0.32       0.0  T
   2   -100.3796648  0.215229E-05  0.731E-03    0.32       1.6  T
   3   -100.3796628  0.202126E-05  0.948E-03    0.31       1.2  T
   4   -100.3796670 -0.419801E-05  0.231E-03    0.32       5.0  T
   5   -100.3796673 -0.273889E-06  0.901E-04    0.32      12.7  T
   6   -100.3796673 -0.207873E-07  0.499E-04    0.32      23.0  T
   7   -100.3796673 -0.208014E-08  0.407E-04    0.32      28.2  T
     SCC iter.                  ...        0 min,  0.099 sec
     gradient                   ...        0 min,  0.083 sec
 * total energy  :   -99.0387586 Eh     change       -0.9838485E-05 Eh
   gradient norm :     0.0005998 Eh/α   predicted    -0.4532241E-05 ( -53.93%)
   displ. norm   :     0.1031637 α      lambda       -0.1173938E-04
   maximum displ.:     0.0479158 α      in ANC's #2, #8, #5, ...

........................................................................
.............................. CYCLE   78 ..............................
........................................................................

 iter      E             dE          RMSdq      gap      omega  full diag
   1   -100.3794398 -0.100379E+03  0.145E-02    0.32       0.0  T
   2   -100.3794386  0.118769E-05  0.900E-03    0.32       1.3  T
   3   -100.3794122  0.263675E-04  0.220E-02    0.31       1.0  T
   4   -100.3794396 -0.273399E-04  0.437E-03    0.32       2.6  T
   5   -100.3794401 -0.495971E-06  0.226E-03    0.32       5.1  T
   6   -100.3794402 -0.191272E-06  0.675E-04    0.32      17.0  T
   7   -100.3794402 -0.262391E-08  0.486E-04    0.32      23.6  T
   8   -100.3794402 -0.142646E-08  0.336E-04    0.32      34.2  T
     SCC iter.                  ...        0 min,  0.117 sec
     gradient                   ...        0 min,  0.081 sec
 * total energy  :   -99.0387713 Eh     change       -0.1268444E-04 Eh
   gradient norm :     0.0007442 Eh/α   predicted    -0.5899437E-05 ( -53.49%)
   displ. norm   :     0.1888817 α      lambda       -0.1440468E-04
   maximum displ.:     0.0862951 α      in ANC's #2, #8, #5, ...

........................................................................
.............................. CYCLE   79 ..............................
........................................................................

 iter      E             dE          RMSdq      gap      omega  full diag
   1   -100.3792858 -0.100379E+03  0.232E-02    0.32       0.0  T
   2   -100.3792837  0.211550E-05  0.156E-02    0.31       1.0  T
   3   -100.3792350  0.487498E-04  0.315E-02    0.33       1.0  T
   4   -100.3792823 -0.472884E-04  0.781E-03    0.31       1.5  T
   5   -100.3792858 -0.350591E-05  0.283E-03    0.32       4.1  T
   6   -100.3792864 -0.609197E-06  0.108E-03    0.32      10.6  T
   7   -100.3792863  0.292911E-07  0.118E-03    0.32       9.7  T
   8   -100.3792864 -0.353362E-07  0.556E-04    0.32      20.6  T
   9   -100.3792864 -0.154992E-08  0.470E-04    0.32      24.4  T
  10   -100.3792864 -0.125578E-07  0.938E-05    0.32     122.3  T
     SCC iter.                  ...        0 min,  0.140 sec
     gradient                   ...        0 min,  0.073 sec
 * total energy  :   -99.0387881 Eh     change       -0.1680153E-04 Eh
   gradient norm :     0.0012450 Eh/α   predicted    -0.7317833E-05 ( -56.45%)
   displ. norm   :     0.2947443 α      lambda       -0.2026679E-04
   maximum displ.:     0.1349124 α      in ANC's #2, #8, #5, ...

........................................................................
.............................. CYCLE   80 ..............................
........................................................................

 iter      E             dE          RMSdq      gap      omega  full diag
   1   -100.3790549 -0.100379E+03  0.379E-02    0.32       0.0  T
   2   -100.3790258  0.290628E-04  0.341E-02    0.31       1.0  T
   3   -100.3789541  0.717510E-04  0.453E-02    0.33       1.0  T
   4   -100.3790500 -0.959562E-04  0.103E-02    0.31       1.1  T
   5   -100.3790575 -0.748080E-05  0.354E-03    0.32       3.2  T
   6   -100.3790580 -0.487654E-06  0.204E-03    0.32       5.6  T
   7   -100.3790579  0.719970E-07  0.202E-03    0.32       5.7  T
   8   -100.3790580 -0.103257E-06  0.993E-04    0.32      11.5  T
   9   -100.3790581 -0.519059E-07  0.298E-04    0.32      38.5  T
  10   -100.3790581 -0.205983E-08  0.169E-04    0.32      68.1  T
     SCC iter.                  ...        0 min,  0.129 sec
     gradient                   ...        0 min,  0.075 sec
 * total energy  :   -99.0388108 Eh     change       -0.2273397E-04 Eh
   gradient norm :     0.0013405 Eh/α   predicted    -0.1052571E-04 ( -53.70%)
   displ. norm   :     0.3323196 α      lambda       -0.2100242E-04
   maximum displ.:     0.1503626 α      in ANC's #2, #5, #8, ...

........................................................................
.............................. CYCLE   81 ..............................
........................................................................

 iter      E             dE          RMSdq      gap      omega  full diag
   1   -100.3793514 -0.100379E+03  0.453E-02    0.32       0.0  T
   2   -100.3792319  0.119498E-03  0.567E-02    0.30       1.0  T
   3   -100.3792906 -0.586598E-04  0.399E-02    0.33       1.0  T
   4   -100.3793528 -0.622110E-04  0.110E-02    0.31       1.0  T
   5   -100.3793594 -0.659614E-05  0.476E-03    0.32       2.4  T
   6   -100.3793603 -0.880618E-06  0.327E-03    0.32       3.5  T
   7   -100.3793606 -0.356258E-06  0.172E-03    0.32       6.7  T
   8   -100.3793607 -0.661647E-07  0.841E-04    0.32      13.6  T
   9   -100.3793607 -0.103782E-07  0.618E-04    0.32      18.6  T
  10   -100.3793607 -0.162489E-07  0.260E-04    0.32      44.2  T
  11   -100.3793607 -0.202225E-08  0.128E-04    0.32      89.3  T
     SCC iter.                  ...        0 min,  0.161 sec
     gradient                   ...        0 min,  0.077 sec
 * total energy  :   -99.0388341 Eh     change       -0.2323267E-04 Eh
   gradient norm :     0.0010118 Eh/α   predicted    -0.1101810E-04 ( -52.57%)
   displ. norm   :     0.3049868 α      lambda       -0.2015312E-04
   maximum displ.:     0.1381154 α      in ANC's #5, #2, #8, ...

........................................................................
.............................. CYCLE   82 ..............................
........................................................................

 iter      E             dE          RMSdq      gap      omega  full diag
   1   -100.3799015 -0.100380E+03  0.452E-02    0.32       0.0  T
   2   -100.3796912  0.210290E-03  0.704E-02    0.29       1.0  T
   3   -100.3798779 -0.186723E-03  0.326E-02    0.33       1.0  T
   4   -100.3799092 -0.313559E-04  0.104E-02    0.31       1.1  T
   5   -100.3799152 -0.596811E-05  0.447E-03    0.32       2.6  T
   6   -100.3799163 -0.105874E-05  0.248E-03    0.31       4.6  T
   7   -100.3799163 -0.102902E-07  0.228E-03    0.31       5.0  T
   8   -100.3799165 -0.172918E-06  0.783E-04    0.31      14.6  T
   9   -100.3799164  0.242509E-07  0.656E-04    0.32      17.5  T
  10   -100.3799165 -0.311210E-07  0.202E-04    0.31      56.7  T
  11   -100.3799165 -0.547402E-09  0.116E-04    0.31      98.7  T
     SCC iter.                  ...        0 min,  0.160 sec
     gradient                   ...        0 min,  0.075 sec
 * total energy  :   -99.0388582 Eh     change       -0.2416386E-04 Eh
   gradient norm :     0.0009704 Eh/α   predicted    -0.1049549E-04 ( -56.57%)
   displ. norm   :     0.3610263 α      lambda       -0.2753224E-04
   maximum displ.:     0.1719772 α      in ANC's #5, #2, #1, ...

........................................................................
.............................. CYCLE   83 ..............................
........................................................................

 iter      E             dE          RMSdq      gap      omega  full diag
   1   -100.3802986 -0.100380E+03  0.570E-02    0.32       0.0  T
   2   -100.3799168  0.381838E-03  0.935E-02    0.28       1.0  T
   3   -100.3802611 -0.344333E-03  0.410E-02    0.32       1.0  T
   4   -100.3803099 -0.487364E-04  0.157E-02    0.31       1.0  T
   5   -100.3803225 -0.126084E-04  0.556E-03    0.31       2.1  T
   6   -100.3803242 -0.171490E-05  0.287E-03    0.31       4.0  T
   7   -100.3803241  0.429300E-07  0.240E-03    0.31       4.8  T
   8   -100.3803244 -0.219704E-06  0.919E-04    0.31      12.5  T
   9   -100.3803243  0.157136E-07  0.643E-04    0.31      17.8  T
  10   -100.3803244 -0.179458E-07  0.375E-04    0.31      30.6  T
  11   -100.3803244 -0.686872E-08  0.164E-04    0.31      70.0  T
     SCC iter.                  ...        0 min,  0.151 sec
     gradient                   ...        0 min,  0.079 sec
 * total energy  :   -99.0388927 Eh     change       -0.3446847E-04 Eh
   gradient norm :     0.0012652 Eh/α   predicted    -0.1456482E-04 ( -57.74%)
   displ. norm   :     0.4869392 α      lambda       -0.4142206E-04
   maximum displ.:     0.2418852 α      in ANC's #5, #2, #1, ...

........................................................................
.............................. CYCLE   84 ..............................
........................................................................

 iter      E             dE          RMSdq      gap      omega  full diag
   1   -100.3799334 -0.100380E+03  0.771E-02    0.32       0.0  T
   2   -100.3793779  0.555563E-03  0.114E-01    0.27       1.0  T
   3   -100.3798184 -0.440515E-03  0.608E-02    0.33       1.0  T
   4   -100.3799590 -0.140612E-03  0.158E-02    0.30       1.0  T
   5   -100.3799644 -0.545409E-05  0.880E-03    0.31       1.3  T
   6   -100.3799698 -0.535068E-05  0.352E-03    0.31       3.3  T
   7   -100.3799699 -0.101293E-06  0.299E-03    0.31       3.8  T
   8   -100.3799702 -0.258695E-06  0.126E-03    0.31       9.1  T
   9   -100.3799701  0.448476E-07  0.971E-04    0.31      11.8  T
  10   -100.3799702 -0.486981E-07  0.533E-04    0.31      21.5  T
  11   -100.3799702 -0.127315E-07  0.201E-04    0.31      57.0  T
  12   -100.3799702 -0.627466E-09  0.156E-04    0.31      73.7  T
     SCC iter.                  ...        0 min,  0.164 sec
     gradient                   ...        0 min,  0.077 sec
 * total energy  :   -99.0389412 Eh     change       -0.4852936E-04 Eh
   gradient norm :     0.0017146 Eh/α   predicted    -0.2289398E-04 ( -52.82%)
   displ. norm   :     0.4249034 α      lambda       -0.4379976E-04
   maximum displ.:     0.2215546 α      in ANC's #5, #2, #6, ...

........................................................................
.............................. CYCLE   85 ..............................
........................................................................

 iter      E             dE          RMSdq      gap      omega  full diag
   1   -100.3806789 -0.100381E+03  0.697E-02    0.31       0.0  T
   2   -100.3802339  0.444904E-03  0.102E-01    0.27       1.0  T
   3   -100.3805599 -0.325904E-03  0.577E-02    0.32       1.0  T
   4   -100.3806916 -0.131720E-03  0.196E-02    0.30       1.0  T
   5   -100.3807066 -0.150446E-04  0.716E-03    0.30       1.6  T
   6   -100.3807091 -0.244056E-05  0.278E-03    0.30       4.1  T
   7   -100.3807087  0.403089E-06  0.313E-03    0.30       3.7  T
   8   -100.3807091 -0.421259E-06  0.174E-03    0.30       6.6  T
   9   -100.3807092 -0.865925E-07  0.878E-04    0.30      13.1  T
  10   -100.3807092 -0.259936E-07  0.550E-04    0.30      20.9  T
  11   -100.3807092 -0.934078E-08  0.209E-04    0.30      54.8  T
  12   -100.3807092 -0.331454E-09  0.184E-04    0.30      62.4  T
     SCC iter.                  ...        0 min,  0.154 sec
     gradient                   ...        0 min,  0.068 sec
 * total energy  :   -99.0389882 Eh     change       -0.4692045E-04 Eh
   gradient norm :     0.0019679 Eh/α   predicted    -0.2365936E-04 ( -49.58%)
   displ. norm   :     0.3879191 α      lambda       -0.3836388E-04
   maximum displ.:     0.2136331 α      in ANC's #5, #2, #6, ...

........................................................................
.............................. CYCLE   86 ..............................
........................................................................

 iter      E             dE          RMSdq      gap      omega  full diag
   1   -100.3790895 -0.100379E+03  0.572E-02    0.30       0.0  T
   2   -100.3790569  0.326777E-04  0.430E-02    0.29       1.0  T
   3   -100.3788177  0.239191E-03  0.728E-02    0.33       1.0  T
   4   -100.3790810 -0.263343E-03  0.157E-02    0.29       1.0  T
   5   -100.3790894 -0.837094E-05  0.796E-03    0.30       1.4  T
   6   -100.3790946 -0.524818E-05  0.198E-03    0.30       5.8  T
   7   -100.3790945  0.172662E-06  0.223E-03    0.30       5.1  T
   8   -100.3790947 -0.224021E-06  0.899E-04    0.30      12.8  T
   9   -100.3790947 -0.446366E-08  0.634E-04    0.30      18.1  T
  10   -100.3790947 -0.143247E-07  0.277E-04    0.30      41.4  T
  11   -100.3790947 -0.800057E-09  0.124E-04    0.30      92.3  T
     SCC iter.                  ...        0 min,  0.134 sec
     gradient                   ...        0 min,  0.072 sec
 * total energy  :   -99.0390323 Eh     change       -0.4410939E-04 Eh
   gradient norm :     0.0018450 Eh/α   predicted    -0.2046519E-04 ( -53.60%)
   displ. norm   :     0.3074076 α      lambda       -0.5399441E-04
   maximum displ.:     0.1794398 α      in ANC's #5, #2, #6, ...

........................................................................
.............................. CYCLE   87 ..............................
........................................................................

 iter      E             dE          RMSdq      gap      omega  full diag
   1   -100.3822376 -0.100382E+03  0.432E-02    0.30       0.0  T
   2   -100.3822354  0.218672E-05  0.261E-02    0.30       1.0  T
   3   -100.3821418  0.935829E-04  0.436E-02    0.32       1.0  T
   4   -100.3822230 -0.811465E-04  0.172E-02    0.29       1.0  T
   5   -100.3822367 -0.137490E-04  0.574E-03    0.30       2.0  T
   6   -100.3822393 -0.261348E-05  0.134E-03    0.30       8.6  T
   7   -100.3822394 -0.228293E-07  0.852E-04    0.30      13.5  T
   8   -100.3822394 -0.120080E-07  0.533E-04    0.30      21.5  T
   9   -100.3822394 -0.333341E-08  0.369E-04    0.30      31.1  T
  10   -100.3822394 -0.341080E-08  0.194E-04    0.30      59.0  T
     SCC iter.                  ...        0 min,  0.131 sec
     gradient                   ...        0 min,  0.069 sec
 * total energy  :   -99.0390864 Eh     change       -0.5409428E-04 Eh
   gradient norm :     0.0026323 Eh/α   predicted    -0.2813415E-04 ( -47.99%)
   displ. norm   :     0.3851971 α      lambda       -0.8056945E-04
   maximum displ.:     0.2305940 α      in ANC's #5, #2, #6, ...

........................................................................
.............................. CYCLE   88 ..............................
........................................................................

 iter      E             dE          RMSdq      gap      omega  full diag
   1   -100.3797465 -0.100380E+03  0.533E-02    0.29       0.0  T
   2   -100.3796512  0.952571E-04  0.506E-02    0.32       1.0  T
   3   -100.3794565  0.194760E-03  0.762E-02    0.28       1.0  T
   4   -100.3797552 -0.298682E-03  0.730E-03    0.30       1.6  T
   5   -100.3797548  0.323869E-06  0.536E-03    0.30       2.1  T
   6   -100.3797571 -0.228751E-05  0.222E-03    0.30       5.2  T
   7   -100.3797571 -0.222372E-07  0.168E-03    0.30       6.8  T
   8   -100.3797572 -0.407687E-07  0.113E-03    0.30      10.1  T
   9   -100.3797572  0.118456E-07  0.856E-04    0.30      13.4  T
  10   -100.3797572 -0.320770E-07  0.450E-04    0.30      25.5  T
  11   -100.3797572 -0.102055E-07  0.139E-04    0.30      82.4  T
     SCC iter.                  ...        0 min,  0.140 sec
     gradient                   ...        0 min,  0.067 sec
 * total energy  :   -99.0391522 Eh     change       -0.6583141E-04 Eh
   gradient norm :     0.0020533 Eh/α   predicted    -0.4626422E-04 ( -29.72%)
   displ. norm   :     0.2936334 α      lambda       -0.6649441E-04
   maximum displ.:     0.1827524 α      in ANC's #5, #2, #6, ...

........................................................................
.............................. CYCLE   89 ..............................
........................................................................

 iter      E             dE          RMSdq      gap      omega  full diag
   1   -100.3788435 -0.100379E+03  0.398E-02    0.30       0.0  T
   2   -100.3786989  0.144549E-03  0.558E-02    0.32       1.0  T
   3   -100.3788078 -0.108840E-03  0.350E-02    0.29       1.0  T
   4   -100.3788554 -0.476001E-04  0.719E-03    0.30       1.6  T
   5   -100.3788574 -0.198366E-05  0.321E-03    0.30       3.6  T
   6   -100.3788579 -0.534815E-06  0.192E-03    0.30       6.0  T
   7   -100.3788580 -0.559928E-07  0.145E-03    0.30       7.9  T
   8   -100.3788580 -0.567265E-07  0.960E-04    0.30      11.9  T
   9   -100.3788580 -0.278456E-07  0.352E-04    0.30      32.5  T
  10   -100.3788580  0.328257E-09  0.261E-04    0.30      43.9  T
     SCC iter.                  ...        0 min,  0.126 sec
     gradient                   ...        0 min,  0.081 sec
 * total energy  :   -99.0392078 Eh     change       -0.5564185E-04 Eh
   gradient norm :     0.0022412 Eh/α   predicted    -0.3611402E-04 ( -35.10%)
   displ. norm   :     0.2933836 α      lambda       -0.7248959E-04
   maximum displ.:     0.1869183 α      in ANC's #5, #2, #6, ...

........................................................................
.............................. CYCLE   90 ..............................
........................................................................

 iter      E             dE          RMSdq      gap      omega  full diag
   1   -100.3793474 -0.100379E+03  0.410E-02    0.30       0.0  T
   2   -100.3791365  0.210821E-03  0.666E-02    0.33       1.0  T
   3   -100.3793344 -0.197872E-03  0.303E-02    0.30       1.0  T
   4   -100.3793633 -0.289223E-04  0.104E-02    0.31       1.1  T
   5   -100.3793681 -0.472626E-05  0.350E-03    0.31       3.3  T
   6   -100.3793687 -0.637532E-06  0.200E-03    0.31       5.7  T
   7   -100.3793688 -0.116346E-06  0.134E-03    0.31       8.5  T
   8   -100.3793689 -0.762483E-07  0.593E-04    0.31      19.3  T
   9   -100.3793689 -0.930896E-09  0.474E-04    0.31      24.2  T
  10   -100.3793689 -0.448037E-08  0.287E-04    0.31      39.9  T
     SCC iter.                  ...        0 min,  0.137 sec
     gradient                   ...        0 min,  0.081 sec
 * total energy  :   -99.0392652 Eh     change       -0.5737733E-04 Eh
   gradient norm :     0.0019772 Eh/α   predicted    -0.3936602E-04 ( -31.39%)
   displ. norm   :     0.4344657 α      lambda       -0.5905039E-04
   maximum displ.:     0.2805633 α      in ANC's #5, #2, #6, ...

........................................................................
.............................. CYCLE   91 ..............................
........................................................................

 iter      E             dE          RMSdq      gap      omega  full diag
   1   -100.3799228 -0.100380E+03  0.603E-02    0.30       0.0  T
   2   -100.3795904  0.332372E-03  0.859E-02    0.35       1.0  T
   3   -100.3798520 -0.261545E-03  0.505E-02    0.30       1.0  T
   4   -100.3799423 -0.903420E-04  0.170E-02    0.32       1.0  T
   5   -100.3799576 -0.152576E-04  0.507E-03    0.31       2.3  T
   6   -100.3799589 -0.134643E-05  0.221E-03    0.31       5.2  T
   7   -100.3799591 -0.146273E-06  0.112E-03    0.31      10.3  T
   8   -100.3799590  0.710070E-07  0.138E-03    0.31       8.3  T
   9   -100.3799591 -0.932881E-07  0.505E-04    0.31      22.7  T
  10   -100.3799591 -0.408632E-08  0.334E-04    0.31      34.4  T
  11   -100.3799591 -0.227263E-08  0.132E-04    0.31      86.7  T
     SCC iter.                  ...        0 min,  0.145 sec
     gradient                   ...        0 min,  0.076 sec
 * total energy  :   -99.0393252 Eh     change       -0.5998795E-04 Eh
   gradient norm :     0.0021748 Eh/α   predicted    -0.3200623E-04 ( -46.65%)
   displ. norm   :     0.1775751 α      lambda       -0.3885489E-04
   maximum displ.:     0.1131171 α      in ANC's #5, #2, #4, ...

........................................................................
.............................. CYCLE   92 ..............................
........................................................................

 iter      E             dE          RMSdq      gap      omega  full diag
   1   -100.3805999 -0.100381E+03  0.227E-02    0.31       0.0  T
   2   -100.3805962  0.368601E-05  0.154E-02    0.32       1.0  T
   3   -100.3805309  0.652879E-04  0.359E-02    0.30       1.0  T
   4   -100.3805985 -0.676108E-04  0.564E-03    0.32       2.0  T
   5   -100.3806003 -0.177553E-05  0.216E-03    0.31       5.3  T
   6   -100.3806005 -0.232237E-06  0.710E-04    0.31      16.1  T
   7   -100.3806005 -0.416728E-08  0.522E-04    0.31      22.0  T
   8   -100.3806005 -0.233626E-10  0.374E-04    0.31      30.6  T
   9   -100.3806005 -0.199125E-08  0.226E-04    0.31      50.6  T
     SCC iter.                  ...        0 min,  0.128 sec
     gradient                   ...        0 min,  0.079 sec
 * total energy  :   -99.0393594 Eh     change       -0.3423161E-04 Eh
   gradient norm :     0.0018818 Eh/α   predicted    -0.2004117E-04 ( -41.45%)
   displ. norm   :     0.5459375 α      lambda       -0.8600670E-04
   maximum displ.:     0.3387728 α      in ANC's #5, #2, #4, ...
 * RMSD in coord.:     0.5480585 α      energy gain  -0.7183543E-03 Eh

generating ANC from exact Hessian ...
Using Lindh-Hessian (1995)
 Shifting diagonal of input Hessian by    1.0109022231542142E-002
 Lowest  eigenvalues of input Hessian
    0.010000    0.000000    0.000000    0.000000    0.000000    0.000000
    0.000000    0.010199    0.010234    0.010262    0.010400    0.010516
    0.010790    0.010856    0.010907    0.010943    0.011103    0.011333
 Highest eigenvalues
    1.887663    1.971725    2.017502    2.203110    2.357454    2.384833


........................................................................
.............................. CYCLE   93 ..............................
........................................................................

 iter      E             dE          RMSdq      gap      omega  full diag
   1   -100.3810179 -0.100381E+03  0.731E-02    0.31       0.0  T
   2   -100.3810178  0.703271E-07  0.426E-02    0.31       1.0  T
   3   -100.3808978  0.120011E-03  0.431E-02    0.33       1.0  T
   4   -100.3809907 -0.928412E-04  0.249E-02    0.31       1.0  T
   5   -100.3810185 -0.278226E-04  0.603E-03    0.31       1.9  T
   6   -100.3810209 -0.238396E-05  0.182E-03    0.31       6.3  T
   7   -100.3810209 -0.208292E-07  0.133E-03    0.31       8.6  T
   8   -100.3810208  0.360407E-07  0.120E-03    0.31       9.6  T
   9   -100.3810209 -0.668459E-07  0.577E-04    0.31      19.9  T
  10   -100.3810209  0.115858E-08  0.421E-04    0.31      27.2  T
  11   -100.3810209 -0.546000E-08  0.210E-04    0.31      54.7  T
     SCC iter.                  ...        0 min,  0.168 sec
     gradient                   ...        0 min,  0.093 sec
 * total energy  :   -99.0394578 Eh     change       -0.9841398E-04 Eh
   gradient norm :     0.0031143 Eh/α   predicted     0.0000000E+00 (-100.00%)
   displ. norm   :     0.0366635 α      lambda       -0.3606419E-04
   maximum displ.:     0.0129484 α      in ANC's #2, #3, #15, ...

........................................................................
.............................. CYCLE   94 ..............................
........................................................................

 iter      E             dE          RMSdq      gap      omega  full diag
   1   -100.3813743 -0.100381E+03  0.144E-02    0.32       0.0  T
   2   -100.3813347  0.396048E-04  0.286E-02    0.30       1.0  T
   3   -100.3813749 -0.402262E-04  0.862E-03    0.32       1.3  T
   4   -100.3813769 -0.198439E-05  0.449E-03    0.31       2.6  T
   5   -100.3813776 -0.655946E-06  0.178E-03    0.31       6.5  T
   6   -100.3813777 -0.116355E-06  0.848E-04    0.31      13.5  T
   7   -100.3813777 -0.355419E-08  0.703E-04    0.31      16.3  T
   8   -100.3813777 -0.150283E-07  0.376E-04    0.31      30.5  T
   9   -100.3813777  0.171580E-08  0.262E-04    0.31      43.8  T
     SCC iter.                  ...        0 min,  0.124 sec
     gradient                   ...        0 min,  0.075 sec
 * total energy  :   -99.0394804 Eh     change       -0.2258468E-04 Eh
   gradient norm :     0.0016655 Eh/α   predicted    -0.1807085E-04 ( -19.99%)
   displ. norm   :     0.1974694 α      lambda       -0.9447140E-04
   maximum displ.:     0.0736846 α      in ANC's #2, #3, #15, ...

........................................................................
.............................. CYCLE   95 ..............................
........................................................................

 iter      E             dE          RMSdq      gap      omega  full diag
   1   -100.3821190 -0.100382E+03  0.710E-02    0.33       0.0  T
   2   -100.3799562  0.216283E-02  0.201E-01    0.25       1.0  T
   3   -100.3821905 -0.223433E-02  0.390E-02    0.32       1.0  T
   4   -100.3822259 -0.353920E-04  0.187E-02    0.31       1.0  T
   5   -100.3822312 -0.531534E-05  0.102E-02    0.30       1.1  T
   6   -100.3822362 -0.503080E-05  0.381E-03    0.31       3.0  T
   7   -100.3822360  0.200208E-06  0.351E-03    0.31       3.3  T
   8   -100.3822364 -0.402661E-06  0.222E-03    0.31       5.2  T
   9   -100.3822363  0.146057E-06  0.216E-03    0.31       5.3  T
  10   -100.3822365 -0.190337E-06  0.113E-03    0.31      10.1  T
  11   -100.3822365 -0.476567E-07  0.525E-04    0.31      21.8  T
  12   -100.3822365 -0.829544E-08  0.130E-04    0.31      88.2  T
  13   -100.3822365 -0.218449E-09  0.799E-05    0.31     143.6  T
     SCC iter.                  ...        0 min,  0.207 sec
     gradient                   ...        0 min,  0.077 sec
 * total energy  :   -99.0393681 Eh     change        0.1122902E-03 Eh
   gradient norm :     0.0096198 Eh/α   predicted    -0.4805559E-04 (-142.80%)
   displ. norm   :     0.0394887 α      lambda       -0.2097777E-03
   maximum displ.:     0.0178803 α      in ANC's #32, #17, #18, ...

........................................................................
.............................. CYCLE   96 ..............................
........................................................................

 iter      E             dE          RMSdq      gap      omega  full diag
   1   -100.3821150 -0.100382E+03  0.306E-02    0.30       0.0  T
   2   -100.3819669  0.148031E-03  0.559E-02    0.33       1.0  T
   3   -100.3821199 -0.152998E-03  0.191E-02    0.30       1.0  T
   4   -100.3821287 -0.880426E-05  0.116E-02    0.31       1.0  T
   5   -100.3821313 -0.256727E-05  0.596E-03    0.31       1.9  T
   6   -100.3821315 -0.181175E-06  0.493E-03    0.31       2.3  T
   7   -100.3821320 -0.545991E-06  0.350E-03    0.31       3.3  T
   8   -100.3821324 -0.367118E-06  0.195E-03    0.31       5.9  T
   9   -100.3821325 -0.701048E-07  0.151E-03    0.31       7.6  T
  10   -100.3821326 -0.127626E-06  0.470E-04    0.31      24.4  T
  11   -100.3821326 -0.941024E-08  0.205E-04    0.31      56.0  T
     SCC iter.                  ...        0 min,  0.165 sec
     gradient                   ...        0 min,  0.074 sec
 * total energy  :   -99.0395061 Eh     change       -0.1379533E-03 Eh
   gradient norm :     0.0048814 Eh/α   predicted    -0.1050560E-03 ( -23.85%)
   displ. norm   :     0.0583329 α      lambda       -0.1253981E-03
   maximum displ.:     0.0378423 α      in ANC's #47, #46, #26, ...

........................................................................
.............................. CYCLE   97 ..............................
........................................................................

 iter      E             dE          RMSdq      gap      omega  full diag
   1   -100.3812285 -0.100381E+03  0.545E-02    0.30       0.0  T
   2   -100.3807860  0.442426E-03  0.963E-02    0.35       1.0  T
   3   -100.3812359 -0.449876E-03  0.319E-02    0.30       1.0  T
   4   -100.3812759 -0.399968E-04  0.137E-02    0.31       1.0  T
   5   -100.3812786 -0.272996E-05  0.687E-03    0.31       1.7  T
   6   -100.3812795 -0.883740E-06  0.437E-03    0.31       2.6  T
   7   -100.3812800 -0.457841E-06  0.347E-03    0.31       3.3  T
   8   -100.3812805 -0.496823E-06  0.167E-03    0.31       6.9  T
   9   -100.3812805 -0.645105E-07  0.929E-04    0.31      12.3  T
  10   -100.3812804  0.107605E-06  0.141E-03    0.31       8.1  T
  11   -100.3812805 -0.121062E-06  0.349E-04    0.31      32.9  T
  12   -100.3812806 -0.382757E-08  0.103E-04    0.31     111.1  T
     SCC iter.                  ...        0 min,  0.151 sec
     gradient                   ...        0 min,  0.067 sec
 * total energy  :   -99.0394850 Eh     change        0.2106234E-04 Eh
   gradient norm :     0.0037477 Eh/α   predicted    -0.6291332E-04 (-398.70%)
   displ. norm   :     0.0600068 α      lambda       -0.1366679E-03
   maximum displ.:     0.0305354 α      in ANC's #47, #2, #3, ...

........................................................................
.............................. CYCLE   98 ..............................
........................................................................

 iter      E             dE          RMSdq      gap      omega  full diag
   1   -100.3815727 -0.100382E+03  0.385E-02    0.31       0.0  T
   2   -100.3815247  0.479866E-04  0.353E-02    0.30       1.0  T
   3   -100.3814553  0.694314E-04  0.480E-02    0.33       1.0  T
   4   -100.3815784 -0.123125E-03  0.933E-03    0.31       1.2  T
   5   -100.3815783  0.873194E-07  0.481E-03    0.31       2.4  T
   6   -100.3815787 -0.402550E-06  0.330E-03    0.31       3.5  T
   7   -100.3815787  0.439995E-07  0.261E-03    0.31       4.4  T
   8   -100.3815785  0.212766E-06  0.265E-03    0.31       4.3  T
   9   -100.3815788 -0.394700E-06  0.913E-04    0.31      12.6  T
  10   -100.3815789 -0.385798E-07  0.342E-04    0.31      33.6  T
  11   -100.3815789 -0.286744E-08  0.144E-04    0.31      79.8  T
     SCC iter.                  ...        0 min,  0.135 sec
     gradient                   ...        0 min,  0.068 sec
 * total energy  :   -99.0395524 Eh     change       -0.6739995E-04 Eh
   gradient norm :     0.0012357 Eh/α   predicted    -0.6858050E-04 (   1.75%)
   displ. norm   :     0.1224971 α      lambda        0.4301517E-04
   maximum displ.:     0.0565528 α      in ANC's #2, #3, #47, ...

........................................................................
.............................. CYCLE   99 ..............................
........................................................................

 iter      E             dE          RMSdq      gap      omega  full diag
   1   -100.3813868 -0.100381E+03  0.456E-02    0.31       0.0  T
   2   -100.3812074  0.179353E-03  0.606E-02    0.29       1.0  T
   3   -100.3812939 -0.864272E-04  0.462E-02    0.33       1.0  T
   4   -100.3814016 -0.107711E-03  0.116E-02    0.31       1.0  T
   5   -100.3814016  0.224176E-09  0.846E-03    0.31       1.4  T
   6   -100.3814044 -0.282129E-05  0.244E-03    0.31       4.7  T
   7   -100.3814043  0.719809E-07  0.235E-03    0.31       4.9  T
   8   -100.3814045 -0.145916E-06  0.149E-03    0.31       7.7  T
   9   -100.3814044  0.111645E-06  0.165E-03    0.31       7.0  T
  10   -100.3814045 -0.113952E-06  0.939E-04    0.31      12.2  T
  11   -100.3814045 -0.418571E-07  0.305E-04    0.31      37.6  T
  12   -100.3814045 -0.211480E-08  0.135E-04    0.31      84.7  T
     SCC iter.                  ...        0 min,  0.144 sec
     gradient                   ...        0 min,  0.068 sec
 * total energy  :   -99.0395093 Eh     change        0.4312289E-04 Eh
   gradient norm :     0.0039741 Eh/α   predicted     0.2164706E-04 ( -49.80%)
   displ. norm   :     0.0271006 α      lambda       -0.8385391E-04
   maximum displ.:     0.0243836 α      in ANC's #47, #25, #17, ...

........................................................................
.............................. CYCLE  100 ..............................
........................................................................

 iter      E             dE          RMSdq      gap      omega  full diag
   1   -100.3816213 -0.100382E+03  0.244E-02    0.31       0.0  T
   2   -100.3816096  0.117121E-04  0.185E-02    0.31       1.0  T
   3   -100.3815633  0.462665E-04  0.324E-02    0.30       1.0  T
   4   -100.3816226 -0.592463E-04  0.737E-03    0.31       1.6  T
   5   -100.3816232 -0.578653E-06  0.468E-03    0.31       2.4  T
   6   -100.3816240 -0.796617E-06  0.175E-03    0.31       6.6  T
   7   -100.3816240 -0.420448E-07  0.137E-03    0.31       8.3  T
   8   -100.3816240 -0.528706E-07  0.721E-04    0.31      15.9  T
   9   -100.3816240  0.146092E-08  0.504E-04    0.31      22.8  T
  10   -100.3816241 -0.120023E-07  0.228E-04    0.31      50.2  T
  11   -100.3816241  0.579902E-09  0.163E-04    0.31      70.2  T
     SCC iter.                  ...        0 min,  0.135 sec
     gradient                   ...        0 min,  0.064 sec
 * total energy  :   -99.0395663 Eh     change       -0.5698709E-04 Eh
   gradient norm :     0.0021527 Eh/α   predicted    -0.4196193E-04 ( -26.37%)
   displ. norm   :     0.0513045 α      lambda       -0.4722557E-04
   maximum displ.:     0.0252593 α      in ANC's #2, #3, #5, ...

........................................................................
.............................. CYCLE  101 ..............................
........................................................................

 iter      E             dE          RMSdq      gap      omega  full diag
   1   -100.3815179 -0.100382E+03  0.236E-02    0.30       0.0  T
   2   -100.3814321  0.858921E-04  0.422E-02    0.33       1.0  T
   3   -100.3815170 -0.849787E-04  0.150E-02    0.31       1.0  T
   4   -100.3815259 -0.882010E-05  0.581E-03    0.31       2.0  T
   5   -100.3815262 -0.380423E-06  0.271E-03    0.31       4.2  T
   6   -100.3815264 -0.164162E-06  0.154E-03    0.31       7.4  T
   7   -100.3815264 -0.198244E-07  0.138E-03    0.31       8.3  T
   8   -100.3815265 -0.876553E-07  0.705E-04    0.31      16.3  T
   9   -100.3815265 -0.105343E-07  0.384E-04    0.31      29.8  T
  10   -100.3815265 -0.520799E-09  0.313E-04    0.31      36.7  T
     SCC iter.                  ...        0 min,  0.131 sec
     gradient                   ...        0 min,  0.068 sec
 * total energy  :   -99.0395879 Eh     change       -0.2163199E-04 Eh
   gradient norm :     0.0012562 Eh/α   predicted    -0.2367692E-04 (   9.45%)
   displ. norm   :     0.0917573 α      lambda       -0.1931171E-04
   maximum displ.:     0.0490940 α      in ANC's #2, #3, #5, ...

........................................................................
.............................. CYCLE  102 ..............................
........................................................................

 iter      E             dE          RMSdq      gap      omega  full diag
   1   -100.3814494 -0.100381E+03  0.172E-02    0.31       0.0  T
   2   -100.3814473  0.218265E-05  0.123E-02    0.31       1.0  T
   3   -100.3814251  0.222046E-04  0.221E-02    0.30       1.0  T
   4   -100.3814471 -0.219941E-04  0.708E-03    0.31       1.6  T
   5   -100.3814492 -0.211085E-05  0.345E-03    0.31       3.3  T
   6   -100.3814501 -0.929281E-06  0.108E-03    0.31      10.6  T
   7   -100.3814501  0.278410E-07  0.108E-03    0.31      10.6  T
   8   -100.3814501 -0.358534E-07  0.487E-04    0.31      23.5  T
   9   -100.3814501 -0.495956E-08  0.241E-04    0.31      47.6  T
     SCC iter.                  ...        0 min,  0.112 sec
     gradient                   ...        0 min,  0.064 sec
 * total energy  :   -99.0396069 Eh     change       -0.1893154E-04 Eh
   gradient norm :     0.0012256 Eh/α   predicted    -0.9693040E-05 ( -48.80%)
   displ. norm   :     0.1695841 α      lambda       -0.2571219E-04
   maximum displ.:     0.0904448 α      in ANC's #2, #3, #5, ...

........................................................................
.............................. CYCLE  103 ..............................
........................................................................

 iter      E             dE          RMSdq      gap      omega  full diag
   1   -100.3812671 -0.100381E+03  0.286E-02    0.31       0.0  T
   2   -100.3812602  0.692048E-05  0.212E-02    0.32       1.0  T
   3   -100.3812019  0.583082E-04  0.362E-02    0.30       1.0  T
   4   -100.3812562 -0.543435E-04  0.136E-02    0.32       1.0  T
   5   -100.3812671 -0.109136E-04  0.490E-03    0.31       2.3  T
   6   -100.3812690 -0.188757E-05  0.177E-03    0.31       6.5  T
   7   -100.3812690  0.706535E-07  0.177E-03    0.31       6.5  T
   8   -100.3812691 -0.899959E-07  0.765E-04    0.31      15.0  T
   9   -100.3812691 -0.765290E-08  0.467E-04    0.31      24.6  T
  10   -100.3812691 -0.120979E-07  0.109E-04    0.31     104.9  T
     SCC iter.                  ...        0 min,  0.115 sec
     gradient                   ...        0 min,  0.060 sec
 * total energy  :   -99.0396410 Eh     change       -0.3414090E-04 Eh
   gradient norm :     0.0012621 Eh/α   predicted    -0.1302160E-04 ( -61.86%)
   displ. norm   :     0.4088500 α      lambda       -0.5693884E-04
   maximum displ.:     0.2167526 α      in ANC's #2, #3, #5, ...

........................................................................
.............................. CYCLE  104 ..............................
........................................................................

 iter      E             dE          RMSdq      gap      omega  full diag
   1   -100.3800045 -0.100380E+03  0.732E-02    0.31       0.0  T
   2   -100.3798089  0.195635E-03  0.786E-02    0.34       1.0  T
   3   -100.3797436  0.652609E-04  0.759E-02    0.29       1.0  T
   4   -100.3799235 -0.179836E-03  0.396E-02    0.34       1.0  T
   5   -100.3800281 -0.104695E-03  0.112E-02    0.32       1.0  T
   6   -100.3800326 -0.440311E-05  0.459E-03    0.32       2.5  T
   7   -100.3800323  0.288191E-06  0.397E-03    0.32       2.9  T
   8   -100.3800327 -0.432979E-06  0.182E-03    0.32       6.3  T
   9   -100.3800327 -0.140242E-07  0.142E-03    0.32       8.1  T
  10   -100.3800328 -0.733760E-07  0.434E-04    0.32      26.4  T
  11   -100.3800328  0.495888E-09  0.460E-04    0.32      25.0  T
     SCC iter.                  ...        0 min,  0.148 sec
     gradient                   ...        0 min,  0.074 sec
 * total energy  :   -99.0397053 Eh     change       -0.6426433E-04 Eh
   gradient norm :     0.0016186 Eh/α   predicted    -0.3059182E-04 ( -52.40%)
   displ. norm   :     0.3906360 α      lambda       -0.4323140E-04
   maximum displ.:     0.2117452 α      in ANC's #2, #3, #5, ...

........................................................................
.............................. CYCLE  105 ..............................
........................................................................

 iter      E             dE          RMSdq      gap      omega  full diag
   1   -100.3796287 -0.100380E+03  0.710E-02    0.31       0.0  T
   2   -100.3794405  0.188171E-03  0.759E-02    0.34       1.0  T
   3   -100.3793743  0.661700E-04  0.742E-02    0.30       1.0  T
   4   -100.3795768 -0.202502E-03  0.339E-02    0.34       1.0  T
   5   -100.3796450 -0.681622E-04  0.114E-02    0.32       1.0  T
   6   -100.3796547 -0.972095E-05  0.411E-03    0.32       2.8  T
   7   -100.3796545  0.235286E-06  0.380E-03    0.32       3.0  T
   8   -100.3796549 -0.377144E-06  0.183E-03    0.32       6.3  T
   9   -100.3796549 -0.520298E-07  0.934E-04    0.32      12.3  T
  10   -100.3796549 -0.128693E-07  0.436E-04    0.32      26.3  T
  11   -100.3796549 -0.549545E-08  0.346E-04    0.32      33.1  T
     SCC iter.                  ...        0 min,  0.146 sec
     gradient                   ...        0 min,  0.072 sec
 * total energy  :   -99.0397497 Eh     change       -0.4446403E-04 Eh
   gradient norm :     0.0016096 Eh/α   predicted    -0.2308295E-04 ( -48.09%)
   displ. norm   :     0.3066174 α      lambda       -0.3294412E-04
   maximum displ.:     0.1669789 α      in ANC's #2, #3, #5, ...

........................................................................
.............................. CYCLE  106 ..............................
........................................................................

 iter      E             dE          RMSdq      gap      omega  full diag
   1   -100.3806631 -0.100381E+03  0.560E-02    0.32       0.0  T
   2   -100.3804928  0.170277E-03  0.680E-02    0.35       1.0  T
   3   -100.3805545 -0.616651E-04  0.519E-02    0.31       1.0  T
   4   -100.3806306 -0.760772E-04  0.275E-02    0.34       1.0  T
   5   -100.3806806 -0.500438E-04  0.770E-03    0.32       1.5  T
   6   -100.3806835 -0.284281E-05  0.329E-03    0.32       3.5  T
   7   -100.3806834  0.328200E-07  0.238E-03    0.32       4.8  T
   8   -100.3806836 -0.120975E-06  0.130E-03    0.32       8.8  T
   9   -100.3806836 -0.206529E-07  0.882E-04    0.32      13.0  T
  10   -100.3806836 -0.352285E-07  0.226E-04    0.32      50.9  T
  11   -100.3806836  0.880675E-09  0.225E-04    0.32      51.1  T
     SCC iter.                  ...        0 min,  0.156 sec
     gradient                   ...        0 min,  0.077 sec
 * total energy  :   -99.0397852 Eh     change       -0.3549582E-04 Eh
   gradient norm :     0.0011465 Eh/α   predicted    -0.1716056E-04 ( -51.65%)
   displ. norm   :     0.3427761 α      lambda       -0.3158438E-04
   maximum displ.:     0.1854130 α      in ANC's #2, #3, #5, ...

........................................................................
.............................. CYCLE  107 ..............................
........................................................................

 iter      E             dE          RMSdq      gap      omega  full diag
   1   -100.3806473 -0.100381E+03  0.609E-02    0.32       0.0  T
   2   -100.3803939  0.253435E-03  0.795E-02    0.36       1.0  T
   3   -100.3805506 -0.156697E-03  0.525E-02    0.31       1.0  T
   4   -100.3806444 -0.938926E-04  0.222E-02    0.34       1.0  T
   5   -100.3806707 -0.262437E-04  0.820E-03    0.32       1.4  T
   6   -100.3806757 -0.505687E-05  0.299E-03    0.33       3.8  T
   7   -100.3806757  0.343814E-07  0.250E-03    0.33       4.6  T
   8   -100.3806759 -0.149512E-06  0.131E-03    0.33       8.7  T
   9   -100.3806759 -0.247612E-07  0.718E-04    0.33      16.0  T
  10   -100.3806759 -0.160032E-07  0.291E-04    0.33      39.5  T
  11   -100.3806759 -0.174509E-09  0.171E-04    0.33      67.0  T
     SCC iter.                  ...        0 min,  0.157 sec
     gradient                   ...        0 min,  0.079 sec
 * total energy  :   -99.0398213 Eh     change       -0.3608403E-04 Eh
   gradient norm :     0.0009631 Eh/α   predicted    -0.1661797E-04 ( -53.95%)
   displ. norm   :     0.3247703 α      lambda       -0.3482538E-04
   maximum displ.:     0.1686023 α      in ANC's #3, #2, #5, ...

........................................................................
.............................. CYCLE  108 ..............................
........................................................................

 iter      E             dE          RMSdq      gap      omega  full diag
   1   -100.3820273 -0.100382E+03  0.548E-02    0.32       0.0  T
   2   -100.3818054  0.221926E-03  0.722E-02    0.36       1.0  T
   3   -100.3819452 -0.139843E-03  0.485E-02    0.31       1.0  T
   4   -100.3820395 -0.942825E-04  0.154E-02    0.34       1.0  T
   5   -100.3820508 -0.113410E-04  0.374E-03    0.33       3.1  T
   6   -100.3820513 -0.467022E-06  0.199E-03    0.33       5.8  T
   7   -100.3820513 -0.360911E-07  0.160E-03    0.33       7.2  T
   8   -100.3820514 -0.577618E-07  0.883E-04    0.33      13.0  T
   9   -100.3820514 -0.422422E-08  0.609E-04    0.33      18.8  T
  10   -100.3820514 -0.146113E-07  0.231E-04    0.33      49.6  T
  11   -100.3820514 -0.411873E-09  0.156E-04    0.33      73.4  T
     SCC iter.                  ...        0 min,  0.150 sec
     gradient                   ...        0 min,  0.070 sec
 * total energy  :   -99.0398547 Eh     change       -0.3343233E-04 Eh
   gradient norm :     0.0021144 Eh/α   predicted    -0.1823006E-04 ( -45.47%)
   displ. norm   :     0.2244103 α      lambda       -0.2760613E-04
   maximum displ.:     0.1173724 α      in ANC's #3, #2, #5, ...

........................................................................
.............................. CYCLE  109 ..............................
........................................................................

 iter      E             dE          RMSdq      gap      omega  full diag
   1   -100.3808962 -0.100381E+03  0.358E-02    0.33       0.0  T
   2   -100.3808100  0.861823E-04  0.452E-02    0.35       1.0  T
   3   -100.3808560 -0.459548E-04  0.331E-02    0.32       1.0  T
   4   -100.3809029 -0.468965E-04  0.692E-03    0.33       1.7  T
   5   -100.3809047 -0.186118E-05  0.248E-03    0.33       4.6  T
   6   -100.3809049 -0.194303E-06  0.137E-03    0.33       8.4  T
   7   -100.3809049 -0.224234E-07  0.107E-03    0.33      10.7  T
   8   -100.3809050 -0.328438E-07  0.506E-04    0.33      22.7  T
   9   -100.3809050  0.406453E-08  0.425E-04    0.33      27.0  T
  10   -100.3809050 -0.908902E-08  0.137E-04    0.33      84.0  T
     SCC iter.                  ...        0 min,  0.127 sec
     gradient                   ...        0 min,  0.079 sec
 * total energy  :   -99.0398749 Eh     change       -0.2017663E-04 Eh
   gradient norm :     0.0011796 Eh/α   predicted    -0.1450294E-04 ( -28.12%)
   displ. norm   :     0.2718450 α      lambda       -0.2695718E-04
   maximum displ.:     0.1309582 α      in ANC's #3, #2, #5, ...

........................................................................
.............................. CYCLE  110 ..............................
........................................................................

 iter      E             dE          RMSdq      gap      omega  full diag
   1   -100.3811344 -0.100381E+03  0.365E-02    0.33       0.0  T
   2   -100.3810947  0.396816E-04  0.325E-02    0.34       1.0  T
   3   -100.3809939  0.100872E-03  0.523E-02    0.31       1.0  T
   4   -100.3811373 -0.143439E-03  0.779E-03    0.33       1.5  T
   5   -100.3811381 -0.837090E-06  0.344E-03    0.33       3.3  T
   6   -100.3811392 -0.101834E-05  0.151E-03    0.33       7.6  T
   7   -100.3811392 -0.837893E-07  0.798E-04    0.33      14.4  T
   8   -100.3811393 -0.134609E-07  0.576E-04    0.33      19.9  T
   9   -100.3811393 -0.539424E-08  0.336E-04    0.33      34.2  T
  10   -100.3811393  0.441274E-08  0.366E-04    0.33      31.3  T
     SCC iter.                  ...        0 min,  0.146 sec
     gradient                   ...        0 min,  0.080 sec
 * total energy  :   -99.0399019 Eh     change       -0.2700906E-04 Eh
   gradient norm :     0.0012704 Eh/α   predicted    -0.1392320E-04 ( -48.45%)
   displ. norm   :     0.1856570 α      lambda       -0.2206798E-04
   maximum displ.:     0.0796013 α      in ANC's #3, #5, #2, ...

........................................................................
.............................. CYCLE  111 ..............................
........................................................................

 iter      E             dE          RMSdq      gap      omega  full diag
   1   -100.3809328 -0.100381E+03  0.216E-02    0.33       0.0  T
   2   -100.3809310  0.178298E-05  0.127E-02    0.34       1.0  T
   3   -100.3808835  0.474657E-04  0.285E-02    0.32       1.0  T
   4   -100.3809331 -0.495972E-04  0.549E-03    0.33       2.1  T
   5   -100.3809328  0.335658E-06  0.343E-03    0.33       3.3  T
   6   -100.3809338 -0.986682E-06  0.901E-04    0.33      12.7  T
   7   -100.3809338 -0.308944E-09  0.774E-04    0.33      14.8  T
   8   -100.3809338 -0.616956E-08  0.520E-04    0.33      22.1  T
   9   -100.3809338 -0.409894E-08  0.261E-04    0.33      44.0  T
  10   -100.3809338 -0.589466E-10  0.166E-04    0.33      69.0  T
     SCC iter.                  ...        0 min,  0.139 sec
     gradient                   ...        0 min,  0.078 sec
 * total energy  :   -99.0399262 Eh     change       -0.2431781E-04 Eh
   gradient norm :     0.0010857 Eh/α   predicted    -0.1120510E-04 ( -53.92%)
   displ. norm   :     0.2041904 α      lambda       -0.2644480E-04
   maximum displ.:     0.0731972 α      in ANC's #1, #3, #15, ...

........................................................................
.............................. CYCLE  112 ..............................
........................................................................

 iter      E             dE          RMSdq      gap      omega  full diag
   1   -100.3814668 -0.100381E+03  0.307E-02    0.34       0.0  T
   2   -100.3813913  0.754940E-04  0.428E-02    0.32       1.0  T
   3   -100.3814396 -0.483023E-04  0.267E-02    0.34       1.0  T
   4   -100.3814667 -0.271050E-04  0.125E-02    0.33       1.0  T
   5   -100.3814737 -0.701672E-05  0.458E-03    0.33       2.5  T
   6   -100.3814742 -0.548982E-06  0.282E-03    0.33       4.1  T
   7   -100.3814743 -0.764881E-07  0.195E-03    0.33       5.9  T
   8   -100.3814743  0.299474E-07  0.154E-03    0.33       7.4  T
   9   -100.3814744 -0.127541E-06  0.617E-04    0.33      18.6  T
  10   -100.3814744 -0.177997E-07  0.260E-04    0.33      44.1  T
  11   -100.3814744 -0.119655E-08  0.145E-04    0.33      79.2  T
     SCC iter.                  ...        0 min,  0.139 sec
     gradient                   ...        0 min,  0.082 sec
 * total energy  :   -99.0399502 Eh     change       -0.2394525E-04 Eh
   gradient norm :     0.0010577 Eh/α   predicted    -0.1347186E-04 ( -43.74%)
   displ. norm   :     0.1759313 α      lambda       -0.1502237E-04
   maximum displ.:     0.0811091 α      in ANC's #3, #2, #5, ...

........................................................................
.............................. CYCLE  113 ..............................
........................................................................

 iter      E             dE          RMSdq      gap      omega  full diag
   1   -100.3802647 -0.100380E+03  0.199E-02    0.33       0.0  T
   2   -100.3802647 -0.287007E-07  0.113E-02    0.33       1.0  T
   3   -100.3802521  0.126011E-04  0.155E-02    0.34       1.0  T
   4   -100.3802631 -0.110305E-04  0.639E-03    0.33       1.8  T
   5   -100.3802651 -0.193646E-05  0.110E-03    0.33      10.5  T
   6   -100.3802651 -0.240375E-07  0.708E-04    0.33      16.2  T
   7   -100.3802651 -0.286317E-08  0.636E-04    0.34      18.0  T
   8   -100.3802651 -0.111042E-07  0.320E-04    0.33      35.8  T
   9   -100.3802651 -0.134895E-08  0.171E-04    0.33      67.1  T
     SCC iter.                  ...        0 min,  0.121 sec
     gradient                   ...        0 min,  0.074 sec
 * total energy  :   -99.0399644 Eh     change       -0.1416671E-04 Eh
   gradient norm :     0.0009059 Eh/α   predicted    -0.7617475E-05 ( -46.23%)
   displ. norm   :     0.1128027 α      lambda       -0.1149527E-04
   maximum displ.:     0.0484130 α      in ANC's #2, #3, #1, ...

........................................................................
.............................. CYCLE  114 ..............................
........................................................................

 iter      E             dE          RMSdq      gap      omega  full diag
   1   -100.3808929 -0.100381E+03  0.131E-02    0.34       0.0  T
   2   -100.3808797  0.132041E-04  0.168E-02    0.33       1.0  T
   3   -100.3808882 -0.849675E-05  0.121E-02    0.34       1.0  T
   4   -100.3808936 -0.544881E-05  0.402E-03    0.34       2.9  T
   5   -100.3808941 -0.510135E-06  0.223E-03    0.34       5.1  T
   6   -100.3808943 -0.168174E-06  0.107E-03    0.34      10.7  T
   7   -100.3808943 -0.142888E-07  0.723E-04    0.34      15.9  T
   8   -100.3808943 -0.309184E-08  0.391E-04    0.34      29.3  T
   9   -100.3808943 -0.577043E-08  0.135E-04    0.34      85.1  T
     SCC iter.                  ...        0 min,  0.120 sec
     gradient                   ...        0 min,  0.075 sec
 * total energy  :   -99.0399774 Eh     change       -0.1300873E-04 Eh
   gradient norm :     0.0009105 Eh/α   predicted    -0.5783270E-05 ( -55.54%)
   displ. norm   :     0.2573209 α      lambda       -0.1742345E-04
   maximum displ.:     0.1315950 α      in ANC's #2, #3, #5, ...

........................................................................
.............................. CYCLE  115 ..............................
........................................................................

 iter      E             dE          RMSdq      gap      omega  full diag
   1   -100.3805601 -0.100381E+03  0.312E-02    0.34       0.0  T
   2   -100.3805571  0.296814E-05  0.197E-02    0.34       1.0  T
   3   -100.3804842  0.729827E-04  0.383E-02    0.32       1.0  T
   4   -100.3805563 -0.721898E-04  0.101E-02    0.34       1.1  T
   5   -100.3805601 -0.373869E-05  0.478E-03    0.34       2.4  T
   6   -100.3805616 -0.155949E-05  0.187E-03    0.34       6.1  T
   7   -100.3805616  0.403868E-07  0.170E-03    0.34       6.8  T
   8   -100.3805617 -0.709555E-07  0.701E-04    0.34      16.4  T
   9   -100.3805617 -0.849546E-08  0.438E-04    0.34      26.2  T
  10   -100.3805617 -0.969069E-08  0.197E-04    0.34      58.1  T
     SCC iter.                  ...        0 min,  0.128 sec
     gradient                   ...        0 min,  0.077 sec
 * total energy  :   -99.0399941 Eh     change       -0.1671991E-04 Eh
   gradient norm :     0.0013150 Eh/α   predicted    -0.8971968E-05 ( -46.34%)
   displ. norm   :     0.1799786 α      lambda       -0.1203548E-04
   maximum displ.:     0.0919941 α      in ANC's #2, #3, #5, ...

........................................................................
.............................. CYCLE  116 ..............................
........................................................................

 iter      E             dE          RMSdq      gap      omega  full diag
   1   -100.3815517 -0.100382E+03  0.227E-02    0.34       0.0  T
   2   -100.3815500  0.168860E-05  0.142E-02    0.34       1.0  T
   3   -100.3815080  0.420098E-04  0.287E-02    0.33       1.0  T
   4   -100.3815506 -0.425623E-04  0.611E-03    0.34       1.9  T
   5   -100.3815520 -0.142908E-05  0.221E-03    0.34       5.2  T
   6   -100.3815523 -0.313009E-06  0.947E-04    0.34      12.1  T
   7   -100.3815523  0.525091E-09  0.803E-04    0.34      14.3  T
   8   -100.3815523 -0.140827E-07  0.386E-04    0.34      29.7  T
   9   -100.3815523 -0.251887E-09  0.245E-04    0.34      46.8  T
     SCC iter.                  ...        0 min,  0.108 sec
     gradient                   ...        0 min,  0.063 sec
 * total energy  :   -99.0400060 Eh     change       -0.1189951E-04 Eh
   gradient norm :     0.0007668 Eh/α   predicted    -0.6106492E-05 ( -48.68%)
   displ. norm   :     0.2225720 α      lambda       -0.9873517E-05
   maximum displ.:     0.1171346 α      in ANC's #2, #3, #5, ...

........................................................................
.............................. CYCLE  117 ..............................
........................................................................

 iter      E             dE          RMSdq      gap      omega  full diag
   1   -100.3809491 -0.100381E+03  0.323E-02    0.34       0.0  T
   2   -100.3808903  0.587953E-04  0.382E-02    0.35       1.0  T
   3   -100.3809167 -0.263194E-04  0.295E-02    0.33       1.0  T
   4   -100.3809554 -0.387576E-04  0.509E-03    0.34       2.3  T
   5   -100.3809555 -0.103281E-06  0.261E-03    0.34       4.4  T
   6   -100.3809557 -0.193894E-06  0.147E-03    0.34       7.8  T
   7   -100.3809557  0.648193E-08  0.141E-03    0.34       8.1  T
   8   -100.3809558 -0.748237E-07  0.575E-04    0.34      19.9  T
   9   -100.3809558 -0.349389E-08  0.291E-04    0.34      39.5  T
  10   -100.3809558 -0.865157E-09  0.145E-04    0.34      78.9  T
     SCC iter.                  ...        0 min,  0.117 sec
     gradient                   ...        0 min,  0.064 sec
 * total energy  :   -99.0400155 Eh     change       -0.9536328E-05 Eh
   gradient norm :     0.0007579 Eh/α   predicted    -0.5048818E-05 ( -47.06%)
   displ. norm   :     0.1296625 α      lambda       -0.7652146E-05
   maximum displ.:     0.0566737 α      in ANC's #2, #5, #1, ...

........................................................................
.............................. CYCLE  118 ..............................
........................................................................

 iter      E             dE          RMSdq      gap      omega  full diag
   1   -100.3817324 -0.100382E+03  0.175E-02    0.34       0.0  T
   2   -100.3817154  0.170124E-04  0.196E-02    0.35       1.0  T
   3   -100.3817197 -0.425843E-05  0.181E-02    0.34       1.0  T
   4   -100.3817318 -0.121289E-04  0.695E-03    0.34       1.6  T
   5   -100.3817342 -0.241240E-05  0.273E-03    0.34       4.2  T
   6   -100.3817346 -0.331141E-06  0.560E-04    0.34      20.5  T
   7   -100.3817346 -0.138149E-07  0.237E-04    0.34      48.4  T
   8   -100.3817346 -0.165669E-08  0.115E-04    0.34     100.1  T
     SCC iter.                  ...        0 min,  0.099 sec
     gradient                   ...        0 min,  0.071 sec
 * total energy  :   -99.0400213 Eh     change       -0.5809950E-05 Eh
   gradient norm :     0.0008087 Eh/α   predicted    -0.3857887E-05 ( -33.60%)
   displ. norm   :     0.0358635 α      lambda       -0.2928241E-05
   maximum displ.:     0.0159781 α      in ANC's #1, #5, #14, ...

........................................................................
.............................. CYCLE  119 ..............................
........................................................................

 iter      E             dE          RMSdq      gap      omega  full diag
   1   -100.3814626 -0.100381E+03  0.700E-03    0.34       0.0  T
   2   -100.3814552  0.738748E-05  0.123E-02    0.35       1.0  T
   3   -100.3814628 -0.762652E-05  0.415E-03    0.34       2.8  T
   4   -100.3814633 -0.474859E-06  0.137E-03    0.34       8.4  T
   5   -100.3814633 -0.136617E-07  0.769E-04    0.34      14.9  T
   6   -100.3814633 -0.192060E-07  0.292E-04    0.34      39.3  T
   7   -100.3814633 -0.165066E-08  0.287E-04    0.34      40.0  T
     SCC iter.                  ...        0 min,  0.083 sec
     gradient                   ...        0 min,  0.064 sec
 * total energy  :   -99.0400243 Eh     change       -0.2943790E-05 Eh
   gradient norm :     0.0004451 Eh/α   predicted    -0.1466914E-05 ( -50.17%)
   displ. norm   :     0.0472333 α      lambda       -0.2512833E-05
   maximum displ.:     0.0192001 α      in ANC's #10, #3, #1, ...

........................................................................
.............................. CYCLE  120 ..............................
........................................................................

 iter      E             dE          RMSdq      gap      omega  full diag
   1   -100.3814716 -0.100381E+03  0.739E-03    0.34       0.0  T
   2   -100.3814714  0.162792E-06  0.461E-03    0.34       2.5  T
   3   -100.3814683  0.308054E-05  0.828E-03    0.34       1.4  T
   4   -100.3814714 -0.303740E-05  0.241E-03    0.34       4.8  T
   5   -100.3814715 -0.106550E-06  0.167E-03    0.34       6.9  T
   6   -100.3814717 -0.203347E-06  0.526E-04    0.34      21.8  T
   7   -100.3814717 -0.216698E-08  0.363E-04    0.34      31.6  T
   8   -100.3814717 -0.693646E-09  0.208E-04    0.34      55.1  T
     SCC iter.                  ...        0 min,  0.098 sec
     gradient                   ...        0 min,  0.075 sec
 * total energy  :   -99.0400269 Eh     change       -0.2601115E-05 Eh
   gradient norm :     0.0003900 Eh/α   predicted    -0.1261593E-05 ( -51.50%)
   displ. norm   :     0.0519424 α      lambda       -0.2141973E-05
   maximum displ.:     0.0220671 α      in ANC's #3, #1, #10, ...
 * RMSD in coord.:     0.4252509 α      energy gain  -0.6674434E-03 Eh

generating ANC from exact Hessian ...
Using Lindh-Hessian (1995)
 Shifting diagonal of input Hessian by    1.0092305323182414E-002
 Lowest  eigenvalues of input Hessian
    0.000000    0.010000    0.000000    0.000000    0.000000    0.000000
    0.000000    0.010195    0.010239    0.010267    0.010400    0.010482
    0.010760    0.010850    0.010884    0.010947    0.010990    0.011063
 Highest eigenvalues
    1.888650    1.972995    2.019276    2.201460    2.349700    2.384047


........................................................................
.............................. CYCLE  121 ..............................
........................................................................

 iter      E             dE          RMSdq      gap      omega  full diag
   1   -100.3813689 -0.100381E+03  0.810E-03    0.34       0.0  T
   2   -100.3813689  0.129195E-07  0.441E-03    0.34       2.6  T
   3   -100.3813674  0.145819E-05  0.527E-03    0.34       2.2  T
   4   -100.3813682 -0.799859E-06  0.394E-03    0.34       2.9  T
   5   -100.3813689 -0.678900E-06  0.119E-03    0.34       9.6  T
   6   -100.3813690 -0.670229E-07  0.514E-04    0.34      22.3  T
   7   -100.3813690 -0.581366E-10  0.374E-04    0.34      30.6  T
   8   -100.3813690  0.879794E-09  0.247E-04    0.34      46.5  T
     SCC iter.                  ...        0 min,  0.092 sec
     gradient                   ...        0 min,  0.070 sec
 * total energy  :   -99.0400291 Eh     change       -0.2230493E-05 Eh
   gradient norm :     0.0004985 Eh/α   predicted     0.0000000E+00 (-100.00%)
   displ. norm   :     0.0191738 α      lambda       -0.2852940E-06
   maximum displ.:     0.0137558 α      in ANC's #4, #1, #3, ...

........................................................................
.............................. CYCLE  122 ..............................
........................................................................

 iter      E             dE          RMSdq      gap      omega  full diag
   1   -100.3814115 -0.100381E+03  0.495E-03    0.34       0.0  T
   2   -100.3814027  0.878520E-05  0.131E-02    0.34       1.0  T
   3   -100.3814122 -0.950500E-05  0.204E-03    0.34       5.6  T
   4   -100.3814122 -0.480902E-07  0.110E-03    0.34      10.4  T
   5   -100.3814123 -0.333167E-07  0.532E-04    0.34      21.6  T
   6   -100.3814123 -0.313311E-08  0.361E-04    0.34      31.7  T
   7   -100.3814123 -0.312832E-08  0.261E-04    0.34      43.9  T
     SCC iter.                  ...        0 min,  0.084 sec
     gradient                   ...        0 min,  0.072 sec
 * total energy  :   -99.0400316 Eh     change       -0.2538375E-05 Eh
   gradient norm :     0.0002896 Eh/α   predicted    -0.1108600E-05 ( -56.33%)
   displ. norm   :     0.0550730 α      lambda       -0.5386324E-05
   maximum displ.:     0.0344636 α      in ANC's #4, #1, #3, ...

........................................................................
.............................. CYCLE  123 ..............................
........................................................................

 iter      E             dE          RMSdq      gap      omega  full diag
   1   -100.3814406 -0.100381E+03  0.156E-02    0.34       0.0  T
   2   -100.3813829  0.576822E-04  0.336E-02    0.33       1.0  T
   3   -100.3814424 -0.594326E-04  0.987E-03    0.34       1.2  T
   4   -100.3814454 -0.302961E-05  0.403E-03    0.34       2.8  T
   5   -100.3814457 -0.285107E-06  0.219E-03    0.34       5.2  T
   6   -100.3814457 -0.142642E-07  0.180E-03    0.34       6.4  T
   7   -100.3814458 -0.850356E-07  0.106E-03    0.34      10.9  T
   8   -100.3814458 -0.256152E-07  0.599E-04    0.34      19.2  T
   9   -100.3814458  0.164358E-08  0.401E-04    0.34      28.6  T
  10   -100.3814458 -0.105375E-07  0.139E-04    0.34      82.4  T
     SCC iter.                  ...        0 min,  0.135 sec
     gradient                   ...        0 min,  0.080 sec
 * total energy  :   -99.0400287 Eh     change        0.2916737E-05 Eh
   gradient norm :     0.0018974 Eh/α   predicted    -0.2698184E-05 (-192.51%)
   displ. norm   :     0.0322912 α      lambda       -0.1134267E-04
   maximum displ.:     0.0186491 α      in ANC's #4, #1, #32, ...

........................................................................
.............................. CYCLE  124 ..............................
........................................................................

 iter      E             dE          RMSdq      gap      omega  full diag
   1   -100.3813565 -0.100381E+03  0.972E-03    0.34       0.0  T
   2   -100.3813562  0.354867E-06  0.640E-03    0.34       1.8  T
   3   -100.3813511  0.508661E-05  0.105E-02    0.34       1.1  T
   4   -100.3813558 -0.474571E-05  0.457E-03    0.34       2.5  T
   5   -100.3813567 -0.877564E-06  0.175E-03    0.34       6.5  T
   6   -100.3813568 -0.720490E-07  0.118E-03    0.34       9.8  T
   7   -100.3813568 -0.139102E-07  0.756E-04    0.34      15.2  T
   8   -100.3813568 -0.380638E-08  0.488E-04    0.34      23.5  T
   9   -100.3813568 -0.247162E-08  0.255E-04    0.34      44.9  T
     SCC iter.                  ...        0 min,  0.106 sec
     gradient                   ...        0 min,  0.069 sec
 * total energy  :   -99.0400384 Eh     change       -0.9666568E-05 Eh
   gradient norm :     0.0008711 Eh/α   predicted    -0.5674113E-05 ( -41.30%)
   displ. norm   :     0.0467925 α      lambda       -0.7433212E-05
   maximum displ.:     0.0262230 α      in ANC's #4, #1, #46, ...

........................................................................
.............................. CYCLE  125 ..............................
........................................................................

 iter      E             dE          RMSdq      gap      omega  full diag
   1   -100.3812446 -0.100381E+03  0.210E-02    0.34       0.0  T
   2   -100.3812416  0.298031E-05  0.125E-02    0.33       1.0  T
   3   -100.3812180  0.235736E-04  0.226E-02    0.35       1.0  T
   4   -100.3812451 -0.271129E-04  0.616E-03    0.34       1.9  T
   5   -100.3812456 -0.453292E-06  0.271E-03    0.34       4.2  T
   6   -100.3812457 -0.119991E-06  0.205E-03    0.34       5.6  T
   7   -100.3812457  0.842236E-08  0.150E-03    0.34       7.7  T
   8   -100.3812458 -0.591033E-07  0.688E-04    0.34      16.7  T
   9   -100.3812458 -0.190594E-07  0.317E-04    0.34      36.2  T
  10   -100.3812458 -0.307394E-08  0.171E-04    0.34      67.1  T
     SCC iter.                  ...        0 min,  0.125 sec
     gradient                   ...        0 min,  0.074 sec
 * total energy  :   -99.0400319 Eh     change        0.6536681E-05 Eh
   gradient norm :     0.0016178 Eh/α   predicted    -0.3725023E-05 (-156.99%)
   displ. norm   :     0.0310679 α      lambda       -0.1559220E-04
   maximum displ.:     0.0166561 α      in ANC's #4, #1, #46, ...

........................................................................
.............................. CYCLE  126 ..............................
........................................................................

 iter      E             dE          RMSdq      gap      omega  full diag
   1   -100.3812906 -0.100381E+03  0.151E-02    0.34       0.0  T
   2   -100.3812894  0.127478E-05  0.852E-03    0.33       1.3  T
   3   -100.3812782  0.111545E-04  0.156E-02    0.34       1.0  T
   4   -100.3812908 -0.125335E-04  0.405E-03    0.33       2.8  T
   5   -100.3812910 -0.253462E-06  0.201E-03    0.34       5.7  T
   6   -100.3812911 -0.145028E-06  0.104E-03    0.34      11.0  T
   7   -100.3812912 -0.102181E-07  0.731E-04    0.34      15.7  T
   8   -100.3812912  0.682041E-08  0.578E-04    0.34      19.9  T
   9   -100.3812912 -0.171166E-07  0.246E-04    0.34      46.6  T
  10   -100.3812912 -0.677588E-09  0.113E-04    0.34     101.1  T
     SCC iter.                  ...        0 min,  0.122 sec
     gradient                   ...        0 min,  0.079 sec
 * total energy  :   -99.0400449 Eh     change       -0.1299560E-04 Eh
   gradient norm :     0.0006372 Eh/α   predicted    -0.7801148E-05 ( -39.97%)
   displ. norm   :     0.0471483 α      lambda       -0.4626228E-05
   maximum displ.:     0.0282531 α      in ANC's #4, #1, #10, ...

........................................................................
.............................. CYCLE  127 ..............................
........................................................................

 iter      E             dE          RMSdq      gap      omega  full diag
   1   -100.3812545 -0.100381E+03  0.107E-02    0.34       0.0  T
   2   -100.3812484  0.614310E-05  0.122E-02    0.33       1.0  T
   3   -100.3812487 -0.290044E-06  0.113E-02    0.34       1.0  T
   4   -100.3812543 -0.564916E-05  0.450E-03    0.33       2.6  T
   5   -100.3812551 -0.813072E-06  0.167E-03    0.33       6.9  T
   6   -100.3812553 -0.107247E-06  0.109E-03    0.34      10.5  T
   7   -100.3812553 -0.698810E-07  0.463E-04    0.34      24.8  T
   8   -100.3812553  0.707546E-08  0.462E-04    0.34      24.8  T
     SCC iter.                  ...        0 min,  0.115 sec
     gradient                   ...        0 min,  0.085 sec
 * total energy  :   -99.0400487 Eh     change       -0.3894865E-05 Eh
   gradient norm :     0.0006062 Eh/α   predicted    -0.2317403E-05 ( -40.50%)
   displ. norm   :     0.0773187 α      lambda       -0.5025001E-05
   maximum displ.:     0.0467297 α      in ANC's #4, #1, #10, ...

........................................................................
.............................. CYCLE  128 ..............................
........................................................................

 iter      E             dE          RMSdq      gap      omega  full diag
   1   -100.3812122 -0.100381E+03  0.120E-02    0.34       0.0  T
   2   -100.3811975  0.146486E-04  0.176E-02    0.33       1.0  T
   3   -100.3812083 -0.107690E-04  0.108E-02    0.34       1.1  T
   4   -100.3812129 -0.460289E-05  0.411E-03    0.33       2.8  T
   5   -100.3812133 -0.437205E-06  0.183E-03    0.33       6.3  T
   6   -100.3812135 -0.207102E-06  0.957E-04    0.33      12.0  T
   7   -100.3812136 -0.342692E-07  0.558E-04    0.33      20.6  T
   8   -100.3812136 -0.188474E-08  0.290E-04    0.33      39.6  T
   9   -100.3812136 -0.167334E-08  0.174E-04    0.33      65.9  T
     SCC iter.                  ...        0 min,  0.122 sec
     gradient                   ...        0 min,  0.076 sec
 * total energy  :   -99.0400551 Eh     change       -0.6372887E-05 Eh
   gradient norm :     0.0005601 Eh/α   predicted    -0.2521271E-05 ( -60.44%)
   displ. norm   :     0.1895397 α      lambda       -0.1178648E-04
   maximum displ.:     0.1125956 α      in ANC's #4, #1, #10, ...

........................................................................
.............................. CYCLE  129 ..............................
........................................................................

 iter      E             dE          RMSdq      gap      omega  full diag
   1   -100.3810658 -0.100381E+03  0.266E-02    0.33       0.0  T
   2   -100.3810286  0.371913E-04  0.301E-02    0.32       1.0  T
   3   -100.3810307 -0.204356E-05  0.284E-02    0.34       1.0  T
   4   -100.3810674 -0.367399E-04  0.795E-03    0.33       1.4  T
   5   -100.3810692 -0.180192E-05  0.388E-03    0.33       3.0  T
   6   -100.3810696 -0.377754E-06  0.238E-03    0.33       4.8  T
   7   -100.3810697 -0.742643E-07  0.167E-03    0.33       6.9  T
   8   -100.3810697 -0.259705E-07  0.106E-03    0.33      10.8  T
   9   -100.3810697 -0.508310E-07  0.472E-04    0.33      24.3  T
  10   -100.3810697 -0.884370E-08  0.248E-04    0.33      46.2  T
     SCC iter.                  ...        0 min,  0.135 sec
     gradient                   ...        0 min,  0.085 sec
 * total energy  :   -99.0400679 Eh     change       -0.1274005E-04 Eh
   gradient norm :     0.0007728 Eh/α   predicted    -0.5988329E-05 ( -53.00%)
   displ. norm   :     0.2524270 α      lambda       -0.1206813E-04
   maximum displ.:     0.1496610 α      in ANC's #4, #1, #10, ...

........................................................................
.............................. CYCLE  130 ..............................
........................................................................

 iter      E             dE          RMSdq      gap      omega  full diag
   1   -100.3807742 -0.100381E+03  0.371E-02    0.33       0.0  T
   2   -100.3806324  0.141732E-03  0.550E-02    0.31       1.0  T
   3   -100.3807310 -0.985421E-04  0.344E-02    0.34       1.0  T
   4   -100.3807809 -0.499283E-04  0.113E-02    0.32       1.0  T
   5   -100.3807856 -0.468114E-05  0.491E-03    0.32       2.3  T
   6   -100.3807859 -0.282155E-06  0.343E-03    0.32       3.3  T
   7   -100.3807861 -0.223902E-06  0.244E-03    0.32       4.7  T
   8   -100.3807861  0.186755E-07  0.166E-03    0.32       6.9  T
   9   -100.3807862 -0.150433E-06  0.414E-04    0.32      27.7  T
  10   -100.3807862  0.688016E-08  0.445E-04    0.32      25.8  T
     SCC iter.                  ...        0 min,  0.141 sec
     gradient                   ...        0 min,  0.076 sec
 * total energy  :   -99.0400801 Eh     change       -0.1223358E-04 Eh
   gradient norm :     0.0007991 Eh/α   predicted    -0.6208029E-05 ( -49.25%)
   displ. norm   :     0.1868034 α      lambda       -0.6861926E-05
   maximum displ.:     0.1101186 α      in ANC's #4, #1, #10, ...

........................................................................
.............................. CYCLE  131 ..............................
........................................................................

 iter      E             dE          RMSdq      gap      omega  full diag
   1   -100.3810619 -0.100381E+03  0.280E-02    0.32       0.0  T
   2   -100.3809543  0.107578E-03  0.477E-02    0.30       1.0  T
   3   -100.3810445 -0.901843E-04  0.236E-02    0.33       1.0  T
   4   -100.3810633 -0.188411E-04  0.114E-02    0.32       1.0  T
   5   -100.3810705 -0.719004E-05  0.321E-03    0.32       3.6  T
   6   -100.3810705  0.433462E-08  0.259E-03    0.32       4.4  T
   7   -100.3810706 -0.141517E-06  0.173E-03    0.32       6.6  T
   8   -100.3810706  0.194628E-07  0.115E-03    0.32      10.0  T
   9   -100.3810707 -0.678459E-07  0.419E-04    0.32      27.4  T
  10   -100.3810707 -0.542441E-08  0.306E-04    0.32      37.5  T
     SCC iter.                  ...        0 min,  0.128 sec
     gradient                   ...        0 min,  0.074 sec
 * total energy  :   -99.0400870 Eh     change       -0.6908173E-05 Eh
   gradient norm :     0.0007139 Eh/α   predicted    -0.3488195E-05 ( -49.51%)
   displ. norm   :     0.1022739 α      lambda       -0.4527152E-05
   maximum displ.:     0.0639562 α      in ANC's #1, #4, #11, ...

........................................................................
.............................. CYCLE  132 ..............................
........................................................................

 iter      E             dE          RMSdq      gap      omega  full diag
   1   -100.3816583 -0.100382E+03  0.159E-02    0.32       0.0  T
   2   -100.3816130  0.453301E-04  0.310E-02    0.31       1.0  T
   3   -100.3816577 -0.447952E-04  0.107E-02    0.32       1.1  T
   4   -100.3816578 -0.102702E-07  0.731E-03    0.31       1.6  T
   5   -100.3816621 -0.433354E-05  0.220E-03    0.32       5.2  T
   6   -100.3816621 -0.321599E-07  0.172E-03    0.32       6.7  T
   7   -100.3816622 -0.795227E-07  0.999E-04    0.32      11.5  T
   8   -100.3816622 -0.752064E-08  0.522E-04    0.32      22.0  T
   9   -100.3816622 -0.100448E-07  0.247E-04    0.32      46.4  T
  10   -100.3816622 -0.151680E-08  0.121E-04    0.32      95.1  T
     SCC iter.                  ...        0 min,  0.132 sec
     gradient                   ...        0 min,  0.077 sec
 * total energy  :   -99.0400917 Eh     change       -0.4721213E-05 Eh
   gradient norm :     0.0005318 Eh/α   predicted    -0.2275213E-05 ( -51.81%)
   displ. norm   :     0.0697464 α      lambda       -0.3155378E-05
   maximum displ.:     0.0466387 α      in ANC's #1, #4, #11, ...

........................................................................
.............................. CYCLE  133 ..............................
........................................................................

 iter      E             dE          RMSdq      gap      omega  full diag
   1   -100.3818213 -0.100382E+03  0.127E-02    0.32       0.0  T
   2   -100.3817995  0.217642E-04  0.225E-02    0.31       1.0  T
   3   -100.3818197 -0.201076E-04  0.908E-03    0.32       1.3  T
   4   -100.3818204 -0.767477E-06  0.654E-03    0.31       1.8  T
   5   -100.3818230 -0.260793E-05  0.245E-03    0.32       4.7  T
   6   -100.3818234 -0.363489E-06  0.125E-03    0.31       9.2  T
   7   -100.3818234 -0.699654E-08  0.915E-04    0.31      12.5  T
   8   -100.3818234 -0.650050E-08  0.435E-04    0.31      26.4  T
   9   -100.3818234 -0.665018E-08  0.261E-04    0.31      43.9  T
     SCC iter.                  ...        0 min,  0.125 sec
     gradient                   ...        0 min,  0.083 sec
 * total energy  :   -99.0400954 Eh     change       -0.3671675E-05 Eh
   gradient norm :     0.0005627 Eh/α   predicted    -0.1582150E-05 ( -56.91%)
   displ. norm   :     0.0669539 α      lambda       -0.3470064E-05
   maximum displ.:     0.0463804 α      in ANC's #1, #11, #4, ...

........................................................................
.............................. CYCLE  134 ..............................
........................................................................

 iter      E             dE          RMSdq      gap      omega  full diag
   1   -100.3818676 -0.100382E+03  0.139E-02    0.31       0.0  T
   2   -100.3818519  0.156665E-04  0.204E-02    0.31       1.0  T
   3   -100.3818635 -0.115817E-04  0.110E-02    0.32       1.0  T
   4   -100.3818658 -0.233340E-05  0.768E-03    0.31       1.5  T
   5   -100.3818689 -0.310419E-05  0.320E-03    0.31       3.6  T
   6   -100.3818696 -0.630314E-06  0.155E-03    0.31       7.4  T
   7   -100.3818696  0.386756E-08  0.133E-03    0.31       8.6  T
   8   -100.3818696 -0.177027E-07  0.707E-04    0.31      16.2  T
   9   -100.3818696 -0.238418E-07  0.291E-04    0.31      39.4  T
  10   -100.3818696 -0.430602E-08  0.825E-05    0.31     139.0  T
     SCC iter.                  ...        0 min,  0.167 sec
     gradient                   ...        0 min,  0.078 sec
 * total energy  :   -99.0400992 Eh     change       -0.3835685E-05 Eh
   gradient norm :     0.0004939 Eh/α   predicted    -0.1739644E-05 ( -54.65%)
   displ. norm   :     0.0596385 α      lambda       -0.2988351E-05
   maximum displ.:     0.0422777 α      in ANC's #1, #9, #11, ...

........................................................................
.............................. CYCLE  135 ..............................
........................................................................

 iter      E             dE          RMSdq      gap      omega  full diag
   1   -100.3818473 -0.100382E+03  0.139E-02    0.31       0.0  T
   2   -100.3818399  0.734051E-05  0.154E-02    0.31       1.0  T
   3   -100.3818385  0.146048E-05  0.135E-02    0.32       1.0  T
   4   -100.3818454 -0.686679E-05  0.762E-03    0.31       1.5  T
   5   -100.3818477 -0.239404E-05  0.336E-03    0.31       3.4  T
   6   -100.3818486 -0.818158E-06  0.143E-03    0.31       8.0  T
   7   -100.3818485  0.180972E-07  0.130E-03    0.31       8.8  T
   8   -100.3818486 -0.261894E-07  0.632E-04    0.31      18.2  T
   9   -100.3818486 -0.169298E-07  0.289E-04    0.31      39.7  T
  10   -100.3818486 -0.461266E-08  0.660E-05    0.31     173.9  T
     SCC iter.                  ...        0 min,  0.160 sec
     gradient                   ...        0 min,  0.084 sec
 * total energy  :   -99.0401022 Eh     change       -0.2993033E-05 Eh
   gradient norm :     0.0003715 Eh/α   predicted    -0.1497932E-05 ( -49.95%)
   displ. norm   :     0.0401923 α      lambda       -0.1888737E-05
   maximum displ.:     0.0298422 α      in ANC's #1, #3, #5, ...

........................................................................
.............................. CYCLE  136 ..............................
........................................................................

 iter      E             dE          RMSdq      gap      omega  full diag
   1   -100.3817684 -0.100382E+03  0.103E-02    0.31       0.0  T
   2   -100.3817630  0.546865E-05  0.126E-02    0.31       1.0  T
   3   -100.3817642 -0.124440E-05  0.942E-03    0.32       1.2  T
   4   -100.3817674 -0.321061E-05  0.572E-03    0.31       2.0  T
   5   -100.3817689 -0.146911E-05  0.215E-03    0.31       5.3  T
   6   -100.3817692 -0.339285E-06  0.104E-03    0.31      11.0  T
   7   -100.3817692  0.127510E-07  0.963E-04    0.31      11.9  T
   8   -100.3817692 -0.198538E-07  0.423E-04    0.31      27.1  T
   9   -100.3817693 -0.484027E-08  0.244E-04    0.31      47.0  T
     SCC iter.                  ...        0 min,  0.155 sec
     gradient                   ...        0 min,  0.077 sec
 * total energy  :   -99.0401042 Eh     change       -0.2022439E-05 Eh
   gradient norm :     0.0002093 Eh/α   predicted    -0.9479838E-06 ( -53.13%)
   displ. norm   :     0.0342217 α      lambda       -0.1594211E-05
   maximum displ.:     0.0241377 α      in ANC's #1, #3, #11, ...

........................................................................
.............................. CYCLE  137 ..............................
........................................................................

 iter      E             dE          RMSdq      gap      omega  full diag
   1   -100.3817289 -0.100382E+03  0.833E-03    0.31       0.0  T
   2   -100.3817204  0.852514E-05  0.140E-02    0.31       1.0  T
   3   -100.3817278 -0.735832E-05  0.607E-03    0.32       1.9  T
   4   -100.3817290 -0.121443E-05  0.381E-03    0.31       3.0  T
   5   -100.3817295 -0.556244E-06  0.141E-03    0.31       8.1  T
   6   -100.3817297 -0.167294E-06  0.688E-04    0.31      16.7  T
   7   -100.3817297 -0.169476E-08  0.583E-04    0.31      19.7  T
   8   -100.3817297 -0.776450E-08  0.250E-04    0.31      45.9  T
   9   -100.3817297 -0.170459E-08  0.151E-04    0.31      75.9  T
     SCC iter.                  ...        0 min,  0.130 sec
     gradient                   ...        0 min,  0.085 sec
 * total energy  :   -99.0401061 Eh     change       -0.1811581E-05 Eh
   gradient norm :     0.0002470 Eh/α   predicted    -0.8007108E-06 ( -55.80%)
   displ. norm   :     0.0343143 α      lambda       -0.1355782E-05
   maximum displ.:     0.0227801 α      in ANC's #1, #11, #3, ...

........................................................................
.............................. CYCLE  138 ..............................
........................................................................

 iter      E             dE          RMSdq      gap      omega  full diag
   1   -100.3817726 -0.100382E+03  0.818E-03    0.31       0.0  T
   2   -100.3817620  0.105413E-04  0.151E-02    0.31       1.0  T
   3   -100.3817719 -0.981311E-05  0.570E-03    0.32       2.0  T
   4   -100.3817728 -0.937282E-06  0.367E-03    0.31       3.1  T
   5   -100.3817735 -0.678510E-06  0.679E-04    0.31      16.9  T
   6   -100.3817735 -0.460487E-08  0.448E-04    0.31      25.6  T
   7   -100.3817735  0.168502E-07  0.545E-04    0.31      21.1  T
   8   -100.3817735 -0.196387E-07  0.144E-04    0.31      79.7  T
     SCC iter.                  ...        0 min,  0.120 sec
     gradient                   ...        0 min,  0.078 sec
 * total energy  :   -99.0401076 Eh     change       -0.1582591E-05 Eh
   gradient norm :     0.0002829 Eh/α   predicted    -0.6823443E-06 ( -56.88%)
   displ. norm   :     0.0350611 α      lambda       -0.1250459E-05
   maximum displ.:     0.0226454 α      in ANC's #1, #11, #3, ...

........................................................................
.............................. CYCLE  139 ..............................
........................................................................

 iter      E             dE          RMSdq      gap      omega  full diag
   1   -100.3817907 -0.100382E+03  0.715E-03    0.31       0.0  T
   2   -100.3817804  0.102543E-04  0.145E-02    0.31       1.0  T
   3   -100.3817908 -0.103855E-04  0.439E-03    0.31       2.6  T
   4   -100.3817912 -0.385086E-06  0.248E-03    0.31       4.6  T
   5   -100.3817915 -0.313080E-06  0.585E-04    0.31      19.6  T
   6   -100.3817915 -0.121250E-07  0.312E-04    0.31      36.7  T
   7   -100.3817915 -0.155492E-08  0.256E-04    0.31      44.8  T
     SCC iter.                  ...        0 min,  0.108 sec
     gradient                   ...        0 min,  0.085 sec
 * total energy  :   -99.0401092 Eh     change       -0.1548997E-05 Eh
   gradient norm :     0.0002886 Eh/α   predicted    -0.6282524E-06 ( -59.44%)
   displ. norm   :     0.0419287 α      lambda       -0.1349615E-05
   maximum displ.:     0.0263407 α      in ANC's #1, #11, #3, ...

........................................................................
.............................. CYCLE  140 ..............................
........................................................................

 iter      E             dE          RMSdq      gap      omega  full diag
   1   -100.3818642 -0.100382E+03  0.797E-03    0.31       0.0  T
   2   -100.3818525  0.116761E-04  0.153E-02    0.31       1.0  T
   3   -100.3818641 -0.115654E-04  0.528E-03    0.31       2.2  T
   4   -100.3818648 -0.787615E-06  0.228E-03    0.31       5.0  T
   5   -100.3818651 -0.257494E-06  0.548E-04    0.31      20.9  T
   6   -100.3818651 -0.117971E-07  0.291E-04    0.31      39.4  T
   7   -100.3818651 -0.501080E-08  0.143E-04    0.31      80.3  T
     SCC iter.                  ...        0 min,  0.120 sec
     gradient                   ...        0 min,  0.083 sec
 * total energy  :   -99.0401109 Eh     change       -0.1678277E-05 Eh
   gradient norm :     0.0002599 Eh/α   predicted    -0.6797672E-06 ( -59.50%)
   displ. norm   :     0.0404352 α      lambda       -0.1222862E-05
   maximum displ.:     0.0261814 α      in ANC's #1, #3, #11, ...

........................................................................
.............................. CYCLE  141 ..............................
........................................................................

 iter      E             dE          RMSdq      gap      omega  full diag
   1   -100.3819191 -0.100382E+03  0.694E-03    0.31       0.0  T
   2   -100.3819147  0.440632E-05  0.975E-03    0.31       1.2  T
   3   -100.3819178 -0.306830E-05  0.620E-03    0.31       1.9  T
   4   -100.3819194 -0.160249E-05  0.149E-03    0.31       7.7  T
   5   -100.3819195 -0.101303E-06  0.484E-04    0.31      23.7  T
   6   -100.3819195 -0.933174E-08  0.273E-04    0.31      42.0  T
     SCC iter.                  ...        0 min,  0.092 sec
     gradient                   ...        0 min,  0.082 sec
 * total energy  :   -99.0401124 Eh     change       -0.1543022E-05 Eh
   gradient norm :     0.0002213 Eh/α   predicted    -0.6141524E-06 ( -60.20%)
   displ. norm   :     0.0413663 α      lambda       -0.1295703E-05
   maximum displ.:     0.0269682 α      in ANC's #1, #3, #5, ...

........................................................................
.............................. CYCLE  142 ..............................
........................................................................

 iter      E             dE          RMSdq      gap      omega  full diag
   1   -100.3819481 -0.100382E+03  0.664E-03    0.31       0.0  T
   2   -100.3819476  0.519428E-06  0.477E-03    0.31       2.4  T
   3   -100.3819427  0.491751E-05  0.994E-03    0.31       1.2  T
   4   -100.3819481 -0.546477E-05  0.115E-03    0.31       9.9  T
   5   -100.3819481 -0.201985E-07  0.526E-04    0.31      21.8  T
   6   -100.3819482 -0.170528E-07  0.317E-04    0.31      36.2  T
   7   -100.3819482 -0.253856E-08  0.192E-04    0.31      59.8  T
     SCC iter.                  ...        0 min,  0.100 sec
     gradient                   ...        0 min,  0.082 sec
 * total energy  :   -99.0401141 Eh     change       -0.1691641E-05 Eh
   gradient norm :     0.0002230 Eh/α   predicted    -0.6513752E-06 ( -61.49%)
   displ. norm   :     0.0515972 α      lambda       -0.1659387E-05
   maximum displ.:     0.0331997 α      in ANC's #1, #3, #5, ...

........................................................................
.............................. CYCLE  143 ..............................
........................................................................

 iter      E             dE          RMSdq      gap      omega  full diag
   1   -100.3819578 -0.100382E+03  0.813E-03    0.31       0.0  T
   2   -100.3819546  0.317090E-05  0.909E-03    0.31       1.3  T
   3   -100.3819546  0.635918E-07  0.836E-03    0.31       1.4  T
   4   -100.3819580 -0.342156E-05  0.189E-03    0.31       6.1  T
   5   -100.3819581 -0.105452E-06  0.529E-04    0.31      21.7  T
   6   -100.3819581  0.905672E-09  0.507E-04    0.31      22.6  T
   7   -100.3819581 -0.266955E-08  0.435E-04    0.31      26.4  T
   8   -100.3819581 -0.704863E-08  0.138E-04    0.31      83.4  T
     SCC iter.                  ...        0 min,  0.115 sec
     gradient                   ...        0 min,  0.075 sec
 * total energy  :   -99.0401162 Eh     change       -0.2142533E-05 Eh
   gradient norm :     0.0001999 Eh/α   predicted    -0.8316691E-06 ( -61.18%)
   displ. norm   :     0.0620499 α      lambda       -0.1873995E-05
   maximum displ.:     0.0396793 α      in ANC's #1, #3, #5, ...

........................................................................
.............................. CYCLE  144 ..............................
........................................................................

 iter      E             dE          RMSdq      gap      omega  full diag
   1   -100.3819187 -0.100382E+03  0.992E-03    0.31       0.0  T
   2   -100.3819070  0.117066E-04  0.161E-02    0.32       1.0  T
   3   -100.3819179 -0.109706E-04  0.683E-03    0.31       1.7  T
   4   -100.3819194 -0.150921E-05  0.262E-03    0.31       4.4  T
   5   -100.3819196 -0.153024E-06  0.139E-03    0.31       8.2  T
   6   -100.3819197 -0.907469E-07  0.893E-04    0.31      12.9  T
   7   -100.3819197 -0.200222E-07  0.726E-04    0.31      15.8  T
   8   -100.3819197 -0.222623E-07  0.222E-04    0.31      51.6  T
   9   -100.3819197 -0.547061E-09  0.117E-04    0.31      97.9  T
     SCC iter.                  ...        0 min,  0.144 sec
     gradient                   ...        0 min,  0.089 sec
 * total energy  :   -99.0401186 Eh     change       -0.2383234E-05 Eh
   gradient norm :     0.0002148 Eh/α   predicted    -0.9401379E-06 ( -60.55%)
   displ. norm   :     0.0638944 α      lambda       -0.1769134E-05
   maximum displ.:     0.0410812 α      in ANC's #1, #3, #5, ...

........................................................................
.............................. CYCLE  145 ..............................
........................................................................

 iter      E             dE          RMSdq      gap      omega  full diag
   1   -100.3818411 -0.100382E+03  0.105E-02    0.31       0.0  T
   2   -100.3818216  0.194718E-04  0.202E-02    0.32       1.0  T
   3   -100.3818416 -0.199302E-04  0.616E-03    0.31       1.9  T
   4   -100.3818424 -0.849742E-06  0.311E-03    0.31       3.7  T
   5   -100.3818427 -0.286546E-06  0.154E-03    0.31       7.5  T
   6   -100.3818429 -0.144784E-06  0.664E-04    0.31      17.3  T
   7   -100.3818428  0.241658E-07  0.812E-04    0.31      14.1  T
   8   -100.3818429 -0.313603E-07  0.252E-04    0.31      45.6  T
   9   -100.3818429  0.696190E-09  0.184E-04    0.31      62.5  T
     SCC iter.                  ...        0 min,  0.150 sec
     gradient                   ...        0 min,  0.069 sec
 * total energy  :   -99.0401209 Eh     change       -0.2277019E-05 Eh
   gradient norm :     0.0001701 Eh/α   predicted    -0.8901584E-06 ( -60.91%)
   displ. norm   :     0.0633871 α      lambda       -0.1679802E-05
   maximum displ.:     0.0412514 α      in ANC's #1, #3, #5, ...

........................................................................
.............................. CYCLE  146 ..............................
........................................................................

 iter      E             dE          RMSdq      gap      omega  full diag
   1   -100.3817778 -0.100382E+03  0.991E-03    0.31       0.0  T
   2   -100.3817603  0.175215E-04  0.194E-02    0.32       1.0  T
   3   -100.3817783 -0.179739E-04  0.578E-03    0.31       2.0  T
   4   -100.3817788 -0.511203E-06  0.336E-03    0.31       3.4  T
   5   -100.3817792 -0.382405E-06  0.187E-03    0.31       6.1  T
   6   -100.3817794 -0.248253E-06  0.726E-04    0.31      15.8  T
   7   -100.3817794  0.253711E-07  0.837E-04    0.31      13.7  T
   8   -100.3817794 -0.344226E-07  0.235E-04    0.31      48.7  T
   9   -100.3817794  0.171624E-09  0.171E-04    0.31      67.1  T
     SCC iter.                  ...        0 min,  0.138 sec
     gradient                   ...        0 min,  0.070 sec
 * total energy  :   -99.0401231 Eh     change       -0.2204854E-05 Eh
   gradient norm :     0.0001518 Eh/α   predicted    -0.8449469E-06 ( -61.68%)
   displ. norm   :     0.0636618 α      lambda       -0.1655770E-05
   maximum displ.:     0.0420705 α      in ANC's #1, #3, #5, ...

........................................................................
.............................. CYCLE  147 ..............................
........................................................................

 iter      E             dE          RMSdq      gap      omega  full diag
   1   -100.3817052 -0.100382E+03  0.894E-03    0.31       0.0  T
   2   -100.3816946  0.106672E-04  0.154E-02    0.32       1.0  T
   3   -100.3817047 -0.101222E-04  0.617E-03    0.31       1.9  T
   4   -100.3817056 -0.885051E-06  0.329E-03    0.31       3.5  T
   5   -100.3817060 -0.434582E-06  0.184E-03    0.31       6.2  T
   6   -100.3817062 -0.234356E-06  0.712E-04    0.31      16.1  T
   7   -100.3817062  0.199461E-07  0.782E-04    0.31      14.7  T
   8   -100.3817062 -0.324841E-07  0.241E-04    0.31      47.7  T
   9   -100.3817062 -0.128750E-10  0.173E-04    0.31      66.2  T
     SCC iter.                  ...        0 min,  0.132 sec
     gradient                   ...        0 min,  0.077 sec
 * total energy  :   -99.0401253 Eh     change       -0.2189723E-05 Eh
   gradient norm :     0.0001613 Eh/α   predicted    -0.8321384E-06 ( -62.00%)
   displ. norm   :     0.0621818 α      lambda       -0.1558769E-05
   maximum displ.:     0.0419020 α      in ANC's #1, #3, #5, ...

........................................................................
.............................. CYCLE  148 ..............................
........................................................................

 iter      E             dE          RMSdq      gap      omega  full diag
   1   -100.3816607 -0.100382E+03  0.771E-03    0.31       0.0  T
   2   -100.3816565  0.417453E-05  0.103E-02    0.32       1.1  T
   3   -100.3816589 -0.244381E-05  0.679E-03    0.31       1.7  T
   4   -100.3816603 -0.139082E-05  0.340E-03    0.32       3.4  T
   5   -100.3816610 -0.642520E-06  0.147E-03    0.31       7.8  T
   6   -100.3816611 -0.143469E-06  0.615E-04    0.31      18.7  T
   7   -100.3816611  0.161237E-07  0.656E-04    0.31      17.5  T
   8   -100.3816611 -0.228282E-07  0.195E-04    0.31      58.9  T
   9   -100.3816611  0.850520E-10  0.145E-04    0.31      79.3  T
     SCC iter.                  ...        0 min,  0.137 sec
     gradient                   ...        0 min,  0.081 sec
 * total energy  :   -99.0401274 Eh     change       -0.2071565E-05 Eh
   gradient norm :     0.0001609 Eh/α   predicted    -0.7839758E-06 ( -62.16%)
   displ. norm   :     0.0561726 α      lambda       -0.1352596E-05
   maximum displ.:     0.0390349 α      in ANC's #1, #3, #5, ...

........................................................................
.............................. CYCLE  149 ..............................
........................................................................

 iter      E             dE          RMSdq      gap      omega  full diag
   1   -100.3816436 -0.100382E+03  0.604E-03    0.31       0.0  T
   2   -100.3816426  0.103370E-05  0.590E-03    0.32       1.9  T
   3   -100.3816415  0.109568E-05  0.672E-03    0.31       1.7  T
   4   -100.3816433 -0.180068E-05  0.255E-03    0.32       4.5  T
   5   -100.3816437 -0.399420E-06  0.107E-03    0.31      10.7  T
   6   -100.3816437 -0.730591E-07  0.439E-04    0.31      26.2  T
   7   -100.3816437  0.966232E-08  0.490E-04    0.31      23.4  T
     SCC iter.                  ...        0 min,  0.113 sec
     gradient                   ...        0 min,  0.071 sec
 * total energy  :   -99.0401292 Eh     change       -0.1802272E-05 Eh
   gradient norm :     0.0001684 Eh/α   predicted    -0.6803534E-06 ( -62.25%)
   displ. norm   :     0.0435520 α      lambda       -0.1058927E-05
   maximum displ.:     0.0313383 α      in ANC's #1, #3, #5, ...

........................................................................
.............................. CYCLE  150 ..............................
........................................................................

 iter      E             dE          RMSdq      gap      omega  full diag
   1   -100.3816737 -0.100382E+03  0.442E-03    0.32       0.0  T
   2   -100.3816734  0.349600E-06  0.356E-03    0.31       3.2  T
   3   -100.3816715  0.188019E-05  0.639E-03    0.32       1.8  T
   4   -100.3816737 -0.225706E-05  0.842E-04    0.31      13.6  T
   5   -100.3816737 -0.297503E-08  0.614E-04    0.31      18.7  T
   6   -100.3816738 -0.215971E-07  0.264E-04    0.31      43.4  T
   7   -100.3816738  0.156844E-08  0.241E-04    0.31      47.6  T
     SCC iter.                  ...        0 min,  0.102 sec
     gradient                   ...        0 min,  0.074 sec
 * total energy  :   -99.0401306 Eh     change       -0.1454167E-05 Eh
   gradient norm :     0.0001202 Eh/α   predicted    -0.5346021E-06 ( -63.24%)
   displ. norm   :     0.0394779 α      lambda       -0.9767020E-06
   maximum displ.:     0.0295729 α      in ANC's #1, #3, #5, ...
 * RMSD in coord.:     0.1155185 α      energy gain  -0.1037527E-03 Eh

generating ANC from exact Hessian ...
Using Lindh-Hessian (1995)
 Shifting diagonal of input Hessian by    1.0081660832260269E-002
 Lowest  eigenvalues of input Hessian
    0.000000    0.000000    0.010000    0.000000    0.000000    0.000000
    0.000000    0.010183    0.010192    0.010224    0.010387    0.010460
    0.010723    0.010786    0.010878    0.010902    0.010947    0.011043
 Highest eigenvalues
    1.888908    1.973776    2.019491    2.203970    2.353049    2.384893


........................................................................
.............................. CYCLE  151 ..............................
........................................................................

 iter      E             dE          RMSdq      gap      omega  full diag
   1   -100.3816907 -0.100382E+03  0.398E-03    0.31       0.0  T
   2   -100.3816907  0.914444E-07  0.267E-03    0.31       4.3  T
   3   -100.3816889  0.179074E-05  0.582E-03    0.32       2.0  T
   4   -100.3816907 -0.184657E-05  0.961E-04    0.31      11.9  T
   5   -100.3816908 -0.498525E-07  0.304E-04    0.31      37.8  T
   6   -100.3816908 -0.228626E-08  0.179E-04    0.31      64.1  T
     SCC iter.                  ...        0 min,  0.089 sec
     gradient                   ...        0 min,  0.076 sec
 * total energy  :   -99.0401320 Eh     change       -0.1352783E-05 Eh
   gradient norm :     0.0001370 Eh/α   predicted     0.0000000E+00 (-100.00%)
   displ. norm   :     0.0134881 α      lambda       -0.2909382E-07
   maximum displ.:     0.0098365 α      in ANC's #1, #3, #2, ...

........................................................................
.............................. CYCLE  152 ..............................
........................................................................

 iter      E             dE          RMSdq      gap      omega  full diag
   1   -100.3817006 -0.100382E+03  0.161E-03    0.31       0.0  T
   2   -100.3817002  0.401476E-06  0.270E-03    0.32       4.3  T
   3   -100.3817006 -0.393820E-06  0.126E-03    0.31       9.1  T
   4   -100.3817006 -0.277890E-07  0.697E-04    0.31      16.5  T
   5   -100.3817007 -0.260565E-07  0.198E-04    0.31      57.9  T
   6   -100.3817007 -0.921688E-09  0.102E-04    0.31     112.4  T
     SCC iter.                  ...        0 min,  0.094 sec
     gradient                   ...        0 min,  0.071 sec
 * total energy  :   -99.0401332 Eh     change       -0.1253244E-05 Eh
   gradient norm :     0.0001149 Eh/α   predicted    -0.4324716E-06 ( -65.49%)
   displ. norm   :     0.0410769 α      lambda       -0.2503499E-05
   maximum displ.:     0.0263280 α      in ANC's #1, #3, #2, ...

........................................................................
.............................. CYCLE  153 ..............................
........................................................................

 iter      E             dE          RMSdq      gap      omega  full diag
   1   -100.3817220 -0.100382E+03  0.551E-03    0.31       0.0  T
   2   -100.3817161  0.584207E-05  0.104E-02    0.32       1.1  T
   3   -100.3817222 -0.609218E-05  0.352E-03    0.31       3.3  T
   4   -100.3817223 -0.741736E-07  0.213E-03    0.31       5.4  T
   5   -100.3817225 -0.251930E-06  0.728E-04    0.32      15.8  T
   6   -100.3817226 -0.110791E-07  0.429E-04    0.32      26.7  T
   7   -100.3817226 -0.168816E-08  0.354E-04    0.32      32.4  T
     SCC iter.                  ...        0 min,  0.116 sec
     gradient                   ...        0 min,  0.079 sec
 * total energy  :   -99.0401366 Eh     change       -0.3327175E-05 Eh
   gradient norm :     0.0002192 Eh/α   predicted    -0.1253593E-05 ( -62.32%)
   displ. norm   :     0.1058420 α      lambda       -0.6251932E-05
   maximum displ.:     0.0661785 α      in ANC's #1, #3, #2, ...

........................................................................
.............................. CYCLE  154 ..............................
........................................................................

 iter      E             dE          RMSdq      gap      omega  full diag
   1   -100.3817464 -0.100382E+03  0.130E-02    0.31       0.0  T
   2   -100.3817224  0.239189E-04  0.212E-02    0.33       1.0  T
   3   -100.3817447 -0.222724E-04  0.103E-02    0.31       1.1  T
   4   -100.3817483 -0.360738E-05  0.401E-03    0.32       2.9  T
   5   -100.3817487 -0.415923E-06  0.197E-03    0.32       5.8  T
   6   -100.3817489 -0.183580E-06  0.100E-03    0.32      11.4  T
   7   -100.3817489 -0.257429E-07  0.667E-04    0.32      17.2  T
   8   -100.3817489 -0.103404E-08  0.445E-04    0.32      25.7  T
   9   -100.3817489 -0.972844E-08  0.163E-04    0.32      70.4  T
     SCC iter.                  ...        0 min,  0.135 sec
     gradient                   ...        0 min,  0.079 sec
 * total energy  :   -99.0401431 Eh     change       -0.6499845E-05 Eh
   gradient norm :     0.0005245 Eh/α   predicted    -0.3142997E-05 ( -51.65%)
   displ. norm   :     0.1310808 α      lambda       -0.6985085E-05
   maximum displ.:     0.0834238 α      in ANC's #1, #3, #2, ...

........................................................................
.............................. CYCLE  155 ..............................
........................................................................

 iter      E             dE          RMSdq      gap      omega  full diag
   1   -100.3817996 -0.100382E+03  0.127E-02    0.32       0.0  T
   2   -100.3817887  0.109082E-04  0.154E-02    0.32       1.0  T
   3   -100.3817939 -0.519836E-05  0.127E-02    0.31       1.0  T
   4   -100.3817994 -0.551630E-05  0.502E-03    0.32       2.3  T
   5   -100.3818010 -0.152295E-05  0.150E-03    0.32       7.6  T
   6   -100.3818010 -0.300048E-07  0.103E-03    0.32      11.1  T
   7   -100.3818010  0.836671E-08  0.901E-04    0.32      12.7  T
   8   -100.3818010 -0.590528E-08  0.606E-04    0.32      18.9  T
   9   -100.3818010 -0.141863E-07  0.285E-04    0.32      40.3  T
  10   -100.3818010 -0.439280E-08  0.998E-05    0.32     114.9  T
     SCC iter.                  ...        0 min,  0.154 sec
     gradient                   ...        0 min,  0.073 sec
 * total energy  :   -99.0401499 Eh     change       -0.6836824E-05 Eh
   gradient norm :     0.0008556 Eh/α   predicted    -0.3519930E-05 ( -48.52%)
   displ. norm   :     0.1954233 α      lambda       -0.1310920E-04
   maximum displ.:     0.1234982 α      in ANC's #1, #3, #2, ...

........................................................................
.............................. CYCLE  156 ..............................
........................................................................

 iter      E             dE          RMSdq      gap      omega  full diag
   1   -100.3817961 -0.100382E+03  0.224E-02    0.32       0.0  T
   2   -100.3817842  0.118833E-04  0.186E-02    0.33       1.0  T
   3   -100.3817375  0.467314E-04  0.328E-02    0.31       1.0  T
   4   -100.3817968 -0.593161E-04  0.545E-03    0.32       2.1  T
   5   -100.3817974 -0.578960E-06  0.297E-03    0.32       3.9  T
   6   -100.3817979 -0.519333E-06  0.100E-03    0.32      11.4  T
   7   -100.3817979 -0.169073E-07  0.689E-04    0.32      16.6  T
   8   -100.3817979 -0.963206E-08  0.401E-04    0.32      28.6  T
   9   -100.3817979 -0.174343E-08  0.275E-04    0.32      41.7  T
     SCC iter.                  ...        0 min,  0.130 sec
     gradient                   ...        0 min,  0.075 sec
 * total energy  :   -99.0401545 Eh     change       -0.4602261E-05 Eh
   gradient norm :     0.0015047 Eh/α   predicted    -0.6667190E-05 (  44.87%)
   displ. norm   :     0.0937553 α      lambda       -0.1264293E-04
   maximum displ.:     0.0597379 α      in ANC's #1, #3, #2, ...

........................................................................
.............................. CYCLE  157 ..............................
........................................................................

 iter      E             dE          RMSdq      gap      omega  full diag
   1   -100.3819566 -0.100382E+03  0.120E-02    0.32       0.0  T
   2   -100.3819535  0.300852E-05  0.101E-02    0.32       1.1  T
   3   -100.3819433  0.102926E-04  0.161E-02    0.32       1.0  T
   4   -100.3819569 -0.136386E-04  0.267E-03    0.32       4.3  T
   5   -100.3819568  0.515232E-07  0.208E-03    0.32       5.5  T
   6   -100.3819570 -0.175925E-06  0.882E-04    0.32      13.0  T
   7   -100.3819570 -0.281943E-10  0.659E-04    0.32      17.4  T
   8   -100.3819570  0.390160E-08  0.502E-04    0.32      22.8  T
   9   -100.3819570 -0.125379E-07  0.217E-04    0.32      53.0  T
  10   -100.3819570 -0.151518E-08  0.898E-05    0.32     127.7  T
     SCC iter.                  ...        0 min,  0.147 sec
     gradient                   ...        0 min,  0.087 sec
 * total energy  :   -99.0401649 Eh     change       -0.1038534E-04 Eh
   gradient norm :     0.0011620 Eh/α   predicted    -0.6346696E-05 ( -38.89%)
   displ. norm   :     0.1302853 α      lambda       -0.1424357E-04
   maximum displ.:     0.0822517 α      in ANC's #1, #3, #2, ...

........................................................................
.............................. CYCLE  158 ..............................
........................................................................

 iter      E             dE          RMSdq      gap      omega  full diag
   1   -100.3820676 -0.100382E+03  0.163E-02    0.32       0.0  T
   2   -100.3820590  0.859906E-05  0.157E-02    0.32       1.0  T
   3   -100.3820486  0.103781E-04  0.193E-02    0.31       1.0  T
   4   -100.3820676 -0.190487E-04  0.501E-03    0.32       2.3  T
   5   -100.3820685 -0.888694E-06  0.175E-03    0.32       6.6  T
   6   -100.3820686 -0.839502E-07  0.958E-04    0.32      12.0  T
   7   -100.3820686 -0.541786E-08  0.758E-04    0.32      15.1  T
   8   -100.3820686 -0.616022E-08  0.469E-04    0.32      24.5  T
   9   -100.3820686 -0.642268E-08  0.244E-04    0.32      47.0  T
     SCC iter.                  ...        0 min,  0.135 sec
     gradient                   ...        0 min,  0.092 sec
 * total energy  :   -99.0401761 Eh     change       -0.1125408E-04 Eh
   gradient norm :     0.0011612 Eh/α   predicted    -0.7179764E-05 ( -36.20%)
   displ. norm   :     0.1629642 α      lambda       -0.1044159E-04
   maximum displ.:     0.1038126 α      in ANC's #1, #3, #2, ...

........................................................................
.............................. CYCLE  159 ..............................
........................................................................

 iter      E             dE          RMSdq      gap      omega  full diag
   1   -100.3818450 -0.100382E+03  0.135E-02    0.32       0.0  T
   2   -100.3818432  0.183967E-05  0.964E-03    0.32       1.2  T
   3   -100.3818263  0.169261E-04  0.187E-02    0.31       1.0  T
   4   -100.3818446 -0.183589E-04  0.375E-03    0.32       3.1  T
   5   -100.3818452 -0.523650E-06  0.162E-03    0.32       7.1  T
   6   -100.3818454 -0.207160E-06  0.454E-04    0.32      25.3  T
   7   -100.3818454 -0.541029E-08  0.284E-04    0.32      40.4  T
     SCC iter.                  ...        0 min,  0.125 sec
     gradient                   ...        0 min,  0.087 sec
 * total energy  :   -99.0401898 Eh     change       -0.1367251E-04 Eh
   gradient norm :     0.0009432 Eh/α   predicted    -0.5283544E-05 ( -61.36%)
   displ. norm   :     0.3079971 α      lambda       -0.2026696E-04
   maximum displ.:     0.1948606 α      in ANC's #1, #3, #2, ...

........................................................................
.............................. CYCLE  160 ..............................
........................................................................

 iter      E             dE          RMSdq      gap      omega  full diag
   1   -100.3813816 -0.100381E+03  0.249E-02    0.32       0.0  T
   2   -100.3813727  0.895659E-05  0.198E-02    0.32       1.0  T
   3   -100.3813223  0.504059E-04  0.332E-02    0.31       1.0  T
   4   -100.3813767 -0.544602E-04  0.983E-03    0.32       1.2  T
   5   -100.3813826 -0.588835E-05  0.186E-03    0.32       6.2  T
   6   -100.3813828 -0.168650E-06  0.995E-04    0.32      11.5  T
   7   -100.3813828 -0.921763E-08  0.719E-04    0.32      16.0  T
   8   -100.3813828 -0.100023E-07  0.389E-04    0.32      29.5  T
   9   -100.3813828 -0.814111E-09  0.260E-04    0.32      44.1  T
     SCC iter.                  ...        0 min,  0.152 sec
     gradient                   ...        0 min,  0.088 sec
 * total energy  :   -99.0402150 Eh     change       -0.2513856E-04 Eh
   gradient norm :     0.0007724 Eh/α   predicted    -0.1056145E-04 ( -57.99%)
   displ. norm   :     0.4228901 α      lambda       -0.2153591E-04
   maximum displ.:     0.2675077 α      in ANC's #1, #3, #2, ...

........................................................................
.............................. CYCLE  161 ..............................
........................................................................

 iter      E             dE          RMSdq      gap      omega  full diag
   1   -100.3808211 -0.100381E+03  0.339E-02    0.32       0.0  T
   2   -100.3807762  0.448750E-04  0.356E-02    0.33       1.0  T
   3   -100.3807573  0.188671E-04  0.363E-02    0.31       1.0  T
   4   -100.3808186 -0.612747E-04  0.122E-02    0.32       1.0  T
   5   -100.3808256 -0.696397E-05  0.340E-03    0.32       3.4  T
   6   -100.3808260 -0.401083E-06  0.179E-03    0.32       6.4  T
   7   -100.3808260 -0.108679E-07  0.159E-03    0.32       7.2  T
   8   -100.3808261 -0.960222E-07  0.678E-04    0.32      16.9  T
   9   -100.3808261 -0.698451E-08  0.440E-04    0.32      26.1  T
  10   -100.3808261 -0.550773E-08  0.242E-04    0.32      47.3  T
     SCC iter.                  ...        0 min,  0.173 sec
     gradient                   ...        0 min,  0.070 sec
 * total energy  :   -99.0402413 Eh     change       -0.2634426E-04 Eh
   gradient norm :     0.0011156 Eh/α   predicted    -0.1162874E-04 ( -55.86%)
   displ. norm   :     0.4359764 α      lambda       -0.2007606E-04
   maximum displ.:     0.2777660 α      in ANC's #1, #3, #2, ...

........................................................................
.............................. CYCLE  162 ..............................
........................................................................

 iter      E             dE          RMSdq      gap      omega  full diag
   1   -100.3805049 -0.100381E+03  0.352E-02    0.32       0.0  T
   2   -100.3804137  0.911771E-04  0.470E-02    0.34       1.0  T
   3   -100.3804782 -0.644825E-04  0.285E-02    0.31       1.0  T
   4   -100.3805070 -0.288176E-04  0.120E-02    0.33       1.0  T
   5   -100.3805138 -0.683051E-05  0.329E-03    0.32       3.5  T
   6   -100.3805141 -0.257406E-06  0.214E-03    0.32       5.4  T
   7   -100.3805140  0.223121E-07  0.200E-03    0.32       5.7  T
   8   -100.3805142 -0.174399E-06  0.732E-04    0.32      15.7  T
   9   -100.3805142 -0.314623E-08  0.426E-04    0.32      26.9  T
  10   -100.3805142 -0.505274E-08  0.212E-04    0.32      54.2  T
     SCC iter.                  ...        0 min,  0.165 sec
     gradient                   ...        0 min,  0.080 sec
 * total energy  :   -99.0402672 Eh     change       -0.2588795E-04 Eh
   gradient norm :     0.0011474 Eh/α   predicted    -0.1088853E-04 ( -57.94%)
   displ. norm   :     0.4258206 α      lambda       -0.2252762E-04
   maximum displ.:     0.2744937 α      in ANC's #1, #3, #2, ...

........................................................................
.............................. CYCLE  163 ..............................
........................................................................

 iter      E             dE          RMSdq      gap      omega  full diag
   1   -100.3808772 -0.100381E+03  0.342E-02    0.32       0.0  T
   2   -100.3807888  0.884832E-04  0.458E-02    0.34       1.0  T
   3   -100.3808521 -0.633202E-04  0.278E-02    0.31       1.0  T
   4   -100.3808819 -0.297759E-04  0.104E-02    0.33       1.1  T
   5   -100.3808857 -0.387175E-05  0.367E-03    0.32       3.1  T
   6   -100.3808861 -0.409571E-06  0.215E-03    0.32       5.3  T
   7   -100.3808861  0.773025E-07  0.222E-03    0.32       5.2  T
   8   -100.3808863 -0.225574E-06  0.618E-04    0.32      18.6  T
   9   -100.3808863 -0.453781E-08  0.345E-04    0.32      33.2  T
  10   -100.3808863  0.872006E-09  0.255E-04    0.32      45.0  T
     SCC iter.                  ...        0 min,  0.177 sec
     gradient                   ...        0 min,  0.088 sec
 * total energy  :   -99.0402980 Eh     change       -0.3081419E-04 Eh
   gradient norm :     0.0008525 Eh/α   predicted    -0.1217390E-04 ( -60.49%)
   displ. norm   :     0.5620443 α      lambda       -0.3219460E-04
   maximum displ.:     0.3633288 α      in ANC's #1, #3, #2, ...

........................................................................
.............................. CYCLE  164 ..............................
........................................................................

 iter      E             dE          RMSdq      gap      omega  full diag
   1   -100.3807057 -0.100381E+03  0.475E-02    0.32       0.0  T
   2   -100.3804019  0.303772E-03  0.813E-02    0.36       1.0  T
   3   -100.3807210 -0.319145E-03  0.267E-02    0.32       1.0  T
   4   -100.3807328 -0.117903E-04  0.127E-02    0.33       1.0  T
   5   -100.3807368 -0.397305E-05  0.500E-03    0.33       2.3  T
   6   -100.3807373 -0.477755E-06  0.329E-03    0.32       3.5  T
   7   -100.3807372  0.348976E-07  0.345E-03    0.33       3.3  T
   8   -100.3807378 -0.550698E-06  0.102E-03    0.32      11.2  T
   9   -100.3807378 -0.376926E-08  0.778E-04    0.32      14.7  T
  10   -100.3807378 -0.276761E-07  0.318E-04    0.32      36.0  T
  11   -100.3807378 -0.252830E-08  0.178E-04    0.32      64.5  T
     SCC iter.                  ...        0 min,  0.185 sec
     gradient                   ...        0 min,  0.085 sec
 * total energy  :   -99.0403419 Eh     change       -0.4388937E-04 Eh
   gradient norm :     0.0008469 Eh/α   predicted    -0.1835976E-04 ( -58.17%)
   displ. norm   :     0.6978361 α      lambda       -0.4141301E-04
   maximum displ.:     0.4556539 α      in ANC's #1, #3, #2, ...

........................................................................
.............................. CYCLE  165 ..............................
........................................................................

 iter      E             dE          RMSdq      gap      omega  full diag
   1   -100.3805658 -0.100381E+03  0.590E-02    0.32       0.0  T
   2   -100.3801598  0.406059E-03  0.951E-02    0.36       1.0  T
   3   -100.3805673 -0.407563E-03  0.361E-02    0.32       1.0  T
   4   -100.3805986 -0.312740E-04  0.174E-02    0.33       1.0  T
   5   -100.3806073 -0.871221E-05  0.638E-03    0.33       1.8  T
   6   -100.3806084 -0.105381E-05  0.388E-03    0.32       3.0  T
   7   -100.3806084 -0.675474E-07  0.387E-03    0.33       3.0  T
   8   -100.3806091 -0.687091E-06  0.114E-03    0.33      10.0  T
   9   -100.3806091 -0.931432E-08  0.810E-04    0.33      14.2  T
  10   -100.3806092 -0.240625E-07  0.344E-04    0.33      33.3  T
  11   -100.3806092 -0.248203E-08  0.211E-04    0.33      54.2  T
     SCC iter.                  ...        0 min,  0.186 sec
     gradient                   ...        0 min,  0.081 sec
 * total energy  :   -99.0403955 Eh     change       -0.5363035E-04 Eh
   gradient norm :     0.0008180 Eh/α   predicted    -0.2519136E-04 ( -53.03%)
   displ. norm   :     0.6884740 α      lambda       -0.3688205E-04
   maximum displ.:     0.4544104 α      in ANC's #1, #3, #2, ...

........................................................................
.............................. CYCLE  166 ..............................
........................................................................

 iter      E             dE          RMSdq      gap      omega  full diag
   1   -100.3806118 -0.100381E+03  0.557E-02    0.32       0.0  T
   2   -100.3803133  0.298469E-03  0.829E-02    0.36       1.0  T
   3   -100.3805867 -0.273391E-03  0.383E-02    0.31       1.0  T
   4   -100.3806354 -0.486463E-04  0.133E-02    0.33       1.0  T
   5   -100.3806396 -0.427837E-05  0.641E-03    0.32       1.8  T
   6   -100.3806416 -0.193752E-05  0.319E-03    0.32       3.6  T
   7   -100.3806411  0.493883E-06  0.377E-03    0.33       3.0  T
   8   -100.3806417 -0.654084E-06  0.118E-03    0.32       9.7  T
   9   -100.3806418 -0.405571E-07  0.777E-04    0.33      14.8  T
  10   -100.3806418 -0.176196E-07  0.432E-04    0.33      26.6  T
  11   -100.3806418 -0.429665E-08  0.222E-04    0.33      51.7  T
     SCC iter.                  ...        0 min,  0.187 sec
     gradient                   ...        0 min,  0.080 sec
 * total energy  :   -99.0404406 Eh     change       -0.4510814E-04 Eh
   gradient norm :     0.0008820 Eh/α   predicted    -0.2232748E-04 ( -50.50%)
   displ. norm   :     0.5077713 α      lambda       -0.2375162E-04
   maximum displ.:     0.3391486 α      in ANC's #1, #3, #2, ...

........................................................................
.............................. CYCLE  167 ..............................
........................................................................

 iter      E             dE          RMSdq      gap      omega  full diag
   1   -100.3807557 -0.100381E+03  0.421E-02    0.32       0.0  T
   2   -100.3806329  0.122842E-03  0.548E-02    0.34       1.0  T
   3   -100.3806953 -0.624329E-04  0.379E-02    0.31       1.0  T
   4   -100.3807531 -0.577695E-04  0.172E-02    0.33       1.0  T
   5   -100.3807670 -0.139316E-04  0.389E-03    0.32       2.9  T
   6   -100.3807674 -0.413840E-06  0.239E-03    0.32       4.8  T
   7   -100.3807673  0.931250E-07  0.228E-03    0.32       5.0  T
   8   -100.3807675 -0.207655E-06  0.831E-04    0.32      13.8  T
   9   -100.3807676 -0.191224E-07  0.565E-04    0.32      20.3  T
  10   -100.3807676 -0.134770E-07  0.254E-04    0.32      45.2  T
  11   -100.3807676 -0.586752E-09  0.152E-04    0.32      75.5  T
     SCC iter.                  ...        0 min,  0.178 sec
     gradient                   ...        0 min,  0.082 sec
 * total energy  :   -99.0404695 Eh     change       -0.2890026E-04 Eh
   gradient norm :     0.0007679 Eh/α   predicted    -0.1323901E-04 ( -54.19%)
   displ. norm   :     0.3517788 α      lambda       -0.1565225E-04
   maximum displ.:     0.2384518 α      in ANC's #1, #3, #2, ...

........................................................................
.............................. CYCLE  168 ..............................
........................................................................

 iter      E             dE          RMSdq      gap      omega  full diag
   1   -100.3812786 -0.100381E+03  0.275E-02    0.32       0.0  T
   2   -100.3812725  0.614732E-05  0.197E-02    0.33       1.0  T
   3   -100.3811928  0.796449E-04  0.397E-02    0.31       1.0  T
   4   -100.3812730 -0.801303E-04  0.107E-02    0.33       1.1  T
   5   -100.3812784 -0.545970E-05  0.414E-03    0.32       2.8  T
   6   -100.3812799 -0.147890E-05  0.173E-03    0.32       6.6  T
   7   -100.3812800 -0.514227E-07  0.128E-03    0.32       9.0  T
   8   -100.3812800 -0.236632E-07  0.720E-04    0.32      15.9  T
   9   -100.3812800 -0.142512E-07  0.348E-04    0.32      33.0  T
  10   -100.3812800 -0.187052E-08  0.176E-04    0.32      65.1  T
     SCC iter.                  ...        0 min,  0.157 sec
     gradient                   ...        0 min,  0.090 sec
 * total energy  :   -99.0404890 Eh     change       -0.1946751E-04 Eh
   gradient norm :     0.0005830 Eh/α   predicted    -0.8258253E-05 ( -57.58%)
   displ. norm   :     0.3431533 α      lambda       -0.1363001E-04
   maximum displ.:     0.2302293 α      in ANC's #1, #3, #2, ...

........................................................................
.............................. CYCLE  169 ..............................
........................................................................

 iter      E             dE          RMSdq      gap      omega  full diag
   1   -100.3803401 -0.100380E+03  0.266E-02    0.32       0.0  T
   2   -100.3802973  0.428341E-04  0.330E-02    0.33       1.0  T
   3   -100.3803122 -0.148720E-04  0.251E-02    0.31       1.0  T
   4   -100.3803394 -0.272774E-04  0.910E-03    0.32       1.3  T
   5   -100.3803435 -0.404265E-05  0.235E-03    0.32       4.9  T
   6   -100.3803438 -0.339574E-06  0.140E-03    0.32       8.2  T
   7   -100.3803439 -0.639815E-07  0.870E-04    0.32      13.2  T
   8   -100.3803439 -0.169671E-07  0.400E-04    0.32      28.7  T
   9   -100.3803439 -0.173236E-08  0.202E-04    0.32      56.9  T
     SCC iter.                  ...        0 min,  0.157 sec
     gradient                   ...        0 min,  0.068 sec
 * total energy  :   -99.0405057 Eh     change       -0.1668595E-04 Eh
   gradient norm :     0.0008780 Eh/α   predicted    -0.7176142E-05 ( -56.99%)
   displ. norm   :     0.3150650 α      lambda       -0.1402931E-04
   maximum displ.:     0.2175947 α      in ANC's #1, #3, #2, ...

........................................................................
.............................. CYCLE  170 ..............................
........................................................................

 iter      E             dE          RMSdq      gap      omega  full diag
   1   -100.3812956 -0.100381E+03  0.270E-02    0.32       0.0  T
   2   -100.3812333  0.622662E-04  0.357E-02    0.31       1.0  T
   3   -100.3812649 -0.316583E-04  0.277E-02    0.33       1.0  T
   4   -100.3812964 -0.314080E-04  0.755E-03    0.32       1.5  T
   5   -100.3812998 -0.342791E-05  0.262E-03    0.32       4.4  T
   6   -100.3813001 -0.286662E-06  0.131E-03    0.32       8.7  T
   7   -100.3813001 -0.695376E-07  0.744E-04    0.32      15.4  T
   8   -100.3813001 -0.688456E-08  0.467E-04    0.32      24.6  T
   9   -100.3813001  0.848047E-09  0.362E-04    0.32      31.7  T
     SCC iter.                  ...        0 min,  0.148 sec
     gradient                   ...        0 min,  0.072 sec
 * total energy  :   -99.0405214 Eh     change       -0.1572809E-04 Eh
   gradient norm :     0.0008170 Eh/α   predicted    -0.7326564E-05 ( -53.42%)
   displ. norm   :     0.3012567 α      lambda       -0.1175389E-04
   maximum displ.:     0.2048829 α      in ANC's #1, #3, #2, ...

........................................................................
.............................. CYCLE  171 ..............................
........................................................................

 iter      E             dE          RMSdq      gap      omega  full diag
   1   -100.3805969 -0.100381E+03  0.236E-02    0.32       0.0  T
   2   -100.3805942  0.273082E-05  0.158E-02    0.32       1.0  T
   3   -100.3805120  0.821638E-04  0.378E-02    0.30       1.0  T
   4   -100.3805942 -0.821516E-04  0.864E-03    0.32       1.3  T
   5   -100.3805973 -0.314813E-05  0.253E-03    0.32       4.5  T
   6   -100.3805977 -0.333975E-06  0.841E-04    0.32      13.6  T
   7   -100.3805977  0.414397E-08  0.741E-04    0.32      15.5  T
   8   -100.3805977 -0.151075E-07  0.457E-04    0.32      25.1  T
   9   -100.3805977 -0.514197E-08  0.270E-04    0.32      42.5  T
     SCC iter.                  ...        0 min,  0.133 sec
     gradient                   ...        0 min,  0.065 sec
 * total energy  :   -99.0405355 Eh     change       -0.1408296E-04 Eh
   gradient norm :     0.0007023 Eh/α   predicted    -0.6118191E-05 ( -56.56%)
   displ. norm   :     0.3366811 α      lambda       -0.1227765E-04
   maximum displ.:     0.2317389 α      in ANC's #1, #3, #2, ...

........................................................................
.............................. CYCLE  172 ..............................
........................................................................

 iter      E             dE          RMSdq      gap      omega  full diag
   1   -100.3803435 -0.100380E+03  0.299E-02    0.32       0.0  T
   2   -100.3803269  0.166418E-04  0.246E-02    0.31       1.0  T
   3   -100.3802458  0.811070E-04  0.429E-02    0.33       1.0  T
   4   -100.3803433 -0.975072E-04  0.568E-03    0.31       2.0  T
   5   -100.3803445 -0.119994E-05  0.302E-03    0.32       3.8  T
   6   -100.3803451 -0.592923E-06  0.628E-04    0.31      18.3  T
   7   -100.3803451  0.212066E-08  0.521E-04    0.31      22.0  T
   8   -100.3803451 -0.664534E-08  0.334E-04    0.31      34.4  T
   9   -100.3803451 -0.242488E-08  0.195E-04    0.31      58.9  T
     SCC iter.                  ...        0 min,  0.135 sec
     gradient                   ...        0 min,  0.086 sec
 * total energy  :   -99.0405505 Eh     change       -0.1498436E-04 Eh
   gradient norm :     0.0008079 Eh/α   predicted    -0.6450260E-05 ( -56.95%)
   displ. norm   :     0.3064513 α      lambda       -0.1212934E-04
   maximum displ.:     0.2115641 α      in ANC's #1, #3, #2, ...

........................................................................
.............................. CYCLE  173 ..............................
........................................................................

 iter      E             dE          RMSdq      gap      omega  full diag
   1   -100.3804287 -0.100380E+03  0.300E-02    0.31       0.0  T
   2   -100.3803975  0.311059E-04  0.302E-02    0.30       1.0  T
   3   -100.3803618  0.357076E-04  0.368E-02    0.32       1.0  T
   4   -100.3804261 -0.642651E-04  0.850E-03    0.31       1.3  T
   5   -100.3804308 -0.468299E-05  0.326E-03    0.31       3.5  T
   6   -100.3804314 -0.563191E-06  0.132E-03    0.31       8.7  T
   7   -100.3804314 -0.101639E-07  0.104E-03    0.31      11.1  T
   8   -100.3804314 -0.275553E-07  0.578E-04    0.31      19.8  T
   9   -100.3804314  0.558340E-08  0.439E-04    0.31      26.1  T
  10   -100.3804314 -0.120605E-07  0.177E-04    0.31      65.0  T
     SCC iter.                  ...        0 min,  0.156 sec
     gradient                   ...        0 min,  0.068 sec
 * total energy  :   -99.0405661 Eh     change       -0.1559555E-04 Eh
   gradient norm :     0.0006557 Eh/α   predicted    -0.6319242E-05 ( -59.48%)
   displ. norm   :     0.3492213 α      lambda       -0.1509800E-04
   maximum displ.:     0.2410679 α      in ANC's #1, #3, #5, ...

........................................................................
.............................. CYCLE  174 ..............................
........................................................................

 iter      E             dE          RMSdq      gap      omega  full diag
   1   -100.3809066 -0.100381E+03  0.403E-02    0.31       0.0  T
   2   -100.3808052  0.101364E-03  0.499E-02    0.30       1.0  T
   3   -100.3808309 -0.256347E-04  0.411E-02    0.32       1.0  T
   4   -100.3809062 -0.753751E-04  0.974E-03    0.31       1.2  T
   5   -100.3809110 -0.479247E-05  0.568E-03    0.31       2.0  T
   6   -100.3809134 -0.242452E-05  0.154E-03    0.31       7.4  T
   7   -100.3809135 -0.192167E-07  0.132E-03    0.31       8.7  T
   8   -100.3809135 -0.196898E-07  0.753E-04    0.31      15.2  T
   9   -100.3809135 -0.642285E-08  0.495E-04    0.31      23.2  T
  10   -100.3809135 -0.742678E-08  0.236E-04    0.31      48.6  T
     SCC iter.                  ...        0 min,  0.159 sec
     gradient                   ...        0 min,  0.088 sec
 * total energy  :   -99.0405852 Eh     change       -0.1910894E-04 Eh
   gradient norm :     0.0005584 Eh/α   predicted    -0.7959012E-05 ( -58.35%)
   displ. norm   :     0.5274262 α      lambda       -0.1976131E-04
   maximum displ.:     0.3613849 α      in ANC's #1, #3, #5, ...

........................................................................
.............................. CYCLE  175 ..............................
........................................................................

 iter      E             dE          RMSdq      gap      omega  full diag
   1   -100.3805438 -0.100381E+03  0.610E-02    0.31       0.0  T
   2   -100.3803998  0.143987E-03  0.633E-02    0.29       1.0  T
   3   -100.3802882  0.111548E-03  0.721E-02    0.33       1.0  T
   4   -100.3805461 -0.257929E-03  0.105E-02    0.30       1.1  T
   5   -100.3805474 -0.125297E-05  0.957E-03    0.31       1.2  T
   6   -100.3805539 -0.650154E-05  0.276E-03    0.30       4.2  T
   7   -100.3805539 -0.263273E-07  0.242E-03    0.30       4.7  T
   8   -100.3805541 -0.215561E-06  0.101E-03    0.30      11.3  T
   9   -100.3805542 -0.173108E-07  0.575E-04    0.30      19.9  T
  10   -100.3805542 -0.718242E-08  0.301E-04    0.30      38.1  T
  11   -100.3805542 -0.195296E-08  0.181E-04    0.30      63.3  T
     SCC iter.                  ...        0 min,  0.158 sec
     gradient                   ...        0 min,  0.075 sec
 * total energy  :   -99.0406081 Eh     change       -0.2291063E-04 Eh
   gradient norm :     0.0008588 Eh/α   predicted    -0.1110491E-04 ( -51.53%)
   displ. norm   :     0.4744093 α      lambda       -0.1645793E-04
   maximum displ.:     0.3265314 α      in ANC's #1, #3, #5, ...

........................................................................
.............................. CYCLE  176 ..............................
........................................................................

 iter      E             dE          RMSdq      gap      omega  full diag
   1   -100.3804659 -0.100380E+03  0.571E-02    0.30       0.0  T
   2   -100.3804527  0.132938E-04  0.375E-02    0.30       1.0  T
   3   -100.3800845  0.368132E-03  0.842E-02    0.33       1.0  T
   4   -100.3804571 -0.372577E-03  0.117E-02    0.30       1.0  T
   5   -100.3804623 -0.523884E-05  0.860E-03    0.30       1.3  T
   6   -100.3804681 -0.576673E-05  0.223E-03    0.30       5.1  T
   7   -100.3804681  0.131095E-07  0.206E-03    0.30       5.6  T
   8   -100.3804682 -0.146775E-06  0.945E-04    0.30      12.1  T
   9   -100.3804682 -0.547989E-08  0.676E-04    0.30      17.0  T
  10   -100.3804683 -0.178570E-07  0.220E-04    0.30      52.1  T
  11   -100.3804683  0.128864E-09  0.160E-04    0.30      71.5  T
     SCC iter.                  ...        0 min,  0.188 sec
     gradient                   ...        0 min,  0.076 sec
 * total energy  :   -99.0406258 Eh     change       -0.1768622E-04 Eh
   gradient norm :     0.0014045 Eh/α   predicted    -0.9053646E-05 ( -48.81%)
   displ. norm   :     0.3056574 α      lambda       -0.1321418E-04
   maximum displ.:     0.2101616 α      in ANC's #1, #5, #3, ...

........................................................................
.............................. CYCLE  177 ..............................
........................................................................

 iter      E             dE          RMSdq      gap      omega  full diag
   1   -100.3813706 -0.100381E+03  0.429E-02    0.30       0.0  T
   2   -100.3809972  0.373385E-03  0.846E-02    0.27       1.0  T
   3   -100.3813592 -0.362030E-03  0.301E-02    0.31       1.0  T
   4   -100.3813889 -0.296797E-04  0.566E-03    0.30       2.0  T
   5   -100.3813896 -0.717516E-06  0.273E-03    0.30       4.2  T
   6   -100.3813897 -0.896482E-07  0.179E-03    0.30       6.4  T
   7   -100.3813899 -0.198158E-06  0.879E-04    0.30      13.0  T
   8   -100.3813899 -0.968154E-08  0.665E-04    0.30      17.3  T
   9   -100.3813899 -0.159877E-07  0.301E-04    0.30      38.1  T
  10   -100.3813899  0.951729E-09  0.231E-04    0.30      49.6  T
     SCC iter.                  ...        0 min,  0.147 sec
     gradient                   ...        0 min,  0.067 sec
 * total energy  :   -99.0406399 Eh     change       -0.1414227E-04 Eh
   gradient norm :     0.0008630 Eh/α   predicted    -0.6883352E-05 ( -51.33%)
   displ. norm   :     0.3838664 α      lambda       -0.1469693E-04
   maximum displ.:     0.2627947 α      in ANC's #1, #5, #3, ...

........................................................................
.............................. CYCLE  178 ..............................
........................................................................

 iter      E             dE          RMSdq      gap      omega  full diag
   1   -100.3814631 -0.100381E+03  0.481E-02    0.30       0.0  T
   2   -100.3814634 -0.349701E-06  0.281E-02    0.30       1.0  T
   3   -100.3814593  0.416809E-05  0.961E-03    0.30       1.2  T
   4   -100.3814467  0.125424E-04  0.171E-02    0.29       1.0  T
   5   -100.3814629 -0.161744E-04  0.331E-03    0.30       3.5  T
   6   -100.3814636 -0.741205E-06  0.718E-04    0.30      16.0  T
   7   -100.3814636  0.921212E-08  0.635E-04    0.30      18.1  T
   8   -100.3814636 -0.155150E-07  0.345E-04    0.30      33.2  T
   9   -100.3814636 -0.567084E-09  0.259E-04    0.30      44.3  T
     SCC iter.                  ...        0 min,  0.140 sec
     gradient                   ...        0 min,  0.081 sec
 * total energy  :   -99.0406561 Eh     change       -0.1619839E-04 Eh
   gradient norm :     0.0008563 Eh/α   predicted    -0.7834001E-05 ( -51.64%)
   displ. norm   :     0.4365061 α      lambda       -0.1380736E-04
   maximum displ.:     0.2992275 α      in ANC's #1, #5, #3, ...

........................................................................
.............................. CYCLE  179 ..............................
........................................................................

 iter      E             dE          RMSdq      gap      omega  full diag
   1   -100.3802296 -0.100380E+03  0.519E-02    0.29       0.0  T
   2   -100.3801691  0.605201E-04  0.434E-02    0.28       1.0  T
   3   -100.3798616  0.307490E-03  0.818E-02    0.32       1.0  T
   4   -100.3802204 -0.358822E-03  0.143E-02    0.30       1.0  T
   5   -100.3802329 -0.124359E-04  0.459E-03    0.29       2.5  T
   6   -100.3802336 -0.699364E-06  0.173E-03    0.29       6.6  T
   7   -100.3802337 -0.158045E-06  0.868E-04    0.29      13.2  T
   8   -100.3802337 -0.156066E-07  0.589E-04    0.29      19.5  T
   9   -100.3802337  0.179807E-07  0.703E-04    0.29      16.3  T
  10   -100.3802337 -0.261461E-07  0.245E-04    0.29      46.8  T
  11   -100.3802337  0.116870E-09  0.165E-04    0.29      69.7  T
     SCC iter.                  ...        0 min,  0.167 sec
     gradient                   ...        0 min,  0.074 sec
 * total energy  :   -99.0406687 Eh     change       -0.1258771E-04 Eh
   gradient norm :     0.0011982 Eh/α   predicted    -0.7490784E-05 ( -40.49%)
   displ. norm   :     0.2074915 α      lambda       -0.1316738E-04
   maximum displ.:     0.1340582 α      in ANC's #1, #5, #3, ...

........................................................................
.............................. CYCLE  180 ..............................
........................................................................

 iter      E             dE          RMSdq      gap      omega  full diag
   1   -100.3815290 -0.100382E+03  0.247E-02    0.29       0.0  T
   2   -100.3815281  0.879138E-06  0.146E-02    0.29       1.0  T
   3   -100.3814652  0.629103E-04  0.298E-02    0.30       1.0  T
   4   -100.3815280 -0.627830E-04  0.668E-03    0.29       1.7  T
   5   -100.3815295 -0.146749E-05  0.260E-03    0.29       4.4  T
   6   -100.3815298 -0.377278E-06  0.127E-03    0.29       9.0  T
   7   -100.3815298  0.556033E-07  0.141E-03    0.29       8.2  T
   8   -100.3815298 -0.669992E-07  0.555E-04    0.29      20.7  T
   9   -100.3815299 -0.416055E-08  0.368E-04    0.29      31.1  T
  10   -100.3815299 -0.497434E-08  0.170E-04    0.29      67.6  T
     SCC iter.                  ...        0 min,  0.155 sec
     gradient                   ...        0 min,  0.074 sec
 * total energy  :   -99.0406789 Eh     change       -0.1014835E-04 Eh
   gradient norm :     0.0008511 Eh/α   predicted    -0.6712177E-05 ( -33.86%)
   displ. norm   :     0.2216484 α      lambda       -0.8261896E-05
   maximum displ.:     0.1523668 α      in ANC's #1, #5, #3, ...

........................................................................
.............................. CYCLE  181 ..............................
........................................................................

 iter      E             dE          RMSdq      gap      omega  full diag
   1   -100.3807525 -0.100381E+03  0.218E-02    0.29       0.0  T
   2   -100.3807523  0.148884E-06  0.127E-02    0.29       1.0  T
   3   -100.3807260  0.263392E-04  0.200E-02    0.30       1.0  T
   4   -100.3807522 -0.262528E-04  0.421E-03    0.29       2.7  T
   5   -100.3807525 -0.262002E-06  0.182E-03    0.29       6.3  T
   6   -100.3807527 -0.219431E-06  0.119E-03    0.29       9.6  T
   7   -100.3807527 -0.831149E-08  0.990E-04    0.29      11.6  T
   8   -100.3807528 -0.359900E-07  0.357E-04    0.29      32.1  T
   9   -100.3807528  0.499134E-08  0.355E-04    0.29      32.3  T
     SCC iter.                  ...        0 min,  0.129 sec
     gradient                   ...        0 min,  0.075 sec
 * total energy  :   -99.0406877 Eh     change       -0.8856108E-05 Eh
   gradient norm :     0.0008461 Eh/α   predicted    -0.4225117E-05 ( -52.29%)
   displ. norm   :     0.2433702 α      lambda       -0.1437134E-04
   maximum displ.:     0.1576954 α      in ANC's #1, #5, #3, ...

........................................................................
.............................. CYCLE  182 ..............................
........................................................................

 iter      E             dE          RMSdq      gap      omega  full diag
   1   -100.3804503 -0.100380E+03  0.191E-02    0.29       0.0  T
   2   -100.3804416  0.868673E-05  0.151E-02    0.28       1.0  T
   3   -100.3803871  0.545032E-04  0.337E-02    0.30       1.0  T
   4   -100.3804492 -0.621441E-04  0.642E-03    0.29       1.8  T
   5   -100.3804511 -0.189593E-05  0.279E-03    0.29       4.1  T
   6   -100.3804515 -0.354425E-06  0.168E-03    0.29       6.8  T
   7   -100.3804515 -0.100351E-07  0.147E-03    0.29       7.8  T
   8   -100.3804515 -0.463531E-07  0.701E-04    0.29      16.4  T
   9   -100.3804515 -0.220496E-08  0.460E-04    0.29      25.0  T
  10   -100.3804516 -0.741971E-08  0.327E-04    0.29      35.0  T
     SCC iter.                  ...        0 min,  0.153 sec
     gradient                   ...        0 min,  0.073 sec
 * total energy  :   -99.0407027 Eh     change       -0.1496757E-04 Eh
   gradient norm :     0.0013018 Eh/α   predicted    -0.7376449E-05 ( -50.72%)
   displ. norm   :     0.1828225 α      lambda       -0.1206784E-04
   maximum displ.:     0.1048213 α      in ANC's #1, #5, #3, ...

........................................................................
.............................. CYCLE  183 ..............................
........................................................................

 iter      E             dE          RMSdq      gap      omega  full diag
   1   -100.3803503 -0.100380E+03  0.162E-02    0.28       0.0  T
   2   -100.3803284  0.219007E-04  0.227E-02    0.29       1.0  T
   3   -100.3803442 -0.157570E-04  0.132E-02    0.28       1.0  T
   4   -100.3803514 -0.716459E-05  0.423E-03    0.29       2.7  T
   5   -100.3803516 -0.205463E-06  0.275E-03    0.28       4.2  T
   6   -100.3803520 -0.440243E-06  0.112E-03    0.29      10.3  T
   7   -100.3803518  0.194132E-06  0.190E-03    0.29       6.0  T
   8   -100.3803520 -0.196738E-06  0.738E-04    0.29      15.5  T
   9   -100.3803520 -0.199008E-07  0.238E-04    0.29      48.2  T
  10   -100.3803520  0.471232E-10  0.174E-04    0.29      65.9  T
     SCC iter.                  ...        0 min,  0.149 sec
     gradient                   ...        0 min,  0.066 sec
 * total energy  :   -99.0407146 Eh     change       -0.1196452E-04 Eh
   gradient norm :     0.0009381 Eh/α   predicted    -0.6125316E-05 ( -48.80%)
   displ. norm   :     0.1277307 α      lambda       -0.7116155E-05
   maximum displ.:     0.0728314 α      in ANC's #1, #5, #3, ...
 * RMSD in coord.:     0.8355267 α      energy gain  -0.5840123E-03 Eh

generating ANC from exact Hessian ...
Using Lindh-Hessian (1995)
 Shifting diagonal of input Hessian by    1.0091993238449700E-002
 Lowest  eigenvalues of input Hessian
    0.000000    0.010000    0.000000    0.000000    0.000000    0.000000
    0.000000    0.010200    0.010226    0.010287    0.010489    0.010565
    0.010785    0.010810    0.010924    0.010932    0.011068    0.011249
 Highest eigenvalues
    1.886254    1.970847    2.016727    2.198614    2.343635    2.384726


........................................................................
.............................. CYCLE  184 ..............................
........................................................................

 iter      E             dE          RMSdq      gap      omega  full diag
   1   -100.3807200 -0.100381E+03  0.131E-02    0.28       0.0  T
   2   -100.3807072  0.127606E-04  0.165E-02    0.29       1.0  T
   3   -100.3807096 -0.235721E-05  0.149E-02    0.28       1.0  T
   4   -100.3807206 -0.110380E-04  0.227E-03    0.29       5.1  T
   5   -100.3807205  0.942122E-07  0.205E-03    0.29       5.6  T
   6   -100.3807209 -0.362968E-06  0.388E-04    0.29      29.6  T
   7   -100.3807209  0.224155E-08  0.374E-04    0.29      30.7  T
     SCC iter.                  ...        0 min,  0.109 sec
     gradient                   ...        0 min,  0.076 sec
 * total energy  :   -99.0407220 Eh     change       -0.7404657E-05 Eh
   gradient norm :     0.0007562 Eh/α   predicted     0.0000000E+00 (-100.00%)
   displ. norm   :     0.0172278 α      lambda       -0.6085425E-06
   maximum displ.:     0.0062406 α      in ANC's #19, #3, #10, ...

........................................................................
.............................. CYCLE  185 ..............................
........................................................................

 iter      E             dE          RMSdq      gap      omega  full diag
   1   -100.3812856 -0.100381E+03  0.655E-03    0.29       0.0  T
   2   -100.3812545  0.311095E-04  0.235E-02    0.28       1.0  T
   3   -100.3812873 -0.328191E-04  0.230E-03    0.29       5.0  T
   4   -100.3812873  0.430828E-07  0.140E-03    0.29       8.2  T
   5   -100.3812872  0.373849E-07  0.121E-03    0.29       9.5  T
   6   -100.3812873 -0.985851E-07  0.251E-04    0.29      45.7  T
   7   -100.3812873  0.124240E-08  0.239E-04    0.29      47.9  T
     SCC iter.                  ...        0 min,  0.093 sec
     gradient                   ...        0 min,  0.068 sec
 * total energy  :   -99.0407251 Eh     change       -0.3015954E-05 Eh
   gradient norm :     0.0004872 Eh/α   predicted    -0.1592874E-05 ( -47.19%)
   displ. norm   :     0.0572003 α      lambda       -0.7253040E-05
   maximum displ.:     0.0200703 α      in ANC's #19, #3, #10, ...

........................................................................
.............................. CYCLE  186 ..............................
........................................................................

 iter      E             dE          RMSdq      gap      omega  full diag
   1   -100.3822759 -0.100382E+03  0.180E-02    0.29       0.0  T
   2   -100.3822464  0.295253E-04  0.257E-02    0.28       1.0  T
   3   -100.3822654 -0.190280E-04  0.163E-02    0.29       1.0  T
   4   -100.3822774 -0.120221E-04  0.514E-03    0.29       2.2  T
   5   -100.3822780 -0.539308E-06  0.251E-03    0.29       4.6  T
   6   -100.3822780 -0.811769E-08  0.213E-03    0.29       5.4  T
   7   -100.3822781 -0.767086E-07  0.125E-03    0.29       9.2  T
   8   -100.3822781 -0.197332E-07  0.692E-04    0.29      16.6  T
   9   -100.3822781  0.799467E-08  0.515E-04    0.29      22.3  T
  10   -100.3822781 -0.174658E-07  0.188E-04    0.29      61.0  T
  11   -100.3822781 -0.566146E-09  0.128E-04    0.29      89.6  T
     SCC iter.                  ...        0 min,  0.169 sec
     gradient                   ...        0 min,  0.074 sec
 * total energy  :   -99.0407134 Eh     change        0.1166444E-04 Eh
   gradient norm :     0.0025736 Eh/α   predicted    -0.3636285E-05 (-131.17%)
   displ. norm   :     0.0122352 α      lambda       -0.2160659E-04
   maximum displ.:     0.0077648 α      in ANC's #32, #44, #42, ...

........................................................................
.............................. CYCLE  187 ..............................
........................................................................

 iter      E             dE          RMSdq      gap      omega  full diag
   1   -100.3818632 -0.100382E+03  0.920E-03    0.29       0.0  T
   2   -100.3818534  0.982316E-05  0.143E-02    0.29       1.0  T
   3   -100.3818609 -0.743681E-05  0.836E-03    0.29       1.4  T
   4   -100.3818639 -0.300407E-05  0.290E-03    0.29       4.0  T
   5   -100.3818638  0.855669E-07  0.224E-03    0.29       5.1  T
   6   -100.3818640 -0.238597E-06  0.122E-03    0.29       9.4  T
   7   -100.3818640 -0.939443E-08  0.806E-04    0.29      14.2  T
   8   -100.3818640 -0.158354E-07  0.477E-04    0.29      24.0  T
   9   -100.3818641 -0.499956E-08  0.235E-04    0.29      48.8  T
     SCC iter.                  ...        0 min,  0.125 sec
     gradient                   ...        0 min,  0.080 sec
 * total energy  :   -99.0407275 Eh     change       -0.1410850E-04 Eh
   gradient norm :     0.0012331 Eh/α   predicted    -0.1080911E-04 ( -23.39%)
   displ. norm   :     0.0344745 α      lambda       -0.1343813E-04
   maximum displ.:     0.0243145 α      in ANC's #46, #19, #25, ...

........................................................................
.............................. CYCLE  188 ..............................
........................................................................

 iter      E             dE          RMSdq      gap      omega  full diag
   1   -100.3806029 -0.100381E+03  0.317E-02    0.29       0.0  T
   2   -100.3805584  0.445624E-04  0.313E-02    0.30       1.0  T
   3   -100.3804574  0.101027E-03  0.503E-02    0.27       1.0  T
   4   -100.3806059 -0.148505E-03  0.857E-03    0.29       1.3  T
   5   -100.3806064 -0.538897E-06  0.382E-03    0.29       3.0  T
   6   -100.3806072 -0.767725E-06  0.247E-03    0.29       4.6  T
   7   -100.3806073 -0.157388E-06  0.149E-03    0.29       7.7  T
   8   -100.3806072  0.856848E-07  0.148E-03    0.29       7.7  T
   9   -100.3806074 -0.119093E-06  0.552E-04    0.29      20.8  T
  10   -100.3806074 -0.104091E-07  0.304E-04    0.29      37.7  T
  11   -100.3806074 -0.224252E-08  0.127E-04    0.29      90.5  T
     SCC iter.                  ...        0 min,  0.160 sec
     gradient                   ...        0 min,  0.076 sec
 * total energy  :   -99.0407053 Eh     change        0.2223180E-04 Eh
   gradient norm :     0.0024009 Eh/α   predicted    -0.6723579E-05 (-130.24%)
   displ. norm   :     0.0206408 α      lambda       -0.3628216E-04
   maximum displ.:     0.0131791 α      in ANC's #46, #25, #19, ...

........................................................................
.............................. CYCLE  189 ..............................
........................................................................

 iter      E             dE          RMSdq      gap      omega  full diag
   1   -100.3809781 -0.100381E+03  0.176E-02    0.29       0.0  T
   2   -100.3809755  0.262559E-05  0.108E-02    0.29       1.1  T
   3   -100.3809492  0.263336E-04  0.228E-02    0.30       1.0  T
   4   -100.3809779 -0.287212E-04  0.550E-03    0.29       2.1  T
   5   -100.3809785 -0.567211E-06  0.255E-03    0.29       4.5  T
   6   -100.3809788 -0.303476E-06  0.141E-03    0.29       8.1  T
   7   -100.3809788 -0.158494E-07  0.986E-04    0.29      11.6  T
   8   -100.3809788 -0.520360E-08  0.509E-04    0.29      22.5  T
   9   -100.3809788 -0.787817E-08  0.248E-04    0.29      46.3  T
  10   -100.3809788 -0.787850E-10  0.148E-04    0.29      77.8  T
     SCC iter.                  ...        0 min,  0.142 sec
     gradient                   ...        0 min,  0.070 sec
 * total energy  :   -99.0407289 Eh     change       -0.2365410E-04 Eh
   gradient norm :     0.0009175 Eh/α   predicted    -0.1815158E-04 ( -23.26%)
   displ. norm   :     0.0240735 α      lambda       -0.7563285E-05
   maximum displ.:     0.0094332 α      in ANC's #46, #3, #10, ...

........................................................................
.............................. CYCLE  190 ..............................
........................................................................

 iter      E             dE          RMSdq      gap      omega  full diag
   1   -100.3816307 -0.100382E+03  0.138E-02    0.29       0.0  T
   2   -100.3816213  0.945673E-05  0.147E-02    0.28       1.0  T
   3   -100.3816099  0.113628E-04  0.191E-02    0.30       1.0  T
   4   -100.3816311 -0.211742E-04  0.403E-03    0.29       2.8  T
   5   -100.3816314 -0.363667E-06  0.148E-03    0.29       7.8  T
   6   -100.3816315 -0.956785E-07  0.584E-04    0.29      19.6  T
   7   -100.3816315 -0.127829E-08  0.495E-04    0.29      23.2  T
   8   -100.3816315 -0.466767E-08  0.283E-04    0.29      40.5  T
     SCC iter.                  ...        0 min,  0.119 sec
     gradient                   ...        0 min,  0.073 sec
 * total energy  :   -99.0407317 Eh     change       -0.2755361E-05 Eh
   gradient norm :     0.0008081 Eh/α   predicted    -0.3786221E-05 (  37.41%)
   displ. norm   :     0.0100701 α      lambda       -0.2219241E-05
   maximum displ.:     0.0032793 α      in ANC's #3, #19, #5, ...

........................................................................
.............................. CYCLE  191 ..............................
........................................................................

 iter      E             dE          RMSdq      gap      omega  full diag
   1   -100.3813650 -0.100381E+03  0.488E-03    0.29       0.0  T
   2   -100.3813645  0.470954E-06  0.380E-03    0.29       3.0  T
   3   -100.3813610  0.351449E-05  0.824E-03    0.29       1.4  T
   4   -100.3813650 -0.401763E-05  0.154E-03    0.29       7.4  T
   5   -100.3813650 -0.117504E-07  0.935E-04    0.29      12.3  T
   6   -100.3813651 -0.619241E-07  0.303E-04    0.29      37.9  T
   7   -100.3813651 -0.188970E-08  0.234E-04    0.29      49.1  T
     SCC iter.                  ...        0 min,  0.086 sec
     gradient                   ...        0 min,  0.074 sec
 * total energy  :   -99.0407334 Eh     change       -0.1668256E-05 Eh
   gradient norm :     0.0003615 Eh/α   predicted    -0.1113234E-05 ( -33.27%)
   displ. norm   :     0.0156027 α      lambda       -0.1362437E-05
   maximum displ.:     0.0066146 α      in ANC's #3, #5, #10, ...

........................................................................
.............................. CYCLE  192 ..............................
........................................................................

 iter      E             dE          RMSdq      gap      omega  full diag
   1   -100.3812239 -0.100381E+03  0.540E-03    0.29       0.0  T
   2   -100.3812213  0.266658E-05  0.703E-03    0.29       1.6  T
   3   -100.3812217 -0.452506E-06  0.692E-03    0.29       1.7  T
   4   -100.3812240 -0.231759E-05  0.192E-03    0.29       6.0  T
   5   -100.3812241 -0.103216E-06  0.109E-03    0.29      10.5  T
   6   -100.3812242 -0.797717E-07  0.405E-04    0.29      28.4  T
   7   -100.3812242 -0.128207E-08  0.349E-04    0.29      32.9  T
     SCC iter.                  ...        0 min,  0.090 sec
     gradient                   ...        0 min,  0.082 sec
 * total energy  :   -99.0407339 Eh     change       -0.5476067E-06 Eh
   gradient norm :     0.0004523 Eh/α   predicted    -0.6841050E-06 (  24.93%)
   displ. norm   :     0.0145096 α      lambda       -0.9741800E-06
   maximum displ.:     0.0066606 α      in ANC's #3, #5, #10, ...

   *** GEOMETRY OPTIMIZATION CONVERGED AFTER 192 ITERATIONS ***

------------------------------------------------------------------------
 total energy gain   :        -0.7302805 Eh     -458.2579 kcal/mol
 total RMSD          :         2.4458922 a0        1.2943 Å
 total power (kW/mol):        -9.9862038 (step)  -38.7921 (real)
------------------------------------------------------------------------

 ANCopt (total)                0 d,  0 h,  0 min, 49.426 sec
 optimizer setup                ...        0 min,  0.001 sec (  0.003%)
 model hessian                  ...        0 min,  0.936 sec (  1.893%)
 ANC generation                 ...        0 min,  0.127 sec (  0.256%)
 coordinate transformation      ...        0 min,  0.034 sec (  0.069%)
 single point calculation       ...        0 min, 48.056 sec ( 97.228%)
 optimization log               ...        0 min,  0.131 sec (  0.264%)
 hessian update                 ...        0 min,  0.031 sec (  0.063%)
 rational function              ...        0 min,  0.071 sec (  0.143%)

================
 final structure:
================
76
 xtb: 6.7.1 (edcfbbe)
Mn           0.44007453343465        0.35330004347048        0.18871666000989
N            0.47515045191167       -1.81104741253572        0.98009113806042
C            1.73821993750617       -2.55069056018841        0.85767696302988
C            2.44290136345550       -2.23223431700094       -0.46107579817523
P            2.39435012876716       -0.39278672422798       -0.73297400393577
C            2.69739596208207       -0.27078969160341       -2.58232165132533
C            4.05260870276188       -0.77415791058252       -3.07870091873920
C            1.57368495220280       -0.97020196718123       -3.34791407237852
C            4.05374939393769        0.16724292227874       -0.07158010378303
C            4.21174733856943       -0.14165354849820        1.41459968867278
C            4.16926114719366        1.66894286629862       -0.32483737192033
C           -0.72654212913137       -2.60123059341682        0.72022184161030
C           -1.95320389212291       -1.80088076983075        1.15590477456732
P           -1.77112493356947       -0.05125532461632        0.53206605299440
C           -2.77374653706128        0.92458746494611        1.77275601729844
C           -2.87357687303242        2.35706875246953        1.25038906699095
C           -2.11015492733081        0.92449883635103        3.14682164170862
C           -2.93234122731685       -0.05117086838978       -0.94367417229323
C           -4.41837919756409       -0.24195925065600       -0.64505567411340
C           -2.45427870827735       -1.10345557258078       -1.94418825424479
H            2.38216305902700       -2.26002443391055        1.69248503931648
H            1.55948975573538       -3.63326143203767        0.93310625468646
H            3.46934365467633       -2.60746771939965       -0.45730755995639
H            1.89628618151014       -2.69333910190409       -1.28768207320733
H            2.61086418341762        0.80590059941781       -2.78285029361906
H            4.04799865419183       -0.77985951075077       -4.16804090867121
H            4.24331114881732       -1.79068102380377       -2.73926308162229
H            4.87010869774692       -0.13351824794785       -2.75882198191333
H            1.52915384808604       -0.59628235762418       -4.36890954541384
H            1.73444085608592       -2.04584548993309       -3.39068658543082
H            0.61371231962060       -0.76882313252699       -2.87339663468652
H            4.83984727370427       -0.36649448739202       -0.61751913497625
H            5.09031261234917        0.36957060740167        1.80759387851654
H            4.34520647014761       -1.20863840313021        1.58610450275909
H            3.34704938843586        0.20021680131264        1.98212395756628
H            3.31918362085702        2.18962649852307        0.12053229489052
H            5.08447520583464        2.06412862427456        0.11436977359724
H            4.17665028466222        1.89280032352612       -1.38976889275477
H           -0.69618808702106       -3.55787930176280        1.27035597649360
H           -0.77277142336090       -2.82770321774569       -0.34967649277785
H           -2.00071885975161       -1.76869440573544        2.24833821410764
H           -2.87220213725464       -2.25885877320993        0.78670602132342
H           -3.76817939098887        0.47164808774158        1.86107820823874
H           -3.46265708032154        2.41673137111168        0.33856810442108
H           -3.33049330208584        3.00547455118999        1.99671293872785
H           -1.87214370130729        2.73473310386008        1.02986545252189
H           -2.66498940875149        1.56784777941270        3.82871217877100
H           -2.07597940133785       -0.07034858023242        3.58769618494370
H           -1.09446705067731        1.31375422419140        3.07540034843910
H           -2.77573268390145        0.93658674936746       -1.39643987677962
H           -4.59867520678625       -1.13691192326089       -0.05194451755034
H           -4.84410473401304        0.61105710602973       -0.12399981134239
H           -4.95333402966039       -0.35423198820713       -1.58734083035623
H           -1.36682457477338       -1.06619631287257       -2.02443444838067
H           -2.75763344420588       -2.10298554923686       -1.63776366166471
H           -2.87449909547979       -0.90819591245659       -2.92888808653554
C            0.04687853634683        1.20820696412683       -1.29408127118863
O           -0.20858233315967        1.83963528912423       -2.24662957078382
C            0.79612401064041        1.82007979439458        1.10415703470020
O            0.96256969722604        2.91041591311463        1.56061547964829
O            1.40233666073584       -0.56768174811506        3.49730496032748
C            1.00798544413641       -0.25125583836132        4.61468432438346
C           -0.06259656701080       -0.90103715194473        5.34698032771063
C           -0.62058361460467       -2.10380847269878        4.89203131182800
C           -1.65070759131213       -2.70404138795648        5.58494011109033
C           -2.14248898405538       -2.11772538834670        6.74335652565962
C           -1.59031126478327       -0.93273194782843        7.21145213302230
C           -0.55717362344603       -0.32881100967828        6.52469865766249
H            0.41782021759124       -1.49620206660709        1.95449548487127
H            1.46813112692123        0.60881343608353        5.13323196206817
H            1.04569952721857        0.80555017066033        1.75903252813116
H           -0.21530659394798       -2.56366920648303        4.00148426885993
H           -2.07451743699784       -3.63186931501092        5.22791301640587
H           -2.95134190067441       -2.58664331010657        7.28352735006942
H           -1.97110950765566       -0.48223944780050        8.11636251823509
H           -0.12787444361450        0.59650759496920        6.88227529576466

 Bond Distances (Angstroems)
 ---------------------------
Mn1-N2=2.3048        Mn1-P5=2.2859        Mn1-P14=2.2740       Mn1-C57=1.7562       Mn1-C59=1.7653       Mn1-H71=1.7428       
N2-Mn1=2.3048        N2-C3=1.4688         N2-C12=1.4615        N2-H69=1.0256        C3-N2=1.4688         C3-C4=1.5288         
C3-H21=1.0936        C3-H22=1.0998        C4-C3=1.5288         C4-P5=1.8601         C4-H23=1.0929        C4-H24=1.0930        
P5-Mn1=2.2859        P5-C4=1.8601         P5-C6=1.8780         P5-C9=1.8721         C6-P5=1.8780         C6-C7=1.5285         
C6-C8=1.5291         C6-H25=1.0986        C7-C6=1.5285         C7-H26=1.0894        C7-H27=1.0885        C7-H28=1.0868        
C8-C6=1.5291         C8-H29=1.0882        C8-H30=1.0884        C8-H31=1.0896        C9-P5=1.8721         C9-C10=1.5261        
C9-C11=1.5273        C9-H32=1.0958        C10-C9=1.5261        C10-H33=1.0898       C10-H34=1.0889       C10-H35=1.0893       
C11-C9=1.5273        C11-H36=1.0918       C11-H37=1.0894       C11-H38=1.0882       C12-N2=1.4615        C12-C13=1.5281       
C12-H39=1.1040       C12-H40=1.0946       C13-C12=1.5281       C13-P14=1.8664       C13-H41=1.0939       C13-H42=1.0912       
P14-Mn1=2.2740       P14-C13=1.8664       P14-C15=1.8700       P14-C18=1.8778       C15-P14=1.8700       C15-C16=1.5280       
C15-C17=1.5259       C15-H43=1.0963       C16-C15=1.5280       C16-H44=1.0872       C16-H45=1.0891       C16-H46=1.0928       
C17-C15=1.5259       C17-H47=1.0894       C17-H48=1.0887       C17-H49=1.0901       C18-P14=1.8778       C18-C19=1.5277       
C18-C20=1.5287       C18-H50=1.0978       C19-C18=1.5277       C19-H51=1.0887       C19-H52=1.0865       C19-H53=1.0893       
C20-C18=1.5287       C20-H54=1.0910       C20-H55=1.0886       C20-H56=1.0883       H21-C3=1.0936        H22-C3=1.0998        
H23-C4=1.0929        H24-C4=1.0930        H25-C6=1.0986        H26-C7=1.0894        H27-C7=1.0885        H28-C7=1.0868        
H29-C8=1.0882        H30-C8=1.0884        H31-C8=1.0896        H32-C9=1.0958        H33-C10=1.0898       H34-C10=1.0889       
H35-C10=1.0893       H36-C11=1.0918       H37-C11=1.0894       H38-C11=1.0882       H39-C12=1.1040       H40-C12=1.0946       
H41-C13=1.0939       H42-C13=1.0912       H43-C15=1.0963       H44-C16=1.0872       H45-C16=1.0891       H46-C16=1.0928       
H47-C17=1.0894       H48-C17=1.0887       H49-C17=1.0901       H50-C18=1.0978       H51-C19=1.0887       H52-C19=1.0865       
H53-C19=1.0893       H54-C20=1.0910       H55-C20=1.0886       H56-C20=1.0883       C57-Mn1=1.7562       C57-O58=1.1710       
O58-C57=1.1710       C59-Mn1=1.7653       C59-O60=1.1937       C59-H71=1.2331       O60-C59=1.1937       O61-C62=1.2264       
C62-O61=1.2264       C62-C63=1.4507       C62-H70=1.1047       C63-C62=1.4507       C63-C64=1.4018       C63-C68=1.3997       
C64-C63=1.4018       C64-C65=1.3790       C64-H72=1.0811       C65-C64=1.3790       C65-C66=1.3884       C65-H73=1.0807       
C66-C65=1.3884       C66-C67=1.3886       C66-H74=1.0798       C67-C66=1.3886       C67-C68=1.3798       C67-H75=1.0802       
C68-C63=1.3997       C68-C67=1.3798       C68-H76=1.0809       H69-N2=1.0256        H70-C62=1.1047       H71-Mn1=1.7428       
H71-C59=1.2331       H72-C64=1.0811       H73-C65=1.0807       H74-C66=1.0798       H75-C67=1.0802       H76-C68=1.0809       
 C  H  Rav=1.0937 sigma=0.0222  Rmin=1.0798  Rmax=1.2331    43
 C  C  Rav=1.4745 sigma=0.0654  Rmin=1.3790  Rmax=1.5291    17
 N  H  Rav=1.0256 sigma=0.0000  Rmin=1.0256  Rmax=1.0256     1
 N  C  Rav=1.4652 sigma=0.0037  Rmin=1.4615  Rmax=1.4688     2
 O  C  Rav=1.1971 sigma=0.0227  Rmin=1.1710  Rmax=1.2264     3
 P  C  Rav=1.8707 sigma=0.0063  Rmin=1.8601  Rmax=1.8780     6
 Mn H  Rav=1.7428 sigma=0.0000  Rmin=1.7428  Rmax=1.7428     1
 Mn C  Rav=1.7607 sigma=0.0046  Rmin=1.7562  Rmax=1.7653     2
 Mn N  Rav=2.3048 sigma=0.0000  Rmin=2.3048  Rmax=2.3048     1
 Mn P  Rav=2.2799 sigma=0.0060  Rmin=2.2740  Rmax=2.2859     2

 selected bond angles (degree)
 --------------------
P5-Mn1-N2= 79.57               P14-Mn1-N2= 78.22              P14-Mn1-P5=146.53              C57-Mn1-N2=138.63              
C57-Mn1-P5= 90.56              C57-Mn1-P14= 89.79             C59-Mn1-N2=126.81              C59-Mn1-P5=107.93              
C59-Mn1-P14=105.41             C59-Mn1-C57= 94.50             H71-Mn1-N2= 85.93              H71-Mn1-P5= 98.68              
H71-Mn1-P14=104.36             H71-Mn1-C57=135.42             H71-Mn1-C59= 41.15             C3-N2-Mn1=117.22               
C12-N2-Mn1=115.73              C12-N2-C3=114.83               H69-N2-Mn1= 92.13              H69-N2-C3=106.37               
H69-N2-C12=106.79              C4-C3-N2=111.31                H21-C3-N2=107.99               H21-C3-C4=109.37               
H22-C3-N2=110.50               H22-C3-C4=109.82               H22-C3-H21=107.75              P5-C4-C3=108.67                
H23-C4-C3=111.00               H23-C4-P5=111.38               H24-C4-C3=109.51               H24-C4-P5=107.07               
H24-C4-H23=109.11              C4-P5-Mn1=106.63               C6-P5-Mn1=120.92               C6-P5-C4=101.77                
C9-P5-Mn1=121.18               C9-P5-C4=102.77                C9-P5-C6=100.69                C7-C6-P5=116.20                
C8-C6-P5=110.17                C8-C6-C7=109.78                H25-C6-P5=103.34               H25-C6-C7=109.47               
H25-C6-C8=107.40               H26-C7-C6=108.83               H27-C7-C6=111.20               H27-C7-H26=107.92              
H28-C7-C6=112.16               H28-C7-H26=107.49              H28-C7-H27=109.08              H29-C8-C6=110.04               
H30-C8-C6=111.30               H30-C8-H29=107.98              H31-C8-C6=110.17               H31-C8-H29=108.00              
H31-C8-H30=109.26              C10-C9-P5=112.04               C11-C9-P5=107.61               C11-C9-C10=110.65              
H32-C9-P5=108.31               H32-C9-C10=108.20              H32-C9-C11=110.00              H33-C10-C9=109.86              
H34-C10-C9=111.37              H34-C10-H33=107.70             H35-C10-C9=111.20              H35-C10-H33=107.75             
H35-C10-H34=108.83             

 selected dihedral angles (degree)
 ---------------------------------
C3-N2-Mn1-P5= 13.53           C3-N2-Mn1-P14=168.32          C3-N2-Mn1-C57= 92.35          C3-N2-Mn1-C59=268.86          
C3-N2-Mn1-H71=273.92          C12-N2-Mn1-P5=232.98          C12-N2-Mn1-P14= 27.78         C12-N2-Mn1-C57=311.80         
C12-N2-Mn1-C59=128.32         C12-N2-Mn1-H71=133.37         H69-N2-Mn1-P5=123.17          H69-N2-Mn1-P14=277.97         
H69-N2-Mn1-C57=201.99         H69-N2-Mn1-C59= 18.51         H69-N2-Mn1-H71= 23.56         C4-C3-N2-Mn1=321.79           
C4-C3-N2-C12=102.68           C4-C3-N2-H69=220.57           H21-C3-N2-Mn1= 81.86          H21-C3-N2-C12=222.75          
H21-C3-N2-H69=340.64          H22-C3-N2-Mn1=199.49          H22-C3-N2-C12=340.38          H22-C3-N2-H69= 98.27          
P5-C4-C3-N2= 44.96            P5-C4-C3-H21=285.71           P5-C4-C3-H22=167.66           H23-C4-C3-N2=167.77           
H23-C4-C3-H21= 48.53          H23-C4-C3-H22=290.47          H24-C4-C3-N2=288.31           H24-C4-C3-H21=169.07          
H24-C4-C3-H22= 51.01          C4-P5-Mn1-N2= 10.20           C4-P5-Mn1-P14=321.10          C4-P5-Mn1-C57=230.62          
C4-P5-Mn1-C59=135.71          C4-P5-Mn1-H71= 94.40          C6-P5-Mn1-N2=125.48           C6-P5-Mn1-P14= 76.38          
C6-P5-Mn1-C57=345.90          C6-P5-Mn1-C59=250.98          C6-P5-Mn1-H71=209.68          C9-P5-Mn1-N2=253.44           
C9-P5-Mn1-P14=204.34          C9-P5-Mn1-C57=113.86          C9-P5-Mn1-C59= 18.94          C9-P5-Mn1-H71=337.63          
Mn1-P5-C4-C3=327.49           Mn1-P5-C4-H23=204.90          Mn1-P5-C4-H24= 85.68          C6-P5-C4-C3=199.90            
C6-P5-C4-H23= 77.31           C6-P5-C4-H24=318.10           C9-P5-C4-C3= 95.93            C9-P5-C4-H23=333.34           
C9-P5-C4-H24=214.12           C7-C6-P5-Mn1=178.72           C7-C6-P5-C4=296.46            C7-C6-P5-C9= 42.07            
C8-C6-P5-Mn1=304.34           C8-C6-P5-C4= 62.08            C8-C6-P5-C9=167.69            H25-C6-P5-Mn1= 58.82          
H25-C6-P5-C4=176.56           H25-C6-P5-C9=282.18           H26-C7-C6-P5=172.12           H26-C7-C6-C8= 46.30           
H26-C7-C6-H25=288.64          H27-C7-C6-P5= 53.37           H27-C7-C6-C8=287.55           H27-C7-C6-H25=169.90          
H28-C7-C6-P5=290.92           H28-C7-C6-C8=165.10           H28-C7-C6-H25= 47.45          H29-C8-C6-P5=158.68           
H29-C8-C6-C7=287.86           H29-C8-C6-H25= 46.80          H30-C8-C6-P5=278.34           H30-C8-C6-C7= 47.53           
H30-C8-C6-H25=166.46          H31-C8-C6-P5= 39.70           H31-C8-C6-C7=168.89           H31-C8-C6-H25=287.82          
C10-C9-P5-Mn1= 56.96          C10-C9-P5-C4=298.27           C10-C9-P5-C6=193.46           C11-C9-P5-Mn1=295.11          
C11-C9-P5-C4=176.42           C11-C9-P5-C6= 71.61           H32-C9-P5-Mn1=176.23          H32-C9-P5-C4= 57.54           
H32-C9-P5-C6=312.73           H33-C10-C9-P5=191.32          H33-C10-C9-C11=311.42         H33-C10-C9-H32= 71.99         
H34-C10-C9-P5= 72.08          H34-C10-C9-C11=192.18         H34-C10-C9-H32=312.75         H35-C10-C9-P5=310.51          
H35-C10-C9-C11= 70.61         H35-C10-C9-H32=191.18         
           -------------------------------------------------
          |                Final Singlepoint                |
           -------------------------------------------------

          ...................................................
          :                      SETUP                      :
          :.................................................:
          :  # basis functions                 190          :
          :  # atomic orbitals                 187          :
          :  # shells                          111          :
          :  # electrons                       184          :
          :  max. iterations                   500          :
          :  Hamiltonian                  GFN2-xTB          :
          :  restarted?                      false          :
          :  GBSA solvation                   true          :
          :  PC potential                    false          :
          :  electronic temp.          300.0000000     K    :
          :  accuracy                    0.5000000          :
          :  -> integral cutoff          0.2801030E+02      :
          :  -> integral neglect         0.5000000E-08      :
          :  -> SCF convergence          0.5000000E-06 Eh   :
          :  -> wf. convergence          0.5000000E-04 e    :
          :  Broyden damping             0.4000000          :
          :  net charge                          0          :
          :  unpaired electrons                  0          :
          ...................................................

 iter      E             dE          RMSdq      gap      omega  full diag
   1   -100.3812242 -0.100381E+03  0.152E-04    0.29       0.0  T
   2   -100.3812242  0.107966E-08  0.194E-04    0.29      59.0  T
   3   -100.3812242 -0.710827E-09  0.143E-04    0.29      80.4  T

   *** convergence criteria satisfied after 3 iterations ***

         #    Occupation            Energy/Eh            Energy/eV
      -------------------------------------------------------------
         1        2.0000           -0.7100884             -19.3225
       ...           ...                  ...                  ...
        86        2.0000           -0.4025842             -10.9549
        87        2.0000           -0.3996692             -10.8756
        88        2.0000           -0.3758643             -10.2278
        89        2.0000           -0.3392817              -9.2323
        90        2.0000           -0.3155837              -8.5875
        91        1.9997           -0.3086347              -8.3984
        92        1.9927           -0.3056486              -8.3171 (HOMO)
        93        0.0076           -0.2950181              -8.0279 (LUMO)
        94                         -0.2401079              -6.5337
        95                         -0.2324097              -6.3242
        96                         -0.2038549              -5.5472
        97                         -0.1939660              -5.2781
       ...                                ...                  ...
       187                          2.8941434              78.7536
      -------------------------------------------------------------
                  HL-Gap            0.0106305 Eh            0.2893 eV
             Fermi-level           -0.3003131 Eh           -8.1719 eV

 SCC (total)                   0 d,  0 h,  0 min,  0.160 sec
 SCC setup                      ...        0 min,  0.005 sec (  2.963%)
 Dispersion                     ...        0 min,  0.002 sec (  1.350%)
 classical contributions        ...        0 min,  0.005 sec (  2.940%)
 integral evaluation            ...        0 min,  0.021 sec ( 13.005%)
 iterations                     ...        0 min,  0.057 sec ( 35.742%)
 molecular gradient             ...        0 min,  0.069 sec ( 43.545%)
 printout                       ...        0 min,  0.001 sec (  0.423%)

         :::::::::::::::::::::::::::::::::::::::::::::::::::::
         ::                     SUMMARY                     ::
         :::::::::::::::::::::::::::::::::::::::::::::::::::::
         :: total energy             -99.040733900672 Eh    ::
         :: total w/o Gsasa/hb       -99.001086191354 Eh    ::
         :: gradient norm              0.000460299382 Eh/a0 ::
         :: HOMO-LUMO gap              0.289269513605 eV    ::
         ::.................................................::
         :: SCC energy              -100.376712372384 Eh    ::
         :: -> isotropic ES            0.088946031934 Eh    ::
         :: -> anisotropic ES          0.015123444528 Eh    ::
         :: -> anisotropic XC          0.031640243274 Eh    ::
         :: -> dispersion             -0.093348323932 Eh    ::
         :: -> Gsolv                  -0.049887662650 Eh    ::
         ::    -> Gelec               -0.010239953332 Eh    ::
         ::    -> Gsasa               -0.041855852456 Eh    ::
         ::    -> Ghb                  0.000000000000 Eh    ::
         ::    -> Gshift               0.002208143139 Eh    ::
         :: repulsion energy           1.335978471712 Eh    ::
         :: add. restraining           0.000000000000 Eh    ::
         :: total charge               0.000000000000 e     ::
         :::::::::::::::::::::::::::::::::::::::::::::::::::::

           -------------------------------------------------
          |                Property Printout                |
           -------------------------------------------------

    * Orbital Energies and Occupations

         #    Occupation            Energy/Eh            Energy/eV
      -------------------------------------------------------------
         1        2.0000           -0.7100884             -19.3225
       ...           ...                  ...                  ...
        80        2.0000           -0.4225984             -11.4995
        81        2.0000           -0.4211467             -11.4600
        82        2.0000           -0.4147695             -11.2865
        83        2.0000           -0.4108118             -11.1788
        84        2.0000           -0.4082207             -11.1083
        85        2.0000           -0.4064849             -11.0610
        86        2.0000           -0.4025842             -10.9549
        87        2.0000           -0.3996692             -10.8756
        88        2.0000           -0.3758643             -10.2278
        89        2.0000           -0.3392817              -9.2323
        90        2.0000           -0.3155837              -8.5875
        91        1.9997           -0.3086347              -8.3984
        92        1.9927           -0.3056486              -8.3171 (HOMO)
        93        0.0076           -0.2950181              -8.0279 (LUMO)
        94                         -0.2401079              -6.5337
        95                         -0.2324097              -6.3242
        96                         -0.2038549              -5.5472
        97                         -0.1939660              -5.2781
        98                         -0.1891949              -5.1483
        99                         -0.1837378              -4.9998
       100                         -0.1749702              -4.7612
       101                         -0.1540655              -4.1923
       102                         -0.1485740              -4.0429
       103                         -0.1370477              -3.7293
       ...                                ...                  ...
       187                          2.8941434              78.7536
      -------------------------------------------------------------
                  HL-Gap            0.0106305 Eh            0.2893 eV
             Fermi-level           -0.3003131 Eh           -8.1719 eV

     #   Z          covCN         q      C6AA      α(0)
     1  25 Mn       4.575    -0.552    62.649    19.922
     2   7 N        3.185    -0.121    23.630     7.220
     3   6 C        3.831     0.026    20.117     6.382
     4   6 C        3.750    -0.048    21.493     6.612
     5  15 P        4.052    -0.002   160.287    22.742
     6   6 C        3.796    -0.005    20.671     6.474
     7   6 C        3.782    -0.105    22.523     6.760
     8   6 C        3.823    -0.102    22.424     6.739
     9   6 C        3.798    -0.001    20.605     6.463
    10   6 C        3.810    -0.091    22.227     6.711
    11   6 C        3.855    -0.098    22.330     6.721
    12   6 C        3.829     0.027    20.104     6.380
    13   6 C        3.751    -0.048    21.501     6.613
    14  15 P        4.092    -0.018   161.007    22.793
    15   6 C        3.798    -0.001    20.596     6.462
    16   6 C        3.861    -0.102    22.403     6.731
    17   6 C        3.817    -0.086    22.133     6.696
    18   6 C        3.797    -0.003    20.645     6.470
    19   6 C        3.781    -0.105    22.525     6.761
    20   6 C        3.837    -0.101    22.393     6.732
    21   1 H        0.924     0.048     2.345     2.395
    22   1 H        0.923     0.024     2.673     2.557
    23   1 H        0.925     0.051     2.306     2.375
    24   1 H        0.926     0.067     2.113     2.273
    25   1 H        0.926     0.058     2.221     2.331
    26   1 H        0.925     0.048     2.346     2.395
    27   1 H        0.925     0.044     2.399     2.422
    28   1 H        0.925     0.041     2.429     2.437
    29   1 H        0.925     0.044     2.402     2.424
    30   1 H        0.925     0.042     2.421     2.433
    31   1 H        0.925     0.061     2.182     2.310
    32   1 H        0.925     0.052     2.297     2.370
    33   1 H        0.925     0.033     2.550     2.497
    34   1 H        0.925     0.031     2.573     2.508
    35   1 H        0.925     0.056     2.243     2.342
    36   1 H        0.924     0.055     2.260     2.351
    37   1 H        0.925     0.038     2.471     2.458
    38   1 H        0.925     0.042     2.418     2.432
    39   1 H        0.923     0.017     2.777     2.606
    40   1 H        0.924     0.057     2.234     2.338
    41   1 H        0.925     0.049     2.332     2.388
    42   1 H        0.925     0.061     2.188     2.313
    43   1 H        0.925     0.055     2.264     2.353
    44   1 H        0.925     0.047     2.357     2.401
    45   1 H        0.925     0.042     2.419     2.432
    46   1 H        0.924     0.060     2.199     2.319
    47   1 H        0.925     0.035     2.514     2.479
    48   1 H        0.925     0.029     2.608     2.525
    49   1 H        0.925     0.044     2.398     2.421
    50   1 H        0.926     0.064     2.151     2.293
    51   1 H        0.925     0.042     2.420     2.433
    52   1 H        0.925     0.043     2.407     2.426
    53   1 H        0.925     0.049     2.331     2.388
    54   1 H        0.924     0.062     2.175     2.306
    55   1 H        0.925     0.043     2.404     2.424
    56   1 H        0.925     0.044     2.398     2.422
    57   6 C        1.765     0.197    26.557     8.332
    58   8 O        0.856    -0.274    19.324     5.894
    59   6 C        2.557     0.195    23.890     7.989
    60   8 O        0.856    -0.378    21.247     6.180
    61   8 O        0.856    -0.412    21.912     6.276
    62   6 C        2.768     0.193    23.877     8.003
    63   6 C        2.968    -0.013    28.324     8.730
    64   6 C        2.923    -0.020    28.499     8.755
    65   6 C        2.915    -0.029    28.721     8.788
    66   6 C        2.920    -0.024    28.592     8.769
    67   6 C        2.916    -0.025    28.615     8.772
    68   6 C        2.923    -0.027    28.673     8.781
    69   1 H        0.859     0.198     1.118     1.657
    70   1 H        0.922    -0.005     3.155     2.778
    71   1 H        1.515     0.086     1.905     2.155
    72   1 H        0.926     0.038     2.479     2.462
    73   1 H        0.926     0.038     2.471     2.458
    74   1 H        0.926     0.041     2.429     2.437
    75   1 H        0.926     0.040     2.446     2.446
    76   1 H        0.926     0.035     2.518     2.481

 Mol. C6AA /au·bohr⁶  :      56946.125259
 Mol. C8AA /au·bohr⁸  :    1498700.613524
 Mol. α(0) /au        :        379.105840


Wiberg/Mayer (AO) data.
largest (>0.10) Wiberg bond orders for each atom

 ---------------------------------------------------------------------------
     #   Z sym  total        # sym  WBO       # sym  WBO       # sym  WBO
 ---------------------------------------------------------------------------
     1  25 Mn   6.703 --    57 C    1.555    59 C    1.321    14 P    0.897
                             5 P    0.855    60 O    0.397     2 N    0.373
                            58 O    0.369    71 H    0.323
     2   7 N    3.417 --    12 C    0.998     3 C    0.991    69 H    0.892
                             1 Mn   0.373
     3   6 C    3.983 --     4 C    0.993     2 N    0.991    21 H    0.967
                            22 H    0.965
     4   6 C    3.995 --     5 P    0.999     3 C    0.993    23 H    0.944
                            24 H    0.939
     5  15 P    4.332 --     4 C    0.999     6 C    0.985     9 C    0.971
                             1 Mn   0.855
     6   6 C    3.989 --     7 C    0.997     8 C    0.996     5 P    0.985
                            25 H    0.930
     7   6 C    3.995 --     6 C    0.997    27 H    0.981    28 H    0.981
                            26 H    0.980
     8   6 C    3.992 --     6 C    0.996    29 H    0.983    30 H    0.981
                            31 H    0.950
     9   6 C    3.993 --    10 C    1.000    11 C    0.998     5 P    0.971
                            32 H    0.934
    10   6 C    3.994 --     9 C    1.000    33 H    0.981    34 H    0.980
                            35 H    0.967
    11   6 C    3.995 --     9 C    0.998    37 H    0.982    38 H    0.976
                            36 H    0.964
    12   6 C    3.982 --     2 N    0.998    13 C    0.996    39 H    0.963
                            40 H    0.963
    13   6 C    3.995 --    12 C    0.996    14 P    0.991    41 H    0.942
                            42 H    0.940
    14  15 P    4.391 --    13 C    0.991    18 C    0.981    15 C    0.973
                             1 Mn   0.897
    15   6 C    3.993 --    17 C    1.000    16 C    0.996    14 P    0.973
                            43 H    0.935
    16   6 C    3.993 --    15 C    0.996    45 H    0.981    44 H    0.975
                            46 H    0.962
    17   6 C    3.996 --    15 C    1.000    47 H    0.981    48 H    0.975
                            49 H    0.969
    18   6 C    3.989 --    19 C    0.998    20 C    0.994    14 P    0.981
                            50 H    0.928
    19   6 C    3.995 --    18 C    0.998    52 H    0.980    53 H    0.979
                            51 H    0.978
    20   6 C    3.992 --    18 C    0.994    56 H    0.983    55 H    0.981
                            54 H    0.947
    21   1 H    0.997 --     3 C    0.967
    22   1 H    0.999 --     3 C    0.965
    23   1 H    0.997 --     4 C    0.944
    24   1 H    0.995 --     4 C    0.939
    25   1 H    0.996 --     6 C    0.930
    26   1 H    0.996 --     7 C    0.980
    27   1 H    0.998 --     7 C    0.981
    28   1 H    0.998 --     7 C    0.981
    29   1 H    0.998 --     8 C    0.983
    30   1 H    0.998 --     8 C    0.981
    31   1 H    0.996 --     8 C    0.950
    32   1 H    0.996 --     9 C    0.934
    33   1 H    0.998 --    10 C    0.981
    34   1 H    0.999 --    10 C    0.980
    35   1 H    0.997 --    10 C    0.967
    36   1 H    0.997 --    11 C    0.964
    37   1 H    0.998 --    11 C    0.982
    38   1 H    0.998 --    11 C    0.976
    39   1 H    0.999 --    12 C    0.963
    40   1 H    0.996 --    12 C    0.963
    41   1 H    0.997 --    13 C    0.942
    42   1 H    0.996 --    13 C    0.940
    43   1 H    0.996 --    15 C    0.935
    44   1 H    0.998 --    16 C    0.975
    45   1 H    0.998 --    16 C    0.981
    46   1 H    0.996 --    16 C    0.962
    47   1 H    0.998 --    17 C    0.981
    48   1 H    0.999 --    17 C    0.975
    49   1 H    0.998 --    17 C    0.969
    50   1 H    0.996 --    18 C    0.928
    51   1 H    0.998 --    19 C    0.978
    52   1 H    0.998 --    19 C    0.980
    53   1 H    0.996 --    19 C    0.979
    54   1 H    0.996 --    20 C    0.947
    55   1 H    0.998 --    20 C    0.981
    56   1 H    0.998 --    20 C    0.983
    57   6 C    3.711 --    58 O    1.937     1 Mn   1.555
    58   8 O    2.365 --    57 C    1.937     1 Mn   0.369
    59   6 C    3.821 --    60 O    1.751     1 Mn   1.321    71 H    0.604
    60   8 O    2.240 --    59 C    1.751     1 Mn   0.397
    61   8 O    2.031 --    62 C    1.713
    62   6 C    3.921 --    61 O    1.713    63 C    1.106    70 H    0.938
    63   6 C    3.974 --    68 C    1.346    64 C    1.343    62 C    1.106
    64   6 C    3.958 --    65 C    1.471    63 C    1.343    72 H    0.966
    65   6 C    3.991 --    64 C    1.471    66 C    1.419    73 H    0.970
    66   6 C    3.947 --    67 C    1.420    65 C    1.419    74 H    0.971
    67   6 C    3.990 --    68 C    1.472    66 C    1.420    75 H    0.970
    68   6 C    3.958 --    67 C    1.472    63 C    1.346    76 H    0.968
    69   1 H    0.961 --     2 N    0.892
    70   1 H    0.999 --    62 C    0.938
    71   1 H    0.989 --    59 C    0.604     1 Mn   0.323
    72   1 H    0.999 --    64 C    0.966
    73   1 H    0.998 --    65 C    0.970
    74   1 H    0.998 --    66 C    0.971
    75   1 H    0.998 --    67 C    0.970
    76   1 H    0.999 --    68 C    0.968
 ---------------------------------------------------------------------------

Topologies differ in total number of bonds
Writing topology from bond orders to xtbtopo.mol

molecular dipole:
                 x           y           z       tot (Debye)
 q only:       -1.135      -3.467      -0.231
   full:       -0.787      -4.383       1.223      11.738
molecular quadrupole (traceless):
                xx          xy          yy          xz          yz          zz
 q only:       15.603      -4.014     -16.753     -19.007      -3.017       1.150
  q+dip:       12.588      -2.203     -19.512     -18.325      -1.709       6.924
   full:       13.810      -4.317     -19.875     -17.098      -3.116       6.065

           -------------------------------------------------
          |                Geometry Summary                 |
           -------------------------------------------------

      molecular mass/u    :      523.5082764
   center of mass at/Å    :        0.1714308      -0.2527390       1.0447929
  moments of inertia/u·Å² :        0.3122847E+04   0.5353313E+04   0.6507172E+04
rotational constants/cm⁻¹ :        0.5398161E-02   0.3149009E-02   0.2590623E-02

 * 73 selected distances

     #   Z          #   Z                                           value/Å
     2   7 N        3   6 C                                       1.4688098
     3   6 C        4   6 C                                       1.5287575
     1  25 Mn       5  15 P                                       2.2859032 (max)
     4   6 C        5  15 P                                       1.8600683
     5  15 P        6   6 C                                       1.8779796
     6   6 C        7   6 C                                       1.5285202
     6   6 C        8   6 C                                       1.5290638
     5  15 P        9   6 C                                       1.8720795
     9   6 C       10   6 C                                       1.5261426
     9   6 C       11   6 C                                       1.5272804
     2   7 N       12   6 C                                       1.4615016
    12   6 C       13   6 C                                       1.5280965
     1  25 Mn      14  15 P                                       2.2739740
    13   6 C       14  15 P                                       1.8664183
    14  15 P       15   6 C                                       1.8699817
    15   6 C       16   6 C                                       1.5280171
    15   6 C       17   6 C                                       1.5259130
    14  15 P       18   6 C                                       1.8778267
    18   6 C       19   6 C                                       1.5277050
    18   6 C       20   6 C                                       1.5286843
     3   6 C       21   1 H                                       1.0936427
     3   6 C       22   1 H                                       1.0998154
     4   6 C       23   1 H                                       1.0928853
     4   6 C       24   1 H                                       1.0930160
     6   6 C       25   1 H                                       1.0986181
     7   6 C       26   1 H                                       1.0893648
     7   6 C       27   1 H                                       1.0885334
     7   6 C       28   1 H                                       1.0867604
     8   6 C       29   1 H                                       1.0882237
     8   6 C       30   1 H                                       1.0884306
     8   6 C       31   1 H                                       1.0896182
     9   6 C       32   1 H                                       1.0958445
    10   6 C       33   1 H                                       1.0898035
    10   6 C       34   1 H                                       1.0888903
    10   6 C       35   1 H                                       1.0893401
    11   6 C       36   1 H                                       1.0918322
    11   6 C       37   1 H                                       1.0893538
    11   6 C       38   1 H                                       1.0882307
    12   6 C       39   1 H                                       1.1039683
    12   6 C       40   1 H                                       1.0945820
    13   6 C       41   1 H                                       1.0939400
    13   6 C       42   1 H                                       1.0911506
    15   6 C       43   1 H                                       1.0962900
    16   6 C       44   1 H                                       1.0871949
    16   6 C       45   1 H                                       1.0891291
    16   6 C       46   1 H                                       1.0927624
    17   6 C       47   1 H                                       1.0893641
    17   6 C       48   1 H                                       1.0886964
    17   6 C       49   1 H                                       1.0900655
    18   6 C       50   1 H                                       1.0978107
    19   6 C       51   1 H                                       1.0886818
    19   6 C       52   1 H                                       1.0864523
    19   6 C       53   1 H                                       1.0893500
    20   6 C       54   1 H                                       1.0910474
    20   6 C       55   1 H                                       1.0885681
    20   6 C       56   1 H                                       1.0882764
     1  25 Mn      57   6 C                                       1.7561774
    57   6 C       58   8 O                                       1.1710297
     1  25 Mn      59   6 C                                       1.7652891
    59   6 C       60   8 O                                       1.1936882
    61   8 O       62   6 C                                       1.2264482
    63   6 C       64   6 C                                       1.4017801
    64   6 C       65   6 C                                       1.3789699
    65   6 C       66   6 C                                       1.3883603
    66   6 C       67   6 C                                       1.3886049
    63   6 C       68   6 C                                       1.3996678
    67   6 C       68   6 C                                       1.3797553
     2   7 N       69   1 H                                       1.0256112 (min)
    64   6 C       72   1 H                                       1.0811085
    65   6 C       73   1 H                                       1.0807164
    66   6 C       74   1 H                                       1.0797740
    67   6 C       75   1 H                                       1.0801916
    68   6 C       76   1 H                                       1.0809133

 * 8 distinct bonds (by element types)

   Z      Z             #   av. dist./Å        max./Å        min./Å
   1 H    6 C          41     1.0900546     1.1039683     1.0797740
   6 C    6 C          16     1.4759574     1.5290638     1.3789699
   1 H    7 N           1     1.0256112     1.0256112     1.0256112
   6 C    7 N           2     1.4651557     1.4688098     1.4615016
   6 C    8 O           3     1.1970554     1.2264482     1.1710297
   6 C   15 P           6     1.8707257     1.8779796     1.8600683
   6 C   25 Mn          2     1.7607333     1.7652891     1.7561774
  15 P   25 Mn          2     2.2799386     2.2859032     2.2739740


optimized geometry written to: xtbopt.xyz


           -------------------------------------------------
          | TOTAL ENERGY              -99.040733900672 Eh   |
          | GRADIENT NORM               0.000460299382 Eh/α |
          | HOMO-LUMO GAP               0.289269513605 eV   |
           -------------------------------------------------

------------------------------------------------------------------------
 * finished run on 2026/09/13 at 01:38:33.380     
------------------------------------------------------------------------
 total:
 * wall-time:     0 d,  0 h,  0 min, 50.087 sec
 *  cpu-time:     0 d,  0 h,  0 min, 10.547 sec
 * ratio c/w:     0.211 speedup
 SCF:
 * wall-time:     0 d,  0 h,  0 min,  0.385 sec
 *  cpu-time:     0 d,  0 h,  0 min,  0.062 sec
 * ratio c/w:     0.162 speedup
 ANC optimizer:
 * wall-time:     0 d,  0 h,  0 min, 49.597 sec
 *  cpu-time:     0 d,  0 h,  0 min, 10.469 sec
 * ratio c/w:     0.211 speedup


normal termination of xtb
Note: The following floating-point exceptions are signalling: IEEE_DIVIDE_BY_ZERO IEEE_UNDERFLOW_FLAG IEEE_DENORMAL
