64
Properties=species:S:1:pos:R:3:forces:R:3 energy:=T -93.100509323819=T gnorm:=T 0.000434324013=T xtb:=T 6.7.1=T (edcfbbe)=T energy=-2533.3938982737086 pbc="F F F"
Co       0.20120354      -2.22830126      -1.91365194       0.00058840       0.00086849       0.00009566
N        0.01201266      -3.55033164      -0.27622030       0.00144667       0.00122026      -0.00372573
C        0.79461554      -3.18152646       0.90742480      -0.00093412      -0.00033767       0.00088430
C        2.18547212      -2.74296258       0.47316091       0.00005507       0.00006153      -0.00020574
P        1.90908887      -1.40246331      -0.77990083      -0.00120709      -0.00096244       0.00091515
C        3.61009468      -1.25427200      -1.43051779      -0.00057395      -0.00150608      -0.00527066
C        3.88605686      -1.85665790      -2.65219286      -0.00057842      -0.00063852      -0.00134498
C        5.16818707      -1.82571368      -3.17124206      -0.00457598      -0.00104248      -0.00188026
C        6.18030019      -1.18871700      -2.47166905       0.00248452       0.00363779       0.00812006
C        5.90841677      -0.58335720      -1.25430447      -0.00078599      -0.00235109      -0.00767029
C        4.62819143      -0.61450618      -0.73141940       0.00190082      -0.00093095      -0.00182599
C        1.80510671       0.14050207       0.19054802      -0.00119280      -0.00076958       0.00188057
C        1.88929388       0.26179531       1.57226938       0.00061610       0.00173975      -0.00168265
C        1.77586242       1.50737652       2.16676304       0.00018991      -0.00093577      -0.00033623
C        1.56626906       2.63675341       1.39497029       0.00081657      -0.00062747       0.00201715
C        1.45767223       2.52061930       0.01775143       0.00008983       0.00174191      -0.00500270
C        1.57063800       1.28047217      -0.57720934      -0.00096803       0.00139011      -0.00083568
C       -1.40277900      -3.78505631       0.02995006      -0.00207964       0.00023130       0.00095402
C       -2.13295319      -2.47664996       0.33923586       0.00023486      -0.00113487       0.00040238
P       -1.59512123      -1.17509562      -0.89100099      -0.00014736       0.00043849       0.00098666
C       -3.15103553      -1.02647389      -1.84862707       0.00022152       0.00032267       0.00135605
C       -3.14317577      -1.30560374      -3.20826764      -0.00002373      -0.00055122      -0.00090643
C       -4.31166666      -1.22185927      -3.94691785      -0.00062348      -0.00054559      -0.00108250
C       -5.49533915      -0.85436809      -3.33007298      -0.00058532      -0.00115503      -0.00215453
C       -5.50859569      -0.56767794      -1.97305382       0.00035276      -0.00007637       0.00205666
C       -4.34395533      -0.65186111      -1.23404411      -0.00036475       0.00067709       0.00099378
C       -1.73814042       0.38333243       0.05882657      -0.00089286       0.00184389      -0.00264340
C       -1.48185986       0.51875586       1.41848684       0.00008141       0.00194204       0.00279886
C       -1.53766405       1.76147749       2.02456936       0.00096563      -0.00164285      -0.00146072
C       -1.82064780       2.89199665       1.27893635      -0.00166646      -0.00034919      -0.00224377
C       -2.03189193       2.77574119      -0.08632333       0.00041717       0.00067953       0.00206014
C       -1.98298625       1.53566186      -0.68997074       0.00076787      -0.00311887       0.00007594
H        0.40397480      -4.42323076      -0.63169565      -0.00056846      -0.00081758       0.00050134
H        0.30250811      -2.33434484       1.39469827      -0.00008612       0.00037996      -0.00004670
H        0.84066400      -4.01773351       1.62208168      -0.00024327       0.00034090      -0.00012888
H        2.70134370      -3.55867520      -0.04514659       0.00014642      -0.00015645       0.00003203
H        2.80663862      -2.42399315       1.31219325       0.00018011      -0.00015240       0.00098011
H        3.07600843      -2.33704159      -3.18876518       0.00144002       0.00100808       0.00253568
H        5.37816987      -2.29355148      -4.12258754      -0.00045529       0.00015198       0.00094212
H        7.18194793      -1.15949137      -2.87620431      -0.00070571       0.00023658       0.00055893
H        6.69858074      -0.08406980      -0.71151167       0.00225610       0.00127103       0.00138704
H        4.41721971      -0.13583336       0.21519714       0.00095420       0.00132166       0.00329484
H        2.05028120      -0.60444437       2.19878234       0.00062926      -0.00065653       0.00048423
H        1.85201676       1.59486467       3.24175214       0.00114671      -0.00012753       0.00266001
H        1.48006824       3.60515465       1.86579517       0.00037646       0.00117458       0.00066829
H        1.28090376       3.39789819      -0.58791060       0.00070697      -0.00244151       0.00348353
H        1.47428280       1.17041382      -1.65068469       0.00052702      -0.00020207       0.00069005
H       -1.86120950      -4.24598716      -0.84940334       0.00018690       0.00068311      -0.00055324
H       -1.50678818      -4.47896095       0.87910909      -0.00010266      -0.00043215      -0.00085837
H       -3.21134647      -2.63154605       0.26512459       0.00047017       0.00019898       0.00007954
H       -1.91001478      -2.14407685       1.35346851      -0.00028834      -0.00001887      -0.00027393
H       -2.20917859      -1.58585723      -3.67748591       0.00078047      -0.00002113      -0.00092656
H       -4.29693274      -1.44225771      -5.00487428       0.00032420       0.00044613      -0.00019056
H       -6.40823958      -0.78753778      -3.90452556       0.00032653      -0.00000094       0.00008690
H       -6.43149146      -0.27556179      -1.49186524      -0.00074451      -0.00045204       0.00045142
H       -4.35542329      -0.41678687      -0.17751984      -0.00034031      -0.00093623      -0.00016013
H       -1.23947404      -0.34097311       2.02787730      -0.00023939      -0.00008650      -0.00091864
H       -1.35514599       1.84600977       3.08672686      -0.00026740       0.00094422      -0.00052965
H       -1.86656902       3.86002087       1.75626963       0.00014560       0.00027147       0.00009509
H       -2.23529001       3.65610765      -0.67957325      -0.00002033      -0.00050236      -0.00050288
H       -2.14154652       1.44335442      -1.75706130      -0.00011557      -0.00020943       0.00032024
C       -0.23439028      -3.41711470      -3.08921967       0.00103842       0.00462124       0.00285711
O       -0.50927562      -4.18406186      -3.92013281      -0.00123428      -0.00304843      -0.00323609
H        0.42936596      -1.36172141      -3.05404078      -0.00025304      -0.00090658       0.00089203
