64
Properties=species:S:1:pos:R:3 energy:=T -93.100509323819=T gnorm:=T 0.000434324013=T xtb:=T 6.7.1=T (edcfbbe)=T pbc="F F F"
Co       0.20120354      -2.22830126      -1.91365194
N        0.01201266      -3.55033164      -0.27622030
C        0.79461554      -3.18152646       0.90742480
C        2.18547212      -2.74296258       0.47316091
P        1.90908887      -1.40246331      -0.77990083
C        3.61009468      -1.25427200      -1.43051779
C        3.88605686      -1.85665790      -2.65219286
C        5.16818707      -1.82571368      -3.17124206
C        6.18030019      -1.18871700      -2.47166905
C        5.90841677      -0.58335720      -1.25430447
C        4.62819143      -0.61450618      -0.73141940
C        1.80510671       0.14050207       0.19054802
C        1.88929388       0.26179531       1.57226938
C        1.77586242       1.50737652       2.16676304
C        1.56626906       2.63675341       1.39497029
C        1.45767223       2.52061930       0.01775143
C        1.57063800       1.28047217      -0.57720934
C       -1.40277900      -3.78505631       0.02995006
C       -2.13295319      -2.47664996       0.33923586
P       -1.59512123      -1.17509562      -0.89100099
C       -3.15103553      -1.02647389      -1.84862707
C       -3.14317577      -1.30560374      -3.20826764
C       -4.31166666      -1.22185927      -3.94691785
C       -5.49533915      -0.85436809      -3.33007298
C       -5.50859569      -0.56767794      -1.97305382
C       -4.34395533      -0.65186111      -1.23404411
C       -1.73814042       0.38333243       0.05882657
C       -1.48185986       0.51875586       1.41848684
C       -1.53766405       1.76147749       2.02456936
C       -1.82064780       2.89199665       1.27893635
C       -2.03189193       2.77574119      -0.08632333
C       -1.98298625       1.53566186      -0.68997074
H        0.40397480      -4.42323076      -0.63169565
H        0.30250811      -2.33434484       1.39469827
H        0.84066400      -4.01773351       1.62208168
H        2.70134370      -3.55867520      -0.04514659
H        2.80663862      -2.42399315       1.31219325
H        3.07600843      -2.33704159      -3.18876518
H        5.37816987      -2.29355148      -4.12258754
H        7.18194793      -1.15949137      -2.87620431
H        6.69858074      -0.08406980      -0.71151167
H        4.41721971      -0.13583336       0.21519714
H        2.05028120      -0.60444437       2.19878234
H        1.85201676       1.59486467       3.24175214
H        1.48006824       3.60515465       1.86579517
H        1.28090376       3.39789819      -0.58791060
H        1.47428280       1.17041382      -1.65068469
H       -1.86120950      -4.24598716      -0.84940334
H       -1.50678818      -4.47896095       0.87910909
H       -3.21134647      -2.63154605       0.26512459
H       -1.91001478      -2.14407685       1.35346851
H       -2.20917859      -1.58585723      -3.67748591
H       -4.29693274      -1.44225771      -5.00487428
H       -6.40823958      -0.78753778      -3.90452556
H       -6.43149146      -0.27556179      -1.49186524
H       -4.35542329      -0.41678687      -0.17751984
H       -1.23947404      -0.34097311       2.02787730
H       -1.35514599       1.84600977       3.08672686
H       -1.86656902       3.86002087       1.75626963
H       -2.23529001       3.65610765      -0.67957325
H       -2.14154652       1.44335442      -1.75706130
C       -0.23439028      -3.41711470      -3.08921967
O       -0.50927562      -4.18406186      -3.92013281
H        0.42936596      -1.36172141      -3.05404078
