      -----------------------------------------------------------      
     |                   =====================                   |     
     |                           x T B                           |     
     |                   =====================                   |     
     |                         S. Grimme                         |     
     |          Mulliken Center for Theoretical Chemistry        |     
     |                    University of Bonn                     |     
      -----------------------------------------------------------      

   * xtb version 6.7.1 (edcfbbe) compiled by 'VssAdministrator@runnervm171ch' on 2026-06-10

   xtb is free software: you can redistribute it and/or modify it under
   the terms of the GNU Lesser General Public License as published by
   the Free Software Foundation, either version 3 of the License, or
   (at your option) any later version.
   
   xtb is distributed in the hope that it will be useful,
   but WITHOUT ANY WARRANTY; without even the implied warranty of
   MERCHANTABILITY or FITNESS FOR A PARTICULAR PURPOSE.  See the
   GNU Lesser General Public License for more details.
   
   Cite this work as:
   * C. Bannwarth, E. Caldeweyher, S. Ehlert, A. Hansen, P. Pracht,
     J. Seibert, S. Spicher, S. Grimme, WIREs Comput. Mol. Sci., 2020, 11,
     e01493. DOI: 10.1002/wcms.1493
   
   for GFN2-xTB:
   * C. Bannwarth, S. Ehlert and S. Grimme., J. Chem. Theory Comput., 2019,
     15, 1652-1671. DOI: 10.1021/acs.jctc.8b01176
   for GFN1-xTB:
   * S. Grimme, C. Bannwarth, P. Shushkov, J. Chem. Theory Comput., 2017,
     13, 1989-2009. DOI: 10.1021/acs.jctc.7b00118
   for GFN0-xTB:
   * P. Pracht, E. Caldeweyher, S. Ehlert, S. Grimme, ChemRxiv, 2019, preprint.
     DOI: 10.26434/chemrxiv.8326202.v1
   for GFN-FF:
   * S. Spicher and S. Grimme, Angew. Chem. Int. Ed., 2020, 59, 15665-15673.
     DOI: 10.1002/anie.202004239
   
   for ALPB and GBSA implicit solvation:
   * S. Ehlert, M. Stahn, S. Spicher, S. Grimme, J. Chem. Theory Comput.,
     2021, 17, 4250-4261. DOI: 10.1021/acs.jctc.1c00471
   
   for ddCOSMO and CPCM-X implicit solvation:
   * M. Stahn, S. Ehlert, S. Grimme, J. Phys. Chem. A,
     2023, XX, XXXX-XXXX. DOI: 10.1021/acs.jpca.3c04382
   
   for DFT-D4:
   * E. Caldeweyher, C. Bannwarth and S. Grimme, J. Chem. Phys., 2017,
     147, 034112. DOI: 10.1063/1.4993215
   * E. Caldeweyher, S. Ehlert, A. Hansen, H. Neugebauer, S. Spicher,
     C. Bannwarth and S. Grimme, J. Chem. Phys., 2019, 150, 154122.
     DOI: 10.1063/1.5090222
   * E. Caldeweyher, J.-M. Mewes, S. Ehlert and S. Grimme, Phys. Chem. Chem. Phys.
     2020, 22, 8499-8512. DOI: 10.1039/D0CP00502A
   
   for sTDA-xTB:
   * S. Grimme and C. Bannwarth, J. Chem. Phys., 2016, 145, 054103.
     DOI: 10.1063/1.4959605
   
   in the mass-spec context:
   * V. Asgeirsson, C. Bauer and S. Grimme, Chem. Sci., 2017, 8, 4879.
     DOI: 10.1039/c7sc00601b
   * J. Koopman and S. Grimme, ACS Omega 2019, 4, 12, 15120-15133.
     DOI: 10.1021/acsomega.9b02011
   
   for metadynamics refer to:
   * S. Grimme, J. Chem. Theory Comput., 2019, 155, 2847-2862
     DOI: 10.1021/acs.jctc.9b00143
   
   for SPH calculations refer to:
   * S. Spicher and S. Grimme, J. Chem. Theory Comput., 2021, 17, 1701-1714
     DOI: 10.1021/acs.jctc.0c01306
   
   for ONIOM refer to:
   * C. Plett, A. Katbashev, S. Ehlert, S. Grimme, M. Bursch,
     Phys. Chem. Chem. Phys., 2023, 25, 17860-17868. DOI: 10.1039/D3CP02178E
   
   for DIPRO refer to:
   * J. Kohn, N. Gildemeister, S. Grimme, D. Fazzi, A. Hansen,
     J. Chem. Phys., 2023, just accepted.
   
   for PTB refer to:
   * S. Grimme, M. Mueller, A. Hansen, J. Chem. Phys., 2023, 158, 124111.
     DOI: 10.1063/5.0137838
   
   with help from (in alphabetical order)
   P. Atkinson, C. Bannwarth, F. Bohle, G. Brandenburg, E. Caldeweyher
   M. Checinski, S. Dohm, S. Ehlert, S. Ehrlich, I. Gerasimov, C. Hölzer
   A. Katbashev, J. Kohn, J. Koopman, C. Lavigne, S. Lehtola, F. März, M. Müller,
   F. Musil, H. Neugebauer, J. Pisarek, C. Plett, P. Pracht, F. Pultar,
   J. Seibert, P. Shushkov, S. Spicher, M. Stahn, M. Steiner, T. Strunk,
   J. Stückrath, T. Rose, and J. Unsleber
   
 * started run on 2026/09/20 at 00:12:14.626     
   ID    Z sym.   atoms
    1    6 C      1, 3, 5-11
    2    7 N      2, 4
    3    8 O      12
    4    1 H      13-20

           -------------------------------------------------
          |                Calculation Setup                |
           -------------------------------------------------

          program call               : C:\Users\HUIWEI\miniconda3\envs\phase2ff\Library\bin\xtb.exe input.xyz --gfn 2 --chrg 0 --uhf 0 --acc 0.1 --iterations 250 --hess
          coordinate file            : input.xyz
          omp threads                :                     2


           -------------------------------------------------
          |                 G F N 2 - x T B                 |
           -------------------------------------------------

        Reference                      10.1021/acs.jctc.8b01176
      * Hamiltonian:
        H0-scaling (s, p, d)           1.850000    2.230000    2.230000
        zeta-weighting                 0.500000
      * Dispersion:
        s8                             2.700000
        a1                             0.520000
        a2                             5.000000
        s9                             5.000000
      * Repulsion:
        kExp                           1.500000    1.000000
        rExp                           1.000000
      * Coulomb:
        alpha                          2.000000
        third order                    shell-resolved
        anisotropic                    true
        a3                             3.000000
        a5                             4.000000
        cn-shift                       1.200000
        cn-exp                         4.000000
        max-rad                        5.000000


          ...................................................
          :                      SETUP                      :
          :.................................................:
          :  # basis functions                  56          :
          :  # atomic orbitals                  56          :
          :  # shells                           32          :
          :  # electrons                        60          :
          :  max. iterations                   250          :
          :  Hamiltonian                  GFN2-xTB          :
          :  restarted?                      false          :
          :  GBSA solvation                  false          :
          :  PC potential                    false          :
          :  electronic temp.          300.0000000     K    :
          :  accuracy                    0.1000000          :
          :  -> integral cutoff          0.3500000E+02      :
          :  -> integral neglect         0.1000000E-08      :
          :  -> SCF convergence          0.1000000E-06 Eh   :
          :  -> wf. convergence          0.1000000E-04 e    :
          :  Broyden damping             0.4000000          :
          :  net charge                          0          :
          :  unpaired electrons                  0          :
          ...................................................

 iter      E             dE          RMSdq      gap      omega  full diag
   1    -33.7236737 -0.337237E+02  0.482E+00    3.17       0.0  T
   2    -33.7907146 -0.670408E-01  0.291E+00    3.50       1.0  T
   3    -33.7917335 -0.101891E-02  0.143E+00    3.50       1.0  T
   4    -33.7961588 -0.442529E-02  0.356E-01    3.28       1.0  T
   5    -33.7981812 -0.202242E-02  0.101E-01    3.36       1.0  T
   6    -33.7982440 -0.628387E-04  0.463E-02    3.35       1.0  T
   7    -33.7982602 -0.162418E-04  0.198E-02    3.36       1.1  T
   8    -33.7982606 -0.399301E-06  0.775E-03    3.35       2.9  T
   9    -33.7982612 -0.545143E-06  0.329E-03    3.35       6.8  T
  10    -33.7982613 -0.932320E-07  0.107E-03    3.35      20.8  T
  11    -33.7982613 -0.275133E-08  0.647E-04    3.35      34.6  T
  12    -33.7982613 -0.243471E-08  0.212E-04    3.35     105.4  T
  13    -33.7982613 -0.244547E-09  0.572E-05    3.35     391.0  T
  14    -33.7982613 -0.177636E-11  0.293E-05    3.35     761.9  T

   *** convergence criteria satisfied after 14 iterations ***

         #    Occupation            Energy/Eh            Energy/eV
      -------------------------------------------------------------
         1        2.0000           -0.7085043             -19.2794
       ...           ...                  ...                  ...
        24        2.0000           -0.4486465             -12.2083
        25        2.0000           -0.4438604             -12.0781
        26        2.0000           -0.4380771             -11.9207
        27        2.0000           -0.4180698             -11.3763
        28        2.0000           -0.4025470             -10.9539
        29        2.0000           -0.3946235             -10.7383
        30        2.0000           -0.3897776             -10.6064 (HOMO)
        31                         -0.2665210              -7.2524 (LUMO)
        32                         -0.2625558              -7.1445
        33                         -0.2054289              -5.5900
        34                         -0.1744658              -4.7475
        35                         -0.0771074              -2.0982
       ...                                ...                  ...
        56                          0.6897731              18.7697
      -------------------------------------------------------------
                  HL-Gap            0.1232566 Eh            3.3540 eV
             Fermi-level           -0.3281493 Eh           -8.9294 eV

 SCC (total)                   0 d,  0 h,  0 min,  0.021 sec
 SCC setup                      ...        0 min,  0.000 sec (  0.951%)
 Dispersion                     ...        0 min,  0.000 sec (  0.688%)
 classical contributions        ...        0 min,  0.000 sec (  0.190%)
 integral evaluation            ...        0 min,  0.001 sec (  5.657%)
 iterations                     ...        0 min,  0.017 sec ( 79.311%)
 molecular gradient             ...        0 min,  0.003 sec ( 12.524%)
 printout                       ...        0 min,  0.000 sec (  0.641%)

         :::::::::::::::::::::::::::::::::::::::::::::::::::::
         ::                     SUMMARY                     ::
         :::::::::::::::::::::::::::::::::::::::::::::::::::::
         :: total energy             -33.288927637395 Eh    ::
         :: gradient norm              0.000075422735 Eh/a0 ::
         :: HOMO-LUMO gap              3.353983664674 eV    ::
         ::.................................................::
         :: SCC energy               -33.798247094922 Eh    ::
         :: -> isotropic ES            0.044287649460 Eh    ::
         :: -> anisotropic ES          0.003423161311 Eh    ::
         :: -> anisotropic XC          0.018000347404 Eh    ::
         :: -> dispersion             -0.019129193104 Eh    ::
         :: repulsion energy           0.509319457527 Eh    ::
         :: add. restraining           0.000000000000 Eh    ::
         :: total charge               0.000000000000 e     ::
         :::::::::::::::::::::::::::::::::::::::::::::::::::::

           ------------------------------------------------- 
          |                Numerical Hessian                |
           ------------------------------------------------- 
step length          :   0.00500
SCC accuracy         :   0.30000
Hessian scale factor :   1.00000
frozen atoms in %    :   0.00000    0
RMS gradient         :   0.00008
estimated CPU  time      0.00 min
estimated wall time      0.01 min

writing file <hessian>.

 projected vibrational frequencies (cm⁻¹)
eigval :       -0.00     0.00     0.00     0.00     0.00     0.00
eigval :      -50.49    85.08   116.25   211.28   254.03   257.07
eigval :      314.43   388.70   424.48   432.84   481.16   520.78
eigval :      563.03   592.27   650.15   713.94   739.16   771.69
eigval :      786.79   857.45   877.40   887.10   921.78   932.01
eigval :      967.00  1041.43  1071.45  1103.43  1116.58  1169.40
eigval :     1183.36  1220.60  1243.25  1267.59  1315.14  1345.49
eigval :     1367.85  1407.25  1434.59  1438.77  1451.94  1476.89
eigval :     1550.19  1590.86  1622.04  1715.17  2991.10  3010.65
eigval :     3038.14  3043.53  3080.48  3089.89  3099.61  3109.85
           -------------------------------------------------
          |                Property Printout                |
           -------------------------------------------------

    * Orbital Energies and Occupations

         #    Occupation            Energy/Eh            Energy/eV
      -------------------------------------------------------------
         1        2.0000           -0.7085044             -19.2794
       ...           ...                  ...                  ...
        18        2.0000           -0.5084501             -13.8356
        19        2.0000           -0.5066047             -13.7854
        20        2.0000           -0.5005698             -13.6212
        21        2.0000           -0.4914265             -13.3724
        22        2.0000           -0.4874111             -13.2631
        23        2.0000           -0.4809338             -13.0869
        24        2.0000           -0.4486466             -12.2083
        25        2.0000           -0.4438605             -12.0781
        26        2.0000           -0.4380771             -11.9207
        27        2.0000           -0.4180699             -11.3763
        28        2.0000           -0.4025471             -10.9539
        29        2.0000           -0.3946236             -10.7383
        30        2.0000           -0.3897774             -10.6064 (HOMO)
        31                         -0.2665211              -7.2524 (LUMO)
        32                         -0.2625557              -7.1445
        33                         -0.2054289              -5.5900
        34                         -0.1744659              -4.7475
        35                         -0.0771074              -2.0982
        36                         -0.0042225              -0.1149
        37                          0.0774132               2.1065
        38                          0.1119197               3.0455
        39                          0.1189186               3.2359
        40                          0.1382736               3.7626
        41                          0.1487242               4.0470
       ...                                ...                  ...
        56                          0.6897730              18.7697
      -------------------------------------------------------------
                  HL-Gap            0.1232564 Eh            3.3540 eV
             Fermi-level           -0.3281493 Eh           -8.9294 eV

     #   Z          covCN         q      C6AA      α(0)
     1   6 C        3.702    -0.044    21.526     6.634
     2   7 N        2.741    -0.064    22.483     7.042
     3   6 C        2.845     0.121    25.332     8.249
     4   7 N        1.837    -0.255    27.479     7.768
     5   6 C        2.979     0.090    26.004     8.365
     6   6 C        2.921    -0.038    28.944     8.822
     7   6 C        2.919    -0.023    28.569     8.765
     8   6 C        2.918    -0.030    28.743     8.792
     9   6 C        2.920    -0.020    28.518     8.757
    10   6 C        2.980    -0.038    28.927     8.822
    11   6 C        2.783     0.267    22.491     7.768
    12   8 O        0.858    -0.428    22.253     6.325
    13   1 H        0.924     0.076     2.023     2.224
    14   1 H        0.924     0.076     2.023     2.224
    15   1 H        0.925     0.057     2.229     2.335
    16   1 H        0.925     0.051     2.302     2.373
    17   1 H        0.926     0.056     2.241     2.341
    18   1 H        0.926     0.043     2.414     2.429
    19   1 H        0.926     0.042     2.419     2.432
    20   1 H        0.926     0.060     2.200     2.320

 Mol. C6AA /au·bohr⁶  :       5306.266200
 Mol. C8AA /au·bohr⁸  :     128279.124438
 Mol. α(0) /au        :        114.787640


Wiberg/Mayer (AO) data.
largest (>0.10) Wiberg bond orders for each atom

 ---------------------------------------------------------------------------
     #   Z sym  total        # sym  WBO       # sym  WBO       # sym  WBO
 ---------------------------------------------------------------------------
     1   6 C    3.960 --     2 N    0.992    15 H    0.981    13 H    0.972
                            14 H    0.972
     2   7 N    3.611 --     3 C    1.219    11 C    1.084     1 C    0.992
                            12 O    0.139     4 N    0.105
     3   6 C    3.966 --     4 N    1.642     2 N    1.219    16 H    0.950
     4   7 N    3.066 --     3 C    1.642     5 C    1.166     2 N    0.105
     5   6 C    3.981 --     6 C    1.328    10 C    1.298     4 N    1.166
     6   6 C    3.989 --     7 C    1.498     5 C    1.328    17 H    0.967
                             9 C    0.111
     7   6 C    3.990 --     6 C    1.498     8 C    1.380    18 H    0.970
     8   6 C    3.991 --     9 C    1.490     7 C    1.380    19 H    0.970
     9   6 C    3.989 --     8 C    1.490    10 C    1.354    20 H    0.966
                             6 C    0.111
    10   6 C    3.988 --     9 C    1.354     5 C    1.298    11 C    1.073
    11   6 C    3.948 --    12 O    1.681     2 N    1.084    10 C    1.073
    12   8 O    2.017 --    11 C    1.681     2 N    0.139
    13   1 H    0.993 --     1 C    0.972
    14   1 H    0.993 --     1 C    0.972
    15   1 H    0.996 --     1 C    0.981
    16   1 H    0.997 --     3 C    0.950
    17   1 H    0.996 --     6 C    0.967
    18   1 H    0.997 --     7 C    0.970
    19   1 H    0.998 --     8 C    0.970
    20   1 H    0.996 --     9 C    0.966
 ---------------------------------------------------------------------------

Topologies differ in total number of bonds
Writing topology from bond orders to xtbtopo.mol

molecular dipole:
                 x           y           z       tot (Debye)
 q only:       -0.156      -0.776      -0.061
   full:       -0.305      -0.645      -0.046       1.819
molecular quadrupole (traceless):
                xx          xy          yy          xz          yz          zz
 q only:       12.650       5.259      -9.536      -0.005      -0.932      -3.114
  q+dip:       15.767       7.101     -11.207      -0.015      -0.954      -4.560
   full:       14.240       7.139     -13.327       0.119      -1.442      -0.913

           -------------------------------------------------
          |               Frequency Printout                |
           -------------------------------------------------
 projected vibrational frequencies (cm⁻¹)
eigval :       -0.00     0.00     0.00     0.00     0.00     0.00
eigval :      -50.49    85.08   116.25   211.28   254.03   257.07
eigval :      314.43   388.70   424.48   432.84   481.16   520.78
eigval :      563.03   592.27   650.15   713.94   739.16   771.69
eigval :      786.79   857.45   877.40   887.10   921.78   932.01
eigval :      967.00  1041.43  1071.45  1103.43  1116.58  1169.40
eigval :     1183.36  1220.60  1243.25  1267.59  1315.14  1345.49
eigval :     1367.85  1407.25  1434.59  1438.77  1451.94  1476.89
eigval :     1550.19  1590.86  1622.04  1715.17  2991.10  3010.65
eigval :     3038.14  3043.53  3080.48  3089.89  3099.61  3109.85
 reduced masses (amu)
   1: 11.73   2: 11.77   3: 11.84   4: 11.94   5: 11.76   6: 12.22   7:  1.20   8: 11.25
   9: 11.13  10: 10.76  11: 11.66  12: 10.71  13: 11.94  14:  9.31  15: 11.72  16: 10.31
  17: 12.30  18: 12.02  19: 10.63  20: 12.06  21: 11.05  22: 11.82  23: 11.76  24: 11.57
  25:  4.44  26: 11.75  27:  3.83  28:  3.79  29:  3.96  30:  3.32  31: 11.07  32:  5.96
  33:  5.72  34:  3.83  35:  6.59  36:  2.44  37:  6.66  38:  8.28  39:  5.74  40: 10.67
  41:  6.43  42: 11.74  43: 10.20  44:  3.04  45:  9.61  46:  1.52  47:  9.77  48:  2.41
Molecule has the following symmetry elements: (sigma) 
It seems to be the Cs point group
  49: 11.61  50: 11.63  51: 12.44  52: 13.32  53:  1.94  54:  1.43  55:  1.79  56:  1.77
  57:  1.77  58:  1.81  59:  1.89  60:  1.86
 IR intensities (km·mol⁻¹)
   1:  0.08   2:  0.09   3:  0.03   4:  0.07   5:  0.01   6:  0.42   7:  0.02   8:  9.40
   9:  1.56  10:  1.17  11:  0.73  12:  1.64  13:  4.97  14:  2.41  15:  0.80  16:  4.28
  17:  1.36  18:  5.25  19:  0.78  20:  5.42  21: 17.50  22:  3.83  23: 39.84  24:  3.61
  25: 15.57  26: 11.84  27:  2.55  28:  2.08  29:  0.64  30:  0.01  31: 12.19  32: 35.23
  33:  0.15  34:  0.08  35:  6.32  36:  0.73  37:  5.93  38:  8.55  39:  4.18  40: 75.22
  41: 11.76  42: 20.56  43: 37.90  44: 11.00  45:  3.09  46:  7.41  47: 42.87  48: 21.43
  49: 20.93  50: 91.17  51:161.92  52:570.55  53:  6.88  54: 12.10  55: 11.46  56: 27.00
  57: 11.08  58: 21.33  59: 27.13  60: 15.54
 Raman intensities (Ä⁴*amu⁻¹)
   1:  0.00   2:  0.00   3:  0.00   4:  0.00   5:  0.00   6:  0.00   7:  0.00   8:  0.00
   9:  0.00  10:  0.00  11:  0.00  12:  0.00  13:  0.00  14:  0.00  15:  0.00  16:  0.00
  17:  0.00  18:  0.00  19:  0.00  20:  0.00  21:  0.00  22:  0.00  23:  0.00  24:  0.00
  25:  0.00  26:  0.00  27:  0.00  28:  0.00  29:  0.00  30:  0.00  31:  0.00  32:  0.00
  33:  0.00  34:  0.00  35:  0.00  36:  0.00  37:  0.00  38:  0.00  39:  0.00  40:  0.00
  41:  0.00  42:  0.00  43:  0.00  44:  0.00  45:  0.00  46:  0.00  47:  0.00  48:  0.00
  49:  0.00  50:  0.00  51:  0.00  52:  0.00  53:  0.00  54:  0.00  55:  0.00  56:  0.00
  57:  0.00  58:  0.00  59:  0.00  60:  0.00
 output can be read by thermo (or use thermo option).
 writing <g98.out> molden fake output.
 recommended (thermochemical) frequency scaling factor: 1.0
           -------------------------------------------------
          |             Thermodynamic Functions             |
           -------------------------------------------------

cs  symmetry found (for desy threshold:  0.10E+00) used in thermo

          ...................................................
          :                      SETUP                      :
          :.................................................:
          :  # frequencies                          53      :
          :  # imaginary freq.                       1      :
          :  linear?                             false      :
          :  only rotor calc.                    false      :
          :  symmetry                               cs      :
          :  rotational number                       1      :
          :  scaling factor                  1.0000000      :
          :  rotor cutoff                   50.0000000 cm⁻¹ :
          :  imag. cutoff                  -20.0000000 cm⁻¹ :
          :.................................................:

    mode    ω/cm⁻¹     T·S(HO)/kcal·mol⁻¹    T·S(FR)/kcal·mol⁻¹   T·S(vib)
   ------------------------------------------------------------------------
       1     85.08    -1.12410 ( 89.34%)    -0.89899 ( 10.66%)    -1.10010
       2    116.25    -0.94270 ( 96.69%)    -0.80654 (  3.31%)    -0.93819
       3    211.28    -0.60601 ( 99.69%)    -0.62958 (  0.31%)    -0.60609
       4    254.03    -0.50759 ( 99.85%)    -0.57500 (  0.15%)    -0.50769
       5    257.07    -0.50136 ( 99.86%)    -0.57147 (  0.14%)    -0.50146
   ------------------------------------------------------------------------

   temp. (K)  partition function   enthalpy   heat capacity  entropy
                                   cal/mol     cal/K/mol   cal/K/mol   J/K/mol
 298.15  VIB   77.2                 3849.845     29.716     21.456
         ROT  0.875E+06              888.752      2.981     30.170
         INT  0.675E+08             4738.598     32.697     51.626
         TR   0.196E+28             1481.254      4.968     41.104
         TOT                        6219.8514    37.6654    92.7292   387.9791

       T/K    H(0)-H(T)+PV         H(T)/Eh          T*S/Eh         G(T)/Eh
   ------------------------------------------------------------------------
    298.15    0.991196E-02    0.161051E+00    0.440586E-01    0.116992E+00
   ------------------------------------------------------------------------

         :::::::::::::::::::::::::::::::::::::::::::::::::::::
         ::                  THERMODYNAMIC                  ::
         :::::::::::::::::::::::::::::::::::::::::::::::::::::
         :: total free energy         -33.171935261805 Eh   ::
         ::.................................................::
         :: total energy              -33.288927637404 Eh   ::
         :: zero point energy           0.151139058403 Eh   ::
         :: G(RRHO) w/o ZPVE           -0.034146682804 Eh   ::
         :: G(RRHO) contrib.            0.116992375599 Eh   ::
         :::::::::::::::::::::::::::::::::::::::::::::::::::::
imag cut-off (cm-1) :    5.00
 found            1  significant imaginary frequency
 writing imag mode distorted coords to xtbhess.xyz
 for further optimization.

           -------------------------------------------------
          | TOTAL ENERGY              -33.288927637404 Eh   |
          | TOTAL ENTHALPY            -33.127876614807 Eh   |
          | TOTAL FREE ENERGY         -33.171935261805 Eh   |
          | GRADIENT NORM               0.000075338034 Eh/α |
          | HOMO-LUMO GAP               3.353976349916 eV   |
           -------------------------------------------------

------------------------------------------------------------------------
 * finished run on 2026/09/20 at 00:12:15.320     
------------------------------------------------------------------------
 total:
 * wall-time:     0 d,  0 h,  0 min,  0.695 sec
 *  cpu-time:     0 d,  0 h,  0 min,  0.062 sec
 * ratio c/w:     0.090 speedup
 SCF:
 * wall-time:     0 d,  0 h,  0 min,  0.021 sec
 *  cpu-time:     0 d,  0 h,  0 min,  0.000 sec
 * ratio c/w:     0.000 speedup
 analytical hessian:
 * wall-time:     0 d,  0 h,  0 min,  0.656 sec
 *  cpu-time:     0 d,  0 h,  0 min,  0.062 sec
 * ratio c/w:     0.095 speedup

