20
 xtb: 6.7.1 (edcfbbe)
C           -3.24604565856942        0.23603355153204        0.20452207490940
N           -1.84867420572972       -0.13134002700697        0.15897747394733
C           -1.45185603455318       -1.42207081941731        0.02711046971525
N           -0.24531862742765       -1.83499738912076       -0.04343714129351
C            0.75556636623885       -0.89751064328898        0.01558837930576
C            2.08929892872241       -1.31295444531788       -0.05871525470904
C            3.10205267563337       -0.38360711347040        0.00095197290740
C            2.81557056444198        0.97506038385632        0.13514332434498
C            1.50956614185930        1.40172309449041        0.20906096621659
C            0.46786825680411        0.47310066317981        0.15093914413336
C           -0.92008845571962        0.91412884088261        0.22222634880244
O           -1.29974985591520        2.06203535238060        0.33307459282602
H           -3.40602798712007        0.89587890518199        1.07989928417440
H           -3.52310608659723        0.79271616208389       -0.69606799571849
H           -3.86080365232351       -0.66902329233849        0.30389709801710
H           -2.24241813445986       -2.16196361822693       -0.01154667873734
H            2.29277230423067       -2.36831344851750       -0.14660299787324
H            4.13125956044471       -0.70755831861307       -0.05010611452943
H            3.62217831353490        1.69177748719756        0.17030154048704
H            1.25758346866721        2.44797037397766        0.29572528282817
