79

Ru      0.217182789651570     -0.117307742010560     -0.288659255283980
N      -0.159840253156540     -2.060173647961410      0.574112820071470
C       0.968627403756920     -2.949996147874640      0.397966302467420
C       2.360344201662480     -2.272204937052870      0.473494230991040
P       2.310859240973780     -0.849356034329520     -0.708093682287660
C       2.934404525589550     -1.628482361702120     -2.243786286903820
C       4.243653421413760     -1.492920582281320     -2.693451700318030
C       4.646554283859220     -2.125290292303240     -3.857256818406420
C       3.751550090327950     -2.895681248082480     -4.580874287720180
C       2.443219378639790     -3.027469666370580     -4.142532777868460
C       2.035842430648800     -2.391562540085960     -2.984626598851610
C       3.693821942084670      0.228574239493900     -0.229645528354240
C       4.870344509338720     -0.189233243469490      0.380860764283240
C       5.840416527108570      0.743080085640460      0.708900784022950
C       5.643871294506530      2.085795533789130      0.427474414765150
C       4.469712738727570      2.507737074175440     -0.178534048858400
C       3.498559751650120      1.579472773493820     -0.501002033479390
C      -0.459166790382700     -1.812517108597350      1.968881693357850
C      -1.766618763560950     -1.013134474412060      2.092928346804340
P      -1.698167552033470      0.314028657422980      0.809267691651440
C      -1.662583235791380      1.971671132350450      1.563845530489780
C      -0.907682856490020      2.883680065016010      0.830033523709640
C      -0.829663108207650      4.205110145703780      1.222304911221450
C      -1.508414487274240      4.618663550738490      2.359897095145080
C      -2.263273871826450      3.715763159434280      3.091181150677140
C      -2.352798945295530      2.392578248208060      2.691262874029690
C      -3.415560309718450      0.416824383945350      0.187142677035040
C      -3.594034744301970      0.906689785043070     -1.102063422823500
C      -4.865101812640320      1.077998712107160     -1.618895837753910
C      -5.971115895413180      0.767681191456960     -0.844092983259010
C      -5.800794353474620      0.295154582393870      0.447331315080240
C      -4.529590652025430      0.123786414330030      0.966211221987050
H       0.872579548813890     -3.419327484291680     -0.589760102634490
H       0.927338428269000     -3.751507104244570      1.149811179035260
H       3.148142873346350     -2.989328558570760      0.224948622612880
H       2.534537317528360     -1.857184397120680      1.471325072954550
H       4.950049186033490     -0.889135674587910     -2.141267367995950
H       5.665092824445200     -2.013162010176310     -4.201403502701980
H       4.070633577290600     -3.386359667228170     -5.489080475613140
H       1.738362304362270     -3.619610752396630     -4.708801085520990
H       1.009607747337850     -2.470627424699260     -2.649326056865800
H       5.025180176175910     -1.237302690630370      0.598520415330530
H       6.754527187473750      0.421472134326970      1.187815295872070
H       6.404995820984870      2.807437680455690      0.687286394585550
H       4.315612687100200      3.556589457490370     -0.389660557485660
H       2.552875170514480      1.883380139271030     -0.955989822917690
H       0.354531760131110     -1.265504705148530      2.483550282932490
H      -0.583938822874350     -2.778128659580700      2.483079343931230
H      -2.604351663455440     -1.670413487533640      1.839997689380750
H      -1.893292601822080     -0.613849030497860      3.102936486522410
H      -0.362276292099330      2.516145781315180     -0.054308681971880
H      -0.242672259357910      4.913237639605010      0.654246815071330
H      -1.445759878282550      5.649667521024680      2.677011610411750
H      -2.788095923522140      4.046708641447300      3.976108197943970
H      -2.951984471128260      1.691601686728900      3.255889486825670
H      -2.721624907829800      1.145604203923050     -1.700024956652280
H      -4.994805160399900      1.451321240334840     -2.624902930195190
H      -6.965792952812940      0.896625661089450     -1.245793811544850
H      -6.664424154679320      0.060694768609450      1.053531901701500
H      -4.408702547473350     -0.239294211781150      1.976934155700440
C      -0.515434216506100     -0.494475250184460     -1.932156298605170
O      -0.932899794325360     -0.522867756931470     -3.013108074215770
H       0.899018658954250      0.478832601954490      1.010422703344870
O      -1.254388439015124     -1.953868405343123     -1.891778161012573
C      -2.047331343392858     -0.841763847377016     -1.579409568314826
C      -3.251586516746445     -1.272168056673975     -0.788377202575995
C      -3.218279077717281     -1.261740912887276      0.615880923733453
C      -4.327658961736218     -1.694478672383914      1.349386828290762
C      -5.471137778823342     -2.149972413758619      0.687136297974229
C      -5.505497145183215     -2.177756932626680     -0.709869829657445
C      -4.398199228056832     -1.745942341486783     -1.447047929335340
H      -0.767655423293636     -2.197409351915249     -1.061194201205609
H      -2.372102387161402     -0.357835338789558     -2.525137441173794
H      -1.453016261783159     -0.085955064644202     -1.016606399050732
H      -2.335152695845120     -0.919696109946683      1.141267008055927
H      -4.299525933684967     -1.679980431629237      2.431281597120421
H      -6.328379995506758     -2.485707094856789      1.256244783418827
H      -6.388893140013228     -2.537190992085129     -1.221646992899557
H      -4.433988939881009     -1.780655865526886     -2.528948414161519
