79

Ru      0.199452122912940     -0.179008042971935     -0.448804004469176
N      -0.026650394040728     -1.979448780239041      0.817939354173955
C       1.079826785277418     -2.942775567539449      0.689837081333746
C       2.435007248057111     -2.246482687306408      0.578012216148137
P       2.305657207342862     -0.927407169387077     -0.740461623914986
C       2.976551723407575     -1.746885283809328     -2.237010064575967
C       4.282728193651566     -1.588761292455199     -2.689317109984741
C       4.680684207008043     -2.182388668343599     -3.874729443956040
C       3.785108499400707     -2.933784113672141     -4.617915094526882
C       2.479908602778806     -3.087054457815771     -4.177625889701254
C       2.077943800582495     -2.489264338223211     -2.998535745464074
C       3.675586970994848      0.188149629990420     -0.283792746481677
C       4.841078303646565     -0.235803441717624      0.348274616701709
C       5.815038645854778      0.684707609990474      0.696050060526826
C       5.638255630783285      2.030042367681968      0.416328245699418
C       4.483668685281466      2.457056106679935     -0.220274525304225
C       3.509539352316870      1.539792347650346     -0.568187151243834
C      -0.398425484078727     -1.617599522481843      2.188899865820301
C      -1.681380848748876     -0.777944678281228      2.166768639815992
P      -1.598808624678795      0.461219868646824      0.758757337846246
C      -1.538063117090513      2.109980324516275      1.557089395536270
C      -0.833097224569501      3.092899337638324      0.870874847063784
C      -0.815680713264844      4.396918705049648      1.329256096803498
C      -1.505748813947328      4.731725242246524      2.482940888487417
C      -2.207630583676818      3.757157394986103      3.173539766563686
C      -2.233051667989308      2.452972698777467      2.711633244694336
C      -3.352401177755481      0.618503605447763      0.235655783095273
C      -3.535456600414350      0.957772103080122     -1.100613377169123
C      -4.805574209804015      1.177502295147726     -1.600424641849663
C      -5.903350081523124      1.063844843305998     -0.762987646784528
C      -5.726007826545184      0.737459876870921      0.571750000320083
C      -4.456283565819269      0.518086806431137      1.074924147167816
H       0.917152359017435     -3.516891364471903     -0.230245284828223
H       1.077454387260418     -3.643445836013572      1.538650388819809
H       3.215616263813705     -2.977062717262280      0.346442279688311
H       2.681895849799389     -1.731829469272527      1.512810636200191
H       4.986666704723929     -0.991513630980755     -2.127215529187227
H       5.694176795764581     -2.047513194370729     -4.225701802750384
H       4.099373229940800     -3.385915960834160     -5.547634212274274
H       1.771480048997454     -3.655614359889633     -4.763453544771472
H       1.047633312816252     -2.559455092826816     -2.673517464933289
H       4.994546475951587     -1.283597593355450      0.567127180111452
H       6.716281656222444      0.350398053575140      1.190617918695485
H       6.398471363602295      2.745112971289172      0.696256163374544
H       4.339916538729326      3.505893355920170     -0.438050101861813
H       2.592380605672301      1.860352934312957     -1.047406039520708
H       0.419877101122296     -1.039773752782262      2.630773665029131
H      -0.561111278978286     -2.523634100202910      2.796765721988513
H      -2.546576567287190     -1.428160013494465      1.987224901946503
H      -1.814058918723943     -0.278551087303734      3.129081208957090
H      -0.288430615144672      2.808973532401443     -0.022225371459887
H      -0.266064323330589      5.152064036591501      0.785382288107479
H      -1.499059258480687      5.750636672567755      2.842365863141163
H      -2.746388116369527      4.017011889470655      4.073882089424544
H      -2.799855769592475      1.713067522063754      3.258717838631043
H      -2.661244120554346      1.032427737151101     -1.739807585254126
H      -4.939697781724711      1.436296807652459     -2.641083743762608
H      -6.898028181523900      1.230975230479382     -1.149966063050129
H      -6.583827402810413      0.655305738641362      1.224091073467048
H      -4.333112710947088      0.263051560341904      2.117953485157918
C       0.267262203135128      1.104295868316920     -1.757608198767415
O       0.285139885794183      1.785579296388582     -2.703260203973397
H       0.907035425761864      0.549183556198931      0.739363312676301
O      -3.166313787492118     -2.127143013018449     -3.991285020597286
C      -3.212556501936044     -2.077262332491421     -2.783299913903193
C      -4.425937181180206     -2.264630186465392     -1.979772835893640
C      -4.357660556334738     -2.318055527348619     -0.589404840964424
C      -5.509527398504543     -2.478687044033261      0.155710129747516
C      -6.736540355728890     -2.587130609431937     -0.481663736473400
C      -6.812664193268048     -2.544115068206746     -1.865680283661086
C      -5.662763105455143     -2.386057743190853     -2.612510744150847
H      -0.849810014062550     -2.422189337372621      0.409541216280822
H      -2.304862697771902     -1.869529416368407     -2.188473307949064
H      -0.512821449635027     -1.083152761398104     -1.560194433612698
H      -3.394385573952784     -2.222277373173113     -0.107028795003206
H      -5.461459195103951     -2.515039972901974      1.234471793378060
H      -7.637434324729334     -2.706046921727030      0.102257087130695
H      -7.768610023991723     -2.634875408277865     -2.359800071435282
H      -5.689724232509385     -2.348120975692563     -3.691766449264301
