59
Properties=species:S:1:pos:R:3:forces:R:3 energy:=T -70.485788586371=T gnorm:=T 0.000147009473=T xtb:=T 6.7.1=T (edcfbbe)=T energy=-1918.0160024523602 pbc="F F F"
Fe      -0.01773329       0.13067435      -0.03895190       0.00125987       0.00001183       0.00224859
N        0.41617081      -1.84904309       0.24119330      -0.00029746       0.00260586       0.00006178
C        0.67574007      -2.18165020       1.62607707      -0.00029868      -0.00021075       0.00059724
C        1.87267106      -1.30909326       2.02016744       0.00014375       0.00020821      -0.00025602
P        2.00057107      -0.25834141       0.51529134      -0.00036345      -0.00142174      -0.00035589
C        3.36997307      -1.07737300      -0.45640716       0.00015277       0.00080364       0.00028051
C        3.56191216      -0.39540774      -1.80758642       0.00022730      -0.00074528       0.00113772
C        3.17251062      -2.57314204      -0.66494699      -0.00088008      -0.00116693      -0.00004849
C        2.89984685       1.32197420       1.03373076       0.00010431       0.00034033      -0.00022833
C        1.83305106       2.41724178       1.09835107       0.00029662       0.00022576      -0.00053108
C        3.71261579       1.24203562       2.32157020      -0.00041880       0.00020369      -0.00043541
C       -0.58237271      -2.67454801      -0.39311042       0.00045679      -0.00094056      -0.00008072
C       -2.01068890      -2.28957707       0.04181586       0.00042540      -0.00004085      -0.00028916
P       -2.09981612      -0.43121579      -0.03748972      -0.00037926      -0.00113550      -0.00096921
C       -3.30923439      -0.08246115       1.35825426       0.00113341      -0.00013405      -0.00012629
C       -3.65118028       1.40604118       1.38154087      -0.00009499      -0.00010149       0.00063901
C       -2.72736581      -0.48150602       2.71071763      -0.00014439       0.00013460      -0.00030703
C       -3.21796392      -0.06585292      -1.51004483      -0.00056561       0.00090301      -0.00012747
C       -3.04299809      -1.04806762      -2.66459936       0.00020127       0.00048477       0.00039272
C       -2.88485281       1.34523673      -2.00084279       0.00033766      -0.00054589       0.00018550
H        0.91702068      -3.25210595       1.70113887      -0.00040719       0.00047806       0.00051187
H       -0.18059945      -1.98697107       2.28816153      -0.00009153       0.00072879      -0.00012729
H        1.64294590      -0.67755950       2.87811697       0.00014635       0.00056993       0.00000298
H        2.78198033      -1.87764905       2.22792100      -0.00018064       0.00027470       0.00035640
H        4.26552289      -0.91499833       0.16346405       0.00009786      -0.00035110       0.00008454
H        2.73671980      -0.64577429      -2.46796912      -0.00100800      -0.00048447      -0.00063386
H        4.48663056      -0.73292758      -2.27623139       0.00075122      -0.00019953      -0.00032446
H        3.60202035       0.68915572      -1.71786394      -0.00042416       0.00108178       0.00043506
H        4.03358061      -2.98639134      -1.19197348      -0.00039333      -0.00031388      -0.00029457
H        2.28156436      -2.75082294      -1.26122589      -0.00008827       0.00007617       0.00033664
H        3.06388995      -3.10107030       0.27838936       0.00033362       0.00052358      -0.00053822
H        3.58425991       1.56507026       0.21028114      -0.00033328       0.00014498       0.00010607
H        1.26361808       2.33305816       2.02142393      -0.00035711      -0.00069640       0.00022474
H        2.27467390       3.41297512       1.05170223       0.00016905       0.00054973       0.00055211
H        1.12450145       2.29934670       0.25459949       0.00048286       0.00005704      -0.00013287
H        3.06323229       1.10827300       3.18367810       0.00037858       0.00047746       0.00020027
H        4.41552344       0.41110049       2.28663413       0.00054938      -0.00034896       0.00004637
H        4.27935048       2.16248856       2.46637990       0.00058823       0.00020096      -0.00048146
H       -0.39736994      -3.73420494      -0.16221447       0.00035778      -0.00004418      -0.00005943
H       -0.49039917      -2.54400373      -1.47687579       0.00035605       0.00030781       0.00016104
H       -2.16717578      -2.59649755       1.07661651       0.00019288      -0.00015190      -0.00010198
H       -2.76995215      -2.77072004      -0.57610809       0.00066728       0.00001252      -0.00017531
H       -4.21675617      -0.67132769       1.15986990       0.00011802       0.00016670       0.00001051
H       -4.23416968       1.70192178       0.51199503       0.00022273       0.00008209      -0.00024244
H       -4.23438529       1.64886986       2.27023236      -0.00008689      -0.00004587      -0.00006100
H       -2.73003381       1.99007769       1.40855212       0.00029461      -0.00043015       0.00021207
H       -2.65994598      -1.56080690       2.82686734       0.00041689      -0.00042850      -0.00031641
H       -3.35417516      -0.10126614       3.51719332      -0.00081930      -0.00061972      -0.00007088
H       -1.73145619      -0.05583651       2.81671067      -0.00061019       0.00032324       0.00011183
H       -4.26044835      -0.09843470      -1.16687034       0.00028345      -0.00055200       0.00018308
H       -3.46527497      -2.02487145      -2.44131603      -0.00067851       0.00012810      -0.00027556
H       -1.98870016      -1.16932225      -2.90337347       0.00005234      -0.00038087      -0.00014966
H       -3.54771463      -0.66468599      -3.55181786      -0.00005427       0.00067463      -0.00008872
H       -1.92036643       1.33928940      -2.50426936       0.00023528       0.00016587      -0.00019928
H       -3.63593573       1.69747793      -2.70842770      -0.00111616       0.00036385      -0.00001999
H       -2.82235968       2.05602630      -1.17822604      -0.00019079      -0.00033197       0.00075531
C        0.20807321       0.04593045      -1.75409565      -0.00035929      -0.00260124      -0.00008774
O        0.37210791       0.10310978      -2.90363689      -0.00002530       0.00106121      -0.00069447
H       -0.17224143       0.37779639       1.39483942      -0.00076670       0.00005288      -0.00100326
