59
Properties=species:S:1:pos:R:3 energy:=T -70.485788586371=T gnorm:=T 0.000147009473=T xtb:=T 6.7.1=T (edcfbbe)=T pbc="F F F"
Fe      -0.01773329       0.13067435      -0.03895190
N        0.41617081      -1.84904309       0.24119330
C        0.67574007      -2.18165020       1.62607707
C        1.87267106      -1.30909326       2.02016744
P        2.00057107      -0.25834141       0.51529134
C        3.36997307      -1.07737300      -0.45640716
C        3.56191216      -0.39540774      -1.80758642
C        3.17251062      -2.57314204      -0.66494699
C        2.89984685       1.32197420       1.03373076
C        1.83305106       2.41724178       1.09835107
C        3.71261579       1.24203562       2.32157020
C       -0.58237271      -2.67454801      -0.39311042
C       -2.01068890      -2.28957707       0.04181586
P       -2.09981612      -0.43121579      -0.03748972
C       -3.30923439      -0.08246115       1.35825426
C       -3.65118028       1.40604118       1.38154087
C       -2.72736581      -0.48150602       2.71071763
C       -3.21796392      -0.06585292      -1.51004483
C       -3.04299809      -1.04806762      -2.66459936
C       -2.88485281       1.34523673      -2.00084279
H        0.91702068      -3.25210595       1.70113887
H       -0.18059945      -1.98697107       2.28816153
H        1.64294590      -0.67755950       2.87811697
H        2.78198033      -1.87764905       2.22792100
H        4.26552289      -0.91499833       0.16346405
H        2.73671980      -0.64577429      -2.46796912
H        4.48663056      -0.73292758      -2.27623139
H        3.60202035       0.68915572      -1.71786394
H        4.03358061      -2.98639134      -1.19197348
H        2.28156436      -2.75082294      -1.26122589
H        3.06388995      -3.10107030       0.27838936
H        3.58425991       1.56507026       0.21028114
H        1.26361808       2.33305816       2.02142393
H        2.27467390       3.41297512       1.05170223
H        1.12450145       2.29934670       0.25459949
H        3.06323229       1.10827300       3.18367810
H        4.41552344       0.41110049       2.28663413
H        4.27935048       2.16248856       2.46637990
H       -0.39736994      -3.73420494      -0.16221447
H       -0.49039917      -2.54400373      -1.47687579
H       -2.16717578      -2.59649755       1.07661651
H       -2.76995215      -2.77072004      -0.57610809
H       -4.21675617      -0.67132769       1.15986990
H       -4.23416968       1.70192178       0.51199503
H       -4.23438529       1.64886986       2.27023236
H       -2.73003381       1.99007769       1.40855212
H       -2.65994598      -1.56080690       2.82686734
H       -3.35417516      -0.10126614       3.51719332
H       -1.73145619      -0.05583651       2.81671067
H       -4.26044835      -0.09843470      -1.16687034
H       -3.46527497      -2.02487145      -2.44131603
H       -1.98870016      -1.16932225      -2.90337347
H       -3.54771463      -0.66468599      -3.55181786
H       -1.92036643       1.33928940      -2.50426936
H       -3.63593573       1.69747793      -2.70842770
H       -2.82235968       2.05602630      -1.17822604
C        0.20807321       0.04593045      -1.75409565
O        0.37210791       0.10310978      -2.90363689
H       -0.17224143       0.37779639       1.39483942
