51
Properties=species:S:1:pos:R:3:forces:R:3 energy:=T -81.824546563674=T gnorm:=T 0.000054063631=T xtb:=T 6.7.1=T (edcfbbe)=T energy=-2226.5593227539784 pbc="F F F"
Fe       0.11231973      -0.21826228      -0.25731675      -0.00035154      -0.00015807      -0.00008347
C        2.31947644      -2.23414372       0.49747911      -0.00004423       0.00001792       0.00010332
P        2.09235335      -0.38629743       0.54613907      -0.00023465       0.00012342       0.00013403
C        3.63863134       0.17592760      -0.24491936      -0.00011058       0.00005030       0.00004632
C        4.87879708      -0.31615092       0.15552334      -0.00004282       0.00005928      -0.00007005
C        6.02978841       0.12194018      -0.47247997      -0.00010017       0.00021919      -0.00001415
C        5.95239493       1.05518167      -1.49577518      -0.00011818       0.00032777       0.00005497
C        4.72186015       1.55533329      -1.88898726      -0.00027074       0.00018493       0.00006790
C        3.56634722       1.11716708      -1.26423538      -0.00014346      -0.00004953       0.00009011
C        2.44028535      -0.00504053       2.29363069      -0.00004651      -0.00008449       0.00018651
C        3.18428925       1.11428648       2.65234216       0.00033662      -0.00018938       0.00008095
C        3.37047238       1.42354845       3.98841189       0.00025031      -0.00025704       0.00025711
C        2.80873281       0.62658138       4.97243510       0.00008609      -0.00012414       0.00013641
C        2.04528178      -0.47551661       4.61901205       0.00002590      -0.00020441       0.00016881
C        1.85419502      -0.78637099       3.28582208      -0.00004116       0.00004898       0.00001062
C        0.95194863      -2.84663067       0.52931842       0.00003408       0.00007000       0.00010994
C        0.76894817      -4.16488780       0.88940072      -0.00005994       0.00005625       0.00025389
C       -0.50753546      -4.72374681       0.84983000      -0.00003036       0.00009883       0.00011725
C       -1.55173385      -3.93183340       0.42647119      -0.00003643      -0.00010065      -0.00008838
C       -1.31546091      -2.60040033       0.08143336       0.00004976       0.00001270      -0.00019274
C       -2.33315160      -1.68006642      -0.38062262       0.00004123      -0.00010321      -0.00013834
C       -3.67542518      -2.00599698      -0.56925269       0.00006872      -0.00003889      -0.00021943
C       -4.55022436      -1.03672541      -1.02270286      -0.00002063      -0.00010325      -0.00023477
C       -4.07334565       0.23900510      -1.26193666       0.00004985      -0.00000069      -0.00022429
C       -2.72142410       0.50836491      -1.04370280       0.00003319       0.00008058      -0.00036526
O       -2.27321657       1.73997256      -1.25575208       0.00014071      -0.00023037      -0.00042805
N       -1.85977308      -0.43210849      -0.63380903       0.00016231      -0.00011274      -0.00025442
N       -0.07292878      -2.04773399       0.15386907      -0.00001165      -0.00004364       0.00002993
H        2.96531233      -2.62280312       1.28996687      -0.00002526      -0.00000215       0.00017641
H        2.78292318      -2.45538366      -0.47400533       0.00005185       0.00001046       0.00011332
H        4.93813495      -1.03310067       0.96323255       0.00003099       0.00006373      -0.00007487
H        6.99192237      -0.26189295      -0.16387296      -0.00006899       0.00012236      -0.00023231
H        6.85456081       1.39496257      -1.98402793      -0.00024770       0.00016698      -0.00014967
H        4.66317862       2.28706909      -2.68214917      -0.00027826       0.00023211       0.00013295
H        2.59432670       1.49733671      -1.55083412      -0.00017358       0.00019584       0.00031508
H        3.61372020       1.74127744       1.88210783       0.00022040      -0.00011160       0.00017646
H        3.95237060       2.29204914       4.26307950       0.00039458      -0.00030886       0.00018518
H        2.95623910       0.86963638       6.01500324       0.00026630      -0.00032778       0.00020060
H        1.59435094      -1.08878053       5.38663985      -0.00006471      -0.00011650       0.00016187
H        1.23631293      -1.63036894       3.00677573      -0.00017434       0.00001947       0.00008213
H        1.61879969      -4.75689980       1.19412972      -0.00005307       0.00005213       0.00025596
H       -0.66691013      -5.75192669       1.13428270      -0.00007932       0.00008028       0.00019126
H       -2.54986038      -4.33353135       0.36678424      -0.00000088       0.00001638      -0.00007128
H       -4.02779096      -3.00310507      -0.36516304       0.00003033      -0.00008077      -0.00038965
H       -5.59231678      -1.26769546      -1.18154391      -0.00001863      -0.00005945      -0.00030153
H       -4.70797330       1.03894574      -1.60488993       0.00000363      -0.00000306      -0.00021779
H       -1.32679334       1.76318935      -0.97404641       0.00002904      -0.00001898      -0.00020779
C        0.62959517      -0.43088337      -1.91142512       0.00139118       0.00018613      -0.00002702
O        0.95879810      -0.56585808      -3.01082979      -0.00084052       0.00030719       0.00017752
H       -0.30512851       0.19873378       1.09184712       0.00006107       0.00004071      -0.00005264
H        0.21150952       1.24086856      -0.48314815      -0.00006979      -0.00001427       0.00002109
