51
Properties=species:S:1:pos:R:3 energy:=T -81.824546563674=T gnorm:=T 0.000054063631=T xtb:=T 6.7.1=T (edcfbbe)=T pbc="F F F"
Fe       0.11231973      -0.21826228      -0.25731675
C        2.31947644      -2.23414372       0.49747911
P        2.09235335      -0.38629743       0.54613907
C        3.63863134       0.17592760      -0.24491936
C        4.87879708      -0.31615092       0.15552334
C        6.02978841       0.12194018      -0.47247997
C        5.95239493       1.05518167      -1.49577518
C        4.72186015       1.55533329      -1.88898726
C        3.56634722       1.11716708      -1.26423538
C        2.44028535      -0.00504053       2.29363069
C        3.18428925       1.11428648       2.65234216
C        3.37047238       1.42354845       3.98841189
C        2.80873281       0.62658138       4.97243510
C        2.04528178      -0.47551661       4.61901205
C        1.85419502      -0.78637099       3.28582208
C        0.95194863      -2.84663067       0.52931842
C        0.76894817      -4.16488780       0.88940072
C       -0.50753546      -4.72374681       0.84983000
C       -1.55173385      -3.93183340       0.42647119
C       -1.31546091      -2.60040033       0.08143336
C       -2.33315160      -1.68006642      -0.38062262
C       -3.67542518      -2.00599698      -0.56925269
C       -4.55022436      -1.03672541      -1.02270286
C       -4.07334565       0.23900510      -1.26193666
C       -2.72142410       0.50836491      -1.04370280
O       -2.27321657       1.73997256      -1.25575208
N       -1.85977308      -0.43210849      -0.63380903
N       -0.07292878      -2.04773399       0.15386907
H        2.96531233      -2.62280312       1.28996687
H        2.78292318      -2.45538366      -0.47400533
H        4.93813495      -1.03310067       0.96323255
H        6.99192237      -0.26189295      -0.16387296
H        6.85456081       1.39496257      -1.98402793
H        4.66317862       2.28706909      -2.68214917
H        2.59432670       1.49733671      -1.55083412
H        3.61372020       1.74127744       1.88210783
H        3.95237060       2.29204914       4.26307950
H        2.95623910       0.86963638       6.01500324
H        1.59435094      -1.08878053       5.38663985
H        1.23631293      -1.63036894       3.00677573
H        1.61879969      -4.75689980       1.19412972
H       -0.66691013      -5.75192669       1.13428270
H       -2.54986038      -4.33353135       0.36678424
H       -4.02779096      -3.00310507      -0.36516304
H       -5.59231678      -1.26769546      -1.18154391
H       -4.70797330       1.03894574      -1.60488993
H       -1.32679334       1.76318935      -0.97404641
C        0.62959517      -0.43088337      -1.91142512
O        0.95879810      -0.56585808      -3.01082979
H       -0.30512851       0.19873378       1.09184712
H        0.21150952       1.24086856      -0.48314815
