50
Properties=species:S:1:pos:R:3:forces:R:3 energy:=T -86.201242692472=T gnorm:=T 0.000189879780=T xtb:=T 6.7.1=T (edcfbbe)=T energy=-2345.6552906774295 pbc="F F F"
Mn       0.02749335      -0.27086359      -0.27418921       0.00213585      -0.00059557       0.00042059
C        2.29676197      -2.30213188       0.53669701      -0.00027503       0.00022270      -0.00035724
P        2.08111899      -0.43504942       0.54497506       0.00043028       0.00024092       0.00225805
C        3.61689052       0.12241507      -0.25380447      -0.00011921      -0.00003825      -0.00042047
C        4.86335124      -0.40847581       0.06959527      -0.00055164      -0.00037905      -0.00047650
C        5.99577521       0.07068945      -0.56293494      -0.00013375      -0.00003284      -0.00047968
C        5.89294769       1.08057222      -1.50853528      -0.00013106       0.00011763       0.00027992
C        4.65562733       1.62071929      -1.82088710      -0.00008987       0.00035151       0.00042642
C        3.51823086       1.14314918      -1.19317738       0.00013812       0.00037194       0.00037616
C        2.41332294      -0.05635366       2.29593185      -0.00041418       0.00029803       0.00057159
C        3.19501694       1.03417186       2.66329670      -0.00045101       0.00026164       0.00022362
C        3.37109373       1.33828394       4.00197707       0.00006097      -0.00024664       0.00013264
C        2.76128990       0.56685543       4.97788237       0.00077939      -0.00033974      -0.00013769
C        1.96481994      -0.50862018       4.61535489       0.00010543      -0.00031505      -0.00025364
C        1.78532057      -0.81731934       3.27997362      -0.00018634       0.00046437       0.00002859
C        0.94794351      -2.96641797       0.57894901      -0.00004680      -0.00056852       0.00007646
C        0.78440530      -4.29046129       0.95635391       0.00007213       0.00027151      -0.00001139
C       -0.47735454      -4.87222434       0.88932699      -0.00010981      -0.00010928       0.00023017
C       -1.54057044      -4.12113147       0.42282067       0.00017967      -0.00002544       0.00030092
C       -1.32903365      -2.79298095       0.06984312      -0.00041672      -0.00017077       0.00010662
C       -2.31880002      -1.85515405      -0.45678206       0.00025758      -0.00061691       0.00018005
C       -3.67694238      -1.96558849      -0.74514308      -0.00039330       0.00019831      -0.00011405
C       -4.31774506      -0.83132791      -1.24551097       0.00015206      -0.00044503      -0.00018716
C       -3.66299098       0.37234585      -1.44760125       0.00048268       0.00006571      -0.00018716
C       -2.28789210       0.43178429      -1.13493395      -0.00069590      -0.00005624      -0.00055663
O       -1.43073812       1.38493112      -1.18480939       0.00099414      -0.00055272      -0.00025006
N       -1.71574596      -0.69106459      -0.67923324       0.00192335      -0.00014797      -0.00091397
N       -0.09377763      -2.21899498       0.18125378       0.00015814       0.00159788      -0.00024308
H        2.95003867      -2.65030169       1.34136770      -0.00015422       0.00023280       0.00004927
H        2.76744825      -2.53677615      -0.42797511       0.00010465      -0.00014312       0.00011827
H        4.94220892      -1.18528438       0.81701678       0.00003259       0.00038402       0.00012961
H        6.96393105      -0.34141299      -0.31798984      -0.00023149       0.00009003       0.00001087
H        6.78121224       1.45006923      -1.99980788      -0.00023724      -0.00010446      -0.00030572
H        4.57763627       2.41204042      -2.55223226      -0.00015776      -0.00024222      -0.00014498
H        2.53690436       1.55231160      -1.41580264       0.00001033       0.00000727      -0.00013729
H        3.66070491       1.64107365       1.89862828      -0.00007691      -0.00011823       0.00003934
H        3.98171179       2.18371147       4.28411916      -0.00014344      -0.00002786       0.00005231
H        2.89876462       0.80830938       6.02168667      -0.00012627       0.00014754      -0.00003256
H        1.47894963      -1.10280827       5.37591062      -0.00010065       0.00026540       0.00013113
H        1.14831878      -1.64518376       2.99163343       0.00003001       0.00002375      -0.00004075
H        1.63664196      -4.86277696       1.28822397       0.00008799       0.00008010       0.00006431
H       -0.61890060      -5.90074146       1.18279841       0.00005553       0.00008285       0.00024608
H       -2.52821805      -4.54390139       0.32963908       0.00002421       0.00012223       0.00035976
H       -4.21786627      -2.88459762      -0.59008661       0.00004405      -0.00003801       0.00020146
H       -5.37169022      -0.89312557      -1.47888929       0.00008906      -0.00009254      -0.00020728
H       -4.18066588       1.24077669      -1.82329814       0.00008170      -0.00029748      -0.00061270
C        0.65662805      -0.46989025      -1.93247593      -0.00693229      -0.00183194      -0.00104056
O        1.05396198      -0.49685430      -3.01425750       0.00310738       0.00134582      -0.00006298
C       -0.46356284       0.47448772       1.27942438       0.00102970      -0.00092822       0.00056549
O       -0.76735040       1.05456276       2.22478952      -0.00039211       0.00122013      -0.00040615
