50
Properties=species:S:1:pos:R:3 energy:=T -86.201242692472=T gnorm:=T 0.000189879780=T xtb:=T 6.7.1=T (edcfbbe)=T pbc="F F F"
Mn       0.02749335      -0.27086359      -0.27418921
C        2.29676197      -2.30213188       0.53669701
P        2.08111899      -0.43504942       0.54497506
C        3.61689052       0.12241507      -0.25380447
C        4.86335124      -0.40847581       0.06959527
C        5.99577521       0.07068945      -0.56293494
C        5.89294769       1.08057222      -1.50853528
C        4.65562733       1.62071929      -1.82088710
C        3.51823086       1.14314918      -1.19317738
C        2.41332294      -0.05635366       2.29593185
C        3.19501694       1.03417186       2.66329670
C        3.37109373       1.33828394       4.00197707
C        2.76128990       0.56685543       4.97788237
C        1.96481994      -0.50862018       4.61535489
C        1.78532057      -0.81731934       3.27997362
C        0.94794351      -2.96641797       0.57894901
C        0.78440530      -4.29046129       0.95635391
C       -0.47735454      -4.87222434       0.88932699
C       -1.54057044      -4.12113147       0.42282067
C       -1.32903365      -2.79298095       0.06984312
C       -2.31880002      -1.85515405      -0.45678206
C       -3.67694238      -1.96558849      -0.74514308
C       -4.31774506      -0.83132791      -1.24551097
C       -3.66299098       0.37234585      -1.44760125
C       -2.28789210       0.43178429      -1.13493395
O       -1.43073812       1.38493112      -1.18480939
N       -1.71574596      -0.69106459      -0.67923324
N       -0.09377763      -2.21899498       0.18125378
H        2.95003867      -2.65030169       1.34136770
H        2.76744825      -2.53677615      -0.42797511
H        4.94220892      -1.18528438       0.81701678
H        6.96393105      -0.34141299      -0.31798984
H        6.78121224       1.45006923      -1.99980788
H        4.57763627       2.41204042      -2.55223226
H        2.53690436       1.55231160      -1.41580264
H        3.66070491       1.64107365       1.89862828
H        3.98171179       2.18371147       4.28411916
H        2.89876462       0.80830938       6.02168667
H        1.47894963      -1.10280827       5.37591062
H        1.14831878      -1.64518376       2.99163343
H        1.63664196      -4.86277696       1.28822397
H       -0.61890060      -5.90074146       1.18279841
H       -2.52821805      -4.54390139       0.32963908
H       -4.21786627      -2.88459762      -0.59008661
H       -5.37169022      -0.89312557      -1.47888929
H       -4.18066588       1.24077669      -1.82329814
C        0.65662805      -0.46989025      -1.93247593
O        1.05396198      -0.49685430      -3.01425750
C       -0.46356284       0.47448772       1.27942438
O       -0.76735040       1.05456276       2.22478952
