43

O       0.242916846176420     -1.670966695251820     -1.459435203998560
C       0.403482032972580     -0.453947104302820     -0.781830687389060
N      -0.214823455647490     -0.499683815339510      0.527469552468760
C      -1.578473175001260     -0.433504504123300      0.731704669167100
C      -2.492094917711700     -0.707235379176940     -0.287917352979800
C      -3.849663550167530     -0.686380765030660     -0.028849308051590
C      -4.325309625768840     -0.403725951931380      1.240594715985180
C      -3.423186355778970     -0.137556247379540      2.258655260260280
C      -2.065730511963490     -0.148941176909250      2.010610102165340
C       1.860746537284800     -0.079769468130900     -0.601868009802690
C       2.723804270438420     -0.952241328949390      0.053025460057950
C       4.053879052422280     -0.613053506707160      0.228395884060470
C       4.532998342795630      0.597722278778980     -0.244180898091710
C       3.676913659193690      1.469414127969710     -0.895597914374990
C       2.345946569971070      1.131777065000330     -1.074181527526200
H       0.578792192604770     -2.390070849617290     -0.887154639815860
H      -0.096382564503080      0.290972652553830     -1.423824166590470
H       0.355010053252060     -0.156308078097850      1.286080344710360
H      -2.135615824608840     -0.946330849073060     -1.277834283507880
H      -4.543682314956820     -0.898765948806710     -0.830121277708550
H      -5.387405448067150     -0.392121417924770      1.436220902992890
H      -3.781056897838050      0.084387770594620      3.254329400268610
H      -1.365502438594220      0.062109435808240      2.807887089034150
H       2.355767534465080     -1.899216580910120      0.420090227543860
H       4.718781654419290     -1.296815228442130      0.735980376566680
H       5.571755537967330      0.860968483410710     -0.106591649124860
H       4.045633636267150      2.414368548636690     -1.267710510848950
H       1.679473589401210      1.812593578118530     -1.584977303576020
C       0.068553855108590     -3.684495922170940      2.079149081261410
C       0.058465068158430     -4.525929251058600      0.803297921412700
C       0.408588151337410     -5.984198519125860      1.117024250667650
C      -1.307574408620850     -4.439926247808360      0.115504263846240
O       1.066525351452960     -3.968855961224510     -0.049407151722470
H      -0.655212000005970     -4.073011483552130      2.789400650053850
H      -0.187378593311880     -2.655581814601050      1.843668755063400
H       1.058025874032310     -3.707380459173000      2.529986497674160
H       0.398805754223360     -6.584855246261950      0.208154873692540
H       1.400164092555620     -6.042730401012820      1.561454213194940
H      -0.312417011989290     -6.402216563241510      1.813892988883890
H      -1.309491173946200     -5.019506421349310     -0.806724380493160
H      -1.544150881529720     -3.406067574202140     -0.125277882390200
H      -2.082054703919100     -4.828322921546420      0.771055257639940
H       1.147932744463910     -4.528860767879900     -0.830772584074610
