80
Properties=species:S:1:pos:R:3 charge=0 unpaired=0 uhf=0 pbc="F F F"
Mn       0.22681213      -0.19565706      -0.55770986
N        0.47290156      -2.45519125      -0.50795111
C        1.62757209      -2.82352789       0.31476229
C        2.85766604      -2.10433762      -0.23194607
P        2.42755838      -0.30398546      -0.38602935
C        3.16228006       0.46584881       1.09858518
C        3.48590266      -0.20764990       2.26998447
C        3.96338755       0.49472508       3.36377348
C        4.10936843       1.86977514       3.30273239
C        3.76620087       2.55069679       2.14425298
C        3.29081297       1.85367257       1.05128461
C        3.66071406       0.28387123      -1.59894660
C        3.23918127       1.17547145      -2.57825462
C        4.15182635       1.69795387      -3.47908300
C        5.48378286       1.32280206      -3.41025820
C        5.90666451       0.43420288      -2.43300972
C        5.00244694      -0.07856350      -1.52106004
C       -0.74350487      -3.23010333      -0.21125068
C       -1.71815114      -2.41090640       0.63190479
P       -1.87596237      -0.80247738      -0.27364347
C       -2.94564556       0.22345622       0.77882479
C       -3.39352038      -0.10793685       2.05129583
C       -4.17913557       0.78770547       2.75826650
C       -4.52012273       2.00975882       2.20424021
C       -4.07271923       2.34617561       0.93495849
C       -3.28738555       1.45807048       0.22726631
C       -3.11206923      -1.28154745      -1.54442690
C       -2.76932151      -1.22729640      -2.88925629
C       -3.68739765      -1.59851063      -3.85695225
C       -4.95129708      -2.02478815      -3.48507072
C       -5.30142043      -2.07112599      -2.14356437
C       -4.38893172      -1.69795958      -1.17484917
H        1.78863434      -3.91311639       0.28967203
H        1.43904455      -2.52601705       1.35423820
H        3.06939091      -2.46555004      -1.24574483
H        3.73976664      -2.26877182       0.39109181
H        3.36245366      -1.27955916       2.34660002
H        4.21585563      -0.03586721       4.27146587
H        4.47952615       2.41255374       4.16056425
H        3.86295427       3.62614655       2.09875897
H        2.99996889       2.37553410       0.14615415
H        2.18751547       1.44055710      -2.61526848
H        3.82555868       2.40214810      -4.23174787
H        6.19675920       1.72646222      -4.11475854
H        6.94738742       0.14803976      -2.37781870
H        5.33762284      -0.75347949      -0.74510427
H       -1.23558485      -3.47617567      -1.15993965
H       -0.48552886      -4.17141438       0.29241652
H       -2.67978393      -2.92140471       0.73609077
H       -1.29910058      -2.21346674       1.62423667
H       -3.13251123      -1.05582691       2.50092618
H       -4.52395204       0.52918422       3.74983060
H       -5.13027536       2.70390258       2.76406561
H       -4.33191812       3.30266401       0.50418372
H       -2.91213305       1.70518295      -0.76092177
H       -1.78059060      -0.87997517      -3.16215240
H       -3.41791237      -1.54551448      -4.90221486
H       -5.66982242      -2.31410197      -4.23852684
H       -6.29141290      -2.39442605      -1.85435350
H       -4.66869431      -1.71662905      -0.12902197
C        0.04500005       1.55613168      -0.56275071
O       -0.07317763       2.71264693      -0.43946540
C        0.16838762       0.02689525       1.17464271
O        0.10362430       0.32481021       2.29772184
O        0.66091774      -3.71564841      -3.09273469
C        0.02455224      -3.35430538      -4.06164922
C        0.35239432      -2.23223293      -4.92854929
C        1.47530435      -1.43895691      -4.67446753
C        1.77223815      -0.37522450      -5.50240571
C        0.95240904      -0.08878405      -6.58389100
C       -0.16546375      -0.87003328      -6.84418575
C       -0.46533733      -1.93833435      -6.02347306
H        0.74021844      -2.69260611      -1.47088991
H        0.24057606      -0.28730595      -2.08121994
H       -0.89754345      -3.89762466      -4.34937049
H        2.09949386      -1.66314494      -3.82169163
H        2.64074145       0.23304143      -5.30079479
H        1.18344762       0.74726110      -7.22779593
H       -0.79950101      -0.64081039      -7.68815885
H       -1.33054566      -2.55608554      -6.22061660
