64
 energy: -92.267448830281 gnorm: 0.000138374351 xtb: 6.7.1 (edcfbbe)
Fe          -0.15074923007365       -0.39162554608523       -0.54833169170683
N           -0.36426110014804       -2.29477026080003        0.04501996127449
C            0.73120320000213       -3.17166521823321       -0.42750707539700
C            2.08123981233090       -2.47824959759663       -0.28367760997935
P            1.89285841645008       -0.81344665332924       -1.07171908087782
C            2.74512826509373       -0.98268558943628       -2.66572113484268
C            4.08699818959790       -1.35388921107689       -2.68767236630423
C            4.73978606219548       -1.49024240265370       -3.89779250539938
C            4.05949587406998       -1.25661471472142       -5.08438897012168
C            2.72657429951994       -0.87978043645920       -5.06223169043688
C            2.06722192760819       -0.74007876813957       -3.85256522453483
C            2.93446530955210        0.32120988871356       -0.12129003268663
C            2.91094880403621        0.30705492444176        1.26921810937675
C            3.54976396582689        1.30420640364730        1.97943912770011
C            4.21287156276871        2.32317703900170        1.31349655559308
C            4.23458225481332        2.34505079310327       -0.07101610645553
C            3.58726067118632        1.35527527153337       -0.78878552173080
C           -0.47054712974140       -2.26121811704476        1.52368499842905
C           -1.65751815518280       -1.39919671714639        1.95407756336240
P           -1.83105164269472       -0.01651200142384        0.74748395916268
C           -0.95264916944581        1.46681725403046        1.31734703470981
C           -0.13310953378694        1.96097407084827        0.29478810581558
C            0.78948214577407        2.94624154010864        0.55085241539552
C            0.89326114078994        3.45146805169836        1.84364585564276
C            0.09404740046267        2.96096299958121        2.85986200144890
C           -0.83279599365572        1.95910139482546        2.60435744673363
C           -3.59856334108704        0.37729921176991        0.71711917103082
C           -4.46345561708696       -0.57838570626048        0.18965703933250
C           -5.82081803460628       -0.32634361343641        0.14059765567244
C           -6.31623786469902        0.88250664933117        0.60742284281817
C           -5.45334341852612        1.84036816531259        1.11517694007784
C           -4.09172657816733        1.59645867447038        1.16687402968120
H           -1.23495977276218       -2.71744150441694       -0.29541764564551
H            0.54348722383805       -3.37347957953595       -1.48622032632403
H            0.71864114212435       -4.11614818437957        0.12648008339108
H            2.86107616591599       -3.05623669945719       -0.78752019954590
H            2.36088727664791       -2.35340935218511        0.76466092441762
H            4.61352135598701       -1.52014278224979       -1.75751827153046
H            5.78140247391587       -1.77641230540841       -3.92058188737266
H            4.57353811359519       -1.36468631848948       -6.02860997840787
H            2.20283865991781       -0.69321172537095       -5.98841063682613
H            1.02979987201946       -0.43928269522895       -3.81956768268379
H            2.38581337410540       -0.46541221724567        1.80520162980483
H            3.52835042830392        1.29120989745692        3.05934387930167
H            4.70999304942612        3.10202627334236        1.87386875480129
H            4.74708155398439        3.14015353773047       -0.59393284303254
H            3.58797866879375        1.38001648004220       -1.87088055181037
H            0.45084665894766       -1.84523394845219        1.92173237809964
H           -0.59453467879375       -3.28183055267993        1.90237707104001
H           -2.59212801430983       -1.97288228074778        1.91745547282006
H           -1.52407820289368       -1.01718813787703        2.97016219685277
H           -0.22173726366660        1.48745547194246       -0.71964435409533
H            1.43473267435767        3.31303726262331       -0.23230627889572
H            1.62258123056429        4.21956073213463        2.05305841066164
H            0.20342056260072        3.34351058696719        3.86427279598181
H           -1.43956336129571        1.55157386886975        3.40121161018852
H           -4.06626196708179       -1.51085295536611       -0.18972192373336
H           -6.49573933297084       -1.06540271400483       -0.26564547342214
H           -7.37745815714018        1.08057295091466        0.56780085422808
H           -5.84316684195026        2.78327360047932        1.47017534252892
H           -3.41687432668275        2.34630998492085        1.55453989888409
C           -0.97597132300464       -0.58942983541163       -2.07337045723708
O           -1.57109981502345       -0.68870544003785       -3.04676650201228
H            0.50585899756474       -0.19378960673957        0.67971404795320
