80

Mn      0.091705746172590     -0.245803280935907     -0.451401700042127
N       0.396134625536054     -2.397567073139810     -0.146213920339690
C       1.762101919127256     -2.877577965381071      0.093049495578808
C       2.760648617586720     -2.069648269420117     -0.724769278767409
P       2.346990680108092     -0.266114936060116     -0.588287819341943
C       3.356715454579631      0.283476536686330      0.843747989803636
C       3.079155857634562     -0.256916294893666      2.097914963458282
C       3.795866215203952      0.135058348020721      3.212465994607938
C       4.788069144734906      1.095858262202330      3.095051523415121
C       5.053085367119079      1.660103741794882      1.858641921408896
C       4.345795455385221      1.257280540785995      0.738339023261755
C       3.318268654741280      0.458184411588651     -1.953625853049511
C       2.998931495132701      1.759650292783588     -2.337511866646073
C       3.729887282134758      2.401190777096309     -3.319847769661651
C       4.790047366500755      1.748770083946306     -3.928739474552857
C       5.116240947903155      0.458203099550794     -3.548892700554268
C       4.388427782061400     -0.187786316592790     -2.564360750066499
C      -0.564311457084679     -3.177936997843688      0.652862703598578
C      -1.854739439865341     -2.401747351843073      0.948531826624100
P      -2.050425326939938     -0.925746083662784     -0.159786550393200
C      -3.196688953657012      0.096812581968832      0.827766991224074
C      -4.216887734253879     -0.472085415529041      1.585934172066289
C      -5.080527546565188      0.334577427956587      2.304126862380929
C      -4.949507353780673      1.714028632078053      2.256672229019290
C      -3.947073298496173      2.287623894817568      1.491635341587485
C      -3.071896824354985      1.481537622727953      0.785034527931024
C      -3.230790007008118     -1.550541482872879     -1.415004482996323
C      -3.068509840455625     -2.815585051885272     -1.974770631220755
C      -3.947354172067593     -3.267354718248460     -2.941933406498865
C      -5.000340908680506     -2.466793467334307     -3.353804965194874
C      -5.159839519320734     -1.202224281448662     -2.810427530854095
C      -4.273244758789189     -0.738600964328280     -1.855637352040901
H       1.841644398250397     -3.943096721749646     -0.177325203916509
H       1.987763548211880     -2.784139257784366      1.162211533246004
H       2.651950872638124     -2.323800658796015     -1.785193502369068
H       3.783259197719780     -2.269898153078859     -0.395021766702628
H       2.280211763384226     -0.977066776738573      2.209446326155469
H       3.573404989146983     -0.298329353852136      4.177663337426914
H       5.343530323492666      1.411653699495797      3.966485595278812
H       5.812691542803658      2.423806902388138      1.763274718027977
H       4.565309150570035      1.710099709882936     -0.217311075234200
H       2.174992631931052      2.263440564808127     -1.847176395146317
H       3.475368083323677      3.410831439747490     -3.607562475247522
H       5.365906007978839      2.247077323706385     -4.693997927215363
H       5.949112541426297     -0.049410114511943     -4.013680675492022
H       4.670061756630727     -1.188715488704015     -2.272862289769678
H      -0.797942150112745     -4.118785617726957      0.133875597323619
H      -0.086841089209314     -3.440819372204096      1.605733970934309
H      -2.727499349521337     -3.054880145492072      0.881947350727764
H      -1.807406782659144     -1.980227217942273      1.958710583388851
H      -4.343361434435599     -1.544740309407560      1.614291556605632
H      -5.862556028109874     -0.114229070448127      2.900732294252204
H      -5.629791725413606      2.341129127885922      2.814514921866199
H      -3.844280505149992      3.362830443144677      1.444832391023210
H      -2.282188913251206      1.923404852340515      0.191911775758367
H      -2.235869875942031     -3.439484947230789     -1.681259557137909
H      -3.805194285874561     -4.245124322146506     -3.379536372203167
H      -5.689889579057820     -2.823642129466477     -4.103909239984119
H      -5.975987989149259     -0.571963920647054     -3.133517699433108
H      -4.390142860171715      0.255500289597839     -1.443595484851014
C      -0.178485383323872      1.404185000521134     -0.993589224427855
O      -0.348198240075443      2.502128957058637     -1.357877686359504
C       0.052827602691740      0.309989368687703      1.222419695366131
O      -0.031827283705863      0.761206067552039      2.286937931347135
O      -0.000371453861000     -2.849783760827116     -2.760841552308413
C      -0.199880216117180     -1.689609499951438     -3.218463977864765
C       0.639668429239261     -1.150669088635163     -4.337616595272347
C       0.976358557902145      0.185600105979794     -4.486225288114969
C       1.657129666605866      0.614446252593324     -5.613438694285469
C       1.988493358926653     -0.286232659490416     -6.612545434112154
C       1.655120002640181     -1.621646750586877     -6.473156298007533
C       0.993404608974733     -2.053835077405470     -5.335681021664517
H       0.204901900824519     -2.655548706333692     -1.146731613412378
H       0.083179805796583     -0.670807982973094     -2.074223607976589
H      -1.256582349255415     -1.370281796501902     -3.356392189131455
H       0.710513199748862      0.894050125449444     -3.714694020715442
H       1.924020781293899      1.656539135614381     -5.711865238619397
H       2.511850208300342      0.053546110901921     -7.496114077993539
H       1.902406323027408     -2.330491250716901     -7.251568512854179
H       0.722728899403291     -3.093141730986613     -5.218928783517477
