50
 energy: -80.966143126499 gnorm: 0.000300080683 xtb: 6.7.1 (edcfbbe)
Fe           0.09650803076359       -0.40055421977968       -0.35345358331986
C            2.30668277183122       -2.27569946325110        0.64450656073586
P            2.06183148233918       -0.42728758274731        0.52670809109805
C            3.59474635500543        0.10960987131317       -0.29269897212731
C            4.84641366319952       -0.34810890544276        0.11188698994683
C            5.97992320697842        0.08690848308212       -0.54959145184394
C            5.87162458044704        0.97913561113522       -1.60649227325056
C            4.62815414310917        1.44558304677068       -2.00254384786653
C            3.48942980047888        1.01177697036339       -1.34620904064511
C            2.28984332389518        0.09578972938070        2.25170875495457
C            1.50381278425856       -0.52349152149662        3.22098028329478
C            1.60069568762395       -0.12909244010963        4.54136733160735
C            2.46843337728114        0.89296355370747        4.89852247548673
C            3.23420079869546        1.52423140775080        3.93235438287038
C            3.14494617641903        1.13309952016381        2.60698138734893
C            0.96891401120581       -2.94645727137227        0.63371784221307
C            0.77725717918542       -4.24317694183380        1.07730161787360
C           -0.48462441740172       -4.81944325664364        1.00001049084978
C           -1.53382104563689       -4.07800452229105        0.48991859360402
C           -1.29851704878755       -2.77480863995114        0.07264069527101
C           -2.27639652048748       -1.83314733837268       -0.42874122159773
C           -3.65027283377401       -1.94364402943976       -0.61923621394014
C           -4.34922117757872       -0.82785547074828       -1.05058701346164
C           -3.70159807304866        0.38764748761224       -1.27819535911566
C           -2.33811666158749        0.42281473093259       -1.07878027852577
O           -1.45921698165115        1.43852999968333       -1.20857735027650
N           -1.66833699007703       -0.66124145030684       -0.69083500275452
N           -0.05088450102933       -2.22337682203669        0.13702414978888
H            2.86464224650210       -2.57743215238720       -0.25269944006124
H            2.88988544561128       -2.56091451207342        1.52633552556831
H            4.92876618450352       -1.03277263218414        0.94413627552088
H            6.95260424106289       -0.26784367899445       -0.24152597780010
H            6.76078658393817        1.31420515783046       -2.12006505586964
H            4.54922715716618        2.14473756426150       -2.82204859048714
H            2.50693659749831        1.36655269032251       -1.64004396406997
H            0.80980616167248       -1.30004861261454        2.92880892093256
H            0.99704160487391       -0.61200061532225        5.29582908758796
H            2.54142108430304        1.20258387252309        5.93090884164668
H            3.90119322308883        2.32738447750869        4.21045577972687
H            3.73845590108941        1.63186154548984        1.85316835091742
H            1.61246951572685       -4.79764704232898        1.47641308607754
H           -0.64165059651998       -5.83139343404297        1.33926522995466
H           -2.52748615000929       -4.49019962213493        0.42142957230381
H           -4.16047442129854       -2.87267962567918       -0.42636905906148
H           -5.41568989428009       -0.89056509941075       -1.20152095559743
H           -4.25085366110361        1.26268645146669       -1.58896259191836
H           -1.88934661341828        2.28893376056927       -1.38041371087735
C            0.70062171063290       -0.83349938016245       -1.94930378594532
O            1.06312115951951       -1.20852612711679       -2.96386654622635
H           -0.28583282087808       -0.05196785931000        0.96882267701203
