64
Properties=species:S:1:pos:R:3:forces:R:3 energy:=T -92.259270109447=T gnorm:=T 0.000130866195=T xtb:=T 6.7.1=T (edcfbbe)=T energy=-2510.5026132660932 pbc="F F F"
Fe       0.17622855      -1.03201133      -0.94146145       0.00158424      -0.00198336       0.00087486
N       -0.06859948      -3.05007265      -0.36492867       0.00023005       0.00178001      -0.00084529
C        0.70088994      -3.25081709       0.88529986      -0.00008385      -0.00049017       0.00127389
C        2.16930080      -2.89474151       0.65596921      -0.00055548       0.00032407      -0.00029608
P        2.22849048      -1.41089834      -0.45190901       0.00014512       0.00132300      -0.00035827
C        3.66339702      -1.76313736      -1.51507425      -0.00027720      -0.00065827      -0.00029383
C        3.48101647      -2.73211331      -2.49939764       0.00030265      -0.00109083      -0.00048519
C        4.52183352      -3.06867571      -3.34260742      -0.00043906       0.00023877      -0.00011825
C        5.74713562      -2.43112809      -3.21209674       0.00069230       0.00024710       0.00012126
C        5.92520800      -1.45572383      -2.24464000      -0.00025711      -0.00008084      -0.00007565
C        4.88592521      -1.11357571      -1.39582764      -0.00057654      -0.00011286      -0.00110192
C        2.67440100       0.08357329       0.46891756      -0.00045183      -0.00006624      -0.00006954
C        3.53901441       0.19095704       1.54848856      -0.00022670      -0.00007045      -0.00045349
C        3.69794471       1.42034373       2.16964423      -0.00014592      -0.00007981      -0.00026730
C        2.99997431       2.52808439       1.71766604       0.00025991       0.00002258      -0.00037704
C        2.13173028       2.42364283       0.63780450       0.00011473       0.00008845       0.00022828
C        1.97167726       1.20273145       0.01547697      -0.00031713      -0.00000569       0.00040068
C       -1.49035455      -3.44028363      -0.22899850      -0.00050161      -0.00007455       0.00072304
C       -2.29929354      -2.29784280       0.37720086       0.00061017      -0.00007197       0.00071132
P       -1.93658103      -0.79982644      -0.63744094      -0.00107413       0.00083079      -0.00025034
C       -3.09326126      -0.81720261      -2.04403593      -0.00044668      -0.00123441       0.00052506
C       -2.95178922       0.27046762      -2.90527287      -0.00031128      -0.00007874      -0.00093100
C       -3.74822846       0.38305127      -4.02713227       0.00069177       0.00021186       0.00015514
C       -4.68667326      -0.60051584      -4.30432435      -0.00044893      -0.00103157       0.00033368
C       -4.82168914      -1.68928005      -3.45938229      -0.00033065       0.00034960      -0.00058635
C       -4.02758883      -1.80435012      -2.32992066       0.00108772       0.00038975       0.00126478
C       -2.60242390       0.54570871       0.38512301       0.00024983       0.00016314      -0.00003463
C       -1.73269982       1.37893914       1.07926253       0.00018734       0.00011046      -0.00018280
C       -2.23874095       2.38356656       1.88559262       0.00004937       0.00003657      -0.00023033
C       -3.60843937       2.55877877       1.99821210       0.00002040       0.00004764       0.00012677
C       -4.47694358       1.72899476       1.30436290       0.00008761       0.00020626      -0.00013470
C       -3.97996391       0.72450200       0.49524149      -0.00011366       0.00028929      -0.00002201
H        0.34419498      -3.68347592      -1.05770715       0.00057733      -0.00041602       0.00043804
H        0.27471463      -2.60335565       1.65145096       0.00019133       0.00111827      -0.00001175
H        0.61498885      -4.29401280       1.21102755      -0.00068154       0.00044271       0.00085952
H        2.69335970      -3.70910264       0.14150337      -0.00036643      -0.00000858       0.00011242
H        2.67947900      -2.69546658       1.60184789      -0.00008537       0.00006721      -0.00022889
H        2.51262101      -3.20691046      -2.60500988       0.00007293      -0.00010955      -0.00004313
H        4.38173074      -3.82039701      -4.10543388       0.00023380      -0.00012394       0.00004055
H        6.56184875      -2.69050209      -3.87189895      -0.00008762      -0.00019857      -0.00009027
H        6.87826320      -0.95584748      -2.15177551       0.00027059       0.00046520      -0.00000721
H        5.02725166      -0.34626740      -0.64831162       0.00021260       0.00040985       0.00040019
H        4.07996790      -0.67517077       1.90389976       0.00015988       0.00009925      -0.00019243
H        4.36547270       1.51234528       3.01387484      -0.00028474       0.00000635      -0.00008313
H        3.12582721       3.48059635       2.21082739      -0.00050309      -0.00049125       0.00051634
H        1.58574514       3.29065685       0.29575258      -0.00057473      -0.00041137      -0.00000065
H        1.27838202       1.08400577      -0.84065217       0.00023347       0.00016182      -0.00023536
H       -1.86767527      -3.65528841      -1.23362108       0.00010724       0.00062648      -0.00020520
H       -1.57453607      -4.34474722       0.38391675       0.00017469      -0.00013157      -0.00059651
H       -3.36837180      -2.52461728       0.40685115      -0.00023849       0.00019584      -0.00016740
H       -1.96904130      -2.06907722       1.39485366      -0.00034744      -0.00038583       0.00003260
H       -2.20603036       1.02549582      -2.67645042       0.00035913      -0.00041496       0.00041408
H       -3.63966601       1.22998477      -4.68881683       0.00025381      -0.00045985       0.00002300
H       -5.30996284      -0.51866801      -5.18261977       0.00018025      -0.00028992       0.00002148
H       -5.55062758      -2.45536096      -3.68103244      -0.00004739      -0.00021673       0.00034206
H       -4.14989089      -2.66072806      -1.68306609      -0.00077142      -0.00019811      -0.00012810
H       -0.66517424       1.23058433       0.99413672      -0.00003992       0.00031817       0.00012410
H       -1.56434086       3.03140536       2.42640915       0.00001675       0.00029436      -0.00009584
H       -4.00267126       3.34416779       2.62651910       0.00015131       0.00031420      -0.00023197
H       -5.54447657       1.86822736       1.39440512       0.00004638       0.00017929      -0.00028722
H       -4.65481136       0.08196285      -0.05380305       0.00018708       0.00004500      -0.00004266
C        0.12792829      -1.29437281      -2.67496632       0.00073553      -0.00090748      -0.00023821
O        0.07612973      -1.40812774      -3.81273911      -0.00001383       0.00044295       0.00030542
H        0.18080238      -0.74908090       0.44597060       0.00012249       0.00004723      -0.00036860
