64
Properties=species:S:1:pos:R:3 energy:=T -92.259270109447=T gnorm:=T 0.000130866195=T xtb:=T 6.7.1=T (edcfbbe)=T pbc="F F F"
Fe       0.17622855      -1.03201133      -0.94146145
N       -0.06859948      -3.05007265      -0.36492867
C        0.70088994      -3.25081709       0.88529986
C        2.16930080      -2.89474151       0.65596921
P        2.22849048      -1.41089834      -0.45190901
C        3.66339702      -1.76313736      -1.51507425
C        3.48101647      -2.73211331      -2.49939764
C        4.52183352      -3.06867571      -3.34260742
C        5.74713562      -2.43112809      -3.21209674
C        5.92520800      -1.45572383      -2.24464000
C        4.88592521      -1.11357571      -1.39582764
C        2.67440100       0.08357329       0.46891756
C        3.53901441       0.19095704       1.54848856
C        3.69794471       1.42034373       2.16964423
C        2.99997431       2.52808439       1.71766604
C        2.13173028       2.42364283       0.63780450
C        1.97167726       1.20273145       0.01547697
C       -1.49035455      -3.44028363      -0.22899850
C       -2.29929354      -2.29784280       0.37720086
P       -1.93658103      -0.79982644      -0.63744094
C       -3.09326126      -0.81720261      -2.04403593
C       -2.95178922       0.27046762      -2.90527287
C       -3.74822846       0.38305127      -4.02713227
C       -4.68667326      -0.60051584      -4.30432435
C       -4.82168914      -1.68928005      -3.45938229
C       -4.02758883      -1.80435012      -2.32992066
C       -2.60242390       0.54570871       0.38512301
C       -1.73269982       1.37893914       1.07926253
C       -2.23874095       2.38356656       1.88559262
C       -3.60843937       2.55877877       1.99821210
C       -4.47694358       1.72899476       1.30436290
C       -3.97996391       0.72450200       0.49524149
H        0.34419498      -3.68347592      -1.05770715
H        0.27471463      -2.60335565       1.65145096
H        0.61498885      -4.29401280       1.21102755
H        2.69335970      -3.70910264       0.14150337
H        2.67947900      -2.69546658       1.60184789
H        2.51262101      -3.20691046      -2.60500988
H        4.38173074      -3.82039701      -4.10543388
H        6.56184875      -2.69050209      -3.87189895
H        6.87826320      -0.95584748      -2.15177551
H        5.02725166      -0.34626740      -0.64831162
H        4.07996790      -0.67517077       1.90389976
H        4.36547270       1.51234528       3.01387484
H        3.12582721       3.48059635       2.21082739
H        1.58574514       3.29065685       0.29575258
H        1.27838202       1.08400577      -0.84065217
H       -1.86767527      -3.65528841      -1.23362108
H       -1.57453607      -4.34474722       0.38391675
H       -3.36837180      -2.52461728       0.40685115
H       -1.96904130      -2.06907722       1.39485366
H       -2.20603036       1.02549582      -2.67645042
H       -3.63966601       1.22998477      -4.68881683
H       -5.30996284      -0.51866801      -5.18261977
H       -5.55062758      -2.45536096      -3.68103244
H       -4.14989089      -2.66072806      -1.68306609
H       -0.66517424       1.23058433       0.99413672
H       -1.56434086       3.03140536       2.42640915
H       -4.00267126       3.34416779       2.62651910
H       -5.54447657       1.86822736       1.39440512
H       -4.65481136       0.08196285      -0.05380305
C        0.12792829      -1.29437281      -2.67496632
O        0.07612973      -1.40812774      -3.81273911
H        0.18080238      -0.74908090       0.44597060
