63
Properties=species:S:1:pos:R:3:forces:R:3 energy:=T -92.275184402701=T gnorm:=T 0.000039564664=T xtb:=T 6.7.1=T (edcfbbe)=T energy=-2510.935663238643 pbc="F F F"
Co       0.39069385      -0.77870453      -1.31144313      -0.00009135      -0.00002695      -0.00031323
N       -0.28928277      -2.45611479      -0.50174184       0.00000991      -0.00011227      -0.00010053
C        0.44642573      -2.95104540       0.67679902       0.00003458       0.00002437      -0.00001812
C        1.94485976      -2.92676119       0.39688106       0.00002043       0.00000138      -0.00004648
P        2.30472437      -1.29218463      -0.39629582      -0.00015574       0.00006978      -0.00011819
C        3.71473322      -1.66349704      -1.47123915      -0.00001245      -0.00008357       0.00001199
C        3.46281816      -1.80120227      -2.83259514      -0.00004298      -0.00006927       0.00009714
C        4.49155676      -2.13136410      -3.69607779      -0.00001982      -0.00006854      -0.00004178
C        5.77111272      -2.32487573      -3.19930945       0.00002106       0.00004894      -0.00000425
C        6.02277679      -2.19173815      -1.84167857       0.00001970       0.00003376      -0.00005278
C        4.99846984      -1.86278674      -0.97249445      -0.00002684      -0.00007132       0.00002081
C        2.98712604      -0.21053013       0.88925935      -0.00002969      -0.00007316       0.00001093
C        2.69045430      -0.36112631       2.24031434       0.00005269      -0.00009028      -0.00002289
C        3.19709002       0.53953224       3.16159543      -0.00001877      -0.00014634       0.00004363
C        3.98697121       1.59740607       2.74232918      -0.00019608       0.00005579       0.00001138
C        4.26607990       1.76376463       1.39379703      -0.00034559       0.00013884       0.00003912
C        3.76210166       0.87015795       0.46833696      -0.00016683       0.00006617       0.00001434
C       -1.74478388      -2.59260091      -0.30310440      -0.00001398      -0.00003794      -0.00004901
C       -2.49047939      -2.05144466      -1.51712933      -0.00004040       0.00002892      -0.00004451
P       -1.69870224      -0.41823794      -1.84663728       0.00011755      -0.00004023      -0.00004570
C       -2.52428859       0.30934760      -3.28294693      -0.00003479       0.00001719       0.00005571
C       -2.25892853       1.65565776      -3.53372326      -0.00004443      -0.00001111       0.00002618
C       -2.84256440       2.28730601      -4.61450473      -0.00006335       0.00005687       0.00002646
C       -3.68643769       1.57801589      -5.45693508      -0.00005426       0.00000940      -0.00000104
C       -3.94299109       0.23819044      -5.21667321      -0.00011133       0.00006347       0.00007305
C       -3.36200379      -0.40224981      -4.13496538      -0.00015403       0.00008156       0.00013014
C       -2.29683538       0.58433707      -0.45453916       0.00010717      -0.00006440       0.00000828
C       -3.60722934       1.04366293      -0.37271444       0.00010983      -0.00005508       0.00015507
C       -4.00783696       1.76967276       0.73480716       0.00023233       0.00008751       0.00011843
C       -3.10975480       2.03604037       1.75767486       0.00036437       0.00015759       0.00003925
C       -1.80239853       1.58071421       1.67761206       0.00031720       0.00002387      -0.00006514
C       -1.39582498       0.85705554       0.57185756       0.00017149      -0.00002038      -0.00007505
H       -0.03751828      -3.06626236      -1.29174444       0.00004741      -0.00003363      -0.00003361
H        0.20284790      -2.29537307       1.51821169       0.00002755       0.00008529      -0.00012767
H        0.12258804      -3.96873079       0.93134765      -0.00004171       0.00009615       0.00004615
H        2.53783717      -3.09153409       1.29841479      -0.00000929      -0.00009353      -0.00003492
H        2.20991609      -3.69834037      -0.33413874      -0.00006741       0.00001239      -0.00006009
H        2.45464724      -1.63689433      -3.20259468      -0.00004293      -0.00002950       0.00000135
H        4.29985583      -2.23439213      -4.75383579      -0.00003419      -0.00003980      -0.00000607
H        6.57686346      -2.57832395      -3.87209144      -0.00002783      -0.00006825      -0.00003182
H        7.02187077      -2.34422026      -1.46097426       0.00001591      -0.00007036      -0.00002427
H        5.19194113      -1.75282283       0.08568125       0.00001731       0.00000934       0.00001675
H        2.07211334      -1.17813595       2.58297894      -0.00001476      -0.00007819       0.00001902
H        2.97391051       0.41524333       4.21109982      -0.00010781      -0.00004589       0.00002344
H        4.38197879       2.29566581       3.46498768      -0.00018843       0.00001202       0.00005415
H        4.87546017       2.59258250       1.06538230      -0.00021731       0.00009057       0.00004878
H        3.97173542       0.99743487      -0.58589704      -0.00015913       0.00007407      -0.00000961
H       -2.01989372      -2.01185040       0.58356582       0.00000398      -0.00011610      -0.00004722
H       -2.00976709      -3.64198218      -0.12139946       0.00000087      -0.00002389      -0.00013607
H       -3.56131031      -1.95352517      -1.32329206      -0.00005558      -0.00000537      -0.00003936
H       -2.33689919      -2.70052815      -2.38484123      -0.00001514       0.00010091      -0.00003249
H       -1.59786676       2.19878115      -2.87000612       0.00004284      -0.00000222      -0.00007537
H       -2.64051891       3.33104262      -4.80393772      -0.00008840       0.00003918       0.00002375
H       -4.14206650       2.07067142      -6.30286267      -0.00024518       0.00009537       0.00014630
H       -4.59870771      -0.31207377      -5.87536932      -0.00020497       0.00007851       0.00012934
H       -3.56960246      -1.44758151      -3.96044472      -0.00005685       0.00005655       0.00001849
H       -4.30310484       0.84015692      -1.17533195       0.00004774       0.00004691       0.00019176
H       -5.02337776       2.13101274       0.80139778       0.00022445       0.00003352       0.00027126
H       -3.42979852       2.60493137       2.61787171       0.00038057       0.00003094       0.00012746
H       -1.10370551       1.79534449       2.47274628       0.00039001       0.00002395      -0.00008064
H       -0.36337195       0.50358272       0.48482366       0.00018248       0.00000936      -0.00012228
C        1.01330325       0.61672228      -2.12986667      -0.00027250       0.00021454       0.00084361
O        1.43086777       1.52842474      -2.67897459       0.00051268      -0.00049742      -0.00098334
