43

O       0.270152164640310     -1.525858039289110     -1.648511933203340
C       0.409023078230560     -0.385826950546250     -0.843533565711340
N      -0.168803578773650     -0.606459332261190      0.468824943292930
C      -1.529427224063800     -0.594514876099480      0.712953012552960
C      -2.465489531490770     -0.757842026385930     -0.309429107371180
C      -3.815133969104870     -0.805325940852430     -0.015231494309170
C      -4.260289141458600     -0.699314277705890      1.291927578223780
C      -3.335763502555820     -0.541110460269600      2.312303886251510
C      -1.985583557433500     -0.487028357291430      2.029785300915590
C       1.858835854379060      0.015988645431810     -0.656231890034690
C       2.779421580459710     -0.908131785335720     -0.173366286133840
C       4.101668462573030     -0.542345414529680      0.008010058310610
C       4.515498598816850      0.746571879761490     -0.285733698525570
C       3.601796743066780      1.670204336396990     -0.764516674260860
C       2.278866836971410      1.306043781126640     -0.949807513915840
H       0.539919985784930     -2.296333737463930     -1.107874354058840
H      -0.128914898903110      0.412262580573590     -1.382106354152160
H       0.409863246937550     -0.313709081829180      1.242397908878790
H      -2.132607656402970     -0.858629222187020     -1.330310160060100
H      -4.526921164086210     -0.931024616350850     -0.818841974564360
H      -5.316163154200840     -0.740019791179810      1.514707190432730
H      -3.669579386381500     -0.455613206452880      3.336927229697080
H      -1.267956086431920     -0.358445673026290      2.829423310394050
H       2.461312913931770     -1.914459182043270      0.057136966632970
H       4.811470611348240     -1.266579107370540      0.380663204966620
H       5.548238857186630      1.030161071251850     -0.143749734728800
H       3.919280077689580      2.676461065266680     -0.996734876380940
H       1.567537832772960      2.027614760174170     -1.326758784081030
C       0.529706384205300     -5.324492123535240     -1.244649433632520
C      -0.166745555266830     -4.665951034143640     -0.053441136054460
C      -1.585447726003330     -4.230958030267380     -0.431742029052870
C      -0.204844021725670     -5.618119914196750      1.147161078849000
O       0.621102102295510     -3.519366963816490      0.277607848575850
H       0.002358247955910     -6.227508330320100     -1.537321912612520
H       1.552833043929230     -5.579375597354250     -0.979329124100640
H       0.552140607119900     -4.636915620177130     -2.086963532871080
H      -2.074184124167520     -3.736479851891490      0.407420165163920
H      -1.554085462048720     -3.534698173463660     -1.266602442311860
H      -2.179021602358680     -5.094726548823670     -0.718236721511080
H      -0.697264105210280     -5.141913045971660      1.993893308693490
H       0.807495395179610     -5.887671077903780      1.440587301823390
H      -0.749821535579680     -6.523007919667970      0.893711667638030
H       0.157820095920990     -3.017812728856590      0.962036533449200
