79
Properties=species:S:1:pos:R:3:forces:R:3 charge=0 unpaired=0 uhf=0 endpoint_role="hydrogenated catalyst plus aldehyde; requires optimization" energy=-3138.783684183558 pbc="F F F"
Ru       0.15671346       0.02910008      -0.25996639       0.00593338      -0.00309574       0.00178681
N        0.01840289      -1.91609033       0.84093939       0.00011088      -0.00062925       0.00151679
C        1.25363307      -2.72060916       0.84735319      -0.00027354      -0.00002233      -0.00032179
C        2.49585006      -1.83213289       0.86570942      -0.00048099       0.00045951      -0.00005868
P        2.28910219      -0.65697824      -0.55995885      -0.00112892       0.00086170      -0.00093481
C        2.98849411      -1.67336237      -1.92069624      -0.00131667      -0.00097533      -0.00062287
C        4.32820497      -2.05329564      -1.91819954      -0.00049074      -0.00121188      -0.00003399
C        4.82905491      -2.82577811      -2.94900485      -0.00135457      -0.00112705      -0.00047733
C        4.00076252      -3.22154215      -3.98910386      -0.00026296      -0.00029337       0.00100299
C        2.66990264      -2.83894042      -4.00007145       0.00009366       0.00092234      -0.00015405
C        2.16616185      -2.06429295      -2.96890717       0.00077496       0.00092939       0.00022079
C        3.64965930       0.53895962      -0.38412834      -0.00016718       0.00041435       0.00020752
C        4.59623764       0.55299641       0.63220094      -0.00072315       0.00039963       0.00054931
C        5.57065059       1.53777492       0.65347169       0.00059646      -0.00061292      -0.00032758
C        5.60817678       2.50819076      -0.33309464       0.00120316      -0.00087595      -0.00123406
C        4.66485614       2.49911143      -1.34999455       0.00073223      -0.00055096      -0.00069798
C        3.69108857       1.52006603      -1.37349376       0.00010865      -0.00047421      -0.00027075
C       -0.56897175      -1.68819976       2.16580143      -0.00066245       0.00087018      -0.00051278
C       -1.94826752      -1.05217242       1.99689051      -0.00014621       0.00068656       0.00064710
P       -1.80057025       0.39145152       0.81648863      -0.00074115       0.00107047      -0.00131497
C       -2.01386852       1.85430978       1.90025718       0.00003388      -0.00012996       0.00038380
C       -1.14730121       2.92945821       1.75091615       0.00019535       0.00038929       0.00052506
C       -1.30842352       4.06884240       2.52018556      -0.00040304       0.00006873      -0.00010324
C       -2.33787580       4.14117969       3.44361232      -0.00111503       0.00027771       0.00019133
C       -3.21474581       3.07668775       3.58659557      -0.00051466       0.00050204       0.00024416
C       -3.06162547       1.94114495       2.81331281      -0.00012283      -0.00014191      -0.00007711
C       -3.46651145       0.49036649       0.05551407      -0.00010254       0.00044019      -0.00037175
C       -3.52045538       1.31251853      -1.06715064      -0.00005851      -0.00001263       0.00019518
C       -4.71770657       1.53824831      -1.71895556      -0.00030240      -0.00000967       0.00014494
C       -5.87616518       0.93421561      -1.25518378      -0.00014579      -0.00035693       0.00011392
C       -5.82973235       0.11274110      -0.14180547      -0.00018036      -0.00040940      -0.00032157
C       -4.63258338      -0.10718268       0.51826632      -0.00009260      -0.00024840      -0.00025250
H        1.27799598      -3.31559423      -0.07486842      -0.00019568       0.00005782       0.00017649
H        1.25442797      -3.40914753       1.70521865      -0.00052024       0.00033145       0.00022604
H        3.40343728      -2.43646948       0.77870591      -0.00028034      -0.00009295      -0.00008737
H        2.52780164      -1.23978403       1.78505829       0.00021458      -0.00009771       0.00014181
H        4.97783841      -1.73260518      -1.11409370      -0.00040191      -0.00057971       0.00005127
H        5.86971279      -3.11808944      -2.94674554      -0.00051730      -0.00079564      -0.00001720
H        4.39735042      -3.82333578      -4.79429234      -0.00059862      -0.00014649      -0.00008112
H        2.02578294      -3.13971796      -4.81439084      -0.00047202       0.00003906      -0.00010790
H        1.13163183      -1.74399293      -2.96640310      -0.00042932       0.00004683      -0.00002027
H        4.58127234      -0.19570025       1.41120184       0.00032968      -0.00029728      -0.00028824
H        6.30518016       1.54675559       1.44669781       0.00012408       0.00000296      -0.00014143
H        6.36980199       3.27431268      -0.30930542       0.00008385      -0.00027952      -0.00021408
H        4.68868093       3.25811686      -2.11904293       0.00023805      -0.00047721      -0.00032386
H        2.93760015       1.50392799      -2.15441384       0.00036052      -0.00037674      -0.00032099
H        0.08607008      -1.01612981       2.73029323      -0.00019530       0.00099064      -0.00010960
H       -0.66116592      -2.63915098       2.71664218       0.00043277       0.00084738       0.00038337
H       -2.63149896      -1.78114433       1.54484195       0.00030055      -0.00001750      -0.00074002
H       -2.34619837      -0.73876114       2.96500801      -0.00095809      -0.00003707       0.00010681
H       -0.34117820       2.85518097       1.03191771      -0.00014510       0.00025820       0.00045619
H       -0.62959771       4.90090846       2.39794226      -0.00018266       0.00024212       0.00091127
H       -2.46270849       5.02810149       4.04811469      -0.00047660       0.00008990       0.00026775
H       -4.02468946       3.13636604       4.29992771      -0.00078845      -0.00011203      -0.00017411
H       -3.76624571       1.12686235       2.91401022      -0.00054159       0.00019883      -0.00020355
H       -2.59824327       1.76241525      -1.42210070      -0.00044433       0.00051790      -0.00004238
H       -4.74952735       2.17581972      -2.59074532      -0.00053004      -0.00022168      -0.00002008
H       -6.81373763       1.10287381      -1.76448048      -0.00026234      -0.00077999      -0.00027581
H       -6.73296164      -0.35902867       0.21841778       0.00021121      -0.00075181      -0.00006461
H       -4.62322772      -0.74608511       1.38999560       0.00022304       0.00006660      -0.00003565
C        0.23264911       1.58412698      -1.22544838      -0.00362627       0.00049575      -0.00060906
O        0.26760893       2.56195981      -1.85679363       0.00223516       0.00094565       0.00131185
H        0.80422079       0.64944114       1.02025196       0.00044625       0.00066895      -0.00010869
O       -4.11135229      -0.32876295      -4.41742628       0.00090818      -0.00031718       0.00011004
C       -3.58673436      -0.82592737      -3.44707558      -0.00075019       0.00240144       0.00138701
C       -4.22944006      -1.77719795      -2.53467186       0.00062308      -0.00059195      -0.00027097
C       -3.49557946      -2.36031446      -1.50286139       0.00028923       0.00020273      -0.00028785
C       -4.10025780      -3.26416560      -0.65011988       0.00096945      -0.00003002      -0.00015708
C       -5.44091334      -3.58142377      -0.81012703       0.00046096      -0.00059075      -0.00105915
C       -6.17933835      -2.99963595      -1.82969759       0.00112456      -0.00023663       0.00049591
C       -5.57646127      -2.10565693      -2.69259808       0.00043332       0.00030507       0.00047049
H       -0.68069694      -2.44379621       0.30950672      -0.00025129       0.00068015       0.00021274
H       -2.53860010      -0.58763573      -3.18474666       0.00067938      -0.00010776      -0.00000007
H       -0.47767336      -0.73353882      -1.46878701      -0.00030198       0.00131882      -0.00011429
H       -2.45577877      -2.08532429      -1.38629662       0.00052149       0.00000841      -0.00039977
H       -3.53384116      -3.73320218       0.14283785       0.00082681      -0.00027008      -0.00050862
H       -5.91148190      -4.28515806      -0.13863444       0.00090589      -0.00037283      -0.00022433
H       -7.22341642      -3.24878141      -1.95058050       0.00064831      -0.00021429       0.00013320
H       -6.12840560      -1.64415903      -3.49835971       0.00028299      -0.00003606       0.00052403
