79
Properties=species:S:1:pos:R:3:forces:R:3 charge=0 unpaired=0 uhf=0 endpoint_role="alcohol encounter complex; requires optimization" energy=-3137.6948916385177 pbc="F F F"
Ru       0.34379857       0.16372983      -0.27605401       0.00335770      -0.00093721      -0.00114110
N       -0.15335997      -1.76606499       0.58571931      -0.00117139       0.00027865      -0.00079212
C        0.95568788      -2.70381114       0.50573850       0.00062239       0.00040843       0.00013177
C        2.36528575      -2.07205134       0.60947620      -0.00044931      -0.00040522      -0.00045713
P        2.39223428      -0.70489823      -0.63175849      -0.00082857       0.00024163      -0.00083435
C        2.94043121      -1.59093938      -2.13487858       0.00096087       0.00008431       0.00043505
C        4.25763265      -1.58601899      -2.58202392       0.00003075       0.00007114       0.00016516
C        4.60798912      -2.30331472      -3.71289466       0.00038215       0.00066532       0.00024039
C        3.65161755      -3.02854867      -4.40441109       0.00011060       0.00055064      -0.00024772
C        2.33619465      -3.02850533      -3.96789493       0.00008032       0.00081492      -0.00023488
C        1.97885286      -2.30803040      -2.84292577      -0.00007570       0.00016476      -0.00056339
C        3.81364736       0.34375160      -0.21552410      -0.00045148       0.00018764       0.00044358
C        4.99486210      -0.08113169       0.38059251      -0.00009803       0.00004412       0.00030306
C        5.99231353       0.84010341       0.65330522      -0.00020418      -0.00039771       0.00048052
C        5.81694570       2.17710583       0.33280346      -0.00016586       0.00028086       0.00050796
C        4.63595865       2.60681948      -0.25438963      -0.00000566      -0.00004035       0.00070457
C        3.63770958       1.69021559      -0.52224654      -0.00015801       0.00028650       0.00047029
C       -0.54820253      -1.51232850       1.96099106       0.00018577      -0.00092723       0.00014281
C       -1.78512359      -0.60209978       2.03406128      -0.00032172       0.00016236      -0.00110491
P       -1.59164389       0.70280658       0.74117907      -0.00006103      -0.00020674      -0.00028052
C       -1.44415470       2.35987635       1.48446879      -0.00024429      -0.00012284      -0.00108555
C       -0.57226393       3.18924771       0.78183037       0.00013171      -0.00057112      -0.00064297
C       -0.38087513       4.49898978       1.17422335       0.00046156      -0.00036052      -0.00008384
C       -1.06382901       4.98448967       2.28054123       0.00070104      -0.00062845      -0.00008462
C       -1.93369230       4.16457289       2.98107854       0.00028651      -0.00038585       0.00005708
C       -2.13517273       2.85361647       2.58160892      -0.00013737      -0.00005286      -0.00022368
C       -3.29183625       0.90062140       0.09415589      -0.00012371       0.00012787       0.00047094
C       -3.44040535       1.30720600      -1.22649699      -0.00034536       0.00019995      -0.00060451
C       -4.69800821       1.54848357      -1.74919424       0.00034609      -0.00026170      -0.00079138
C       -5.81744620       1.39829084      -0.94743592      -0.00033779      -0.00006867      -0.00018473
C       -5.67476198       1.00849968       0.37443827      -0.00020043       0.00058172      -0.00053122
C       -4.41873666       0.76057073       0.89665093       0.00003613       0.00040296      -0.00005049
H        0.89033149      -3.22422157      -0.45804621       0.00029210      -0.00015592      -0.00020037
H        0.85265238      -3.45995862       1.29681593      -0.00006438      -0.00023927      -0.00030501
H        3.13532302      -2.82508244       0.41754293       0.00036526       0.00024818       0.00024767
H        2.52104217      -1.61968924       1.59390048      -0.00057412       0.00010364       0.00001827
H        5.01069853      -1.01824413      -2.05355250       0.00016065       0.00087063      -0.00024147
H        5.63297222      -2.29431849      -4.05598501      -0.00017661       0.00114890      -0.00053181
H        3.92988675      -3.58715840      -5.28649821       0.00019874       0.00081563      -0.00015021
H        1.58358856      -3.58537395      -4.50741483       0.00031847      -0.00033168       0.00037715
H        0.94727423      -2.29363550      -2.51435151       0.00054107      -0.00019705       0.00050188
H        5.12960524      -1.12468554       0.63099845      -0.00021690      -0.00012377       0.00040695
H        6.91162238       0.51460251       1.11920429      -0.00020105      -0.00014424       0.00052068
H        6.60027654       2.88937482       0.54837488      -0.00006378      -0.00014368       0.00071235
H        4.49872811       3.65181602      -0.49405818      -0.00010017       0.00013723       0.00064397
H        2.68601428       1.99983695      -0.96431804       0.00017616       0.00014907       0.00048644
H        0.27158082      -1.06147474       2.54877438       0.00004363      -0.00047372      -0.00028568
H       -0.79803674      -2.47560535       2.43272253      -0.00039150      -0.00055931      -0.00068390
H       -2.67752271      -1.18347065       1.78215253      -0.00032632       0.00004352       0.00092383
H       -1.89058423      -0.17479433       3.03495416       0.00110884       0.00052699      -0.00024432
H       -0.02827388       2.76609988      -0.08036601      -0.00006353      -0.00026492      -0.00066785
H        0.29745140       5.14193223       0.63116223      -0.00003731      -0.00011243      -0.00040995
H       -0.91363301       6.00628919       2.59773022       0.00028900      -0.00041173      -0.00029485
H       -2.46000557       4.55049207       3.84243613       0.00055627      -0.00045722      -0.00007988
H       -2.82132750       2.21815182       3.12394828       0.00053986      -0.00085703      -0.00053623
H       -2.55796285       1.43058426      -1.84361426       0.00029620      -0.00040779      -0.00009982
H       -4.80531108       1.85555028      -2.78012343       0.00013852       0.00036151      -0.00035924
H       -6.80096930       1.58714342      -1.35275665       0.00003424       0.00072584      -0.00045892
H       -6.54729654       0.89808960       1.00197548      -0.00023687       0.00068319      -0.00037687
H       -4.31933341       0.45489199       1.92812095      -0.00060820       0.00000851      -0.00024596
C       -0.26714737      -0.05390443      -2.00112903      -0.00116630      -0.00155093      -0.00058570
O       -0.53944025       0.08374144      -3.11935975       0.00032240       0.00023832      -0.00098286
H        0.99006170       0.64152191       1.07889290      -0.00164480       0.00029658      -0.00038964
O       -1.46212876      -2.79824872      -1.72005544      -0.00022564       0.00003673      -0.00069861
C       -2.76594007      -2.39012304      -2.02751729      -0.00044847      -0.00015585       0.00052983
C       -3.76755348      -2.55303595      -0.91027388       0.00062731       0.00006380       0.00017433
C       -3.43625164      -3.19459780       0.27431563      -0.00013824      -0.00090859       0.00020973
C       -4.37638435      -3.32955748       1.28349093       0.00089209      -0.00022371       0.00084769
C       -5.65691057      -2.83317413       1.11448048      -0.00039437       0.00099061       0.00156233
C       -5.99690067      -2.20337015      -0.07226081      -0.00013901       0.00038141       0.00050118
C       -5.05754500      -2.06232399      -1.07609575      -0.00070186       0.00069713       0.00082667
H       -1.15774061      -2.29575283      -0.93051611      -0.00016112      -0.00046046       0.00060787
H       -3.08078742      -3.00255536      -2.88286843      -0.00099486      -0.00080050       0.00072262
H       -2.78047569      -1.33726000      -2.35535957      -0.00045932      -0.00043943      -0.00037869
H       -2.44046525      -3.59381597       0.39964003       0.00043758       0.00022817       0.00058654
H       -4.10684719      -3.82894015       2.20375523       0.00026784      -0.00018609       0.00067451
H       -6.39034180      -2.94109171       1.90063959      -0.00002859      -0.00037973       0.00067152
H       -6.99757447      -1.82186105      -0.21581438      -0.00012643       0.00046796       0.00101467
H       -5.32127421      -1.56596881      -1.99983204      -0.00023022       0.00057416       0.00082510
