79
Properties=species:S:1:pos:R:3 charge=0 unpaired=0 uhf=0 endpoint_role="alcohol encounter complex; requires optimization" pbc="F F F"
Ru       0.34379857       0.16372983      -0.27605401
N       -0.15335997      -1.76606499       0.58571931
C        0.95568788      -2.70381114       0.50573850
C        2.36528575      -2.07205134       0.60947620
P        2.39223428      -0.70489823      -0.63175849
C        2.94043121      -1.59093938      -2.13487858
C        4.25763265      -1.58601899      -2.58202392
C        4.60798912      -2.30331472      -3.71289466
C        3.65161755      -3.02854867      -4.40441109
C        2.33619465      -3.02850533      -3.96789493
C        1.97885286      -2.30803040      -2.84292577
C        3.81364736       0.34375160      -0.21552410
C        4.99486210      -0.08113169       0.38059251
C        5.99231353       0.84010341       0.65330522
C        5.81694570       2.17710583       0.33280346
C        4.63595865       2.60681948      -0.25438963
C        3.63770958       1.69021559      -0.52224654
C       -0.54820253      -1.51232850       1.96099106
C       -1.78512359      -0.60209978       2.03406128
P       -1.59164389       0.70280658       0.74117907
C       -1.44415470       2.35987635       1.48446879
C       -0.57226393       3.18924771       0.78183037
C       -0.38087513       4.49898978       1.17422335
C       -1.06382901       4.98448967       2.28054123
C       -1.93369230       4.16457289       2.98107854
C       -2.13517273       2.85361647       2.58160892
C       -3.29183625       0.90062140       0.09415589
C       -3.44040535       1.30720600      -1.22649699
C       -4.69800821       1.54848357      -1.74919424
C       -5.81744620       1.39829084      -0.94743592
C       -5.67476198       1.00849968       0.37443827
C       -4.41873666       0.76057073       0.89665093
H        0.89033149      -3.22422157      -0.45804621
H        0.85265238      -3.45995862       1.29681593
H        3.13532302      -2.82508244       0.41754293
H        2.52104217      -1.61968924       1.59390048
H        5.01069853      -1.01824413      -2.05355250
H        5.63297222      -2.29431849      -4.05598501
H        3.92988675      -3.58715840      -5.28649821
H        1.58358856      -3.58537395      -4.50741483
H        0.94727423      -2.29363550      -2.51435151
H        5.12960524      -1.12468554       0.63099845
H        6.91162238       0.51460251       1.11920429
H        6.60027654       2.88937482       0.54837488
H        4.49872811       3.65181602      -0.49405818
H        2.68601428       1.99983695      -0.96431804
H        0.27158082      -1.06147474       2.54877438
H       -0.79803674      -2.47560535       2.43272253
H       -2.67752271      -1.18347065       1.78215253
H       -1.89058423      -0.17479433       3.03495416
H       -0.02827388       2.76609988      -0.08036601
H        0.29745140       5.14193223       0.63116223
H       -0.91363301       6.00628919       2.59773022
H       -2.46000557       4.55049207       3.84243613
H       -2.82132750       2.21815182       3.12394828
H       -2.55796285       1.43058426      -1.84361426
H       -4.80531108       1.85555028      -2.78012343
H       -6.80096930       1.58714342      -1.35275665
H       -6.54729654       0.89808960       1.00197548
H       -4.31933341       0.45489199       1.92812095
C       -0.26714737      -0.05390443      -2.00112903
O       -0.53944025       0.08374144      -3.11935975
H        0.99006170       0.64152191       1.07889290
O       -1.46212876      -2.79824872      -1.72005544
C       -2.76594007      -2.39012304      -2.02751729
C       -3.76755348      -2.55303595      -0.91027388
C       -3.43625164      -3.19459780       0.27431563
C       -4.37638435      -3.32955748       1.28349093
C       -5.65691057      -2.83317413       1.11448048
C       -5.99690067      -2.20337015      -0.07226081
C       -5.05754500      -2.06232399      -1.07609575
H       -1.15774061      -2.29575283      -0.93051611
H       -3.08078742      -3.00255536      -2.88286843
H       -2.78047569      -1.33726000      -2.35535957
H       -2.44046525      -3.59381597       0.39964003
H       -4.10684719      -3.82894015       2.20375523
H       -6.39034180      -2.94109171       1.90063959
H       -6.99757447      -1.82186105      -0.21581438
H       -5.32127421      -1.56596881      -1.99983204
