79
Properties=species:S:1:pos:R:3:forces:R:3 charge=0 unpaired=0 uhf=0 endpoint_role="alcohol encounter complex; requires optimization" energy=-3137.6948916385177 pbc="F F F"
Ru       0.34379857       0.16372983      -0.27605401       0.00335770      -0.00093721      -0.00114110
N       -0.15335997      -1.76606499       0.58571931      -0.00117139       0.00027865      -0.00079212
C        0.95568788      -2.70381114       0.50573850       0.00062239       0.00040843       0.00013177
C        2.36528575      -2.07205134       0.60947620      -0.00044931      -0.00040522      -0.00045713
P        2.39223428      -0.70489823      -0.63175849      -0.00082857       0.00024163      -0.00083435
C        2.94043121      -1.59093938      -2.13487858       0.00096087       0.00008431       0.00043505
C        4.25763265      -1.58601899      -2.58202392       0.00003075       0.00007114       0.00016516
C        4.60798912      -2.30331472      -3.71289466       0.00038215       0.00066532       0.00024039
C        3.65161755      -3.02854867      -4.40441109       0.00011060       0.00055064      -0.00024772
C        2.33619465      -3.02850533      -3.96789493       0.00008032       0.00081492      -0.00023488
C        1.97885286      -2.30803040      -2.84292577      -0.00007570       0.00016476      -0.00056339
C        3.81364736       0.34375160      -0.21552410      -0.00045148       0.00018764       0.00044358
C        4.99486210      -0.08113169       0.38059251      -0.00009803       0.00004412       0.00030306
C        5.99231353       0.84010341       0.65330522      -0.00020418      -0.00039771       0.00048052
C        5.81694570       2.17710583       0.33280346      -0.00016586       0.00028086       0.00050796
C        4.63595865       2.60681948      -0.25438963      -0.00000566      -0.00004035       0.00070457
C        3.63770958       1.69021559      -0.52224654      -0.00015801       0.00028650       0.00047029
C       -0.54820253      -1.51232850       1.96099106       0.00018577      -0.00092723       0.00014281
C       -1.78512359      -0.60209978       2.03406128      -0.00032172       0.00016236      -0.00110491
P       -1.59164389       0.70280658       0.74117907      -0.00006103      -0.00020674      -0.00028052
C       -1.44415470       2.35987635       1.48446879      -0.00024429      -0.00012284      -0.00108555
C       -0.57226393       3.18924771       0.78183037       0.00013171      -0.00057112      -0.00064297
C       -0.38087513       4.49898978       1.17422335       0.00046156      -0.00036052      -0.00008384
C       -1.06382901       4.98448967       2.28054123       0.00070104      -0.00062845      -0.00008462
C       -1.93369230       4.16457289       2.98107854       0.00028651      -0.00038585       0.00005708
C       -2.13517273       2.85361647       2.58160892      -0.00013737      -0.00005286      -0.00022368
C       -3.29183625       0.90062140       0.09415589      -0.00012371       0.00012787       0.00047094
C       -3.44040535       1.30720600      -1.22649699      -0.00034536       0.00019995      -0.00060451
C       -4.69800821       1.54848357      -1.74919424       0.00034609      -0.00026170      -0.00079138
C       -5.81744620       1.39829084      -0.94743592      -0.00033779      -0.00006867      -0.00018473
C       -5.67476198       1.00849968       0.37443827      -0.00020043       0.00058172      -0.00053122
C       -4.41873666       0.76057073       0.89665093       0.00003613       0.00040296      -0.00005049
H        0.89033149      -3.22422157      -0.45804621       0.00029210      -0.00015592      -0.00020037
H        0.85265238      -3.45995862       1.29681593      -0.00006438      -0.00023927      -0.00030501
H        3.13532302      -2.82508244       0.41754293       0.00036526       0.00024818       0.00024767
H        2.52104217      -1.61968924       1.59390048      -0.00057412       0.00010364       0.00001827
H        5.01069853      -1.01824413      -2.05355250       0.00016065       0.00087063      -0.00024147
H        5.63297222      -2.29431849      -4.05598501      -0.00017661       0.00114890      -0.00053181
H        3.92988675      -3.58715840      -5.28649821       0.00019874       0.00081563      -0.00015021
H        1.58358856      -3.58537395      -4.50741483       0.00031847      -0.00033168       0.00037715
H        0.94727423      -2.29363550      -2.51435151       0.00054107      -0.00019705       0.00050188
H        5.12960524      -1.12468554       0.63099845      -0.00021690      -0.00012377       0.00040695
H        6.91162238       0.51460251       1.11920429      -0.00020105      -0.00014424       0.00052068
H        6.60027654       2.88937482       0.54837488      -0.00006378      -0.00014368       0.00071235
H        4.49872811       3.65181602      -0.49405818      -0.00010017       0.00013723       0.00064397
H        2.68601428       1.99983695      -0.96431804       0.00017616       0.00014907       0.00048644
H        0.27158082      -1.06147474       2.54877438       0.00004363      -0.00047372      -0.00028568
H       -0.79803674      -2.47560535       2.43272253      -0.00039150      -0.00055931      -0.00068390
H       -2.67752271      -1.18347065       1.78215253      -0.00032632       0.00004352       0.00092383
H       -1.89058423      -0.17479433       3.03495416       0.00110884       0.00052699      -0.00024432
H       -0.02827388       2.76609988      -0.08036601      -0.00006353      -0.00026492      -0.00066785
H        0.29745140       5.14193223       0.63116223      -0.00003731      -0.00011243      -0.00040995
H       -0.91363301       6.00628919       2.59773022       0.00028900      -0.00041173      -0.00029485
H       -2.46000557       4.55049207       3.84243613       0.00055627      -0.00045722      -0.00007988
H       -2.82132750       2.21815182       3.12394828       0.00053986      -0.00085703      -0.00053623
H       -2.55796285       1.43058426      -1.84361426       0.00029620      -0.00040779      -0.00009982
H       -4.80531108       1.85555028      -2.78012343       0.00013852       0.00036151      -0.00035924
H       -6.80096930       1.58714342      -1.35275665       0.00003424       0.00072584      -0.00045892
H       -6.54729654       0.89808960       1.00197548      -0.00023687       0.00068319      -0.00037687
H       -4.31933341       0.45489199       1.92812095      -0.00060820       0.00000851      -0.00024596
C       -0.26714737      -0.05390443      -2.00112903      -0.00116630      -0.00155093      -0.00058570
O       -0.53944025       0.08374144      -3.11935975       0.00032240       0.00023832      -0.00098286
H        0.99006170       0.64152191       1.07889290      -0.00164480       0.00029658      -0.00038964
O       -1.46212876      -2.79824872      -1.72005544      -0.00022564       0.00003673      -0.00069861
C       -2.76594007      -2.39012304      -2.02751729      -0.00044847      -0.00015585       0.00052983
C       -3.76755348      -2.55303595      -0.91027388       0.00062731       0.00006380       0.00017433
C       -3.43625164      -3.19459780       0.27431563      -0.00013824      -0.00090859       0.00020973
C       -4.37638435      -3.32955748       1.28349093       0.00089209      -0.00022371       0.00084769
C       -5.65691057      -2.83317413       1.11448048      -0.00039437       0.00099061       0.00156233
C       -5.99690067      -2.20337015      -0.07226081      -0.00013901       0.00038141       0.00050118
C       -5.05754500      -2.06232399      -1.07609575      -0.00070186       0.00069713       0.00082667
H       -1.15774061      -2.29575283      -0.93051611      -0.00016112      -0.00046046       0.00060787
H       -3.08078742      -3.00255536      -2.88286843      -0.00099486      -0.00080050       0.00072262
H       -2.78047569      -1.33726000      -2.35535957      -0.00045932      -0.00043943      -0.00037869
H       -2.44046525      -3.59381597       0.39964003       0.00043758       0.00022817       0.00058654
H       -4.10684719      -3.82894015       2.20375523       0.00026784      -0.00018609       0.00067451
H       -6.39034180      -2.94109171       1.90063959      -0.00002859      -0.00037973       0.00067152
H       -6.99757447      -1.82186105      -0.21581438      -0.00012643       0.00046796       0.00101467
H       -5.32127421      -1.56596881      -1.99983204      -0.00023022       0.00057416       0.00082510
79
Properties=species:S:1:pos:R:3:forces:R:3 charge=0 unpaired=0 uhf=0 endpoint_role="alcohol encounter complex; requires optimization" energy=-3137.6470176185762 pbc="F F F"
Ru       0.37486778       0.17618999      -0.22806944      -0.00030598      -0.00551684       0.00475109
N       -0.11425394      -1.76967420       0.63893217      -0.00695215       0.00605328      -0.01434391
C        1.00989244      -2.69332369       0.58561188      -0.00914478       0.00546438      -0.01503256
C        2.41008099      -2.03843589       0.68362775      -0.00401803      -0.00257321      -0.00239719
P        2.40577479      -0.72310024      -0.60780191       0.00104687       0.00158822       0.00334666
C        2.92613085      -1.67985843      -2.07817987       0.00042178       0.00426411       0.00111780
C        4.26110167      -1.79256624      -2.45412176       0.00030631       0.00240697      -0.00101111
C        4.61108549      -2.56605901      -3.54662329      -0.00190127       0.00105801      -0.00108895
C        3.63569006      -3.23401905      -4.26914765      -0.00360007       0.00121518       0.00084170
C        2.30480443      -3.12268404      -3.89950635      -0.00349558       0.00366063       0.00264313
C        1.94774133      -2.34476885      -2.81214080      -0.00122273       0.00521992       0.00234382
C        3.83399530       0.35149759      -0.30289835       0.00151823       0.00167867       0.00416649
C        4.99654295       0.00512304       0.37370953       0.00283092       0.00100230       0.00231961
C        6.00148342       0.94540535       0.52930507       0.00307650       0.00146945       0.00148061
C        5.85320858       2.22077902       0.00806970       0.00192832       0.00365933       0.00304982
C        4.68858840       2.57404635      -0.65799220       0.00019632       0.00467057       0.00581544
C        3.67979664       1.64202713      -0.80312543       0.00044451       0.00372136       0.00613403
C       -0.50261057      -1.49135793       2.01221545      -0.00080857      -0.00038958      -0.01225902
C       -1.75383089      -0.60355350       2.07377727      -0.00103222      -0.00032081      -0.00198554
P       -1.56896225       0.71395242       0.79184103       0.00060100      -0.00008730       0.00100247
C       -1.46531971       2.35661088       1.57252923       0.00014375       0.00058218       0.00042106
C       -0.58566510       3.22322086       0.92880350      -0.00030446       0.00064022      -0.00051088
C       -0.44162879       4.52575953       1.36484604       0.00036027       0.00089276      -0.00085605
C       -1.18145870       4.96596559       2.45283241       0.00109232       0.00138462      -0.00023840
C       -2.06259486       4.10886706       3.09274246       0.00145359       0.00135867       0.00072575
C       -2.21563161       2.80580081       2.65040985       0.00115052       0.00103451       0.00115555
C       -3.27311997       0.89357029       0.14440628       0.00170801       0.00218206      -0.00136185
C       -3.42137491       1.37450524      -1.15166975       0.00178636       0.00341994      -0.00104303
C       -4.68011033       1.59514553      -1.68037545       0.00163311       0.00282477      -0.00106210
C       -5.80385978       1.35066594      -0.90830973       0.00138678       0.00138805      -0.00128365
C       -5.66309941       0.89072380       0.39063160       0.00133169       0.00033608      -0.00148890
C       -4.40521902       0.66294108       0.91816354       0.00149079       0.00095653      -0.00172755
H        0.95904366      -3.23450797      -0.36822278      -0.00500059       0.01124931      -0.01895115
H        0.91433028      -3.43253333       1.39390381      -0.01557588      -0.00095930      -0.02126378
H        3.19453662      -2.78366579       0.52141166      -0.00665725      -0.00545764      -0.00231632
H        2.55088073      -1.54936563       1.65244141      -0.00692801      -0.00841360       0.00113251
H        5.02855736      -1.27205773      -1.89848491       0.00207301       0.00207853      -0.00287048
H        5.64976952      -2.64692219      -3.83465251      -0.00194315      -0.00040872      -0.00275405
H        3.91345104      -3.83651214      -5.12208214      -0.00530570      -0.00062040       0.00137500
H        1.54023664      -3.63969303      -4.46135670      -0.00498336       0.00423002       0.00405524
H        0.90607726      -2.24854213      -2.53157289      -0.00081771       0.00752182       0.00370262
H        5.11115962      -0.99144050       0.77794540       0.00368136      -0.00064470       0.00111589
H        6.90587352       0.68211166       1.05909841       0.00458535       0.00053755      -0.00080758
H        6.64441446       2.94647632       0.12824272       0.00237799       0.00399969       0.00185714
H        4.57236008       3.57251147      -1.05510601      -0.00091997       0.00640831       0.00730964
H        2.73897170       1.89608952      -1.30013638      -0.00028471       0.00443277       0.00738661
H        0.31319096      -1.01062994       2.58193805       0.00007688      -0.00398480      -0.00798644
H       -0.72955338      -2.44669065       2.51131923      -0.00023574      -0.00334213      -0.01680205
H       -2.63050692      -1.20157770       1.80758374      -0.00177892       0.00085941      -0.00174063
H       -1.87971034      -0.18278358       3.07513081       0.00236963      -0.00353433       0.00008045
H        0.00264238       2.83779460       0.08137993      -0.00117932       0.00072203      -0.00093186
H        0.24375936       5.19774911       0.86785883       0.00025615       0.00086565      -0.00151630
H       -1.06855628       5.98174018       2.80305178       0.00123020       0.00170897      -0.00060428
H       -2.63597035       4.46001369       3.93877448       0.00183938       0.00172337       0.00113066
H       -2.91235788       2.14129980       3.14225586       0.00159340       0.00085379       0.00201219
H       -2.53612817       1.57077906      -1.74622102       0.00190464       0.00522649      -0.00084452
H       -4.78518935       1.95802581      -2.69313399       0.00159560       0.00389483      -0.00081034
H       -6.78867079       1.52110442      -1.31842176       0.00133464       0.00197140      -0.00099084
H       -6.53862782       0.70776712       0.99658011       0.00133660      -0.00089393      -0.00139884
H       -4.31239501       0.30218980       1.93204514       0.00209251       0.00072409      -0.00176524
C       -0.20653974       0.08159563      -1.97806862      -0.00688816      -0.03254306       0.01362650
O       -0.38637859       0.41922061      -3.07378061      -0.02150864      -0.05597213      -0.00423281
H        1.04447813       0.68052280       1.10764238       0.00004806      -0.00017181       0.00249652
O       -1.49340742      -2.64535785      -1.82399353       0.04584391       0.03635061       0.06875464
C       -2.77178659      -2.12882573      -2.08164623       0.01387827       0.00603376       0.02429440
C       -3.80048362      -2.43484594      -1.02003784       0.01131552      -0.00089373       0.01763891
C       -3.43748140      -3.07459548       0.15586657       0.00240020      -0.00446420       0.01882849
C       -4.37745210      -3.31348679       1.14423142      -0.00725594      -0.00524983       0.01058683
C       -5.69263936      -2.92533204       0.96216293      -0.00534923      -0.00211881       0.00062198
C       -6.06702350      -2.30846299      -0.22103946       0.00438606       0.00236801      -0.00077064
C       -5.12729666      -2.06272702      -1.20534877       0.01288758       0.00134247       0.00711650
H       -1.16258256      -2.24985752      -0.98587217      -0.03104959      -0.00108732      -0.12884924
H       -3.09432362      -2.55201304      -3.04068686       0.03133928      -0.05232763       0.01466974
H       -2.72563408      -1.03529391      -2.20850723      -0.02314860       0.02441768      -0.00937915
H       -2.41443772      -3.39264496       0.29119613       0.00106432      -0.00489020       0.03094501
H       -4.07717907      -3.80687075       2.05792327      -0.01516526      -0.00669068       0.01292328
H       -6.42500484      -3.10977491       1.73484448      -0.01226709      -0.00226888      -0.00576587
H       -7.09678869      -2.01913249      -0.37548529       0.00681654       0.00844830      -0.00879667
H       -5.42287952      -1.57616613      -2.12486833       0.02279362       0.00372394       0.00486398
79
Properties=species:S:1:pos:R:3:forces:R:3 charge=0 unpaired=0 uhf=0 endpoint_role="alcohol encounter complex; requires optimization" energy=-3136.054475992159 pbc="F F F"
Ru       0.41433021       0.29539235      -0.24457924       0.01109265       0.01440991       0.02069078
N       -0.01412997      -1.81222109       0.80301363      -0.02268291      -0.01441829      -0.01527505
C        1.13790171      -2.72397426       0.74904381      -0.00819364       0.00795294      -0.00863072
C        2.47479140      -1.97026471       0.75301100      -0.00460986       0.00687819       0.00193691
P        2.40696556      -0.71492680      -0.61361917       0.00450646       0.01254837       0.01134532
C        2.89830937      -1.76789916      -2.02942761      -0.00470770       0.01372690       0.00618545
C        4.24033841      -2.00669200      -2.31644347      -0.00818804       0.01012115       0.00203177
C        4.58832689      -2.84431967      -3.36027225      -0.01402212       0.00638607       0.00339974
C        3.60229685      -3.45262359      -4.12146569      -0.01512720       0.00547339       0.00663670
C        2.26591941      -3.22344919      -3.83473169      -0.01190449       0.00946179       0.00979614
C        1.91038160      -2.38163705      -2.79363148      -0.00528928       0.01228563       0.00898223
C        3.84114185       0.36942996      -0.41555202       0.00948291       0.00532907       0.00568247
C        4.97749414       0.11050573       0.33893735       0.01327756       0.00532751      -0.00252838
C        5.99244400       1.05203854       0.38416738       0.01231923       0.00501008      -0.00210148
C        5.88450415       2.23334405      -0.33175491       0.00751538       0.00565796       0.00638241
C        4.74380998       2.50072340      -1.07546371       0.00309303       0.00611673       0.01534684
C        3.71771879       1.57700348      -1.10157892       0.00436019       0.00629100       0.01458216
C       -0.46211999      -1.47115115       2.15756001       0.00595281       0.00622457      -0.01274611
C       -1.71781986      -0.59613361       2.10535675       0.00346144       0.00265903      -0.00083653
P       -1.53855990       0.75363345       0.82757379       0.00347306       0.00188125       0.00425168
C       -1.47599750       2.36766118       1.66505518      -0.00295933       0.00296612       0.00211799
C       -0.58500214       3.27469747       1.09695139      -0.00267205       0.00111012       0.00100125
C       -0.50071268       4.56502729       1.58392423       0.00067915       0.00069655      -0.00001181
C       -1.30838071       4.95007146       2.64413344       0.00279725       0.00238765       0.00034380
C       -2.19915084       4.05070362       3.20888496       0.00186969       0.00468369       0.00091436
C       -2.29479657       2.76134844       2.71547440      -0.00080653       0.00506245       0.00187012
C       -3.25362742       0.89212630       0.19573150       0.00592274       0.00040074      -0.00459742
C       -3.40749618       1.43215927      -1.07654780       0.00337868      -0.00087728      -0.00445084
C       -4.66699973       1.62689681      -1.61172857       0.00263571      -0.00015853      -0.00256322
C       -5.78891984       1.29157750      -0.87177881       0.00385245       0.00056249      -0.00185917
C       -5.64429941       0.77028069       0.40293275       0.00638711       0.00102157      -0.00225054
C       -4.38487808       0.57231502       0.93965021       0.00686756       0.00221988      -0.00367200
H        1.06568215      -3.30140950      -0.17971214       0.00618926       0.00806487      -0.00955596
H        1.10492026      -3.42376368       1.59716031      -0.00411473       0.00467718      -0.01198857
H        3.29982783      -2.67423188       0.60631390      -0.00969772       0.00205829      -0.00088432
H        2.61451614      -1.42623108       1.69165458      -0.00259420       0.00040754       0.00492835
H        5.01374808      -1.53331364      -1.72753324      -0.00533781       0.01085323      -0.00295297
H        5.63145875      -3.02195849      -3.58153708      -0.01645215       0.00312145       0.00188232
H        3.87804539      -4.10285549      -4.93943022      -0.01972570       0.00145456       0.00859349
H        1.49329492      -3.69802300      -4.42208890      -0.01410547       0.00984670       0.01315363
H        0.86171351      -2.20148447      -2.57943759      -0.00281386       0.01430707       0.01060491
H        5.06473562      -0.81429058       0.89209955       0.01568447       0.00514669      -0.00851474
H        6.87347559       0.86012590       0.97929754       0.01536857       0.00572846      -0.00815119
H        6.68715226       2.95538386      -0.30341442       0.00700390       0.00527332       0.00652901
H        4.65795448       3.42670448      -1.62599740      -0.00078121       0.00715718       0.02335454
H        2.79110015       1.77447652      -1.64775458       0.00115136       0.00725770       0.02050907
H        0.34532565      -0.93801716       2.66803161       0.01717754       0.00794012      -0.02835950
H       -0.68970391      -2.39060728       2.72022444       0.01226658       0.01778033       0.00806091
H       -2.57037077      -1.21163339       1.79584395       0.00923234      -0.00316463      -0.00341120
H       -1.91825583      -0.17002405       3.09212001      -0.00191381      -0.00111061      -0.00066002
H        0.05865125       2.93178553       0.26848437      -0.00364157      -0.00048589       0.00055869
H        0.19011586       5.27031631       1.14487085       0.00160631      -0.00036030       0.00058597
H       -1.24340659       5.95653571       3.03076039       0.00486898       0.00207066      -0.00000893
H       -2.82682213       4.35804705       4.03278044       0.00361724       0.00589230       0.00111265
H       -3.00337115       2.06542905       3.14261479      -0.00067687       0.00649020       0.00282813
H       -2.52451413       1.69255460      -1.64851831       0.00081935       0.00256801      -0.00632554
H       -4.77344496       2.03784123      -2.60551383       0.00106362       0.00069817      -0.00172634
H       -6.77504948       1.43718813      -1.28807981       0.00345383       0.00217773      -0.00033214
H       -6.51845438       0.51351854       0.98355486       0.00784411       0.00093967      -0.00133085
H       -4.29915428       0.16517954       1.93630808       0.00962332       0.00448124      -0.00341914
C       -0.08613350       0.49098085      -2.02506109      -0.06217481      -0.13452486      -0.00938245
O       -0.15864985       1.03929048      -3.04194443      -0.06100302      -0.13208418      -0.01070570
H        1.09249982       0.74063954       1.10031822       0.00689191      -0.00863601       0.04591345
O       -1.98085276      -2.95788870      -2.60492702       0.01623427       0.04701112       0.00934282
C       -2.88647725      -2.00714548      -2.35119648       0.04955401       0.05138619       0.04724774
C       -3.91175762      -2.35309319      -1.27788987       0.02921514       0.01376486       0.02856178
C       -3.46002047      -2.98210173      -0.12578603       0.01063633      -0.00912837       0.02267851
C       -4.31867773      -3.28383673       0.91270647      -0.00671808      -0.01626065       0.00711313
C       -5.66663757      -2.98644661       0.79448937      -0.00071367       0.00245341      -0.00466680
C       -6.13862074      -2.40397637      -0.36960604       0.01510579       0.01122734      -0.00606323
C       -5.26713381      -2.07891862      -1.39784368       0.03080783       0.01168774       0.00799563
H       -0.80811634      -2.24971685       0.33238058      -0.06969464      -0.04311873      -0.22591251
H       -3.42043085      -1.65538132      -3.27141309       0.07489707      -0.01003435       0.06943964
H       -2.34307764      -1.09215660      -1.95260248      -0.12290643      -0.07079005      -0.08184460
H       -2.41595742      -3.26422981      -0.09106223       0.00682353      -0.01753786       0.04142744
H       -3.94121715      -3.75651727       1.80943849      -0.01846039      -0.02784846       0.00592692
H       -6.34651119      -3.22516364       1.60013277      -0.00995546       0.00776072      -0.01209107
H       -7.19620244      -2.20458517      -0.47708252       0.01905811       0.02516241      -0.01809816
H       -5.65018603      -1.62056114      -2.30038422       0.04552497       0.01883984       0.00606238
79
Properties=species:S:1:pos:R:3:forces:R:3 charge=0 unpaired=0 uhf=0 endpoint_role="alcohol encounter complex; requires optimization" energy=-3138.406566119886 pbc="F F F"
Ru       0.24214500       0.03649742      -0.36165317      -0.03059748      -0.04153340      -0.01673125
N        0.01849885      -1.69588077       0.87520730       0.00639260       0.02415245       0.02463256
C        1.10250915      -2.68472323       0.78516926      -0.00557972       0.01112236       0.01602860
C        2.46022711      -1.98383485       0.74345455      -0.00278676       0.00293471      -0.00040313
P        2.34548834      -0.78006724      -0.67085545      -0.01375649      -0.01189476      -0.01386982
C        2.90828514      -1.80412449      -2.06524995      -0.00549192      -0.01017970      -0.00868917
C        4.25237964      -2.00171253      -2.36644026      -0.00524772      -0.01204759      -0.00760484
C        4.60160978      -2.81055693      -3.43159038      -0.00761474      -0.01189058      -0.00870646
C        3.61705954      -3.42646952      -4.18933677      -0.00879023      -0.00919468      -0.00945358
C        2.27781563      -3.22571365      -3.89279498      -0.00857162      -0.00488038      -0.01153168
C        1.92045594      -2.40592365      -2.83750532      -0.00621705      -0.00426400      -0.01161047
C        3.75971204       0.34705535      -0.42364455      -0.01900143      -0.00283031      -0.01196173
C        4.89525333       0.05699250       0.32786133      -0.02080194      -0.00693988      -0.00965656
C        5.92403432       0.98197098       0.41281937      -0.01725321      -0.01114486      -0.00415218
C        5.83476231       2.19379267      -0.25196480      -0.01072237      -0.00779036       0.00114063
C        4.70396340       2.49072676      -0.99691956      -0.00778436      -0.00356876      -0.00108168
C        3.67222116       1.57400893      -1.07699662      -0.01000359      -0.00124852      -0.00983954
C       -0.46636171      -1.42236872       2.22646846       0.00460072       0.02281435       0.02425246
C       -1.74321017      -0.57869553       2.15509129      -0.00455250       0.00793544       0.01295815
P       -1.57650499       0.73001404       0.82978340      -0.00787296      -0.00381218       0.00092253
C       -1.46177482       2.36031528       1.64334600      -0.00021917      -0.00081856      -0.00309632
C       -0.58394324       3.27453310       1.06842507      -0.00242458       0.00454685       0.00256362
C       -0.49964475       4.56559442       1.55634907      -0.00585537       0.00273695       0.00908054
C       -1.29478848       4.95326958       2.62236717      -0.00679389      -0.00218612       0.00971977
C       -2.17648846       4.04870220       3.19337289      -0.00497922      -0.00724484       0.00432931
C       -2.26993748       2.75768678       2.70275484      -0.00128111      -0.00534970      -0.00138275
C       -3.27947690       0.88000889       0.20395659      -0.00457120      -0.00754903      -0.00031874
C       -3.41026522       1.39396727      -1.08166360       0.00020854      -0.01283305      -0.00297865
C       -4.66393137       1.59569866      -1.62729179       0.00126324      -0.01053942      -0.00492888
C       -5.79622507       1.29392849      -0.88689885      -0.00097345      -0.00548146      -0.00597881
C       -5.67017964       0.78940026       0.39641318      -0.00480411      -0.00404245      -0.00503158
C       -4.41718804       0.58202323       0.94471990      -0.00626246      -0.00475651      -0.00166146
H        0.98086952      -3.25009274      -0.14847276      -0.01680094       0.01401756       0.01527170
H        1.05045492      -3.39321708       1.62458361      -0.00308563       0.00733995       0.01326846
H        3.26997750      -2.70518329       0.60049481      -0.00616491      -0.00147725       0.00175249
H        2.62694850      -1.41091332       1.66193118       0.00519301       0.01382380      -0.00827877
H        5.01718993      -1.51558342      -1.77692569      -0.00492612      -0.01378070      -0.00690835
H        5.64451955      -2.95825359      -3.67326205      -0.00810040      -0.01421943      -0.00909860
H        3.89641984      -4.05750006      -5.02049168      -0.01007528      -0.01046211      -0.00892008
H        1.51010390      -3.70012013      -4.48676184      -0.00947453      -0.00136436      -0.01299128
H        0.87752852      -2.21037472      -2.61368103      -0.00389436       0.00445753      -0.01278747
H        4.98574302      -0.88523893       0.84971801      -0.02287498      -0.00796200      -0.01162439
H        6.80335059       0.75506950       0.99931449      -0.01924295      -0.01684910      -0.00351539
H        6.64277602       2.90815633      -0.18679863      -0.00845256      -0.01049768       0.00624175
H        4.62723798       3.43706567      -1.51238277      -0.00406334      -0.00113424       0.00302837
H        2.77011415       1.79556555      -1.63705036      -0.00369881       0.00344021      -0.01483856
H        0.31800474      -0.88595906       2.77311686       0.00058874       0.03121516       0.02292666
H       -0.68484738      -2.36655709       2.75289472       0.01290998       0.02601994       0.03358703
H       -2.57669863      -1.21909370       1.84215393       0.00512330      -0.00481283       0.01131631
H       -1.96576772      -0.14184795       3.13143912      -0.01934871       0.01071822       0.00832591
H        0.03664210       2.94683756       0.24061843      -0.00274599       0.01300333       0.00333833
H        0.18549768       5.26724287       1.10325896      -0.00622413       0.00487736       0.01213695
H       -1.23047314       5.96107516       3.00574724      -0.00989045      -0.00342993       0.01359431
H       -2.79972121       4.35566043       4.02090956      -0.00643738      -0.01304237       0.00524184
H       -2.97503359       2.06601987       3.14255825      -0.00031719      -0.00709226      -0.00320830
H       -2.51353649       1.61105525      -1.64926762       0.00290804      -0.01815751      -0.00080424
H       -4.75995016       1.99158933      -2.62852256       0.00375819      -0.01020364      -0.00491098
H       -6.77752596       1.45301145      -1.31002080       0.00021887      -0.00111122      -0.00720994
H       -6.55159777       0.55803474       0.97689878      -0.00635032       0.00061503      -0.00568392
H       -4.33738448       0.19059857       1.94892672      -0.00754657       0.00033253       0.00030201
C        0.21779257       1.15466376      -1.83206617       0.04888647       0.14814636       0.01829158
O        0.05670592       1.52695276      -2.91408271       0.05500598       0.13692781       0.08302215
H        1.02462614       0.81889465       0.69659902      -0.01695639       0.01746246      -0.06986457
O       -2.23670815      -3.28843965      -2.76536307      -0.07739206      -0.06385189      -0.07764968
C       -3.13600114      -2.51696452      -2.54230396      -0.02937318      -0.08588091      -0.03627044
C       -3.97331477      -2.54296427      -1.33276003       0.00176200      -0.04029813      -0.01184040
C       -3.47575934      -3.09013087      -0.15295714       0.00123139      -0.03848128      -0.00936299
C       -4.29985924      -3.26050222       0.94237718       0.00503151      -0.00362306       0.00142558
C       -5.64241273      -2.92491935       0.85228740       0.01081389       0.02416074       0.00391549
C       -6.14057200      -2.35982741      -0.31108625       0.00883158       0.01971867       0.00122322
C       -5.30489475      -2.13994794      -1.39118905       0.00786523      -0.00884786      -0.00622389
H       -0.77474779      -2.04828607       0.33412183       0.00559118       0.04171830       0.01245927
H       -3.45139377      -1.76608822      -3.29640998       0.05144507      -0.00161237       0.02668109
H       -1.19484025      -1.08422921      -1.50946176       0.25584159      -0.02726480       0.06992823
H       -2.43718758      -3.38843581      -0.13025991      -0.00428990      -0.05797867      -0.01103597
H       -3.91041035      -3.68876660       1.85560911       0.00574302       0.00062096       0.00482298
H       -6.30209003      -3.11443117       1.68670136       0.01394821       0.04388932       0.01060559
H       -7.18773227      -2.10453739      -0.38004321       0.01189981       0.04022301       0.00454392
H       -5.68974949      -1.69712519      -2.29879786       0.01147557      -0.01151467      -0.00918196
79
Properties=species:S:1:pos:R:3:forces:R:3 charge=0 unpaired=0 uhf=0 endpoint_role="alcohol encounter complex; requires optimization" energy=-3138.1932309870726 pbc="F F F"
Ru       0.26100818       0.00400706      -0.34949894       0.00181184      -0.01238384       0.01224638
N        0.05857107      -1.67584433       0.95830766       0.00546708       0.00704098       0.02297995
C        1.13009494      -2.67336101       0.85230820       0.00357528       0.00483744       0.02241136
C        2.49259592      -1.98634296       0.76925099       0.00394867       0.00159522       0.00419111
P        2.36462101      -0.80343184      -0.66326940       0.00331190      -0.00898683      -0.00491071
C        2.92731936      -1.82637067      -2.06170087      -0.00146605      -0.00944495      -0.00404388
C        4.27157927      -2.01871150      -2.36671538      -0.00022604      -0.01257889      -0.00229720
C        4.62202881      -2.81845185      -3.43884563      -0.00072980      -0.01146663      -0.00414398
C        3.64058766      -3.43216748      -4.20221345       0.00032203      -0.00713135      -0.00839968
C        2.30161558      -3.23308538      -3.90602836       0.00086285      -0.00366060      -0.01097860
C        1.94437773      -2.42159412      -2.84488573       0.00128100      -0.00549884      -0.00919950
C        3.76536315       0.33769797      -0.43024127      -0.00222258      -0.00590227      -0.00915974
C        4.89756787       0.05321385       0.32657373      -0.00304863      -0.00524559      -0.00744969
C        5.92149259       0.98213632       0.41557979      -0.00441380      -0.00443245      -0.00249981
C        5.82788137       2.19339303      -0.24954100      -0.00371304      -0.00407085       0.00138910
C        4.69901115       2.48499915      -0.99977306      -0.00183879      -0.00544597      -0.00030855
C        3.67261134       1.56285623      -1.08589191      -0.00103652      -0.00629507      -0.00655521
C       -0.43664560      -1.38839648       2.30105784       0.01075291       0.02255867       0.02322028
C       -1.73077626      -0.57457245       2.18756165       0.00274273       0.00656172       0.00992461
P       -1.57391566       0.69527035       0.82161709      -0.00348744      -0.00612295      -0.00170468
C       -1.46351970       2.33897802       1.62006341      -0.00286186      -0.00493638      -0.00786484
C       -0.59135241       3.25982710       1.04710506      -0.00487485      -0.00071196      -0.00286233
C       -0.50931096       4.54978542       1.53955068      -0.00719408      -0.00252402       0.00348818
C       -1.30266398       4.93344983       2.60817920      -0.00679621      -0.00800135       0.00551053
C       -2.18068219       4.02416872       3.17688133      -0.00548587      -0.01190827       0.00058458
C       -2.26992409       2.73408526       2.68263659      -0.00422881      -0.00969418      -0.00555583
C       -3.28008856       0.83782639       0.20142946       0.00060466      -0.01482978      -0.00514769
C       -3.40423114       1.34140124      -1.08932942       0.00221692      -0.02143134      -0.00748862
C       -4.65536281       1.56578410      -1.63193197       0.00220966      -0.01544236      -0.00684310
C       -5.79056531       1.28674361      -0.88729953       0.00140263      -0.00529884      -0.00487939
C       -5.67101657       0.78523880       0.39819135      -0.00041305      -0.00268938      -0.00385393
C       -4.42087544       0.56352456       0.94744706      -0.00108430      -0.00717529      -0.00263833
H        0.97933875      -3.23813799      -0.07794123      -0.00432801       0.00109041       0.02636678
H        1.08955377      -3.37860085       1.69478082       0.01212383       0.00880466       0.02562057
H        3.29331976      -2.71776243       0.62746585       0.00003007      -0.00394845       0.00477597
H        2.67644007      -1.39561139       1.67326472       0.01559670       0.00924332      -0.00325966
H        5.03630661      -1.53409152      -1.77595938      -0.00011873      -0.01676359      -0.00058908
H        5.66497374      -2.96032225      -3.68337384      -0.00109795      -0.01353746      -0.00189498
H        3.92089956      -4.05748960      -5.03733469      -0.00006587      -0.00656121      -0.00878246
H        1.53461335      -3.70019411      -4.50744691       0.00110008       0.00100150      -0.01441298
H        0.90499122      -2.22237626      -2.62606577       0.00241894      -0.00347225      -0.01211285
H        4.98686507      -0.88884135       0.84876579      -0.00404538      -0.00449143      -0.01000528
H        6.79877499       0.75746156       1.00553456      -0.00658414      -0.00392342      -0.00083581
H        6.63188247       2.91166412      -0.18058806      -0.00504284      -0.00349682       0.00594450
H        4.61945851       3.43159039      -1.51451896      -0.00174301      -0.00514292       0.00341854
H        2.77340815       1.78004935      -1.65169935       0.00207422      -0.00599794      -0.00879775
H        0.32732340      -0.82592310       2.84968237       0.00796110       0.03730068       0.01163185
H       -0.64421330      -2.32820634       2.83976876       0.02223627       0.03283922       0.04386367
H       -2.54797007      -1.24047254       1.88302033       0.01097433      -0.00638901       0.01432629
H       -1.97877172      -0.11365869       3.14643368      -0.01052708       0.01301015       0.00415800
H        0.02918269       2.94064301       0.21723654      -0.00379902       0.00579857      -0.00371085
H        0.17381381       5.25436483       1.08774563      -0.00825786       0.00002053       0.00702758
H       -1.24037537       5.94040851       2.99457405      -0.00774044      -0.00998200       0.01045471
H       -2.80407553       4.32645990       4.00618248      -0.00531589      -0.01771550       0.00224853
H       -2.97323701       2.04175244       3.12402439      -0.00327404      -0.01124479      -0.00882344
H       -2.50537481       1.53453446      -1.66243782       0.00211316      -0.02912103      -0.00909207
H       -4.74585822       1.95746957      -2.63486624       0.00470165      -0.01854848      -0.00766852
H       -6.77023662       1.45915178      -1.30940301       0.00225597       0.00164701      -0.00388115
H       -6.55586840       0.56830095       0.97933438      -0.00096661       0.00411296      -0.00277318
H       -4.34586441       0.17773812       1.95429994      -0.00267113      -0.00292220      -0.00189971
C        0.22989208       1.15432920      -1.79219834      -0.00728906       0.08444521      -0.10530607
O        0.10978157       1.63135846      -2.83951144       0.04245398       0.03022668       0.18221897
H        1.02018971       0.83660217       0.68039966      -0.00432889      -0.00151948       0.00154734
O       -2.92618132      -1.40149172      -3.21418022      -0.24977175       0.34757330      -0.15178295
C       -3.30767840      -2.38752218      -2.65752357      -0.03155502       0.02364056      -0.02065292
C       -4.05942289      -2.48893004      -1.38151556      -0.01801150      -0.00179389      -0.01715825
C       -3.50749655      -3.04755978      -0.23561550      -0.00781818      -0.01369163      -0.02807860
C       -4.29202700      -3.24081492       0.88914593       0.00866924       0.00088666      -0.01549877
C       -5.63961961      -2.91931884       0.86151207       0.01381101       0.02083069       0.00302830
C       -6.18933061      -2.35135459      -0.27506605       0.00005964       0.01598351       0.00739668
C       -5.39824116      -2.11510471      -1.38487905      -0.01508556       0.00365455      -0.00407108
H       -0.74126501      -2.02510314       0.42927302       0.00208261       0.00959816       0.02656466
H       -3.18318207      -3.37314947      -3.15199893       0.18841442      -0.28143439       0.09934423
H       -0.88173872      -1.37825312      -1.46597589       0.06180251      -0.05081409       0.00126321
H       -2.46324054      -3.32849641      -0.23468062      -0.01198655      -0.02574679      -0.03593207
H       -3.86185454      -3.67299699       1.78262027       0.01847033      -0.00092831      -0.02052076
H       -6.26207412      -3.11874604       1.72163177       0.02645742       0.03059534       0.01267819
H       -7.23915174      -2.10073147      -0.30534024       0.00309593       0.02614374       0.01779872
H       -5.81526254      -1.66659580      -2.27455617      -0.02286738       0.00145589      -0.00129680
79
Properties=species:S:1:pos:R:3:forces:R:3 charge=0 unpaired=0 uhf=0 endpoint_role="alcohol encounter complex; requires optimization" energy=-3138.5885124138226 pbc="F F F"
Ru       0.28936518       0.01181783      -0.29889417       0.00057027      -0.00555234       0.00994575
N        0.10847072      -1.67828486       1.02103485       0.00135059       0.00484694       0.00724567
C        1.20746582      -2.65159332       0.95448372       0.00062775       0.00302700       0.00883398
C        2.55097419      -1.93404150       0.83274595       0.00050456       0.00167319      -0.00025390
P        2.38244353      -0.81808764      -0.64627878       0.00160865      -0.00334936      -0.00445606
C        2.92250883      -1.90722605      -2.00585864      -0.00260636      -0.00406288      -0.00335776
C        4.26626841      -2.18470591      -2.24263648      -0.00149148      -0.00842748      -0.00113592
C        4.61968457      -3.02449722      -3.28224247      -0.00207901      -0.00870429      -0.00186203
C        3.64063422      -3.59393076      -4.08259187      -0.00191076      -0.00454005      -0.00486729
C        2.30331731      -3.31450914      -3.85214620      -0.00167308      -0.00096909      -0.00655617
C        1.94448468      -2.46456126      -2.82111012      -0.00148475      -0.00130451      -0.00581711
C        3.78845116       0.32941921      -0.51825517       0.00004912      -0.00310257      -0.00593653
C        4.89381845       0.14686977       0.30516119      -0.00003273      -0.00366628      -0.00428298
C        5.91685443       1.08097077       0.30436918      -0.00089169      -0.00205922      -0.00105446
C        5.84794254       2.19445007      -0.51593442       0.00005769       0.00001525       0.00100516
C        4.74617719       2.38299693      -1.33636021       0.00160566      -0.00038117      -0.00118977
C        3.72136624       1.45597668      -1.33440435       0.00189371      -0.00186275      -0.00528456
C       -0.37094331      -1.34745148       2.36311941       0.00615386       0.01415148       0.00815366
C       -1.69253306      -0.58359561       2.24199566       0.00185620       0.00441513       0.00397907
P       -1.56001947       0.67450687       0.86526145      -0.00193429       0.00091526       0.00153926
C       -1.48921245       2.31296268       1.67065888      -0.00311820      -0.00015761      -0.00119837
C       -0.60599780       3.25132247       1.14673239      -0.00381859       0.00173121       0.00191083
C       -0.55653876       4.53190255       1.66782697      -0.00556086       0.00092549       0.00497540
C       -1.39153825       4.88539245       2.71491411      -0.00594248      -0.00186814       0.00559565
C       -2.28133392       3.95741090       3.23321143      -0.00560969      -0.00378036       0.00259431
C       -2.33930841       2.67807949       2.70958397      -0.00511193      -0.00273121      -0.00049599
C       -3.26351822       0.78528422       0.22996998       0.00261495      -0.00719231      -0.00364854
C       -3.38428372       1.32344932      -1.04742278       0.00352483      -0.01332377      -0.00598385
C       -4.63258637       1.54725718      -1.59631261       0.00313923      -0.01443353      -0.00699882
C       -5.77018283       1.23200809      -0.87034826       0.00270150      -0.00898754      -0.00562539
C       -5.65533490       0.68982338       0.39898993       0.00177260      -0.00520622      -0.00400449
C       -4.40758255       0.46848536       0.95420383       0.00157852      -0.00493831      -0.00235428
H        1.06817389      -3.26540348       0.05450693      -0.00297816      -0.00057400       0.01203205
H        1.19018819      -3.31426927       1.83151709       0.00550390       0.00678757       0.01168194
H        3.36898845      -2.65071183       0.71572473      -0.00050362      -0.00065550       0.00028221
H        2.72525080      -1.30158351       1.70988581       0.00697395       0.00537849      -0.00421392
H        5.02888128      -1.73403651      -1.62253973      -0.00126415      -0.01264986       0.00058866
H        5.66265441      -3.23251963      -3.47336647      -0.00226914      -0.01187007       0.00059206
H        3.92257037      -4.24955698      -4.89363340      -0.00232523      -0.00441532      -0.00511629
H        1.54024384      -3.75040052      -4.48145568      -0.00190064       0.00208872      -0.00801310
H        0.90881941      -2.21009897      -2.64689437      -0.00143466      -0.00005629      -0.00708392
H        4.96376531      -0.71811943       0.94877900       0.00037242      -0.00450121      -0.00574774
H        6.77383974       0.93666994       0.94668494      -0.00233121      -0.00214014       0.00064138
H        6.65031213       2.91758061      -0.51422709      -0.00074646       0.00107925       0.00411786
H        4.68588973       3.25341378      -1.97335838       0.00189599       0.00089647       0.00027977
H        2.84467274       1.59328336      -1.95719791       0.00447738      -0.00107677      -0.00786471
H        0.38281703      -0.73168143       2.86687952       0.00496935       0.02297307      -0.00044650
H       -0.53128453      -2.26665031       2.95042485       0.01472209       0.02131142       0.02084901
H       -2.48706875      -1.28121575       1.94953990       0.00661634      -0.00199280       0.00539046
H       -1.95498050      -0.11583383       3.19372077      -0.00556714       0.00453128       0.00238438
H        0.04749666       2.95558756       0.33375987      -0.00296110       0.00442913       0.00202254
H        0.13422348       5.25261365       1.25498663      -0.00592069       0.00204596       0.00717055
H       -1.35284446       5.88425180       3.12422290      -0.00629210      -0.00300392       0.00827465
H       -2.93772449       4.23557436       4.04507171      -0.00548330      -0.00661134       0.00333402
H       -3.05218139       1.96899735       3.10683286      -0.00483676      -0.00347487      -0.00298692
H       -2.48324213       1.54809723      -1.60600806       0.00343700      -0.01760779      -0.00674372
H       -4.71830539       1.96425324      -2.58889091       0.00436998      -0.01900696      -0.00870454
H       -6.74789598       1.40863344      -1.29466789       0.00318827      -0.00730324      -0.00582884
H       -6.54282177       0.44246002       0.96383208       0.00158691      -0.00226505      -0.00342246
H       -4.33795629       0.05198862       1.94919930       0.00090238      -0.00235829      -0.00197907
C        0.26074899       1.24120707      -1.66945724      -0.00629291       0.08149050      -0.08792021
O        0.14015288       1.83637658      -2.65454671       0.03023971      -0.00812477       0.13629142
H        1.05673404       0.82608927       0.73916871       0.00109512      -0.00311967       0.00455370
O       -3.75920656      -1.09787954      -3.53195772      -0.03637716      -0.00769761      -0.02175173
C       -3.41214961      -1.91368321      -2.71288605      -0.00702868       0.00056612      -0.00962987
C       -4.16913619      -2.26495802      -1.50239203      -0.00618870      -0.00527736      -0.00874976
C       -3.53587107      -2.83536529      -0.40156664      -0.00269380      -0.01444393      -0.01471480
C       -4.26968641      -3.19894841       0.71144227       0.00365632      -0.00537190      -0.00704076
C       -5.64830825      -3.04401163       0.71238372       0.00479652       0.01269794       0.00456842
C       -6.28696248      -2.48556679      -0.38336208      -0.00103755       0.01448544       0.00827865
C       -5.54897856      -2.07374344      -1.47664721      -0.00567972       0.00425953       0.00049624
H       -0.68869329      -2.07735094       0.52227843      -0.00099995       0.00792735       0.00773511
H       -2.48489624      -2.49746779      -2.85193324       0.02800148       0.01402425       0.00564680
H       -0.86324666      -1.29743528      -1.46740188      -0.00511496       0.00768270      -0.00145254
H       -2.46536796      -2.97379417      -0.43453991      -0.00404246      -0.02863880      -0.02449824
H       -3.77849909      -3.63004614       1.57333445       0.00762479      -0.01108366      -0.01132945
H       -6.22550508      -3.36782963       1.56631203       0.00922222       0.01961631       0.01014533
H       -7.36137671      -2.37701935      -0.38680695      -0.00087794       0.02513206       0.01609598
H       -6.02275373      -1.62972007      -2.33962197      -0.00884774       0.00481760       0.00237137
79
Properties=species:S:1:pos:R:3:forces:R:3 charge=0 unpaired=0 uhf=0 endpoint_role="alcohol encounter complex; requires optimization" energy=-3138.65310416766 pbc="F F F"
Ru       0.32166678       0.02317820      -0.24636344       0.00318822      -0.00334407       0.00721382
N        0.15268211      -1.67308282       1.07831552       0.00369453       0.00468173       0.00630914
C        1.26899620      -2.62881850       1.03188958       0.00280893       0.00328693       0.00664197
C        2.59996297      -1.89295296       0.88232038       0.00307386       0.00151158       0.00049482
P        2.40257150      -0.82540770      -0.62643850       0.00359163      -0.00176647      -0.00193952
C        2.91517036      -1.96528091      -1.95677416       0.00045404      -0.00236274      -0.00149597
C        4.25311246      -2.30860657      -2.13616151       0.00055717      -0.00639572       0.00002418
C        4.60862598      -3.18161263      -3.14690088      -0.00055850      -0.00665717      -0.00060483
C        3.63665347      -3.71959077      -3.97750320      -0.00067882      -0.00284855      -0.00283263
C        2.30601950      -3.37669717      -3.80364298      -0.00001345       0.00081605      -0.00406740
C        1.94599925      -2.49488798      -2.79947794       0.00083994       0.00067943      -0.00342612
C        3.81171198       0.32167317      -0.58846484       0.00285446      -0.00175846      -0.00334391
C        4.89559637       0.23246685       0.27644172       0.00265717      -0.00147497      -0.00225595
C        5.91555166       1.16699297       0.20120613       0.00181305       0.00001311      -0.00024695
C        5.86338461       2.18696125      -0.73368406       0.00244884       0.00129559       0.00085306
C        4.78307293       2.28079192      -1.59819760       0.00359542       0.00026484      -0.00067275
C        3.76199145       1.35327074      -1.52334636       0.00405398      -0.00116720      -0.00318716
C       -0.32589289      -1.32012548       2.41623745       0.00581975       0.00965931       0.00646856
C       -1.66389400      -0.58832469       2.28515322       0.00286585       0.00250417       0.00295811
P       -1.54249955       0.66660866       0.90607275       0.00089610       0.00018321       0.00153215
C       -1.50860690       2.30025060       1.72314453      -0.00171819      -0.00064553      -0.00000376
C       -0.61838903       3.25372363       1.24096411      -0.00227135       0.00075078       0.00244138
C       -0.59635615       4.52609438       1.78433029      -0.00406399       0.00026353       0.00411405
C       -1.46440375       4.85512680       2.81232017      -0.00489428      -0.00148804       0.00390245
C       -2.36174437       3.91178725       3.28837581      -0.00454048      -0.00296485       0.00150182
C       -2.39302014       2.64145784       2.74181937      -0.00354507      -0.00239332      -0.00019152
C       -3.24436369       0.75691647       0.25726855       0.00420176      -0.00649874      -0.00283709
C       -3.36412854       1.32404339      -1.00808048       0.00551493      -0.01227571      -0.00533196
C       -4.61138133       1.54291055      -1.56203788       0.00553896      -0.01413404      -0.00692132
C       -5.75007920       1.18988928      -0.85538766       0.00495518      -0.01020804      -0.00607213
C       -5.63655615       0.61483426       0.39939559       0.00376727      -0.00643864      -0.00428491
C       -4.38993097       0.40118015       0.96077826       0.00337955      -0.00495057      -0.00226582
H        1.13476606      -3.27014971       0.15061283      -0.00029890       0.00142832       0.00858572
H        1.26774612      -3.26611698       1.92753250       0.00574115       0.00590627       0.00840160
H        3.42918578      -2.59912103       0.78175872       0.00203785      -0.00024091       0.00046536
H        2.76650005      -1.23277058       1.74020635       0.00787693       0.00341956      -0.00192815
H        5.01029606      -1.88187536      -1.49246194       0.00098701      -0.00997047       0.00129509
H        5.64738815      -3.44153107      -3.29162793      -0.00109395      -0.00962459       0.00090452
H        3.91957543      -4.40147864      -4.76629955      -0.00151617      -0.00272108      -0.00325466
H        1.54806964      -3.79008694      -4.45403901      -0.00039695       0.00381488      -0.00527429
H        0.91568203      -2.20136495      -2.66650320       0.00116578       0.00244068      -0.00430708
H        4.95057201      -0.55873132       1.00996918       0.00319634      -0.00204740      -0.00308596
H        6.75634821       1.09648691       0.87629743       0.00076669       0.00043783       0.00093695
H        6.66240303       2.91169388      -0.78780043       0.00190357       0.00222228       0.00256129
H        4.73682862       3.07795611      -2.32583964       0.00385875       0.00076166      -0.00020520
H        2.90305650       1.41629231      -2.18215191       0.00599305      -0.00129956      -0.00514423
H        0.41654866      -0.67366123       2.89776548       0.00366842       0.01505914       0.00278516
H       -0.46093537      -2.22673507       3.02842556       0.01134729       0.01366552       0.01290641
H       -2.44126149      -1.30506802       1.99372836       0.00691424      -0.00211316       0.00323728
H       -1.94118296      -0.12052535       3.23269204      -0.00319924       0.00206142       0.00162003
H        0.06178113       2.97738383       0.44350618      -0.00131305       0.00246159       0.00299904
H        0.09937112       5.25967357       1.40383791      -0.00424578       0.00096984       0.00580573
H       -1.44601948       5.84708395       3.23943013      -0.00547418      -0.00217806       0.00555640
H       -3.04438182       4.17059458       4.08484393      -0.00486805      -0.00471029       0.00153811
H       -3.11240608       1.92033287       3.10424240      -0.00336189      -0.00291481      -0.00194735
H       -2.46215724       1.58160474      -1.55131195       0.00596387      -0.01608197      -0.00575797
H       -4.69681652       1.98609118      -2.54346234       0.00663815      -0.01882881      -0.00895732
H       -6.72659930       1.36352954      -1.28327620       0.00544656      -0.01013641      -0.00699957
H       -6.52469095       0.33735349       0.94892218       0.00335415      -0.00465733      -0.00428920
H       -4.32348624      -0.03877996       1.94571534       0.00255730      -0.00250570      -0.00154504
C        0.29722388       1.30051112      -1.56987859      -0.00015094       0.05307506      -0.04911753
O        0.18519591       1.96992892      -2.50683780       0.02154467      -0.01037046       0.07986058
H        1.08950434       0.82939036       0.79815554       0.00285547      -0.00122813       0.00264017
O       -4.11718689      -1.05501074      -3.74066297      -0.02623278      -0.00185312      -0.01110779
C       -3.57332927      -1.56784548      -2.78765724      -0.01908169       0.00746530      -0.00847300
C       -4.27345073      -2.09703275      -1.61208978      -0.01412113       0.00119792      -0.00679624
C       -3.55877488      -2.62439436      -0.53861083      -0.00731700      -0.00212025      -0.01235348
C       -4.22698454      -3.13529532       0.55744022      -0.00061647      -0.00015717      -0.00685957
C       -5.61401016      -3.13848326       0.58277061      -0.00108275       0.00608374       0.00329383
C       -6.33305949      -2.61860150      -0.48265529      -0.00859750       0.00483062       0.00731493
C       -5.66724115      -2.09311815      -1.57217832      -0.01462930       0.00096965       0.00128696
H       -0.63823855      -2.10309763       0.59483524       0.00222534       0.00665909       0.00653146
H       -2.48018116      -1.67767697      -2.75876602      -0.01254360       0.02235189      -0.00579500
H       -0.76136957      -1.29607398      -1.44219483       0.00093455       0.00409911       0.00554922
H       -2.48181114      -2.62365208      -0.58589117      -0.00708711      -0.00592192      -0.02005330
H       -3.67647145      -3.54971748       1.39149162       0.00509730      -0.00238685      -0.01104748
H       -6.13546191      -3.55309422       1.43336244       0.00388078       0.00835247       0.00740552
H       -7.41269614      -2.62921907      -0.46365727      -0.00913146       0.00803826       0.01432054
H       -6.20056791      -1.68229014      -2.41666459      -0.01988179       0.00015891       0.00402371
79
Properties=species:S:1:pos:R:3:forces:R:3 charge=0 unpaired=0 uhf=0 endpoint_role="alcohol encounter complex; requires optimization" energy=-3138.758436260317 pbc="F F F"
Ru       0.28464408      -0.00032564      -0.27724659      -0.00072421      -0.00139968      -0.00178077
N        0.14676693      -1.74346432       1.10967013       0.00105526      -0.00115142       0.00256155
C        1.32233278      -2.63172772       1.10638511       0.00199120      -0.00026356       0.00418785
C        2.61432079      -1.84241500       0.90793483       0.00133049      -0.00007551      -0.00022944
P        2.35751774      -0.82738926      -0.62978556      -0.00115030      -0.00232295      -0.00169833
C        2.89841601      -2.02272336      -1.91357549       0.00000378      -0.00299808      -0.00129450
C        4.22785841      -2.41827863      -2.03295680      -0.00019530      -0.00429431       0.00055621
C        4.59236452      -3.32376907      -3.01179839       0.00083669      -0.00401204       0.00063767
C        3.63707183      -3.84196115      -3.87374116       0.00203418      -0.00254823      -0.00156931
C        2.31424520      -3.44783478      -3.76126306       0.00213092      -0.00156565      -0.00322211
C        1.94803789      -2.53641260      -2.78624511       0.00112783      -0.00196051      -0.00317066
C        3.78428567       0.30444905      -0.66833049      -0.00058541      -0.00244613      -0.00304906
C        4.84654904       0.30476595       0.22758982      -0.00139895      -0.00160811      -0.00193979
C        5.86936479       1.22862433       0.08594562      -0.00184315      -0.00088836      -0.00056560
C        5.84176529       2.15267337      -0.94454137      -0.00090621      -0.00053371      -0.00042636
C        4.78353369       2.15776943      -1.84101927       0.00003920      -0.00135113      -0.00160084
C        3.76151120       1.23888870      -1.70187712       0.00048367      -0.00219910      -0.00312951
C       -0.28946325      -1.29920306       2.43748071       0.00337942       0.00486394       0.00165077
C       -1.63422582      -0.58271380       2.30718356       0.00186912       0.00165490       0.00074886
P       -1.52722945       0.65330570       0.90630577       0.00023433      -0.00156875      -0.00201075
C       -1.52956605       2.28178583       1.74975157      -0.00204065      -0.00119473      -0.00281601
C       -0.63786543       3.25340067       1.31217990      -0.00252010      -0.00042273      -0.00186401
C       -0.63696688       4.51273376       1.88606171      -0.00270947      -0.00117595      -0.00027360
C       -1.52976657       4.81121855       2.90180865      -0.00212251      -0.00270787       0.00066976
C       -2.43163686       3.85060455       3.33300739      -0.00190201      -0.00345507      -0.00053990
C       -2.44035271       2.59416835       2.75545462      -0.00203361      -0.00255307      -0.00241242
C       -3.25495613       0.75570254       0.30097316      -0.00039305      -0.00342273      -0.00102460
C       -3.37917353       1.36581676      -0.94463748      -0.00068574      -0.00437358      -0.00147143
C       -4.62418225       1.57613775      -1.50556917      -0.00074727      -0.00482183      -0.00142084
C       -5.76098456       1.16924154      -0.82487262      -0.00068566      -0.00432223      -0.00096919
C       -5.64502178       0.55794419       0.41211022      -0.00032807      -0.00375650      -0.00071489
C       -4.39897030       0.35445708       0.98006313      -0.00022089      -0.00340230      -0.00081823
H        1.21954224      -3.32681259       0.26280260       0.00127672      -0.00335802       0.00676271
H        1.36043090      -3.21716664       2.03696069       0.00461178       0.00278125       0.00618847
H        3.46937347      -2.51878940       0.81664294       0.00149917      -0.00012532       0.00092132
H        2.77145879      -1.15085508       1.74144056       0.00249841       0.00227368      -0.00237651
H        4.97549424      -2.00674933      -1.36770392      -0.00090361      -0.00571851       0.00224498
H        5.62595158      -3.62504436      -3.10807857       0.00073125      -0.00516127       0.00256456
H        3.92760669      -4.54819045      -4.63822359       0.00280971      -0.00215096      -0.00172820
H        1.56966525      -3.84493146      -4.43680083       0.00289345      -0.00078890      -0.00450184
H        0.92281851      -2.19954725      -2.69500354       0.00101046      -0.00156101      -0.00433765
H        4.88658408      -0.40851692       1.03837743      -0.00144519      -0.00175499      -0.00190083
H        6.69362483       1.22586651       0.78562021      -0.00283574      -0.00021425       0.00061870
H        6.64215853       2.87115809      -1.04829851      -0.00108185      -0.00005671       0.00058119
H        4.75600149       2.88078347      -2.64388096       0.00061982      -0.00082097      -0.00128252
H        2.92044288       1.23589114      -2.38711366       0.00172607      -0.00239937      -0.00472019
H        0.46205136      -0.61512731       2.84540007       0.00287766       0.00871143      -0.00354910
H       -0.39147858      -2.16139749       3.11770904       0.00672558       0.00903305       0.00752679
H       -2.41033774      -1.31070503       2.04172287       0.00310151      -0.00056097       0.00335502
H       -1.90217526      -0.09996940       3.25004321       0.00087755       0.00325627      -0.00039103
H        0.06223936       3.00304000       0.52487910      -0.00243508       0.00085747      -0.00209582
H        0.06153602       5.26131951       1.53972689      -0.00292394      -0.00066680       0.00047532
H       -1.52849566       5.79285424       3.35365731      -0.00175007      -0.00347645       0.00240210
H       -3.13564074       4.08614176       4.11876558      -0.00132798      -0.00484068       0.00036540
H       -3.16532059       1.86150367       3.08291889      -0.00201279      -0.00296751      -0.00321607
H       -2.47579341       1.66462040      -1.46680329      -0.00060872      -0.00499200      -0.00186601
H       -4.70997069       2.05020629      -2.47272725      -0.00088023      -0.00579346      -0.00186630
H       -6.73691610       1.32881694      -1.25977060      -0.00076757      -0.00451104      -0.00091456
H       -6.53207675       0.24095227       0.94206451      -0.00025242      -0.00365258      -0.00051223
H       -4.33358273      -0.11653717       1.95067338      -0.00000423      -0.00344946      -0.00083868
C        0.30465277       1.34528852      -1.52043510       0.00410888       0.00391675       0.00916785
O        0.27576233       2.15814881      -2.35419022       0.01185855       0.02177043       0.01812789
H        1.07556180       0.77093404       0.83048457      -0.00042103      -0.00347220       0.00235876
O       -4.18696606      -0.90340314      -3.81899130      -0.00619083       0.00592713      -0.00151587
C       -3.63198829      -1.28420326      -2.81381043      -0.00597189       0.01016717       0.00032111
C       -4.29487018      -1.94730308      -1.68563651      -0.00377140       0.00529863      -0.00062555
C       -3.54074919      -2.44172917      -0.62291356      -0.00112336       0.00517738      -0.00224973
C       -4.16499638      -3.07795589       0.43291844       0.00130436       0.00291929      -0.00181401
C       -5.54548961      -3.21460748       0.44212483       0.00110333       0.00182217       0.00009485
C       -6.30338247      -2.71957003      -0.60819893      -0.00170492       0.00044082       0.00129314
C       -5.68218434      -2.09233031      -1.67037077      -0.00374003       0.00153077       0.00049468
H       -0.63486691      -2.28275507       0.72611246       0.00035296      -0.00254942       0.00491809
H       -2.54089249      -1.15705828      -2.68575261      -0.00623053       0.01869490       0.00218690
H       -0.49499311      -0.90875896      -1.28351399       0.00533695       0.01264809       0.00069289
H       -2.46728568      -2.31407790      -0.64916355      -0.00097405       0.00699239      -0.00338029
H       -3.58535733      -3.47865595       1.25342698       0.00351927       0.00269793      -0.00313974
H       -6.03163753      -3.71038589       1.27000082       0.00283531       0.00066508       0.00042451
H       -7.37795147      -2.82795709      -0.59729310      -0.00194202      -0.00084640       0.00242008
H       -6.24898887      -1.70382582      -2.50364949      -0.00570278       0.00058414       0.00131492
79
Properties=species:S:1:pos:R:3:forces:R:3 charge=0 unpaired=0 uhf=0 endpoint_role="hydrogenated catalyst plus aldehyde; requires optimization" energy=-3138.782484059337 pbc="F F F"
Ru       0.31094573       0.02529759      -0.22971227       0.00304494      -0.00124629       0.00198859
N        0.19140308      -1.72480615       1.16231344       0.00053200      -0.00065154       0.00185243
C        1.38225448      -2.59353019       1.17894980      -0.00092228      -0.00068385       0.00020776
C        2.66036194      -1.78951611       0.94909599      -0.00035297      -0.00033845      -0.00012085
P        2.36881264      -0.82630816      -0.61407150      -0.00241440      -0.00059950      -0.00208183
C        2.88195550      -2.07246724      -1.86209552      -0.00018979      -0.00175283      -0.00061711
C        4.19611856      -2.52897327      -1.92340140       0.00092089      -0.00143451      -0.00095083
C        4.55593364      -3.47371772      -2.86580814      -0.00043720       0.00037225      -0.00114086
C        3.61126844      -3.96677436      -3.75406836      -0.00092805       0.00047092       0.00151815
C        2.30519039      -3.50941950      -3.70230859      -0.00150634       0.00131926       0.00053885
C        1.94263850      -2.56230841      -2.75961566      -0.00073209       0.00116739       0.00092998
C        3.79449188       0.29717305      -0.74646513       0.00179727      -0.00047656      -0.00123336
C        4.83654126       0.40265434       0.16575171      -0.00298034       0.00010934       0.00161016
C        5.85324052       1.31851961      -0.05158486       0.00157439      -0.00071882       0.00039144
C        5.83834829       2.12923866      -1.17361030      -0.00020446      -0.00056532      -0.00054895
C        4.79971235       2.02836887      -2.08743870       0.00305682      -0.00007733      -0.00186190
C        3.78370222       1.11779661      -1.87322627      -0.00050318      -0.00003629      -0.00193487
C       -0.25079584      -1.26919931       2.48484322      -0.00158484       0.00217953      -0.00033808
C       -1.60879136      -0.58191216       2.34699184      -0.00107191      -0.00050105      -0.00117252
P       -1.51122194       0.66076064       0.95219519       0.00231199       0.00148302       0.00050829
C       -1.54770532       2.27731054       1.81558391       0.00105905      -0.00254891       0.00226757
C       -0.65085075       3.26389577       1.42637031      -0.00268684       0.00128139      -0.00269148
C       -0.68168755       4.51167702       2.02472072       0.00012333       0.00111001       0.00211463
C       -1.61027610       4.78168689       3.01595210      -0.00320585      -0.00016163      -0.00048394
C       -2.51750213       3.80531655       3.39822193       0.00214014       0.00148435       0.00300928
C       -2.49483658       2.56122622       2.79606329       0.00107043      -0.00153159      -0.00120053
C       -3.23779039       0.74824432       0.33938647      -0.00099730       0.00058928      -0.00023083
C       -3.36399108       1.39816634      -0.88572362       0.00173663      -0.00105109       0.00089615
C       -4.60795925       1.59828504      -1.45291821      -0.00146608       0.00022300       0.00027642
C       -5.74184374       1.14085127      -0.79944564       0.00120324      -0.00079769      -0.00051592
C       -5.62399566       0.49069149       0.41710347      -0.00047207       0.00042095      -0.00018269
C       -4.37904031       0.29752629       0.99155999       0.00102333      -0.00060465      -0.00086703
H        1.28747369      -3.31799008       0.35964036      -0.00063354      -0.00026243       0.00044229
H        1.43568705      -3.14722516       2.12794175      -0.00030254       0.00059713       0.00034155
H        3.52565534      -2.45434205       0.87306525       0.00092007       0.00095334      -0.00024315
H        2.81071214      -1.07151891       1.76086891       0.00043179      -0.00023088       0.00046203
H        4.93635293      -2.13381941      -1.23976503      -0.00064679      -0.00076304       0.00026219
H        5.57690963      -3.82549791      -2.91354229      -0.00076193      -0.00092875       0.00038996
H        3.89773357      -4.70347408      -4.49093828      -0.00087089       0.00011909       0.00023058
H        1.57035752      -3.88675240      -4.39952729      -0.00006381      -0.00042509       0.00005147
H        0.92953279      -2.18257023      -2.71200839       0.00008049       0.00054732       0.00038230
H        4.86369836      -0.22106349       1.04771068       0.00078004       0.00036211       0.00048989
H        6.66221670       1.39915608       0.66107026      -0.00048419       0.00007406       0.00022717
H        6.63356532       2.84259535      -1.33588717      -0.00017608      -0.00020877      -0.00003435
H        4.78282752       2.66318628      -2.96197516       0.00059767      -0.00115097      -0.00073735
H        2.95676319       1.03306047      -2.57096048      -0.00013939      -0.00104848       0.00027254
H        0.48754518      -0.56270142       2.87869865      -0.00028815       0.00085200      -0.00028178
H       -0.33241784      -2.12141971       3.18003511       0.00004790       0.00105680      -0.00016919
H       -2.36669424      -1.32633559       2.07501732       0.00091426      -0.00048934      -0.00099699
H       -1.89396014      -0.10588404       3.28821609      -0.00079151       0.00007053       0.00076100
H        0.07587117       3.03565661       0.65689495      -0.00004030       0.00108800       0.00095836
H        0.01986950       5.27372370       1.71620104      -0.00002100       0.00030395       0.00091698
H       -1.63313296       5.75378732       3.48726400      -0.00013463      -0.00009953       0.00050750
H       -3.24926440       4.01854316       4.16468872      -0.00125488      -0.00006003      -0.00046837
H       -3.22333256       1.81514349       3.08301272      -0.00014099      -0.00027128      -0.00095999
H       -2.46138003       1.73384896      -1.38720368      -0.00278394       0.00277371      -0.00063206
H       -4.69599058       2.10150991      -2.40504345      -0.00051501       0.00081668       0.00059968
H       -6.71626741       1.28972353      -1.24126729      -0.00072689      -0.00058255       0.00040006
H       -6.50823870       0.13303109       0.92537891      -0.00025024      -0.00101823      -0.00030278
H       -4.31340752      -0.20565011       1.94586686       0.00049521      -0.00135374      -0.00041474
C        0.36364196       1.41392858      -1.42342806      -0.00361671       0.00011195      -0.00242158
O        0.38166923       2.28434699      -2.19674746       0.00296354       0.00147411       0.00086643
H        1.11014973       0.78640347       0.87710235       0.00003124       0.00080406       0.00016319
O       -4.35932739      -0.67863311      -3.87963754      -0.00006513      -0.00084241      -0.00037683
C       -3.76514691      -1.05883530      -2.89659493       0.00079016       0.00197582       0.00211764
C       -4.35824211      -1.82461187      -1.79555395       0.00115285      -0.00045888      -0.00148551
C       -3.55401449      -2.29340861      -0.75793329      -0.00058347       0.00035102       0.00093401
C       -4.11299339      -3.02346258       0.27372298       0.00191154       0.00025823      -0.00206378
C       -5.47625651      -3.27835622       0.28618194      -0.00005615      -0.00126270      -0.00033813
C       -6.28387299      -2.80879323      -0.73877607       0.00189958      -0.00065776      -0.00144286
C       -5.72815047      -2.08986901      -1.77876499      -0.00085329       0.00031512       0.00280504
H       -0.58071524      -2.28123112       0.78302556       0.00042772       0.00032609       0.00005621
H       -2.68622375      -0.84900197      -2.76978968       0.00051961       0.00054468       0.00010230
H       -0.47480775      -0.86659673      -1.24579692      -0.00022923       0.00086399      -0.00061827
H       -2.49607259      -2.06826440      -0.77941418       0.00081932      -0.00009299      -0.00062099
H       -3.49349064      -3.40452535       1.07410576       0.00056672      -0.00054988      -0.00062600
H       -5.91049834      -3.84567676       1.09683628       0.00094780      -0.00040086      -0.00018562
H       -7.34528560      -3.00879594      -0.72508943       0.00063610      -0.00036261       0.00021263
H       -6.33488612      -1.71901454      -2.59191534       0.00055865       0.00044863       0.00053117
