43
Properties=species:S:1:pos:R:3:forces:R:3 energy:=T -59.179405858755=T gnorm:=T 0.000165444664=T xtb:=T 6.7.1=T (edcfbbe)=T energy=-1610.354107613785 pbc="F F F"
O        1.20132633      -2.14796864      -2.43194496       0.00375959      -0.00203238       0.00008303
C        0.31275224       0.30727136       0.15767440      -0.00091195      -0.00036919      -0.00008960
N       -0.23636465      -0.68848463       0.72321152      -0.00084678       0.00111031       0.00022567
C       -1.60146618      -0.76378811       0.94558402       0.00230137       0.00104294       0.00252805
C       -2.53401861      -0.45796287      -0.04755872      -0.00089203      -0.00147658      -0.00018755
C       -3.88269015      -0.64714326       0.18836844      -0.00048174      -0.00076574       0.00158451
C       -4.31861540      -1.12815846       1.41232754      -0.00077851      -0.00092679      -0.00017486
C       -3.39626676      -1.43170090       2.40256979      -0.00027239       0.00141119       0.00088932
C       -2.04524235      -1.26457684       2.17140370       0.00085238       0.00015947      -0.00001033
C        1.73089271       0.35592129      -0.14272280      -0.00118520      -0.00087434      -0.00009139
C        2.60931371      -0.64931103       0.27303262      -0.00048755       0.00114284       0.00018338
C        3.95117291      -0.57538365      -0.04679177      -0.00019604      -0.00044219      -0.00027201
C        4.43849895       0.49665637      -0.78036670       0.00006232       0.00058730      -0.00069565
C        3.57694330       1.50226807      -1.19119661      -0.00037019      -0.00013174      -0.00120259
C        2.23396890       1.43573144      -0.87270310       0.00065175       0.00152878      -0.00009560
H        2.00294669      -1.64095539      -2.28722206       0.00353363      -0.00168723       0.00128851
H       -0.26067860       1.20093016      -0.12150719      -0.00009633      -0.00035953      -0.00057872
H        0.26188116      -2.51409374       0.42415494      -0.00018092      -0.00032660      -0.00039766
H       -2.18587175      -0.11205815      -1.01076467      -0.00032419       0.00011551       0.00010460
H       -4.59723034      -0.41879779      -0.58935067      -0.00016530      -0.00033335       0.00049150
H       -5.37352504      -1.27255180       1.59222678       0.00039978      -0.00035514       0.00131124
H       -3.73310324      -1.80946661       3.35707113       0.00050339      -0.00027865       0.00091947
H       -1.31735718      -1.49170498       2.93671993       0.00038292       0.00009695       0.00023975
H        2.22848712      -1.48151593       0.84206322       0.00008036       0.00002893       0.00001673
H        4.62269150      -1.35744350       0.27570884       0.00052270       0.00088505       0.00033350
H        5.48822328       0.54993270      -1.02928530      -0.00011859       0.00054808      -0.00035428
H        3.95504446       2.33926807      -1.75983149      -0.00087451       0.00031104      -0.00047947
H        1.56320510       2.21963661      -1.19573360      -0.00106084      -0.00029474      -0.00083220
C        0.54986386      -5.54426189      -0.65796148      -0.00090762       0.00069321      -0.00002584
C       -0.20972925      -4.38651721      -0.00622904      -0.00017362       0.00138399      -0.00186063
C       -1.43712010      -4.01598660      -0.84639768       0.00049804      -0.00031372      -0.00039391
C       -0.63938405      -4.75599585       1.41818191      -0.00135942       0.00050276       0.00090928
O        0.70490161      -3.29484573       0.03904198      -0.00018109       0.00055961       0.00052349
H       -0.07608556      -6.43048462      -0.70456320      -0.00008327      -0.00090294      -0.00075782
H        1.44438209      -5.76795647      -0.08193901      -0.00082675      -0.00059771       0.00046115
H        0.84901912      -5.26551460      -1.66550863       0.00003958      -0.00022075       0.00030590
H       -2.00069321      -3.21672748      -0.36818058       0.00021203       0.00054318      -0.00135134
H       -1.12541459      -3.67859755      -1.83276298       0.00093316       0.00094605      -0.00020735
H       -2.08828770      -4.87854083      -0.95979885       0.00004261       0.00082272      -0.00125182
H       -1.18656177      -3.93082658       1.87111140      -0.00125756       0.00022130      -0.00061615
H        0.23706452      -4.97080808       2.02599567      -0.00133863      -0.00014212      -0.00039403
H       -1.28107395      -5.63266613       1.40391405      -0.00125369      -0.00032366      -0.00087578
H        1.04649661      -2.62708009      -1.59358702       0.00184910      -0.00148612       0.00079750
