43
Properties=species:S:1:pos:R:3:forces:R:3 energy:=T -59.203319823605=T gnorm:=T 0.000024897949=T xtb:=T 6.7.1=T (edcfbbe)=T energy=-1611.0043896418492 pbc="F F F"
O        0.27015216      -1.52585804      -1.64851193       0.00001111      -0.00000895      -0.00004750
C        0.40902308      -0.38582695      -0.84353357       0.00002333       0.00007384      -0.00000057
N       -0.16880358      -0.60645933       0.46882494       0.00008964       0.00010199      -0.00002562
C       -1.52942722      -0.59451488       0.71295301      -0.00001721      -0.00005231       0.00007935
C       -2.46548953      -0.75784203      -0.30942911       0.00007320       0.00000144       0.00003993
C       -3.81513397      -0.80532594      -0.01523149       0.00000777      -0.00003424       0.00010960
C       -4.26028914      -0.69931428       1.29192758       0.00008663      -0.00001780       0.00010445
C       -3.33576350      -0.54111046       2.31230389       0.00008499      -0.00001098       0.00008143
C       -1.98558356      -0.48702836       2.02978530       0.00010171      -0.00004148       0.00000956
C        1.85883585       0.01598865      -0.65623189       0.00002045       0.00004255      -0.00001370
C        2.77942158      -0.90813179      -0.17336629       0.00003917      -0.00005392      -0.00004849
C        4.10166846      -0.54234541       0.00801006       0.00007817      -0.00001517      -0.00006647
C        4.51549860       0.74657188      -0.28573370       0.00000525      -0.00000163       0.00008802
C        3.60179674       1.67020434      -0.76451667       0.00004108       0.00002011       0.00007346
C        2.27886684       1.30604378      -0.94980751       0.00005843       0.00003859       0.00002678
H        0.53991999      -2.29633374      -1.10787435      -0.00009804       0.00002517       0.00004391
H       -0.12891490       0.41226258      -1.38210635       0.00004250       0.00006030      -0.00000836
H        0.40986325      -0.31370908       1.24239791       0.00005512       0.00012659       0.00000060
H       -2.13260766      -0.85862922      -1.33031016       0.00001495       0.00004974       0.00001657
H       -4.52692116      -0.93102462      -0.81884197       0.00001556      -0.00002640       0.00009569
H       -5.31616315      -0.74001979       1.51470719       0.00007466      -0.00010003       0.00012598
H       -3.66957939      -0.45561321       3.33692723       0.00012462      -0.00009627       0.00008771
H       -1.26795609      -0.35844567       2.82942331       0.00011034      -0.00000860       0.00002365
H        2.46131291      -1.91445918       0.05713697      -0.00002660      -0.00001074      -0.00006164
H        4.81147061      -1.26657911       0.38066320       0.00000422      -0.00003313       0.00000644
H        5.54823886       1.03016107      -0.14374973       0.00003933      -0.00001761       0.00006255
H        3.91928008       2.67646107      -0.99673488       0.00006450       0.00002719       0.00007312
H        1.56753783       2.02761476      -1.32675878       0.00004520       0.00005673       0.00002888
C        0.52970638      -5.32449212      -1.24464943       0.00010160      -0.00003962       0.00012519
C       -0.16674556      -4.66595103      -0.05344114      -0.00011300      -0.00003678      -0.00002866
C       -1.58544773      -4.23095803      -0.43174203      -0.00004205      -0.00006944      -0.00029752
C       -0.20484402      -5.61811991       1.14716108      -0.00023725       0.00005396       0.00001965
O        0.62110210      -3.51936696       0.27760785      -0.00024554       0.00010741      -0.00013921
H        0.00235825      -6.22750833      -1.53732191       0.00016620      -0.00004923       0.00006052
H        1.55283304      -5.57937560      -0.97932912       0.00009855      -0.00004038       0.00027936
H        0.55214061      -4.63691562      -2.08696353       0.00025129      -0.00008283       0.00005468
H       -2.07418412      -3.73647985       0.40742017      -0.00021463      -0.00002418      -0.00037457
H       -1.55408546      -3.53469817      -1.26660244       0.00004184      -0.00011147      -0.00036643
H       -2.17902160      -5.09472655      -0.71823672       0.00004874      -0.00010725      -0.00030913
H       -0.69726411      -5.14191305       1.99389331      -0.00043734       0.00009913      -0.00012035
H        0.80749540      -5.88767108       1.44058730      -0.00026755       0.00019821       0.00020736
H       -0.74982154      -6.52300792       0.89371167      -0.00011199       0.00001560      -0.00000145
H        0.15782010      -3.01781273       0.96203653      -0.00020892      -0.00000814      -0.00001478
