43
Properties=species:S:1:pos:R:3:forces:R:3 energy:=T -59.179405858755=T gnorm:=T 0.000165444664=T xtb:=T 6.7.1=T (edcfbbe)=T energy=-1610.354107613785 pbc="F F F"
O        1.20132633      -2.14796864      -2.43194496       0.00375943      -0.00203251       0.00008303
C        0.31275224       0.30727136       0.15767440      -0.00091195      -0.00036901      -0.00008969
N       -0.23636465      -0.68848463       0.72321152      -0.00084687       0.00111022       0.00022573
C       -1.60146618      -0.76378811       0.94558402       0.00230157       0.00104284       0.00252822
C       -2.53401861      -0.45796287      -0.04755872      -0.00089219      -0.00147663      -0.00018749
C       -3.88269015      -0.64714326       0.18836844      -0.00048175      -0.00076581       0.00158475
C       -4.31861540      -1.12815846       1.41232754      -0.00077846      -0.00092672      -0.00017495
C       -3.39626676      -1.43170090       2.40256979      -0.00027283       0.00141106       0.00088940
C       -2.04524235      -1.26457684       2.17140370       0.00085274       0.00015964      -0.00001050
C        1.73089271       0.35592129      -0.14272280      -0.00118545      -0.00087432      -0.00009139
C        2.60931371      -0.64931103       0.27303262      -0.00048722       0.00114256       0.00018354
C        3.95117291      -0.57538365      -0.04679177      -0.00019635      -0.00044177      -0.00027225
C        4.43849895       0.49665637      -0.78036670       0.00006256       0.00058674      -0.00069539
C        3.57694330       1.50226807      -1.19119661      -0.00037023      -0.00013141      -0.00120274
C        2.23396890       1.43573144      -0.87270310       0.00065152       0.00152901      -0.00009568
H        2.00294669      -1.64095539      -2.28722206       0.00353381      -0.00168711       0.00128852
H       -0.26067860       1.20093016      -0.12150719      -0.00009626      -0.00035958      -0.00057870
H        0.26188116      -2.51409374       0.42415494      -0.00018104      -0.00032640      -0.00039755
H       -2.18587175      -0.11205815      -1.01076467      -0.00032415       0.00011556       0.00010449
H       -4.59723034      -0.41879779      -0.58935067      -0.00016541      -0.00033332       0.00049136
H       -5.37352504      -1.27255180       1.59222678       0.00039990      -0.00035513       0.00131120
H       -3.73310324      -1.80946661       3.35707113       0.00050342      -0.00027862       0.00091945
H       -1.31735718      -1.49170498       2.93671993       0.00038294       0.00009694       0.00023975
H        2.22848712      -1.48151593       0.84206322       0.00008037       0.00002901       0.00001666
H        4.62269150      -1.35744350       0.27570884       0.00052284       0.00088493       0.00033356
H        5.48822328       0.54993270      -1.02928530      -0.00011863       0.00054812      -0.00035428
H        3.95504446       2.33926807      -1.75983149      -0.00087453       0.00031098      -0.00047945
H        1.56320510       2.21963661      -1.19573360      -0.00106074      -0.00029487      -0.00083214
C        0.54986386      -5.54426189      -0.65796148      -0.00090772       0.00069316      -0.00002571
C       -0.20972925      -4.38651721      -0.00622904      -0.00017344       0.00138416      -0.00186051
C       -1.43712010      -4.01598660      -0.84639768       0.00049826      -0.00031396      -0.00039422
C       -0.63938405      -4.75599585       1.41818191      -0.00135942       0.00050260       0.00090894
O        0.70490161      -3.29484573       0.03904198      -0.00018106       0.00055929       0.00052336
H       -0.07608556      -6.43048462      -0.70456320      -0.00008321      -0.00090290      -0.00075784
H        1.44438209      -5.76795647      -0.08193901      -0.00082682      -0.00059766       0.00046109
H        0.84901912      -5.26551460      -1.66550863       0.00003959      -0.00022076       0.00030589
H       -2.00069321      -3.21672748      -0.36818058       0.00021190       0.00054331      -0.00135127
H       -1.12541459      -3.67859755      -1.83276298       0.00093308       0.00094601      -0.00020715
H       -2.08828770      -4.87854083      -0.95979885       0.00004262       0.00082283      -0.00125181
H       -1.18656177      -3.93082658       1.87111140      -0.00125764       0.00022145      -0.00061605
H        0.23706452      -4.97080808       2.02599567      -0.00133854      -0.00014213      -0.00039394
H       -1.28107395      -5.63266613       1.40391405      -0.00125371      -0.00032368      -0.00087574
H        1.04649661      -2.62708009      -1.59358702       0.00184908      -0.00148611       0.00079749
