43
Properties=species:S:1:pos:R:3:forces:R:3 energy:=T -59.203319823605=T gnorm:=T 0.000024897949=T xtb:=T 6.7.1=T (edcfbbe)=T energy=-1611.0043896418492 pbc="F F F"
O        0.27015216      -1.52585804      -1.64851193       0.00001111      -0.00000895      -0.00004750
C        0.40902308      -0.38582695      -0.84353357       0.00002333       0.00007384      -0.00000057
N       -0.16880358      -0.60645933       0.46882494       0.00008964       0.00010199      -0.00002562
C       -1.52942722      -0.59451488       0.71295301      -0.00001721      -0.00005231       0.00007935
C       -2.46548953      -0.75784203      -0.30942911       0.00007320       0.00000144       0.00003993
C       -3.81513397      -0.80532594      -0.01523149       0.00000777      -0.00003424       0.00010960
C       -4.26028914      -0.69931428       1.29192758       0.00008663      -0.00001780       0.00010445
C       -3.33576350      -0.54111046       2.31230389       0.00008499      -0.00001098       0.00008143
C       -1.98558356      -0.48702836       2.02978530       0.00010171      -0.00004148       0.00000956
C        1.85883585       0.01598865      -0.65623189       0.00002045       0.00004255      -0.00001370
C        2.77942158      -0.90813179      -0.17336629       0.00003917      -0.00005392      -0.00004849
C        4.10166846      -0.54234541       0.00801006       0.00007817      -0.00001517      -0.00006647
C        4.51549860       0.74657188      -0.28573370       0.00000525      -0.00000163       0.00008802
C        3.60179674       1.67020434      -0.76451667       0.00004108       0.00002011       0.00007346
C        2.27886684       1.30604378      -0.94980751       0.00005843       0.00003859       0.00002678
H        0.53991999      -2.29633374      -1.10787435      -0.00009804       0.00002517       0.00004391
H       -0.12891490       0.41226258      -1.38210635       0.00004250       0.00006030      -0.00000836
H        0.40986325      -0.31370908       1.24239791       0.00005512       0.00012659       0.00000060
H       -2.13260766      -0.85862922      -1.33031016       0.00001495       0.00004974       0.00001657
H       -4.52692116      -0.93102462      -0.81884197       0.00001556      -0.00002640       0.00009569
H       -5.31616315      -0.74001979       1.51470719       0.00007466      -0.00010003       0.00012598
H       -3.66957939      -0.45561321       3.33692723       0.00012462      -0.00009627       0.00008771
H       -1.26795609      -0.35844567       2.82942331       0.00011034      -0.00000860       0.00002365
H        2.46131291      -1.91445918       0.05713697      -0.00002660      -0.00001074      -0.00006164
H        4.81147061      -1.26657911       0.38066320       0.00000422      -0.00003313       0.00000644
H        5.54823886       1.03016107      -0.14374973       0.00003933      -0.00001761       0.00006255
H        3.91928008       2.67646107      -0.99673488       0.00006450       0.00002719       0.00007312
H        1.56753783       2.02761476      -1.32675878       0.00004520       0.00005673       0.00002888
C        0.52970638      -5.32449212      -1.24464943       0.00010160      -0.00003962       0.00012519
C       -0.16674556      -4.66595103      -0.05344114      -0.00011300      -0.00003678      -0.00002866
C       -1.58544773      -4.23095803      -0.43174203      -0.00004205      -0.00006944      -0.00029752
C       -0.20484402      -5.61811991       1.14716108      -0.00023725       0.00005396       0.00001965
O        0.62110210      -3.51936696       0.27760785      -0.00024554       0.00010741      -0.00013921
H        0.00235825      -6.22750833      -1.53732191       0.00016620      -0.00004923       0.00006052
H        1.55283304      -5.57937560      -0.97932912       0.00009855      -0.00004038       0.00027936
H        0.55214061      -4.63691562      -2.08696353       0.00025129      -0.00008283       0.00005468
H       -2.07418412      -3.73647985       0.40742017      -0.00021463      -0.00002418      -0.00037457
H       -1.55408546      -3.53469817      -1.26660244       0.00004184      -0.00011147      -0.00036643
H       -2.17902160      -5.09472655      -0.71823672       0.00004874      -0.00010725      -0.00030913
H       -0.69726411      -5.14191305       1.99389331      -0.00043734       0.00009913      -0.00012035
H        0.80749540      -5.88767108       1.44058730      -0.00026755       0.00019821       0.00020736
H       -0.74982154      -6.52300792       0.89371167      -0.00011199       0.00001560      -0.00000145
H        0.15782010      -3.01781273       0.96203653      -0.00020892      -0.00000814      -0.00001478
43
Properties=species:S:1:pos:R:3:forces:R:3 energy:=T -59.203319823605=T gnorm:=T 0.000024897949=T xtb:=T 6.7.1=T (edcfbbe)=T energy=-1610.9976102318294 pbc="F F F"
O        0.25670272      -1.39612669      -1.69958230      -0.00013752      -0.00334543       0.00102251
C        0.40267150      -0.32646290      -0.80190215       0.00037292      -0.00073184      -0.00207185
N       -0.15869972      -0.66215160       0.49409326       0.00071260       0.00296676      -0.00078823
C       -1.52109878      -0.66203449       0.74560008       0.00085772       0.00157149      -0.00056423
C       -2.46242462      -0.71472720      -0.28321233       0.00047072      -0.00119847      -0.00030276
C       -3.81169166      -0.77372061       0.01158275       0.00067361      -0.00236918       0.00040631
C       -4.25031626      -0.79496621       1.32494634       0.00126221      -0.00089851       0.00084191
C       -3.31983466      -0.75506373       2.35131102       0.00165690       0.00178019       0.00057904
C       -1.97008863      -0.68636502       2.06878842       0.00142968       0.00300530      -0.00013111
C        1.85671034       0.06140284      -0.62224756       0.00042458      -0.00059706      -0.00209243
C        2.76827893      -0.86494357      -0.12591307       0.00040849      -0.00076459      -0.00242661
C        4.10112834      -0.52106828       0.01665956       0.00004643      -0.00020168      -0.00039514
C        4.53638113       0.74578652      -0.33599436      -0.00031560       0.00066036       0.00212850
C        3.63248892       1.67086952      -0.83009489      -0.00026503       0.00079179       0.00227209
C        2.29801279       1.33006964      -0.97216001       0.00009978       0.00015338       0.00013125
H        0.56948811      -2.20320271      -1.24508650      -0.00708051      -0.00485146       0.00722735
H       -0.14735487       0.51003937      -1.26369450       0.00094365      -0.00141516      -0.00435119
H        0.42156727      -0.41511887       1.28281832       0.00056041       0.00666475      -0.00135247
H       -2.13536201      -0.72308614      -1.31068364       0.00003714      -0.00229045      -0.00058283
H       -4.52785153      -0.80808817      -0.79711013       0.00033720      -0.00436785       0.00063270
H       -5.30579689      -0.84423505       1.54771178       0.00141619      -0.00176589       0.00139787
H       -3.64848530      -0.77471331       3.38086174       0.00216350       0.00294210       0.00092181
H       -1.24811034      -0.65013444       2.87395416       0.00177816       0.00519673      -0.00036328
H        2.43669098      -1.85792531       0.14077709       0.00051832      -0.00126878      -0.00417246
H        4.80306205      -1.24684226       0.40094746       0.00002224      -0.00032776      -0.00057456
H        5.57836788       1.01034470      -0.22938377      -0.00064426       0.00125480       0.00404542
H        3.96683758       2.65926564      -1.11024431      -0.00051257       0.00145836       0.00421263
H        1.59481300       2.05249415      -1.36224096       0.00014427       0.00033709       0.00036005
C        0.53897525      -5.45991083      -1.15435358       0.00002882       0.00070257      -0.00100981
C       -0.17510300      -4.63387137      -0.08419805      -0.00083261       0.00010448      -0.00105077
C       -1.55782883      -4.19346128      -0.57448322      -0.00099955      -0.00058475      -0.00139517
C       -0.30577126      -5.43152792       1.21853016      -0.00049606       0.00004241      -0.00103024
O        0.64619654      -3.48773307       0.14340158      -0.00169801       0.00079134      -0.00073291
H       -0.01650034      -6.36966277      -1.36183702       0.00047033       0.00044654      -0.00122079
H        1.53750138      -5.72159170      -0.81283186       0.00006214       0.00099567      -0.00081020
H        0.62840524      -4.88025789      -2.07005195      -0.00000517       0.00083194      -0.00099339
H       -2.06796190      -3.60742496       0.18950889      -0.00117098      -0.00006638      -0.00188268
H       -1.46139876      -3.57969139      -1.46745548      -0.00108912      -0.00121467      -0.00185947
H       -2.16734387      -5.06163238      -0.80967848      -0.00072883      -0.00094548      -0.00074640
H       -0.80711558      -4.83452950       1.97930997      -0.00098607      -0.00018635      -0.00106006
H        0.67996201      -5.70753802       1.58713165      -0.00035110       0.00055041      -0.00090975
H       -0.88425104      -6.33570052       1.05120809       0.00003570      -0.00030798      -0.00097074
H        0.17844362      -2.89702214       0.75175159       0.00037928      -0.00354876       0.00966209
43
Properties=species:S:1:pos:R:3:forces:R:3 energy:=T -59.203319823605=T gnorm:=T 0.000024897949=T xtb:=T 6.7.1=T (edcfbbe)=T energy=-1610.9145857675805 pbc="F F F"
O        0.26360050      -1.21121191      -1.79822639      -0.00605924       0.04526179      -0.04846338
C        0.40544439      -0.24692460      -0.77914860      -0.00127700       0.00510360      -0.01177899
N       -0.15709714      -0.72441286       0.46876590       0.00268475      -0.04361992      -0.01790574
C       -1.51688521      -0.71815983       0.74098848       0.00278381      -0.01156408      -0.00585739
C       -2.46956486      -0.62677823      -0.27406992       0.00127176      -0.00940005      -0.00451908
C       -3.81655062      -0.70305693       0.02793514       0.00159405      -0.00153141      -0.00086088
C       -4.24093066      -0.88139558       1.33380457       0.00371235       0.00240269       0.00075962
C       -3.29896827      -0.97523161       2.34612684       0.00516591       0.00204266      -0.00073501
C       -1.95110319      -0.89051685       2.05760129       0.00517611      -0.00333971      -0.00367249
C        1.85932015       0.12570318      -0.59105410      -0.00132628       0.00281844      -0.00411486
C        2.75915152      -0.80568245      -0.08029944      -0.00272830       0.00050329      -0.00562229
C        4.10128081      -0.48523517       0.03002318      -0.00295964       0.00013012      -0.00049289
C        4.55776691       0.75809911      -0.37554820      -0.00132210       0.00135239       0.00505030
C        3.66568877       1.68647481      -0.88481617       0.00044628       0.00291988       0.00488290
C        2.32158716       1.37211326      -0.99059690       0.00062292       0.00367394       0.00073436
H        0.85289113      -1.95396636      -1.60595635      -0.03337990      -0.08169449       0.09417027
H       -0.16276046       0.62007212      -1.14808957      -0.00385217       0.01612874       0.01318499
H        0.44657504      -0.66083832       1.27494547       0.00629152       0.05194616       0.00737090
H       -2.15418864      -0.51705273      -1.29941609       0.00111219      -0.01316566      -0.00512411
H       -4.54143504      -0.63204408      -0.77042046       0.00006317       0.00117311       0.00084262
H       -5.29433137      -0.95140096       1.56082750       0.00393093       0.00605795       0.00311938
H       -3.61734817      -1.11632841       3.36937552       0.00672046       0.00561276       0.00040346
H       -1.22063152      -0.96360953       2.85209222       0.00626416      -0.00284122      -0.00438579
H        2.41541949      -1.78470855       0.22447517      -0.00284349      -0.00095877      -0.01017324
H        4.79376687      -1.21305009       0.42702017      -0.00410911      -0.00130623      -0.00099677
H        5.60746504       1.00127355      -0.29942586      -0.00149480       0.00098499       0.00908104
H        4.01646707       2.65593106      -1.20703044       0.00158146       0.00364287       0.00818733
H        1.62693268       2.09515718      -1.39348386       0.00209205       0.00482766       0.00025595
C        0.51359772      -5.55552964      -1.03102076      -0.00260622      -0.01398917      -0.00771085
C       -0.19656322      -4.63549090      -0.03420035       0.00641276      -0.00125301      -0.01396677
C       -1.55201677      -4.18563649      -0.58525159       0.00589908       0.00216708      -0.00926836
C       -0.39536872      -5.35491832       1.30824291       0.00666050       0.01165967      -0.00542112
O        0.66131390      -3.51087789       0.14244856       0.02198203      -0.00498371      -0.04210171
H       -0.06137008      -6.46111830      -1.19801707      -0.00679501      -0.01333161       0.00244557
H        1.49503810      -5.81930121      -0.64440747      -0.00216608      -0.01317307      -0.00855976
H        0.64512461      -5.03559925      -1.97741160      -0.00378202      -0.02157468      -0.01208057
H       -2.07397321      -3.56434907       0.14257361       0.00805623       0.00211294      -0.00723379
H       -1.41661001      -3.60680785      -1.49709355       0.00350551       0.00183386      -0.00970884
H       -2.17347144      -5.04914030      -0.80793816       0.00353784       0.00324518      -0.00704802
H       -0.90701173      -4.70461879       2.01543707       0.01037268       0.01818430      -0.00821636
H        0.56851987      -5.63336976       1.72791612       0.00620720       0.00968367      -0.00553553
H       -0.99053825      -6.25327245       1.16656401       0.00231093       0.01270994       0.00334085
H        0.11406261      -2.72544894       0.29221295      -0.04975726       0.01954711       0.10772504
43
Properties=species:S:1:pos:R:3:forces:R:3 energy:=T -59.203319823605=T gnorm:=T 0.000024897949=T xtb:=T 6.7.1=T (edcfbbe)=T energy=-1610.87007241044 pbc="F F F"
O        0.29844036      -1.45674699      -1.54936514       0.00206158      -0.00404423      -0.00043156
C        0.41835219      -0.26806788      -0.73578179       0.00179952      -0.00105831      -0.00483533
N       -0.16556041      -0.47057492       0.54631939       0.00126063       0.00199388      -0.00447900
C       -1.52420050      -0.65439748       0.75573374       0.00154523       0.00059236      -0.00412311
C       -2.47501421      -0.55111038      -0.25832176       0.00023566       0.00415210      -0.00260156
C       -3.82167680      -0.68219350       0.03033589       0.00063715       0.00234012      -0.00145299
C       -4.24908737      -0.91793516       1.32508576       0.00231466      -0.00293225      -0.00183144
C       -3.30849219      -1.03391655       2.33730184       0.00361643      -0.00619849      -0.00332893
C       -1.96303339      -0.90792577       2.05854378       0.00318022      -0.00439595      -0.00449718
C        1.87266564       0.11493437      -0.58615783       0.00166008      -0.00050293      -0.00371821
C        2.77766236      -0.80459666      -0.06415550       0.00149041      -0.00028706      -0.00316205
C        4.11885823      -0.47855662       0.03472606       0.00086470       0.00120222       0.00060148
C        4.56672054       0.76241473      -0.38754778       0.00034286       0.00256595       0.00390426
C        3.66788928       1.68198421      -0.90144761       0.00053420       0.00215926       0.00283199
C        2.32499668       1.35989684      -1.00121032       0.00117743       0.00058386      -0.00106520
H        1.03918466      -1.48633042      -2.16513887      -0.00923152       0.00406570      -0.01444672
H       -0.13277932       0.53888552      -1.24415780       0.00251904      -0.00202256      -0.00749732
H        0.42181712      -0.95909409       1.20788688       0.00156319       0.00310003      -0.00348563
H       -2.16623767      -0.39296508      -1.27963770      -0.00130688       0.00868281      -0.00239851
H       -4.54356905      -0.60657472      -0.77073380      -0.00045077       0.00520206      -0.00026663
H       -5.30202233      -1.01737902       1.54387550       0.00263593      -0.00447232      -0.00096679
H       -3.62827031      -1.22324785       3.35249938       0.00502225      -0.01036944      -0.00364259
H       -1.23280643      -1.00305173       2.84988535       0.00425839      -0.00711816      -0.00575440
H        2.43407520      -1.77823505       0.25683459       0.00167382      -0.00112201      -0.00547842
H        4.81553703      -1.19838106       0.43838502       0.00076703       0.00146167       0.00125365
H        5.61533751       1.01144248      -0.31794060      -0.00019954       0.00400999       0.00742228
H        4.01285627       2.65069002      -1.23160120       0.00016694       0.00317433       0.00529958
H        1.62438078       2.07696378      -1.40441995       0.00129491       0.00036769      -0.00169527
C        0.51212387      -5.47820001      -0.97143700      -0.00256079       0.00299511       0.00180398
C       -0.24495063      -4.62727362       0.06112009      -0.00249422       0.00001657       0.00458795
C       -1.59845760      -4.19574240      -0.51330505      -0.00329372       0.00048171       0.00660253
C       -0.44307477      -5.41750842       1.35680278      -0.00105177      -0.00341193       0.00295191
O        0.52801822      -3.48309092       0.39265396      -0.00315685      -0.00008683       0.00675409
H       -0.04120878      -6.38653516      -1.19395010      -0.00214228       0.00317934      -0.00037769
H        1.49124554      -5.74798951      -0.58139223      -0.00219356       0.00241761       0.00056584
H        0.64970136      -4.91651567      -1.89384095      -0.00333563       0.00568613       0.00316686
H       -2.13124112      -3.57496407       0.20471049      -0.00335888      -0.00188178       0.00869417
H       -1.45178821      -3.61425768      -1.42254368      -0.00430138       0.00318074       0.00809814
H       -2.20702100      -5.06517413      -0.74806410      -0.00267104       0.00054921       0.00460478
H       -0.97562758      -4.80347137       2.07925245      -0.00137036      -0.00566430       0.00484616
H        0.52401726      -5.68328511       1.77659285      -0.00058136      -0.00355711       0.00184385
H       -1.01303119      -6.32254157       1.16754126      -0.00021776      -0.00363164       0.00098108
H        0.38756651      -2.83164130      -0.31748249       0.00129606      -0.00140314       0.00472198
43
Properties=species:S:1:pos:R:3:forces:R:3 energy:=T -59.203319823605=T gnorm:=T 0.000024897949=T xtb:=T 6.7.1=T (edcfbbe)=T energy=-1610.8337247475704 pbc="F F F"
O        0.27703273      -1.32806500      -1.62886683      -0.02184753       0.01829027       0.01965906
C        0.39520681      -0.26086534      -0.65095907       0.00118042      -0.00578984      -0.03309994
N       -0.17816483      -0.63761509       0.59151316       0.00200842       0.01797795      -0.00226729
C       -1.54544477      -0.77301577       0.79144759       0.00134824       0.00208460      -0.00657217
C       -2.49412798      -0.54814598      -0.20470776      -0.00157600       0.00891412      -0.00298895
C       -3.84438416      -0.64817027       0.08001614      -0.00090309       0.00671871      -0.00029066
C       -4.27707353      -0.97029022       1.35418713       0.00047686      -0.00119153      -0.00185879
C       -3.33953029      -1.20594756       2.34860756       0.00332607      -0.00654451      -0.00594336
C       -1.99074854      -1.11397264       2.07250222       0.00227476      -0.00406705      -0.00675453
C        1.85566752       0.10311232      -0.50107172       0.00245992       0.00103348      -0.01192077
C        2.76191439      -0.80392761       0.03928039      -0.00041597      -0.00161846      -0.01198615
C        4.11232897      -0.50150627       0.06748358       0.00072680       0.00041753      -0.00151943
C        4.57061263       0.69968334      -0.44798680       0.00218212       0.00549126       0.00840994
C        3.67062530       1.61113951      -0.97349971       0.00498880       0.00570212       0.00380375
C        2.31887248       1.31441755      -0.99846984       0.00416656       0.00304569      -0.00541639
H        0.95836145      -1.20816734      -2.30008859      -0.02097464       0.01496557       0.00283272
H       -0.16443184       0.60666635      -1.03427232       0.00429512      -0.00279288      -0.02767830
H        0.37292483      -1.29306640       1.12907059       0.02779726       0.04606144       0.02925000
H       -2.18054465      -0.32608874      -1.21264342      -0.00592424       0.01534648      -0.00297309
H       -4.56430874      -0.48177563      -0.70902997      -0.00325102       0.00907202       0.00328608
H       -5.33261032      -1.04511862       1.56992642       0.00111711      -0.00311870       0.00193414
H       -3.66491191      -1.46144390       3.34743800       0.00658166      -0.01417735      -0.00745339
H       -1.26169886      -1.30171923       2.84824135       0.00367817      -0.00851898      -0.00935131
H        2.41883469      -1.75442285       0.42086531      -0.00100477      -0.00673521      -0.02130116
H        4.81024994      -1.21346620       0.48290126      -0.00103479       0.00024195       0.00200983
H        5.62735524       0.92253163      -0.44551050       0.00214757       0.01025865       0.02188944
H        4.02050534       2.55040094      -1.37552960       0.00626234       0.00986338       0.01091089
H        1.61777189       2.02491567      -1.41327008       0.00519016       0.00255041      -0.00869358
C        0.52799763      -5.56204602      -0.87862861      -0.00269263      -0.00829171      -0.00054191
C       -0.19698846      -4.53848134       0.00827023      -0.00268706      -0.01048005       0.00378266
C       -1.51332157      -4.11653259      -0.65194672      -0.00202482      -0.00540181       0.00427270
C       -0.46680444      -5.12403890       1.39648164      -0.00116730      -0.01166788       0.00231924
O        0.64660495      -3.41210558       0.19770334      -0.00408271      -0.00713764       0.01346585
H       -0.07135646      -6.46069934      -0.99341505      -0.00055506      -0.00958804      -0.00444465
H        1.48230822      -5.82609059      -0.42823809      -0.00128147      -0.01101439      -0.00314000
H        0.71748906      -5.13586970      -1.86237940      -0.00524691      -0.00574924       0.00012632
H       -2.05030008      -3.41510538      -0.01645275       0.00405758      -0.00213638       0.00627402
H       -1.31913361      -3.63073783      -1.60742151       0.00292606      -0.00531737       0.00551182
H       -2.14327136      -4.98537554      -0.82400133      -0.00748214      -0.00189054       0.00347981
H       -0.98562262      -4.38805029       2.00705174      -0.00012870      -0.01100268       0.00260509
H        0.47517797      -5.37214924       1.87944400      -0.00111868      -0.01200167       0.00295808
H       -1.07834105      -6.01810382       1.31970012      -0.00120357      -0.01107927       0.00701217
H        0.50757375      -2.81295042      -0.55728831      -0.00258888      -0.01072244       0.02040219
43
Properties=species:S:1:pos:R:3:forces:R:3 energy:=T -59.203319823605=T gnorm:=T 0.000024897949=T xtb:=T 6.7.1=T (edcfbbe)=T energy=-1608.6129212565234 pbc="F F F"
O        0.60197751      -1.48445618      -1.97479388       0.09160324      -0.44525041       0.57014341
C        0.35370608      -0.21888211      -0.20440244      -0.01391829      -0.06837003       0.07957770
N       -0.23105170      -1.08804513       0.60494076      -0.09425536       0.41955788       0.07524890
C       -1.60654782      -0.91552893       0.87571075      -0.15367282      -0.24233260      -0.08998220
C       -2.51336476      -0.69721057      -0.15824854      -0.11219976      -0.11287940      -0.08276084
C       -3.87470308      -0.71299589       0.08524849      -0.04469826       0.02538461       0.02308415
C       -4.34918905      -0.90633830       1.37494735       0.02781781       0.01190441      -0.01556632
C       -3.45286396      -1.08268129       2.41939529       0.02567409       0.03955784      -0.07196433
C       -2.08710033      -1.07968213       2.17544809      -0.01961696      -0.15878212      -0.03422007
C        1.77640153       0.10357260      -0.23912198      -0.00831387      -0.23440077      -0.11122812
C        2.70235632      -0.77977207       0.31204479       0.09922321      -0.05739838      -0.00007984
C        4.05376653      -0.57443245       0.12277414       0.07748577      -0.01565534       0.01583692
C        4.50723811       0.53201379      -0.58068036      -0.02583447      -0.00685896      -0.03300840
C        3.59763562       1.45718571      -1.07032270      -0.11337725      -0.04741425       0.01929815
C        2.23884024       1.25317467      -0.89748723      -0.07165770      -0.16086389       0.04798574
H        1.52938475      -1.50083487      -2.23699233      -0.26710415       0.32949555       0.01456008
H       -0.25103720       0.65053203      -0.50426518      -0.02814317      -0.39321929      -0.20948396
H        0.06668507      -2.26427490       0.50105506       0.69636973       1.31944410      -0.18365772
H       -2.12854981      -0.59703379      -1.16255353      -0.04909722      -0.00135458      -0.03807736
H       -4.56857588      -0.61265913      -0.74091572       0.06887399       0.07680917       0.09768472
H       -5.41484161      -0.92604082       1.56168260       0.08039954      -0.02360388      -0.00417159
H       -3.82721470      -1.25228572       3.42302450       0.11214725       0.08933525      -0.11194821
H       -1.39166391      -1.22715120       2.98832210       0.04610899      -0.03896560      -0.03180399
H        2.32656579      -1.63184545       0.85642331       0.13960013      -0.06529338      -0.06304857
H        4.75742804      -1.30292291       0.49126401       0.09268328      -0.00096736       0.11322330
H        5.56461353       0.67315623      -0.75575882      -0.02573437      -0.01890267       0.03222890
H        3.94923986       2.31800394      -1.62320020      -0.04006868       0.00603465       0.09318896
H        1.53634587       1.98046375      -1.28555603      -0.00463695      -0.13846495      -0.03167920
C        0.57412360      -5.39082684      -0.90450844       0.02976970      -0.14240654      -0.14221357
C       -0.13643591      -4.33679118      -0.07011757      -0.06030649      -0.24363232      -0.03059531
C       -1.50460061      -3.99023210      -0.65195442      -0.09169974      -0.04980478      -0.11863800
C       -0.33136308      -4.84241872       1.38037811       0.06425443       0.06745474      -0.16595955
O        0.72837824      -3.21034414      -0.17039628      -0.19978712      -0.19996057       0.81748337
H        0.02424487      -6.32148048      -0.96401359      -0.00857590      -0.10575485      -0.01068876
H        1.55880390      -5.55757461      -0.47272339      -0.01131538      -0.14679143      -0.05737381
H        0.70361423      -4.96871913      -1.89764313       0.04039019      -0.21006175      -0.17873935
H       -2.09329790      -3.37602757       0.02559057       0.05035168      -0.02515430       0.03256405
H       -1.36873411      -3.44122277      -1.57895941      -0.05898169       0.03367455      -0.12170153
H       -2.05713079      -4.89829619      -0.85857269      -0.11516769      -0.09792479      -0.05033534
H       -0.85368511      -4.11744499       2.00851824       0.10990717       0.03287495      -0.18697425
H        0.61702496      -5.09287867       1.85558065      -0.02531663       0.07692335      -0.12724811
H       -0.94511929      -5.74906295       1.33479634       0.18055941       0.23202492       0.01346064
H        0.70099172      -2.66196844      -1.15750346      -0.38973969       0.69199325       0.25757934
43
Properties=species:S:1:pos:R:3:forces:R:3 energy:=T -59.203319823605=T gnorm:=T 0.000024897949=T xtb:=T 6.7.1=T (edcfbbe)=T energy=-1610.2900345192782 pbc="F F F"
O        0.62786646      -1.86592583      -2.21899468       0.01523738      -0.04268702      -0.05535827
C        0.33784953       0.11872227      -0.05541877      -0.00418732       0.05578075       0.04931420
N       -0.21262530      -0.74454660       0.69724746      -0.00005847       0.03424170       0.01590084
C       -1.58760481      -0.78579172       0.87657827      -0.00044760       0.00601371       0.00461872
C       -2.49819315      -0.62789936      -0.17012234       0.00218786       0.00364018       0.00170265
C       -3.85515474      -0.71588018       0.07792411       0.00246667      -0.00278436      -0.00166532
C       -4.31985738      -0.95297924       1.36184201       0.00015031      -0.00588717      -0.00351283
C       -3.41828682      -1.13237753       2.40020877      -0.00127973      -0.00236504      -0.00180609
C       -2.06013200      -1.06554559       2.16056460      -0.00181830       0.00283873       0.00372890
C        1.77358402       0.22300765      -0.24124788      -0.00437860       0.01967227       0.01463427
C        2.67433206      -0.72835259       0.24724840      -0.00807591       0.00970165       0.00576941
C        4.03379120      -0.54881284       0.07521482      -0.00710486      -0.00204093      -0.00186333
C        4.51792587       0.57800369      -0.57330496      -0.00184119      -0.00552808      -0.00465349
C        3.63302327       1.52361276      -1.06765038       0.00196543      -0.00386752      -0.00891554
C        2.27256997       1.34453019      -0.90931078       0.00169784       0.00721668      -0.00048532
H        1.51721396      -1.53238846      -2.35123595       0.01442511      -0.00576296      -0.02026314
H       -0.24982973       0.89420918      -0.56215922      -0.00596919       0.03945349       0.02579287
H        0.23357603      -2.58084486       0.60934036       0.02359842      -0.04354361      -0.02099943
H       -2.12933644      -0.47725574      -1.17468308       0.00394010       0.00765568       0.00387767
H       -4.55542484      -0.59651911      -0.73645686       0.00280354      -0.00310402      -0.00046350
H       -5.38164897      -1.00734316       1.55174724       0.00011644      -0.01016214      -0.00325526
H       -3.77707644      -1.32957787       3.40017592      -0.00126361      -0.00399798      -0.00318190
H       -1.34610760      -1.19877572       2.96009596      -0.00179797       0.00793408       0.00428493
H        2.29942098      -1.60703729       0.74605407      -0.01024830       0.01425839       0.01157365
H        4.72450035      -1.28953578       0.45114039      -0.00849750      -0.00083873       0.00462610
H        5.58199933       0.71897555      -0.69519610      -0.00109235      -0.00769919      -0.00185618
H        4.00487752       2.40167636      -1.57531498       0.00665675      -0.00460343      -0.00784422
H        1.58236671       2.08094411      -1.29668009       0.00536241       0.01067103      -0.00095774
C        0.56217945      -5.43392811      -0.86959289      -0.00125986      -0.00807604       0.00240520
C       -0.18081894      -4.42898282       0.01350929      -0.00470372      -0.01364890       0.00457977
C       -1.51645867      -4.04393185      -0.63243318      -0.00232305      -0.00509980       0.00251029
C       -0.42318650      -5.00524123       1.41235444      -0.00488554      -0.00984793       0.00400787
O        0.67777154      -3.29641823       0.11292855      -0.00014343      -0.01867993       0.01240129
H       -0.00779246      -6.35349536      -0.96123239       0.00298630      -0.00947145       0.00064850
H        1.53425939      -5.65577876      -0.43634605       0.00006595      -0.00572711       0.00198183
H        0.71417577      -5.00881958      -1.85895930      -0.00414129      -0.00695181       0.00273471
H       -2.08971979      -3.39444673       0.02640353       0.00256916      -0.00037366       0.00209108
H       -1.34474330      -3.52014877      -1.57030697       0.00214714      -0.00838983       0.00207012
H       -2.10225208      -4.93670638      -0.83370752      -0.00888065      -0.00082132       0.00306412
H       -0.94106332      -4.27552985       2.03328409       0.00093032      -0.00269695       0.00112612
H        0.52630469      -5.25175148       1.88254100      -0.00203937      -0.00599269       0.00131505
H       -1.03055228      -5.90348238       1.34864991      -0.00612600      -0.00891097       0.01574602
H        0.68057319      -2.42989071      -1.41824503       0.00325668       0.03048225      -0.06542462
43
Properties=species:S:1:pos:R:3:forces:R:3 energy:=T -59.203319823605=T gnorm:=T 0.000024897949=T xtb:=T 6.7.1=T (edcfbbe)=T energy=-1610.3388697591174 pbc="F F F"
O        0.97404965      -2.08148419      -2.34638581       0.00661387      -0.00244696      -0.00518585
C        0.32136888       0.27228645       0.05975460      -0.00018760       0.00343772       0.00446395
N       -0.22174020      -0.68170431       0.69815230      -0.00025100       0.00088509       0.00092797
C       -1.58992910      -0.74891480       0.90544612      -0.00018964       0.00034026       0.00105080
C       -2.51294697      -0.53484449      -0.12004387       0.00010162       0.00193553       0.00108892
C       -3.86453799      -0.69038345       0.12376302       0.00009298       0.00026037       0.00015676
C       -4.31245441      -1.04446975       1.38624278      -0.00021464      -0.00279815      -0.00069834
C       -3.39870944      -1.26417678       2.40618387      -0.00050919      -0.00387040      -0.00064038
C       -2.04485481      -1.13438264       2.16824418      -0.00047135      -0.00231645       0.00022429
C        1.74776101       0.34187713      -0.19359116      -0.00042639       0.00245699       0.00273988
C        2.62754676      -0.65402539       0.24131503      -0.00089292       0.00183822       0.00238611
C        3.98161645      -0.54187185      -0.00832143      -0.00110248      -0.00022094      -0.00003683
C        4.48034808       0.56011322      -0.68792208      -0.00087679      -0.00173846      -0.00236890
C        3.61612279       1.55199589      -1.12539997      -0.00039670      -0.00099662      -0.00180106
C        2.26036334       1.44483894      -0.88121523      -0.00018958       0.00123877       0.00094935
H        1.83419628      -1.65810894      -2.31151482       0.00504790       0.00125525      -0.00009351
H       -0.26343656       1.12587964      -0.30770168       0.00001018       0.00555994       0.00828970
H        0.22059055      -2.57906514       0.54197942       0.00119295       0.00089193      -0.00460140
H       -2.15493421      -0.28703059      -1.10937496       0.00043065       0.00440438       0.00171554
H       -4.57261845      -0.53316388      -0.67717405       0.00037738       0.00123156       0.00007564
H       -5.37004753      -1.15630678       1.57374737      -0.00021344      -0.00422736      -0.00137456
H       -3.74468273      -1.54467117       3.39054940      -0.00077475      -0.00605224      -0.00127959
H       -1.32293548      -1.29887359       2.95485342      -0.00074092      -0.00317080       0.00031207
H        2.23701673      -1.51027251       0.76665506      -0.00118887       0.00310398       0.00425868
H        4.65503789      -1.31582593       0.32972423      -0.00148011      -0.00064795      -0.00019328
H        5.54063096       0.64671784      -0.87540412      -0.00105114      -0.00346293      -0.00456235
H        4.00198570       2.41082166      -1.65506934      -0.00014793      -0.00214951      -0.00351474
H        1.58747483       2.21878490      -1.22343951       0.00022184       0.00186157       0.00142555
C        0.54764192      -5.50408684      -0.78222210      -0.00157027      -0.00217178       0.00121494
C       -0.20911276      -4.43986009       0.01579212      -0.00019760       0.00034190      -0.00070407
C       -1.49356313      -4.03854652      -0.71742660      -0.00026439      -0.00007215      -0.00096535
C       -0.54564074      -4.95241920       1.42089258       0.00014958       0.00361811       0.00067814
O        0.67600146      -3.32636380       0.11202346       0.00063990      -0.00006695      -0.00360721
H       -0.04780528      -6.40768456      -0.87212471      -0.00247626      -0.00185266       0.00379144
H        1.48431740      -5.74062746      -0.28352397      -0.00141058      -0.00193198       0.00114887
H        0.77200429      -5.12494868      -1.77639493      -0.00190150      -0.00469433       0.00010389
H       -2.06445189      -3.32409935      -0.12685162       0.00038049       0.00145865      -0.00203836
H       -1.25008571      -3.58184000      -1.67445890      -0.00016060      -0.00194390      -0.00195305
H       -2.11266537      -4.91383840      -0.89466448      -0.00094148       0.00001324       0.00085749
H       -1.07636437      -4.18590712       1.98376606       0.00155642       0.00549729      -0.00046473
H        0.36844011      -5.20663780       1.95310516       0.00027386       0.00345611       0.00049856
H       -1.17405146      -5.83666355       1.35866970      -0.00105971       0.00430548       0.00296123
H        0.89534924      -2.57247603      -1.50418075       0.00419824      -0.00255980      -0.00523622
43
Properties=species:S:1:pos:R:3:forces:R:3 energy:=T -59.179405858755=T gnorm:=T 0.000165444664=T xtb:=T 6.7.1=T (edcfbbe)=T energy=-1610.354104370623 pbc="F F F"
O        1.19930344      -2.14295357      -2.43351459       0.00377158      -0.00202947       0.00008379
C        0.31188038       0.30722245       0.16129052      -0.00094368      -0.00038176      -0.00017741
N       -0.23630309      -0.68979540       0.72550845      -0.00084284       0.00115107       0.00022707
C       -1.60117781      -0.76610890       0.94892641       0.00230303       0.00096177       0.00249180
C       -2.53472631      -0.45891248      -0.04285642      -0.00087299      -0.00145248      -0.00015926
C       -3.88310861      -0.64911977       0.19389687      -0.00047005      -0.00083337       0.00159886
C       -4.31775920      -1.13253271       1.41736453      -0.00073392      -0.00088751      -0.00015794
C       -3.39441802      -1.43744567       2.40625982      -0.00031128       0.00138291       0.00090068
C       -2.04366890      -1.26930219       2.17422583       0.00081662       0.00022834      -0.00000372
C        1.72973828       0.35704663      -0.14024590      -0.00113762      -0.00090742      -0.00004457
C        2.60896648      -0.64854020       0.27293799      -0.00043315       0.00116424       0.00024554
C        3.95051506      -0.57343770      -0.04791403      -0.00024627      -0.00046177      -0.00029562
C        4.43672818       0.50013901      -0.77997856       0.00004181       0.00061609      -0.00069237
C        3.57436942       1.50610389      -1.18825087      -0.00041044      -0.00014729      -0.00124394
C        2.23170119       1.43839403      -0.86871545       0.00072367       0.00156808      -0.00006999
H        2.00082312      -1.63584372      -2.28857268       0.00353366      -0.00169265       0.00127425
H       -0.26218983       1.20112627      -0.11578474      -0.00010065      -0.00036627      -0.00057324
H        0.26249600      -2.51464034       0.42273333      -0.00019357      -0.00033513      -0.00040348
H       -2.18756803      -0.11111851      -1.00573880      -0.00032119       0.00011600       0.00009773
H       -4.59842386      -0.41969350      -0.58279099      -0.00016831      -0.00034694       0.00049071
H       -5.37244822      -1.27772092       1.59791641       0.00038989      -0.00034085       0.00128861
H       -3.73025928      -1.81707985       3.36037044       0.00051596      -0.00026842       0.00090722
H       -1.31501997      -1.49748284       2.93850148       0.00037688       0.00011050       0.00024777
H        2.22900346      -1.48193836       0.84079829       0.00007623       0.00003508       0.00001594
H        4.62266083      -1.35577695       0.27259625       0.00051891       0.00087927       0.00032975
H        5.48621265       0.55433233      -1.02970928      -0.00012064       0.00054347      -0.00034893
H        3.95160522       2.34429522      -1.75570445      -0.00087763       0.00031199      -0.00047984
H        1.56030894       2.22257989      -1.18975295      -0.00106096      -0.00029316      -0.00082355
C        0.55088985      -5.54272619      -0.66508745      -0.00089078       0.00071105      -0.00004233
C       -0.20865361      -4.38649629      -0.01061379      -0.00015770       0.00137161      -0.00186897
C       -1.43693666      -4.01500176      -0.84905110       0.00049938      -0.00034286      -0.00040402
C       -0.63690974      -4.75873100       1.41350077      -0.00138471       0.00056461       0.00086555
O        0.70553013      -3.29449967       0.03583158      -0.00017795       0.00057952       0.00052694
H       -0.07470517      -6.42914307      -0.71274338      -0.00009318      -0.00088615      -0.00074838
H        1.44600625      -5.76705801      -0.09024323      -0.00086291      -0.00060865       0.00049233
H        0.84904803      -5.26203157      -1.67238950       0.00004735      -0.00024599       0.00030399
H       -2.00045097      -3.21685682      -0.36890772       0.00020895       0.00054596      -0.00133561
H       -1.12623599      -3.67569801      -1.83507659       0.00094011       0.00094790      -0.00021691
H       -2.08781826      -4.87764117      -0.96344189       0.00004193       0.00082529      -0.00124950
H       -1.18406210      -3.93462310       1.86838906      -0.00124105       0.00019051      -0.00057984
H        0.24016060      -4.97424580       2.02016785      -0.00134592      -0.00015029      -0.00038536
H       -1.27822148      -5.63566070       1.39820947      -0.00124751      -0.00032747      -0.00087992
H        1.04541334      -2.62364290      -1.59588719       0.00184098      -0.00149933       0.00079617
