60
Properties=species:S:1:pos:R:3:forces:R:3 energy:=T -71.530007360207=T gnorm:=T 0.000215740235=T xtb:=T 6.7.1=T (edcfbbe)=T energy=-1946.4306426037424 pbc="F F F"
Co       0.26396199      -0.63850944      -1.01934120       0.00171568       0.00226992      -0.00148874
N        0.13558331      -2.43621698       0.01885263       0.00052059      -0.00126100       0.00033377
C        0.50545464      -2.29914499       1.43066722      -0.00026128       0.00050696      -0.00062425
C        1.89462884      -1.68770408       1.56818453      -0.00073945      -0.00007303       0.00050961
P        1.97184026      -0.26096894       0.36660702       0.00140854      -0.00240190       0.00058499
C        3.63679798      -0.58404096      -0.43376101       0.00014463      -0.00005508      -0.00095396
C        4.04323804       0.62112038      -1.27688869       0.00015886       0.00056707      -0.00008096
C        3.55244939      -1.81900226      -1.32653500      -0.00016462      -0.00008221       0.00038637
C        2.38196242       1.21818132       1.44237320      -0.00039178       0.00161706      -0.00022382
C        1.14718002       1.56226842       2.26931800      -0.00022235       0.00015743       0.00020387
C        3.62149370       1.10037168       2.32493336      -0.00025733      -0.00055201      -0.00012880
C       -1.17996280      -3.06246342      -0.14738476       0.00049823      -0.00010185       0.00041160
C       -2.29085176      -2.15201093       0.37092538       0.00023723      -0.00026887      -0.00051220
P       -1.95144823      -0.36880576      -0.08762035      -0.00363052      -0.00019357      -0.00052360
C       -2.98411063       0.40748002       1.30624979       0.00175025       0.00086358       0.00163485
C       -3.13488748       1.91001517       1.07729612      -0.00011133      -0.00075551      -0.00034656
C       -2.37988155       0.17852746       2.69025625       0.00139549      -0.00057798       0.00230407
C       -3.19880091      -0.08542295      -1.47857938       0.00145641      -0.00043696      -0.00045572
C       -3.35211391      -1.26511872      -2.43469537      -0.00033542      -0.00012758      -0.00029351
C       -2.75906079       1.13575942      -2.28499351      -0.00059745       0.00072183      -0.00020810
H        0.82731622      -3.04614443      -0.41912624      -0.00011416      -0.00020497       0.00012241
H        0.45336071      -3.27382710       1.94187935       0.00029891       0.00010692       0.00034484
H       -0.21398203      -1.62279145       1.89915925      -0.00000882      -0.00020417      -0.00014476
H        2.05363431      -1.35845776       2.59591078      -0.00008675       0.00028031      -0.00027349
H        2.66809801      -2.41783224       1.31946082      -0.00013278       0.00059041      -0.00032285
H        4.37617306      -0.76345229       0.35679820      -0.00054845       0.00026375      -0.00004172
H        3.23263133       0.87349798      -1.96033480       0.00080633      -0.00015099      -0.00020051
H        4.92995937       0.38999143      -1.86624285      -0.00019473      -0.00030904       0.00047854
H        4.26394367       1.49136064      -0.66334863       0.00004647      -0.00029418      -0.00069728
H        4.48923005      -1.96109163      -1.86402688       0.00004138      -0.00030934       0.00062068
H        2.75316389      -1.68486831      -2.05693777       0.00015248       0.00020838       0.00010606
H        3.35748113      -2.72563888      -0.75538247      -0.00066250      -0.00005744       0.00022848
H        2.53027415       2.03174367       0.72042396       0.00017115       0.00046184       0.00013328
H        0.97136895       0.80804706       3.03605488       0.00012761       0.00051644       0.00003134
H        1.26690396       2.52589248       2.76288014      -0.00015184      -0.00005038      -0.00002802
H        0.27853598       1.61545550       1.61248258       0.00056131      -0.00002452       0.00083418
H        3.55609005       0.24497053       2.99441293       0.00008505       0.00020630      -0.00021971
H        4.52957970       1.00881462       1.73498098      -0.00035861       0.00045257       0.00014603
H        3.71178991       1.99696598       2.93787017      -0.00019223      -0.00008926       0.00002097
H       -1.21733032      -4.02835033       0.38339598      -0.00016730      -0.00042119      -0.00001314
H       -1.32846384      -3.25410233      -1.21272870      -0.00010365       0.00010875      -0.00001166
H       -2.34155297      -2.22232010       1.45764595       0.00006303      -0.00024340      -0.00018497
H       -3.25696904      -2.47365174      -0.01724846       0.00018515       0.00013408      -0.00012416
H       -3.97421445      -0.06619539       1.27496076       0.00118675       0.00079370      -0.00033998
H       -3.75825155       2.12308345       0.21322304      -0.00006641       0.00029904       0.00040780
H       -3.59727074       2.37971575       1.94534742       0.00062493      -0.00013313       0.00046355
H       -2.15842301       2.36868079       0.92276797      -0.00002520      -0.00086701      -0.00023498
H       -2.34820638      -0.87412881       2.96418893       0.00022637       0.00327366      -0.00122446
H       -2.98407869       0.68832318       3.44060220       0.00088873      -0.00147370      -0.00066859
H       -1.37336057       0.58474673       2.73940518      -0.00325780      -0.00143364      -0.00059589
H       -4.17246847       0.11330839      -1.01208259       0.00054552      -0.00085149       0.00008190
H       -3.83521412      -2.12278735      -1.97246503      -0.00043930       0.00041835      -0.00022601
H       -2.38118939      -1.56939133      -2.81802539      -0.00008998      -0.00006543       0.00083030
H       -3.96459835      -0.96175303      -3.28338471       0.00053508       0.00021243      -0.00054812
H       -1.84399117       0.89860542      -2.82441805      -0.00071883       0.00009978       0.00006109
H       -3.52716154       1.41692724      -3.00496750      -0.00029939       0.00051801       0.00070451
H       -2.55006001       1.99037393      -1.64696865       0.00000617      -0.00047043       0.00017322
C        0.12283695      -1.31072029      -2.60960688      -0.00320152      -0.00097795       0.00082925
O        0.15675953      -1.67548899      -3.71695572       0.00188265       0.00100388       0.00040894
H        0.43379951       0.62779732      -1.70631473      -0.00018921      -0.00113325      -0.00145600
