60
Properties=species:S:1:pos:R:3 energy:=T -71.530007360207=T gnorm:=T 0.000215740235=T xtb:=T 6.7.1=T (edcfbbe)=T pbc="F F F"
Co       0.26396199      -0.63850944      -1.01934120
N        0.13558331      -2.43621698       0.01885263
C        0.50545464      -2.29914499       1.43066722
C        1.89462884      -1.68770408       1.56818453
P        1.97184026      -0.26096894       0.36660702
C        3.63679798      -0.58404096      -0.43376101
C        4.04323804       0.62112038      -1.27688869
C        3.55244939      -1.81900226      -1.32653500
C        2.38196242       1.21818132       1.44237320
C        1.14718002       1.56226842       2.26931800
C        3.62149370       1.10037168       2.32493336
C       -1.17996280      -3.06246342      -0.14738476
C       -2.29085176      -2.15201093       0.37092538
P       -1.95144823      -0.36880576      -0.08762035
C       -2.98411063       0.40748002       1.30624979
C       -3.13488748       1.91001517       1.07729612
C       -2.37988155       0.17852746       2.69025625
C       -3.19880091      -0.08542295      -1.47857938
C       -3.35211391      -1.26511872      -2.43469537
C       -2.75906079       1.13575942      -2.28499351
H        0.82731622      -3.04614443      -0.41912624
H        0.45336071      -3.27382710       1.94187935
H       -0.21398203      -1.62279145       1.89915925
H        2.05363431      -1.35845776       2.59591078
H        2.66809801      -2.41783224       1.31946082
H        4.37617306      -0.76345229       0.35679820
H        3.23263133       0.87349798      -1.96033480
H        4.92995937       0.38999143      -1.86624285
H        4.26394367       1.49136064      -0.66334863
H        4.48923005      -1.96109163      -1.86402688
H        2.75316389      -1.68486831      -2.05693777
H        3.35748113      -2.72563888      -0.75538247
H        2.53027415       2.03174367       0.72042396
H        0.97136895       0.80804706       3.03605488
H        1.26690396       2.52589248       2.76288014
H        0.27853598       1.61545550       1.61248258
H        3.55609005       0.24497053       2.99441293
H        4.52957970       1.00881462       1.73498098
H        3.71178991       1.99696598       2.93787017
H       -1.21733032      -4.02835033       0.38339598
H       -1.32846384      -3.25410233      -1.21272870
H       -2.34155297      -2.22232010       1.45764595
H       -3.25696904      -2.47365174      -0.01724846
H       -3.97421445      -0.06619539       1.27496076
H       -3.75825155       2.12308345       0.21322304
H       -3.59727074       2.37971575       1.94534742
H       -2.15842301       2.36868079       0.92276797
H       -2.34820638      -0.87412881       2.96418893
H       -2.98407869       0.68832318       3.44060220
H       -1.37336057       0.58474673       2.73940518
H       -4.17246847       0.11330839      -1.01208259
H       -3.83521412      -2.12278735      -1.97246503
H       -2.38118939      -1.56939133      -2.81802539
H       -3.96459835      -0.96175303      -3.28338471
H       -1.84399117       0.89860542      -2.82441805
H       -3.52716154       1.41692724      -3.00496750
H       -2.55006001       1.99037393      -1.64696865
C        0.12283695      -1.31072029      -2.60960688
O        0.15675953      -1.67548899      -3.71695572
H        0.43379951       0.62779732      -1.70631473
