58
Properties=species:S:1:pos:R:3:forces:R:3 energy:=T -76.958498107289=T gnorm:=T 0.000028117174=T xtb:=T 6.7.1=T (edcfbbe)=T energy=-2094.1473998501197 pbc="F F F"
O        0.58171275      -0.55146989      -1.91660415      -0.00005674       0.00004369      -0.00000472
C        0.38098238       0.24509710      -0.78044233      -0.00002054       0.00006768       0.00000814
N       -0.17357261      -0.53309340       0.31830028       0.00018370      -0.00021043       0.00003090
C       -1.52800083      -0.83401479       0.39021108      -0.00014787      -0.00001960      -0.00006776
C       -2.32965660      -0.90505085      -0.74963578       0.00011524       0.00005328       0.00012793
C       -3.65486914      -1.28596037      -0.64264671       0.00000449      -0.00013592       0.00007439
C       -4.20078451      -1.61032708       0.58776575      -0.00000597      -0.00000504       0.00000531
C       -3.40759807      -1.54314802       1.72280029       0.00006617       0.00018705       0.00015203
C       -2.08596722      -1.15563983       1.62958636      -0.00000685      -0.00001403       0.00006612
C        1.64947891       0.90871919      -0.27972490       0.00000608      -0.00007219      -0.00004913
C        2.86944813       0.24487127      -0.31435855       0.00004451      -0.00009282      -0.00004910
C        4.00896348       0.85732236       0.18109929       0.00000426       0.00000025       0.00013894
C        3.93912132       2.12902474       0.72552302      -0.00000152      -0.00000324       0.00000139
C        2.72308486       2.79277257       0.76738143       0.00000724       0.00009537      -0.00010426
C        1.58508073       2.18664682       0.26377548      -0.00000339       0.00007338       0.00008181
H        1.05092530      -1.35763587      -1.63787568       0.00001153      -0.00001099      -0.00001522
H       -0.32970392       1.02263234      -1.10653653      -0.00004875      -0.00005228      -0.00001974
H        0.25885453      -0.34778186       1.22042725       0.00000902       0.00006020       0.00002957
H       -1.91078970      -0.67232908      -1.71672127      -0.00003411       0.00002178       0.00001104
H       -4.26432252      -1.33541247      -1.53399214      -0.00000213       0.00013473       0.00004954
H       -5.23500806      -1.91209711       0.66287908       0.00002851       0.00006437       0.00010603
H       -3.82420352      -1.79010819       2.68912062       0.00008658      -0.00007592       0.00004184
H       -1.46923237      -1.08903200       2.51430899       0.00007106      -0.00006484       0.00003157
H        2.93412107      -0.75184870      -0.72352508       0.00002064      -0.00002780       0.00006212
H        4.95562941       0.33793961       0.14010980       0.00004883       0.00001440       0.00002122
H        4.82922412       2.60442290       1.11158005      -0.00000247       0.00000521      -0.00000043
H        2.66248177       3.78646122       1.18673975      -0.00002444      -0.00002260      -0.00008725
H        0.63830267       2.70700279       0.29247347       0.00002624       0.00000422      -0.00017345
C        1.05226385      -2.11189649       3.95382484       0.00010033      -0.00005022       0.00009991
C        2.12075325      -1.11535730       3.50297872      -0.00029152       0.00025190       0.00003278
C        2.82086119      -0.49360749       4.71661806       0.00021080      -0.00033747       0.00003417
C        3.14696429      -1.80174046       2.59592341       0.00001132       0.00010038       0.00006962
O        1.43244015      -0.09173106       2.77886643       0.00002317       0.00013689      -0.00040580
H        1.50258693      -2.90433344       4.54446741      -0.00004302      -0.00008927       0.00006321
H        0.56395502      -2.54996813       3.08740973       0.00006898       0.00008909       0.00001120
H        0.30340321      -1.60338133       4.55654024       0.00005303       0.00009668      -0.00005920
H        3.57499789       0.22295526       4.39319996       0.00002763      -0.00002197      -0.00008292
H        2.09551246       0.02508810       5.34000797       0.00006736      -0.00000975      -0.00017553
H        3.30621148      -1.26388765       5.30948918       0.00015813      -0.00003312       0.00017393
H        3.91316840      -1.09246338       2.28734744      -0.00000638      -0.00002211      -0.00014777
H        2.66476673      -2.19489098       1.70386914      -0.00005069      -0.00009374       0.00005566
H        3.62531189      -2.61996703       3.12765476       0.00000512       0.00011349      -0.00000463
H        2.07888748       0.56473199       2.49361986       0.00005013       0.00007422       0.00004222
C        1.86638383      -5.02826726      -1.02536329      -0.00021144       0.00000490       0.00012710
C        0.76460237      -4.07710569      -0.55422540      -0.00028805       0.00044982      -0.00004071
C       -0.32232256      -3.93980690      -1.62751434      -0.00003365      -0.00028899      -0.00014355
C        0.14211730      -4.57640533       0.75419881      -0.00004892      -0.00019433      -0.00010879
O        1.39187460      -2.81651112      -0.33402817       0.00038825      -0.00002870       0.00013968
H        1.45753709      -6.01607716      -1.21616814      -0.00004721      -0.00008452       0.00014792
H        2.64057306      -5.10202763      -0.26539844       0.00000812       0.00006367       0.00005815
H        2.31639418      -4.64652842      -1.93858747      -0.00011883      -0.00011088       0.00002838
H       -1.10433975      -3.26045301      -1.29210410       0.00012729      -0.00002573      -0.00004877
H        0.10473248      -3.54685500      -2.54798108       0.00003252      -0.00000542       0.00002730
H       -0.76958859      -4.90823738      -1.83483491      -0.00016506      -0.00015537      -0.00018267
H       -0.64444779      -3.89571910       1.08059413      -0.00003914       0.00000542      -0.00019829
H        0.90215840      -4.63737171       1.53091760      -0.00012254       0.00006043       0.00003664
H       -0.29267513      -5.56214853       0.61344995      -0.00013985      -0.00003779       0.00005322
H        0.74478600      -2.22649962       0.09852930      -0.00010524       0.00012460      -0.00007130
