58
Properties=species:S:1:pos:R:3 energy:=T -76.958498107289=T gnorm:=T 0.000028117174=T xtb:=T 6.7.1=T (edcfbbe)=T pbc="F F F"
O        0.58171275      -0.55146989      -1.91660415
C        0.38098238       0.24509710      -0.78044233
N       -0.17357261      -0.53309340       0.31830028
C       -1.52800083      -0.83401479       0.39021108
C       -2.32965660      -0.90505085      -0.74963578
C       -3.65486914      -1.28596037      -0.64264671
C       -4.20078451      -1.61032708       0.58776575
C       -3.40759807      -1.54314802       1.72280029
C       -2.08596722      -1.15563983       1.62958636
C        1.64947891       0.90871919      -0.27972490
C        2.86944813       0.24487127      -0.31435855
C        4.00896348       0.85732236       0.18109929
C        3.93912132       2.12902474       0.72552302
C        2.72308486       2.79277257       0.76738143
C        1.58508073       2.18664682       0.26377548
H        1.05092530      -1.35763587      -1.63787568
H       -0.32970392       1.02263234      -1.10653653
H        0.25885453      -0.34778186       1.22042725
H       -1.91078970      -0.67232908      -1.71672127
H       -4.26432252      -1.33541247      -1.53399214
H       -5.23500806      -1.91209711       0.66287908
H       -3.82420352      -1.79010819       2.68912062
H       -1.46923237      -1.08903200       2.51430899
H        2.93412107      -0.75184870      -0.72352508
H        4.95562941       0.33793961       0.14010980
H        4.82922412       2.60442290       1.11158005
H        2.66248177       3.78646122       1.18673975
H        0.63830267       2.70700279       0.29247347
C        1.05226385      -2.11189649       3.95382484
C        2.12075325      -1.11535730       3.50297872
C        2.82086119      -0.49360749       4.71661806
C        3.14696429      -1.80174046       2.59592341
O        1.43244015      -0.09173106       2.77886643
H        1.50258693      -2.90433344       4.54446741
H        0.56395502      -2.54996813       3.08740973
H        0.30340321      -1.60338133       4.55654024
H        3.57499789       0.22295526       4.39319996
H        2.09551246       0.02508810       5.34000797
H        3.30621148      -1.26388765       5.30948918
H        3.91316840      -1.09246338       2.28734744
H        2.66476673      -2.19489098       1.70386914
H        3.62531189      -2.61996703       3.12765476
H        2.07888748       0.56473199       2.49361986
C        1.86638383      -5.02826726      -1.02536329
C        0.76460237      -4.07710569      -0.55422540
C       -0.32232256      -3.93980690      -1.62751434
C        0.14211730      -4.57640533       0.75419881
O        1.39187460      -2.81651112      -0.33402817
H        1.45753709      -6.01607716      -1.21616814
H        2.64057306      -5.10202763      -0.26539844
H        2.31639418      -4.64652842      -1.93858747
H       -1.10433975      -3.26045301      -1.29210410
H        0.10473248      -3.54685500      -2.54798108
H       -0.76958859      -4.90823738      -1.83483491
H       -0.64444779      -3.89571910       1.08059413
H        0.90215840      -4.63737171       1.53091760
H       -0.29267513      -5.56214853       0.61344995
H        0.74478600      -2.22649962       0.09852930
