58

O       0.269285918905050     -1.307787879002020     -1.697002745237340
C       0.395432953603590     -0.207750349929730     -0.824652895933270
N      -0.143813202472870     -0.507604365437960      0.477423092613950
C      -1.481877845711460     -0.559890982813270      0.781348260936030
C      -2.479963337704560     -0.543652567087170     -0.196289532508390
C      -3.810073606769590     -0.644446660188790      0.165064714915300
C      -4.178132610377970     -0.770626758055570      1.494236516845860
C      -3.192991717267930     -0.796976728350450      2.469969360255030
C      -1.862148520118940     -0.693502296557010      2.122447195294680
C       1.840525452254260      0.216361736573170     -0.653171252043650
C       2.790014465635540     -0.705931979353100     -0.227266060352420
C       4.109558791724280     -0.321970379277630     -0.065999461186790
C       4.493142149732650      0.984745708096450     -0.322216514932410
C       3.550302227424700      1.907864029799990     -0.742402500061660
C       2.230121646255080      1.523927903289460     -0.909068033889690
H       0.557752268937810     -2.098713470782000     -1.199343537771800
H      -0.170812629326370      0.603933940109840     -1.309981063647480
H       0.490426526345820     -0.414939245367880      1.259981284435600
H      -2.210568285527960     -0.468359488431340     -1.238312439521760
H      -4.569412481894640     -0.629549694349850     -0.604520739814930
H      -5.219825622426860     -0.851757386694420      1.767926272208800
H      -3.467103274063970     -0.899395684657440      3.511182257182450
H      -1.092307700458780     -0.716383436018810      2.881304540528420
H       2.496206248183670     -1.725374799283890     -0.025984889449410
H       4.842607070008200     -1.044775419995900      0.262491310181980
H       5.523773516321160      1.283254135900490     -0.194013084347290
H       3.842660365783600      2.928739397672530     -0.941956587560280
H       1.496619959774560      2.245569833509070     -1.241493659800830
C       0.459468546464180     -5.157071667388310     -1.347695548135620
C      -0.151425779421950     -4.480070356963670     -0.120114162056780
C      -1.572351616357750     -3.996026255555900     -0.423530778129420
C      -0.162760914255900     -5.436803217805670      1.077759563244880
O       0.692271967613370     -3.364880636800490      0.174145166870200
H      -0.110779269838660     -6.042178290811430     -1.613501026289190
H       1.486808963056850     -5.444475790807060     -1.137510143817720
H       0.458774486518200     -4.467431028505290     -2.188599531600480
H      -2.006995330559620     -3.505157479238210      0.446704773428810
H      -1.559375020821190     -3.283078114232100     -1.244866862937050
H      -2.204213924471160     -4.835917037027860     -0.699171817288920
H      -0.590280804262110     -4.944991376764370      1.950388789356670
H       0.852332292652560     -5.747608380665820      1.315719014549230
H      -0.756082197200680     -6.318136179339020      0.851208795759420
H       0.281804710660880     -2.849105768684870      0.882190589072200
C       0.968932274460710      2.001165818433960      2.713821140115240
C       1.847705873157910      1.002668286032020      3.468821640796930
C       3.325588432448120      1.373209287405200      3.315600050314320
C       1.459282134272360      0.960824674092400      4.952268045758750
O       1.606028474533400     -0.275309429804040      2.877873999425710
H       1.079972276686430      2.993598709989910      3.140912756403240
H      -0.075268186532810      1.704122406041100      2.776068438231280
H       1.259506506254160      2.030509779819860      1.666223861776130
H       3.955682004229250      0.671078229090410      3.860682392317590
H       3.606051273549290      1.350033343308910      2.264599546636150
H       3.505147800842910      2.371312833403160      3.705236176259310
H       2.069243215585430      0.234135858330940      5.487158676304850
H       0.413885887505090      0.677757528005870      5.055273302381710
H       1.603474600396260      1.936619627127300      5.407303957199600
H       2.247076382358790     -0.904286382512860      3.228523305985330
