57
Properties=species:S:1:pos:R:3:forces:R:3 energy:=T -76.459588821577=T gnorm:=T 0.000152142025=T xtb:=T 6.7.1=T (edcfbbe)=T energy=-2080.5713866817955 pbc="F F F"
Mn       0.30399763       0.00671935       0.12754326       0.00116180      -0.00077870      -0.00027616
C        2.27487083      -2.27704562      -0.61815305      -0.00013858       0.00070806       0.00013614
P        2.45199433      -0.62092304       0.20169855       0.00003748       0.00065916      -0.00025182
C        3.75601447       0.15608573      -0.89488048       0.00042959      -0.00005055      -0.00025632
C        5.13677040      -0.49287413      -0.86425927      -0.00046677      -0.00005627      -0.00028109
C        3.82944668       1.66207561      -0.64839345      -0.00030482      -0.00000162       0.00021492
C        3.39630294      -1.12856425       1.73577723       0.00037160      -0.00107918       0.00114073
C        2.59974480      -2.12832098       2.57218512       0.00000767      -0.00112089      -0.00031486
C        3.74697605       0.10513080       2.56319837      -0.00011414       0.00359411       0.00088375
C        0.92355705      -2.80727643      -0.24765076      -0.00020654      -0.00089501       0.00003010
C        0.66419322      -4.16808014      -0.26330748       0.00031444       0.00045019      -0.00000904
C       -0.60478673      -4.63170932       0.05118048      -0.00042385      -0.00032957       0.00031853
C       -1.57580997      -3.69382160       0.36668375       0.00017251      -0.00031717       0.00003897
C       -1.24364965      -2.34984613       0.37770142       0.00060978       0.00025240      -0.00019744
C       -2.25301368      -1.30108490       0.74887679      -0.00039366       0.00027956       0.00021242
N       -2.08348653      -0.09220356      -0.07527574       0.00128000      -0.00004337       0.00016844
C       -2.99693798       0.96421527       0.40600251       0.00003223      -0.00001380       0.00000130
C       -2.71970627       1.51886816       1.79611622       0.00001032      -0.00022598       0.00026106
C       -2.50841035      -0.44284328      -1.44994577      -0.00003344      -0.00033123       0.00019919
C       -2.44759876       0.70898375      -2.44991693      -0.00029104       0.00030068      -0.00079111
N       -0.01094249      -1.89723995       0.08640356      -0.00014907       0.00083197       0.00027377
H        3.07175512      -2.98152708      -0.36427893       0.00010901       0.00022010       0.00046435
H        2.30497147      -2.09389912      -1.70007609       0.00036494      -0.00054941       0.00019630
H        3.32832733       0.01194102      -1.89828960      -0.00054550      -0.00019102      -0.00019768
H        5.07609652      -1.57056532      -1.00665403       0.00009791      -0.00033868      -0.00054162
H        5.74238284      -0.08057123      -1.67054324      -0.00035895       0.00020819      -0.00025268
H        5.64865841      -0.28782440       0.07308108       0.00019019      -0.00028541      -0.00035411
H        2.81880470       2.05977783      -0.53281185      -0.00017344       0.00010509      -0.00052179
H        4.39406762       1.89183660       0.25135592       0.00003615      -0.00010484      -0.00006642
H        4.31129348       2.15939459      -1.48862974       0.00059939      -0.00029320      -0.00048832
H        4.31448394      -1.62399512       1.39394714      -0.00019282       0.00051513       0.00008093
H        2.34444448      -3.02232286       2.00456693       0.00006207      -0.00070390      -0.00044425
H        3.18992375      -2.43652581       3.43525923      -0.00007154       0.00049743       0.00034720
H        1.68063651      -1.68024361       2.94170791      -0.00089823       0.00025607      -0.00026210
H        4.12161953      -0.18795313       3.54349324      -0.00088245       0.00023077      -0.00138044
H        2.86285353       0.72736759       2.70083245       0.00099554      -0.00199295       0.00081117
H        4.51036601       0.70403102       2.07338819      -0.00163108       0.00010824       0.00068265
H        1.45328698      -4.85653806      -0.52766779       0.00012177      -0.00002438       0.00021287
H       -0.83008588      -5.68656579       0.04336902       0.00017519       0.00000070       0.00014716
H       -2.58270094      -3.99811722       0.60999734       0.00007927       0.00016855      -0.00003157
H       -3.27615395      -1.70395825       0.65286378       0.00015277      -0.00021644      -0.00013273
H       -2.09201646      -1.03215413       1.79974415      -0.00001172      -0.00006890      -0.00013347
H       -2.91639696       1.79911788      -0.28965733       0.00084004       0.00036780       0.00008555
H       -4.02894009       0.57541245       0.37156285       0.00003521       0.00057220      -0.00020388
H       -2.86419327       0.78340714       2.58437631       0.00002916      -0.00014694      -0.00004849
H       -3.40599220       2.34274262       1.98091633       0.00032982      -0.00002010       0.00022194
H       -1.70254114       1.90215893       1.84457759       0.00022222      -0.00007658       0.00025745
H       -1.86535333      -1.25364489      -1.80675950      -0.00008726      -0.00003071      -0.00000803
H       -3.54090759      -0.83298827      -1.41766254       0.00001255       0.00013018       0.00009874
H       -2.37477205       0.30716939      -3.45818620       0.00002937       0.00019223       0.00068613
H       -3.33580745       1.33419792      -2.40116842      -0.00014523      -0.00017687      -0.00005276
H       -1.57073293       1.32596069      -2.26113483      -0.00060562      -0.00005438      -0.00005182
C        0.58185501       0.10790277      -1.61968547      -0.00259725       0.00020648      -0.00155876
O        0.87052152       0.16237690      -2.74399542       0.00144971      -0.00014489       0.00091367
C        0.20371086       0.18396099       1.89191769       0.00105970      -0.00020433      -0.00048470
O        0.18505161       0.33657230       3.04356795      -0.00042810       0.00020376       0.00053434
H        0.32074408       1.56591934       0.10950303      -0.00026833      -0.00019178      -0.00002633
