57
Properties=species:S:1:pos:R:3 energy:=T -76.459588821577=T gnorm:=T 0.000152142025=T xtb:=T 6.7.1=T (edcfbbe)=T pbc="F F F"
Mn       0.30399763       0.00671935       0.12754326
C        2.27487083      -2.27704562      -0.61815305
P        2.45199433      -0.62092304       0.20169855
C        3.75601447       0.15608573      -0.89488048
C        5.13677040      -0.49287413      -0.86425927
C        3.82944668       1.66207561      -0.64839345
C        3.39630294      -1.12856425       1.73577723
C        2.59974480      -2.12832098       2.57218512
C        3.74697605       0.10513080       2.56319837
C        0.92355705      -2.80727643      -0.24765076
C        0.66419322      -4.16808014      -0.26330748
C       -0.60478673      -4.63170932       0.05118048
C       -1.57580997      -3.69382160       0.36668375
C       -1.24364965      -2.34984613       0.37770142
C       -2.25301368      -1.30108490       0.74887679
N       -2.08348653      -0.09220356      -0.07527574
C       -2.99693798       0.96421527       0.40600251
C       -2.71970627       1.51886816       1.79611622
C       -2.50841035      -0.44284328      -1.44994577
C       -2.44759876       0.70898375      -2.44991693
N       -0.01094249      -1.89723995       0.08640356
H        3.07175512      -2.98152708      -0.36427893
H        2.30497147      -2.09389912      -1.70007609
H        3.32832733       0.01194102      -1.89828960
H        5.07609652      -1.57056532      -1.00665403
H        5.74238284      -0.08057123      -1.67054324
H        5.64865841      -0.28782440       0.07308108
H        2.81880470       2.05977783      -0.53281185
H        4.39406762       1.89183660       0.25135592
H        4.31129348       2.15939459      -1.48862974
H        4.31448394      -1.62399512       1.39394714
H        2.34444448      -3.02232286       2.00456693
H        3.18992375      -2.43652581       3.43525923
H        1.68063651      -1.68024361       2.94170791
H        4.12161953      -0.18795313       3.54349324
H        2.86285353       0.72736759       2.70083245
H        4.51036601       0.70403102       2.07338819
H        1.45328698      -4.85653806      -0.52766779
H       -0.83008588      -5.68656579       0.04336902
H       -2.58270094      -3.99811722       0.60999734
H       -3.27615395      -1.70395825       0.65286378
H       -2.09201646      -1.03215413       1.79974415
H       -2.91639696       1.79911788      -0.28965733
H       -4.02894009       0.57541245       0.37156285
H       -2.86419327       0.78340714       2.58437631
H       -3.40599220       2.34274262       1.98091633
H       -1.70254114       1.90215893       1.84457759
H       -1.86535333      -1.25364489      -1.80675950
H       -3.54090759      -0.83298827      -1.41766254
H       -2.37477205       0.30716939      -3.45818620
H       -3.33580745       1.33419792      -2.40116842
H       -1.57073293       1.32596069      -2.26113483
C        0.58185501       0.10790277      -1.61968547
O        0.87052152       0.16237690      -2.74399542
C        0.20371086       0.18396099       1.89191769
O        0.18505161       0.33657230       3.04356795
H        0.32074408       1.56591934       0.10950303
