75
Properties=species:S:1:pos:R:3:forces:R:3 charge=0 unpaired=0 uhf=0 endpoint_role="alcohol encounter complex; requires optimization" energy=-2551.9385792238245 pbc="F F F"
Ru      -0.04122171       0.07512586       0.29207159       0.00023947       0.00099069      -0.00039057
N       -0.22302468      -2.13752583       0.40792048      -0.00008523      -0.00000696       0.00081538
C        0.99310066      -2.90146034       0.21057539      -0.00021584       0.00028621       0.00000535
C        2.06077569      -2.18901839      -0.62968122      -0.00000625      -0.00005290      -0.00030053
P        2.17649404      -0.39954140      -0.15770896      -0.00029341      -0.00007849       0.00028041
C        3.14002005       0.32728318      -1.59442753       0.00012969       0.00025385       0.00004124
C        4.20122038      -0.60516508      -2.17638939      -0.00007222       0.00031576      -0.00021026
C        2.20534427       0.81811024      -2.69418083      -0.00026761      -0.00003454       0.00030787
C        3.52747330      -0.30190921       1.13934579       0.00003499       0.00007786       0.00014571
C        3.30095362      -1.26618369       2.29781838       0.00008221      -0.00053212      -0.00016423
C        3.57983410       1.13229767       1.66215407       0.00046483      -0.00014314      -0.00003742
C       -0.47859959      -1.71672094       1.61689209      -0.00000745      -0.00084449      -0.00031237
C       -1.91146320      -1.39816094       2.02467087       0.00044058       0.00042152       0.00043074
P       -2.25772476       0.07397540       0.96596517       0.00024963       0.00028237      -0.00033961
C       -3.04273346       1.36533423       2.05985902       0.00003381      -0.00018268      -0.00044941
C       -3.30581412       2.57765044       1.16660394      -0.00019932       0.00011244      -0.00034972
C       -2.12302258       1.76202769       3.20860052      -0.00016079       0.00044959      -0.00058055
C       -3.67395302      -0.47474336      -0.13907140      -0.00005170      -0.00017676       0.00018249
C       -5.04251893      -0.49701913       0.54015036       0.00001763      -0.00038295       0.00007623
C       -3.37139253      -1.85386093      -0.73455589       0.00016827      -0.00012126      -0.00004592
H        1.42381671      -3.19214401       1.18366149      -0.00007217      -0.00005750      -0.00001001
H        0.69316627      -3.81737270      -0.31684427      -0.00012426       0.00008548      -0.00001076
H        3.02170934      -2.70364259      -0.54343671      -0.00009737       0.00000080      -0.00015267
H        1.74968682      -2.19916887      -1.68006217      -0.00022923      -0.00002569      -0.00007014
H        3.63890244       1.20644499      -1.16692342      -0.00001467       0.00008833       0.00038623
H        4.82358671      -0.04726078      -2.87496338      -0.00009129       0.00015779      -0.00023358
H        3.73973261      -1.42330242      -2.72412625      -0.00018404      -0.00032500      -0.00013756
H        4.84996719      -1.02012724      -1.40808579       0.00039841       0.00000964       0.00031815
H        2.76670745       1.36889477      -3.44807500       0.00011128      -0.00012799      -0.00008250
H        1.71412358      -0.01752206      -3.18965828      -0.00031197       0.00034793       0.00007563
H        1.44376811       1.47699392      -2.27333318       0.00027030       0.00038383      -0.00010097
H        4.47824078      -0.54960523       0.65030087       0.00014279      -0.00022472      -0.00005383
H        4.06528158      -1.11689157       3.06029410       0.00008913      -0.00060761      -0.00047915
H        3.34978331      -2.30369806       1.97162281      -0.00036203      -0.00045522      -0.00010759
H        2.32955938      -1.07548575       2.75256497       0.00009599      -0.00005649       0.00010906
H        2.60569694       1.40814483       2.06482113       0.00039531      -0.00026293       0.00001451
H        4.32649660       1.22305919       2.44989059       0.00009198      -0.00056504      -0.00006960
H        3.82749981       1.84004850       0.87369800       0.00050611      -0.00013683       0.00014575
H        0.31331857       0.47935801       1.75928962       0.00009344      -0.00021111       0.00027917
H        0.17926348      -2.02153776       2.45046549      -0.00000163       0.00024894       0.00018902
H       -1.95325427      -1.13716613       3.08422541      -0.00023338      -0.00026405       0.00017102
H       -2.56903915      -2.25156541       1.83685532      -0.00008448      -0.00001628      -0.00033315
H       -3.97878105       0.96750134       2.46849535      -0.00009723       0.00037121       0.00011367
H       -4.02516237       2.35380410       0.38071770       0.00028835      -0.00033580      -0.00038142
H       -3.68643477       3.41249234       1.75314566      -0.00050845      -0.00023074      -0.00066630
H       -2.36785068       2.88008269       0.69624470      -0.00026200       0.00006083      -0.00011424
H       -2.57015546       2.57871951       3.77385192      -0.00035104       0.00023174      -0.00002925
H       -1.94835621       0.93431086       3.89337858       0.00051231       0.00012623      -0.00028882
H       -1.16385402       2.09428598       2.81396481      -0.00015979       0.00074222      -0.00041795
H       -3.68273977       0.26327302      -0.95315723      -0.00015477      -0.00024808       0.00010538
H       -5.00664111      -1.08096442       1.45915527       0.00026012      -0.00020592       0.00019682
H       -5.40437360       0.50142405       0.77136516      -0.00009253      -0.00043577       0.00008840
H       -5.76410943      -0.96461122      -0.12921949       0.00007839      -0.00054425       0.00033519
H       -2.30020709      -2.02628452      -0.83253042       0.00003196      -0.00005212       0.00015425
H       -3.77557199      -2.64206324      -0.10144432       0.00022975      -0.00018476      -0.00007027
H       -3.82767830      -1.95184349      -1.71834509       0.00026782      -0.00019357       0.00010330
C       -0.50122865      -0.23218830      -1.45651399      -0.00049095      -0.00074708      -0.00020170
O       -0.83904645      -0.53060286      -2.52632555       0.00009509       0.00124356       0.00034941
H        0.09868025       1.59530548       0.01731040      -0.00011244       0.00006200       0.00005548
O       -0.49713497      -3.47624885      -2.74497772      -0.00021381      -0.00004212       0.00015449
C       -0.38036485      -3.65607462      -4.14288973      -0.00031178       0.00048991      -0.00006201
C        0.75942550      -2.85499765      -4.72309706      -0.00022164      -0.00020113       0.00009069
C        2.06811204      -3.30186074      -4.58246181       0.00027878      -0.00027947      -0.00020312
C        3.12170180      -2.55775504      -5.08417975      -0.00034669      -0.00087150       0.00076073
C        2.87778870      -1.35373240      -5.72502246      -0.00001322       0.00055018      -0.00002391
C        1.57800266      -0.89574692      -5.85753583      -0.00004796       0.00099992       0.00028626
C        0.52403266      -1.64182669      -5.35694273      -0.00020956       0.00068325      -0.00009435
H       -0.63766166      -2.53194756      -2.58410787      -0.00037481       0.00017783       0.00021512
H       -1.32322796      -3.38410093      -4.63994717       0.00024639       0.00037195       0.00010180
H       -0.20668488      -4.72703548      -4.28542919      -0.00023188       0.00023856      -0.00015254
H        2.25496414      -4.23974939      -4.07791610      -0.00008582       0.00018332       0.00048260
H        4.13486023      -2.91907350      -4.97816769       0.00022122      -0.00019632       0.00028973
H        3.69982689      -0.77305501      -6.11720689      -0.00002347      -0.00008390      -0.00031330
H        1.38247687       0.04632226      -6.34894874       0.00030444      -0.00047177      -0.00001660
H       -0.48924561      -1.27915052      -5.45947177       0.00060572       0.00017133       0.00020058
75
Properties=species:S:1:pos:R:3:forces:R:3 charge=0 unpaired=0 uhf=0 endpoint_role="alcohol encounter complex; requires optimization" energy=-2551.926825016457 pbc="F F F"
Ru      -0.02535360       0.06461323       0.21293033       0.00056931      -0.00112120       0.00167063
N       -0.14833157      -2.15953353       0.29795025      -0.00031852      -0.00075588      -0.00213678
C        1.10298756      -2.88427283       0.18368176       0.00006540      -0.00044997      -0.00213716
C        2.17050429      -2.16095365      -0.64318697       0.00001538       0.00046634      -0.00155707
P        2.21544987      -0.36193157      -0.19413588      -0.00000062       0.00007751       0.00015628
C        3.20804394       0.36439130      -1.61297208      -0.00061902       0.00148266       0.00047738
C        4.29698423      -0.55938313      -2.15713491      -0.00044934       0.00200762      -0.00011934
C        2.29499171       0.82764443      -2.74179794      -0.00038740       0.00268500       0.00076736
C        3.52564233      -0.20940773       1.13927284       0.00028692       0.00009729      -0.00028018
C        3.28884432      -1.15697817       2.30946870       0.00049236      -0.00066476      -0.00089449
C        3.53067407       1.23485049       1.63619566      -0.00059010      -0.00008259       0.00034808
C       -0.48753580      -1.76060376       1.49367188      -0.00077445      -0.00219279      -0.00162091
C       -1.94979727      -1.49813458       1.82496378      -0.00047777      -0.00116725      -0.00075649
P       -2.25556407       0.05442484       0.87564471       0.00081627      -0.00032441       0.00017425
C       -3.00517150       1.27072658       2.07806781       0.00021414      -0.00039571       0.00004492
C       -3.23279161       2.56322529       1.29494146      -0.00293681      -0.00111639      -0.00036572
C       -2.09312121       1.53871985       3.26927680       0.00175903       0.00201312      -0.00162692
C       -3.71133927      -0.37372406      -0.23332604       0.00195010      -0.00011412      -0.00104334
C       -5.04652295      -0.51938112       0.49482009       0.00095580       0.00563019      -0.00165796
C       -3.40959234      -1.65437413      -1.01520717       0.00018841      -0.00333112       0.00319246
H        1.50640480      -3.11313032       1.18453105      -0.00059614      -0.00088228      -0.00197594
H        0.86036158      -3.83612078      -0.30804452       0.00064861      -0.00028507      -0.00278810
H        3.14377630      -2.64300689      -0.51805125       0.00028839       0.00059206      -0.00309130
H        1.89287502      -2.19812620      -1.70237994      -0.00039899       0.00166792      -0.00151658
H        3.68502749       1.25487597      -1.18444991      -0.00072559       0.00114505       0.00129271
H        4.93287956       0.00190339      -2.84069854       0.00036984       0.00269715       0.00120379
H        3.86245018      -1.38684493      -2.71296327      -0.00028417       0.00292689      -0.00159370
H        4.92812274      -0.96082752      -1.36720762      -0.00123529       0.00060161      -0.00021273
H        2.87092392       1.35556486      -3.50110547      -0.00016560       0.00401349       0.00184309
H        1.80884064      -0.02000103      -3.22145975       0.00000452       0.00334073      -0.00076603
H        1.52908874       1.50058517      -2.35318875      -0.00076130       0.00189718       0.00138718
H        4.49522741      -0.44326078       0.68114074       0.00040668       0.00078302      -0.00038946
H        4.01680986      -0.96349522       3.09714171       0.00011058      -0.00080072      -0.00050883
H        3.38803950      -2.19862082       2.00900616       0.00108780      -0.00040111      -0.00163207
H        2.29393281      -0.99259943       2.72214914       0.00021236      -0.00148861      -0.00118216
H        2.54253331       1.49136533       2.01659653      -0.00104481      -0.00057273      -0.00047931
H        4.26059901       1.35983326       2.43487737      -0.00140191      -0.00011695       0.00109340
H        3.77339315       1.93486655       0.83924327      -0.00004925       0.00042075       0.00095027
H        0.30595358       0.43669813       1.69220126       0.00059187      -0.00369958       0.00227125
H        0.13428468      -2.04810520       2.36037051      -0.00132316      -0.00434557      -0.00197170
H       -2.08065713      -1.34796969       2.89844006       0.00057575      -0.00108469      -0.00056327
H       -2.56995084      -2.33771867       1.49926007      -0.00159722      -0.00061037      -0.00016316
H       -3.95467790       0.86352000       2.44389889       0.00150977      -0.00216285       0.00144387
H       -3.95645634       2.42593777       0.49307014      -0.00487439      -0.00221322       0.00160146
H       -3.59355753       3.35338678       1.95171377      -0.00181695      -0.00064591      -0.00024506
H       -2.28616016       2.88128757       0.85331492      -0.00434631      -0.00072467      -0.00307425
H       -2.53231629       2.30926555       3.90171118       0.00091574      -0.00006547       0.00036384
H       -1.94736187       0.64733348       3.87675263       0.00682377       0.00212999      -0.00268850
H       -1.12132368       1.88516875       2.92209653      -0.00037297       0.00569566      -0.00379660
H       -3.76991295       0.46127826      -0.94473637       0.00465909      -0.00168264      -0.00317637
H       -4.95555755      -1.21368798       1.32955837      -0.00067511       0.01199202       0.00389789
H       -5.41972233       0.43160802       0.86563211       0.00153061       0.00902884      -0.00968779
H       -5.78751166      -0.91912979      -0.19696052       0.00169696       0.00089340       0.00037441
H       -2.34514886      -1.75078580      -1.21861520       0.00075466      -0.00849077       0.00715918
H       -3.71976687      -2.53519786      -0.45605270      -0.00577687      -0.00039195       0.00473510
H       -3.94418131      -1.65536553      -1.96396990       0.00359311      -0.00383292       0.00119877
C       -0.46350187      -0.13322428      -1.56224887       0.00045747      -0.00183708       0.00119685
O       -0.79800036      -0.27626300      -2.66239948       0.00091529      -0.00523254       0.00259266
H        0.10792569       1.59290308      -0.02382259       0.00066168      -0.00099332       0.00392809
O       -0.44784047      -3.66537006      -2.51594289       0.00622335      -0.01288991      -0.00140358
C       -0.50245995      -3.65069125      -3.92842467      -0.00217906       0.00158469      -0.00066312
C        0.63918388      -2.88251574      -4.54905213      -0.00142606       0.00114883      -0.00007235
C        1.94100999      -3.35323212      -4.41681042      -0.00155461       0.00128343       0.00244172
C        2.99881786      -2.65752938      -4.97511369      -0.00058273       0.00089320       0.00375899
C        2.76644544      -1.47887941      -5.66605377       0.00057452       0.00022639       0.00229967
C        1.47434397      -0.99743948      -5.79007163       0.00070397      -0.00048942      -0.00127968
C        0.41558070      -1.69529343      -5.23275727      -0.00030047      -0.00005355      -0.00254868
H       -0.49119126      -2.75460081      -2.19667432       0.00934638      -0.01598053       0.00762524
H       -1.46257604      -3.23861829      -4.27056113      -0.00206149       0.01006158       0.00972779
H       -0.45032546      -4.70366172      -4.22499979      -0.00996686       0.00439030      -0.01122449
H        2.11641244      -4.27217373      -3.87457101      -0.00222771       0.00150076       0.00305907
H        4.00588893      -3.03810217      -4.87736752      -0.00064562       0.00109005       0.00536706
H        3.59158406      -0.93572883      -6.10315768       0.00128530      -0.00055323       0.00274355
H        1.28832444      -0.07318294      -6.31762936       0.00190484      -0.00146916      -0.00343907
H       -0.59076144      -1.31324119      -5.32770477      -0.00022134      -0.00075170      -0.00605804
75
Properties=species:S:1:pos:R:3:forces:R:3 charge=0 unpaired=0 uhf=0 endpoint_role="alcohol encounter complex; requires optimization" energy=-2551.929346506018 pbc="F F F"
Ru      -0.00438362       0.05331366       0.13846142       0.00173688      -0.00218437       0.00255018
N       -0.06524306      -2.18041078       0.20533548       0.00088057      -0.00216617      -0.00322364
C        1.21614038      -2.86112322       0.18178880       0.00197491      -0.00048084      -0.00168776
C        2.27629522      -2.13331846      -0.64552933       0.00102144       0.00108249      -0.00166999
P        2.25735242      -0.32676689      -0.22763651       0.00104655       0.00059788       0.00058391
C        3.27366407       0.39689597      -1.63219533       0.00029164       0.00257869       0.00099630
C        4.38620987      -0.52042696      -2.13870122       0.00019687       0.00291590       0.00009068
C        2.38189888       0.83034571      -2.78893797       0.00093815       0.00494987       0.00138878
C        3.52609466      -0.11796190       1.13770719       0.00160422       0.00122328      -0.00022252
C        3.28078557      -1.04799210       2.32029280       0.00285729      -0.00011137      -0.00108346
C        3.48322306       1.33519607       1.60567308      -0.00053947       0.00092649       0.00067060
C       -0.49187189      -1.79325254       1.37779853      -0.00124647      -0.00467062      -0.00311894
C       -1.97952787      -1.58795502       1.61892550      -0.00105177      -0.00320561      -0.00323239
P       -2.25436094       0.03222733       0.78073818       0.00179972      -0.00189711      -0.00165620
C       -2.96546239       1.17225455       2.08230437       0.00080933      -0.00241323      -0.00156700
C       -3.14052768       2.53670298       1.41696324      -0.00322891      -0.00306208      -0.00197902
C       -2.06721058       1.30187033       3.30687563       0.00300370       0.00052299      -0.00349373
C       -3.75093117      -0.28418724      -0.31421965       0.00315890      -0.00047983      -0.00339594
C       -5.03747362      -0.59785671       0.44862025       0.00180262       0.00824610      -0.00214980
C       -3.45637138      -1.41394970      -1.30118799      -0.00020055      -0.00554605       0.00145894
H        1.58930705      -3.01598062       1.20774318       0.00074367       0.00047395      -0.00106047
H        1.03320267      -3.85050796      -0.25932221       0.00405036      -0.00095885      -0.00154053
H        3.26042522      -2.58388476      -0.49305177       0.00173285       0.00150377      -0.00509062
H        2.01467987      -2.20026983      -1.70736157      -0.00115740       0.00248204      -0.00124333
H        3.73037695       1.29902795      -1.20638493       0.00050260       0.00185560       0.00229417
H        5.03332371       0.04165205      -2.81101044       0.00164801       0.00365814       0.00209012
H        3.97506938      -1.35771569      -2.69769129       0.00002311       0.00446389      -0.00205051
H        5.00126495      -0.90687264      -1.32885624      -0.00113690       0.00055121      -0.00003590
H        2.97278642       1.33094699      -3.55527839       0.00146503       0.00706385       0.00313487
H        1.89780793      -0.02936335      -3.24884531       0.00145066       0.00609142      -0.00122075
H        1.61494639       1.52009409      -2.43473119       0.00045632       0.00388582       0.00242868
H        4.51274515      -0.33669061       0.70940882       0.00182473       0.00294001      -0.00061088
H        3.97055452      -0.80949329       3.12957575       0.00182717       0.00061620      -0.00044505
H        3.43051678      -2.09139585       2.04840903       0.00510853       0.00046932      -0.00205022
H        2.26534755      -0.91258178       2.69199208       0.00230870      -0.00254614      -0.00166560
H        2.48228425       1.57115674       1.96506057      -0.00134899      -0.00030414      -0.00075420
H        4.19636661       1.49611248       2.41299903      -0.00202954       0.00122709       0.00191127
H        3.71916764       2.02601043       0.79864932       0.00009976       0.00183653       0.00162684
H        0.30239006       0.40467923       1.62426167       0.00123432      -0.00672728       0.00354917
H        0.08762956      -2.05508064       2.28065286      -0.00266376      -0.00726085      -0.00300394
H       -2.20381417      -1.54932253       2.68665738      -0.00067514      -0.00286027      -0.00310527
H       -2.54621677      -2.40211638       1.15877353      -0.00239728      -0.00258692      -0.00268069
H       -3.93355515       0.77110990       2.40239736       0.00245178      -0.00514565      -0.00009681
H       -3.85996094       2.49570588       0.60069218      -0.00697057      -0.00420010       0.00146029
H       -3.48378435       3.27595294       2.13921291      -0.00014353      -0.00214969      -0.00139939
H       -2.17944988       2.86208735       1.01412474      -0.00528129      -0.00291251      -0.00674282
H       -2.49633145       2.02574757       3.99879109       0.00143428      -0.00345663      -0.00030608
H       -1.96051838       0.35534131       3.83376901       0.01072190       0.00024969      -0.00567249
H       -1.07928040       1.64902003       3.01126075      -0.00003546       0.00680232      -0.00587058
H       -3.87962427       0.64380573      -0.88734359       0.00706662      -0.00195848      -0.00662154
H       -4.87861807      -1.41075187       1.15619914       0.00050664       0.01872770       0.00992667
H       -5.42160313       0.26609545       0.98407781       0.00075252       0.01620498      -0.01613737
H       -5.80311822      -0.91338320      -0.25963376       0.00382479      -0.00241957       0.00075638
H       -2.44304394      -1.34308104      -1.68610075      -0.00248549      -0.00690379      -0.00493334
H       -3.57204747      -2.38941518      -0.83230704       0.00293090      -0.00279983       0.00783950
H       -4.14445920      -1.36277619      -2.14429811      -0.00501683      -0.01132260       0.00509715
C       -0.41140177      -0.03867631      -1.65698531       0.00229030      -0.00268432       0.00166898
O       -0.72933517      -0.00700583      -2.76999343       0.00315481      -0.00772164       0.00336577
H        0.12002255       1.58714692      -0.06663415       0.00189235      -0.00187744       0.00738027
O       -0.46359238      -3.82071974      -2.31756769      -0.00271462      -0.01137286      -0.00290323
C       -0.63015201      -3.61403409      -3.70327475      -0.00761560       0.00477527       0.00035687
C        0.52482986      -2.89310037      -4.35876063      -0.00517343       0.00250527       0.00153831
C        1.81696135      -3.39093111      -4.22960440      -0.00549972       0.00251314       0.00655860
C        2.87889969      -2.75721860      -4.85103222      -0.00306460       0.00123517       0.00934032
C        2.66077272      -1.61512646      -5.60505351      -0.00009893      -0.00042588       0.00628782
C        1.37829495      -1.10826985      -5.72927086       0.00039352      -0.00102704       0.00014629
C        0.31575388      -1.74411950      -5.10890375      -0.00210611       0.00032305      -0.00277655
H       -0.46407231      -2.96707762      -1.85869879       0.00683121      -0.01626189       0.00581081
H       -1.56721299      -3.07601027      -3.90540062      -0.00571758       0.01250342       0.01140460
H       -0.71430815      -4.62046316      -4.13098256      -0.01528294       0.00884210      -0.00712534
H        1.97998832      -4.28342072      -3.64116653      -0.00636446       0.00282270       0.00717095
H        3.87783661      -3.15979303      -4.75595012      -0.00323473       0.00154782       0.01246894
H        3.48850227      -1.12030664      -6.09212224       0.00114133      -0.00371823       0.00524339
H        1.20276835      -0.21226541      -6.30689524       0.00324863      -0.00281522      -0.00338344
H       -0.68249991      -1.34251858      -5.20668658      -0.00175811      -0.00058008      -0.00958911
75
Properties=species:S:1:pos:R:3:forces:R:3 charge=0 unpaired=0 uhf=0 endpoint_role="alcohol encounter complex; requires optimization" energy=-2551.2628816147076 pbc="F F F"
Ru       0.02203737       0.09171087       0.15568959      -0.01225118       0.02374425      -0.06728677
N       -0.02618785      -2.12403286       0.07666258      -0.03887846      -0.08343846      -0.00687409
C        1.24732917      -2.82451849       0.07398422       0.01347598       0.00537936       0.03820426
C        2.32622184      -2.08596039      -0.71081742      -0.00836941       0.01272912       0.00939429
P        2.28884071      -0.29156648      -0.25120357      -0.01387923       0.01555170      -0.00008041
C        3.31137824       0.43166304      -1.65178313       0.00159329       0.00939307       0.00083326
C        4.43781551      -0.48272513      -2.13519176       0.00017802       0.01047978      -0.00067205
C        2.41860596       0.82740890      -2.82165199       0.00178270       0.00856680       0.00026828
C        3.53219715      -0.08811505       1.13308288       0.00047377       0.00703482      -0.00220722
C        3.25651112      -1.01828147       2.30899070       0.00898615       0.00196829      -0.00398750
C        3.45914274       1.36745034       1.58898866       0.00973572       0.00399910       0.00879399
C       -0.49617036      -1.78530879       1.25711740      -0.00844934      -0.10927841      -0.04563648
C       -2.00020422      -1.63939641       1.44186448       0.00105686      -0.00630265      -0.00463003
P       -2.26959108       0.03340473       0.71735103       0.02542285      -0.00294107       0.00939053
C       -2.95688603       1.11048537       2.08166474      -0.00066968      -0.00090681       0.00193552
C       -3.07459364       2.51640938       1.49414907      -0.00629134      -0.00044752       0.00403405
C       -2.05953078       1.13175497       3.31274264      -0.00467856       0.00455209       0.00483387
C       -3.78745078      -0.21243479      -0.37430575       0.01751588       0.00175148       0.00356779
C       -5.03225185      -0.64801915       0.40096041       0.01011597       0.00901744      -0.00882163
C       -3.50637804      -1.22197454      -1.48831364       0.01676953       0.00049844       0.00379754
H        1.58889032      -3.00784319       1.10431525       0.03305354       0.02427942       0.04077761
H        1.06776695      -3.80176090      -0.39460102       0.05503120      -0.01768663       0.06293290
H        3.30708886      -2.54011638      -0.54875977      -0.00405771       0.01934149       0.00390334
H        2.08405956      -2.12785891      -1.77864485      -0.00500590      -0.00649642       0.00719200
H        3.75646766       1.34573929      -1.24076729       0.00053153       0.00956721      -0.00119202
H        5.09764688       0.08238236      -2.79228596       0.00400411       0.00984513       0.00226840
H        4.04246235      -1.32057951      -2.70463980       0.00162267       0.01083929      -0.00240300
H        5.03684644      -0.86834172      -1.31304928      -0.00308651       0.00760896       0.00005998
H        3.01904129       1.22692087      -3.63809351      -0.00102809       0.01213396       0.00057956
H        1.86811366      -0.03347356      -3.20085921       0.01123094       0.00477264      -0.00490033
H        1.70633492       1.59070362      -2.51039636      -0.00294158       0.00352628       0.00143591
H        4.53091991      -0.30120482       0.73135409      -0.00108864       0.00601723      -0.00789832
H        3.91831859      -0.77421028       3.13940499       0.00835735      -0.00227140      -0.00163308
H        3.41909342      -2.06143005       2.04300286       0.00967777       0.00326989      -0.00837018
H        2.22877282      -0.88848202       2.64783756       0.00843423      -0.00540786      -0.00291178
H        2.44769887       1.58695443       1.92959190       0.01067466       0.00556194       0.00968208
H        4.15641509       1.55140916       2.40444754       0.00927946      -0.00300930       0.01170153
H        3.69204537       2.05288864       0.77619894       0.01366575       0.00859627       0.01339003
H        0.32236285       0.34520507       1.65550816      -0.01567506      -0.06053007      -0.02284866
H        0.04653068      -2.10852907       2.16171888       0.00543121       0.00118235       0.00339819
H       -2.29129842      -1.70263075       2.49221310       0.02501558       0.00124971       0.00224433
H       -2.50855852      -2.42535624       0.87557516      -0.03502586       0.01072643       0.00594457
H       -3.94121493       0.73014092       2.37409185      -0.00044621      -0.00375147       0.00028821
H       -3.77954129       2.54654053       0.66462190      -0.01101880      -0.00013988       0.00824258
H       -3.40615389       3.22474805       2.25152139      -0.00102453       0.00151346       0.00546386
H       -2.09574173       2.83084492       1.12602688      -0.00954093       0.00021821      -0.00320349
H       -2.47226019       1.81459977       4.05397718      -0.00570357      -0.00102268       0.01016183
H       -1.97505096       0.14684466       3.76854907       0.00338032       0.00279156       0.00059435
H       -1.06364802       1.47627896       3.04183555      -0.00633430       0.00869272       0.00471280
H       -3.97074912       0.76409369      -0.84122960       0.02368772       0.00252286       0.00239679
H       -4.82501035      -1.53127892       1.00367942       0.00517284       0.02004614       0.00684235
H       -5.41349531       0.13703925       1.04825695       0.00361073       0.01792439      -0.02520654
H       -5.82285090      -0.90212373      -0.30455013       0.01699793      -0.00099580      -0.01252664
H       -2.53209292      -1.05341037      -1.94143768       0.01677124       0.02362638       0.01294239
H       -3.53880841      -2.24445560      -1.11552266       0.03100210       0.00424391       0.01295785
H       -4.26078796      -1.12941537      -2.26944489       0.01111857      -0.00509352       0.00732055
C       -0.43157241       0.31562872      -1.62470556      -0.02591901       0.00114282       0.00017071
O       -0.83065333       0.72044826      -2.63285734      -0.01070564      -0.12759381      -0.08817898
H        0.17187925       1.63284459       0.09125992       0.01848289       0.01715931      -0.01111736
O       -0.58525238      -3.91865904      -2.07041014       0.88243503       0.12943236       1.33625568
C       -0.59535343      -3.62416377      -3.43887034      -0.14632858       0.60911680       0.38082873
C        0.59249222      -3.09020297      -4.20195072       0.06938065       0.21531813       0.21569177
C        1.89942444      -3.54373246      -4.16494678       0.02836643       0.08318433       0.10426603
C        2.88368645      -2.82732269      -4.83098098       0.03716479      -0.00175294      -0.01351484
C        2.56176992      -1.69453556      -5.55938106       0.07648812      -0.00276039      -0.03159450
C        1.23858809      -1.30451599      -5.68605126       0.08957220       0.02881178      -0.05520781
C        0.26427839      -2.01303056      -5.02188346       0.09447144       0.10867580       0.04116936
H       -0.55134755      -3.09044809      -1.49280473       0.02808783      -0.82699876      -0.78249310
H       -1.23942357      -2.72355899      -3.44176056      -0.91243322      -1.00171220      -0.99333070
H       -0.84189115      -4.59785887      -3.89812089      -0.74995555       0.63197248      -0.10746569
H        2.15076160      -4.43079828      -3.60024153       0.00558330       0.07135428       0.09510650
H        3.91434740      -3.14235152      -4.75727954       0.02894568      -0.04075591      -0.04185643
H        3.33565266      -1.11112936      -6.03278976       0.08741927      -0.02422037      -0.03507261
H        0.96177238      -0.43211125      -6.25795963       0.08618942       0.00024287      -0.09712026
H       -0.77448507      -1.71973163      -5.10710865       0.09334168       0.10433982      -0.00573363
75
Properties=species:S:1:pos:R:3:forces:R:3 charge=0 unpaired=0 uhf=0 endpoint_role="alcohol encounter complex; requires optimization" energy=-2550.904937106425 pbc="F F F"
Ru       0.03929959       0.08012204       0.25647421       0.00137038       0.00501462       0.01300993
N        0.00093621      -2.02396037       0.08186438      -0.00203710      -0.00553841       0.00970621
C        1.21481897      -2.82492394       0.01362152       0.00007000      -0.00023448       0.00065907
C        2.31778462      -2.08630809      -0.73167303      -0.00529658       0.01051223       0.00296468
P        2.30186116      -0.29992912      -0.23990971      -0.00025877       0.00838942       0.00804714
C        3.29720080       0.43216528      -1.64817306      -0.00908242       0.00987926       0.00323350
C        4.42384552      -0.48301459      -2.13431634      -0.00894628       0.01091291       0.00082597
C        2.39555497       0.82179336      -2.81319641      -0.01487203       0.00311465       0.00595336
C        3.54186221      -0.10200639       1.13858481       0.00626946       0.00142166       0.00303306
C        3.25350998      -1.03545466       2.30821621       0.00558288      -0.00510029      -0.00270791
C        3.46738481       1.35416138       1.59257408       0.01244960      -0.00085206       0.00986385
C       -0.48982368      -1.66978679       1.31075743       0.00165761      -0.00119840       0.00826664
C       -2.00288016      -1.62813345       1.46034764       0.00151050       0.00424190       0.00606042
P       -2.29029981       0.04294054       0.72259494       0.00624540       0.00491889       0.00863124
C       -2.96476218       1.12182045       2.08479292      -0.00442977       0.00314984       0.00385354
C       -3.08071853       2.52368686       1.48691830      -0.00598366       0.00235892       0.00354370
C       -2.06183775       1.14613469       3.31158471      -0.00556817       0.00478246       0.00403806
C       -3.78354731      -0.21193543      -0.38436229       0.02152480       0.00370750      -0.00703275
C       -5.03159937      -0.63322319       0.39760442       0.01435183       0.01194137      -0.01660767
C       -3.49767785      -1.23877616      -1.48103763       0.02670299      -0.00026745       0.00012228
H        1.53686019      -3.05420465       1.03582805       0.00002092      -0.01430502      -0.00294276
H        0.98818114      -3.76753270      -0.50017876       0.00581302       0.00557613      -0.01118585
H        3.29110636      -2.55700906      -0.57573543      -0.00360478       0.01114923      -0.00810096
H        2.06706726      -2.09179351      -1.79675957      -0.01490241       0.01552535       0.00506353
H        3.74379841       1.34820840      -1.24027771      -0.00992773       0.01203286      -0.00095530
H        5.08182272       0.08380882      -2.79142707      -0.00749044       0.01212210       0.00297103
H        4.02477032      -1.31798819      -2.70517741      -0.01043867       0.01275148      -0.00084326
H        5.02481169      -0.87072411      -1.31437165      -0.01033664       0.00796446       0.00028526
H        2.99357701       1.19445936      -3.64411983      -0.01953263      -0.01426664      -0.00442047
H        1.81807912      -0.03291244      -3.16540743      -0.02566834       0.00432833       0.02249330
H        1.70278286       1.60520789      -2.50895959      -0.00572225       0.01287900      -0.00001058
H        4.54025416      -0.31529056       0.73893490       0.00461379       0.00126718      -0.00110394
H        3.91674835      -0.80003298       3.13898061       0.00598546      -0.01292066      -0.00139703
H        3.40851827      -2.07804781       2.03614732       0.00429279      -0.00286808      -0.01041071
H        2.22699686      -0.89521521       2.64659247       0.00580576      -0.00548667      -0.00209041
H        2.45614866       1.57640604       1.93277879       0.01376636       0.00278324       0.01066523
H        4.16480234       1.53709430       2.40704334       0.01188022      -0.00749854       0.01137055
H        3.70171584       2.03841582       0.77967360       0.01790566       0.00228803       0.01428885
H        0.34843545       0.42212544       1.70650528       0.00160801      -0.00108410       0.01181998
H        0.04068227      -2.12761403       2.15587834      -0.00083573      -0.00485472       0.00793615
H       -2.31591351      -1.69571404       2.50433096      -0.00113589       0.00227945       0.00420084
H       -2.47907855      -2.43254537       0.88827238       0.00183982       0.00675971       0.00371631
H       -3.94815219       0.74193922       2.37973119      -0.00425723       0.00006390       0.00057441
H       -3.78585121       2.54851628       0.65727285      -0.00970863       0.00252712       0.00733646
H       -3.41232030       3.23513656       2.24040629      -0.00138670       0.00411771       0.00367659
H       -2.10092021       2.83539420       1.11796345      -0.00749825       0.00073137      -0.00146464
H       -2.47827722       1.82741300       4.05109463      -0.00999419      -0.00419372       0.00932571
H       -1.97124653       0.16286551       3.76827167       0.00429622       0.00364574      -0.00173988
H       -1.06931566       1.49822470       3.03807305      -0.00919800       0.01463741       0.00499209
H       -3.96022698       0.75868296      -0.86496199       0.02876807       0.00137023      -0.01074727
H       -4.82777276      -1.50780628       1.01463171       0.00825539       0.02409205      -0.00177354
H       -5.41364572       0.16289793       1.03082685       0.00946782       0.02130382      -0.03615063
H       -5.81883777      -0.89847089      -0.30685486       0.02320648       0.00043288      -0.02030700
H       -2.51616851      -1.11299497      -1.93521634       0.02605962      -0.00225618       0.00187901
H       -3.56265136      -2.25854266      -1.10240765       0.02689302       0.00373963       0.00546001
H       -4.23651255      -1.14337756      -2.27567931       0.03060547      -0.00555653      -0.00351864
C       -0.41492336       0.34843022      -1.58363874      -0.01796068       0.02736184      -0.00674509
O       -0.84745727       0.90464594      -2.48529749      -0.00533861      -0.03461838       0.03470625
H        0.16417046       1.62790644       0.15440876       0.01009422       0.00408152       0.03274133
O       -1.54430272      -4.05236697      -3.47894370      -0.05086657      -0.04715616      -0.19699831
C       -0.42394296      -4.28933987      -3.85878769       0.00021948      -0.01283510      -0.02657716
C        0.54414192      -3.36812685      -4.45665273       0.00312586      -0.03192012      -0.02670013
C        1.89931581      -3.66582423      -4.31512686       0.00379169      -0.02199540      -0.02125810
C        2.86080317      -2.82086725      -4.83427565      -0.00313275      -0.00496934      -0.00681018
C        2.47637482      -1.67536439      -5.51333563      -0.01482340       0.00362732       0.01405027
C        1.13195284      -1.35444507      -5.62993908      -0.01690768      -0.00992206      -0.00144086
C        0.16715022      -2.18775849      -5.09663338      -0.00751499      -0.03576040      -0.02848895
H       -0.63227302      -2.22568839      -0.69669211       0.00082986       0.01189952       0.00269532
H       -0.23531502      -1.68550966      -2.43624464       0.02477961      -0.03691003      -0.00036564
H       -0.00796569      -5.32092607      -3.74943333      -0.00167742       0.05767301       0.16204421
H        2.19070871      -4.55220576      -3.76712703       0.01152995      -0.02936102      -0.03597864
H        3.90864593      -3.06044714      -4.71974606       0.00078233       0.01006531       0.00116140
H        3.22672929      -1.02919716      -5.94657229      -0.01977108       0.02567455       0.04447980
H        0.84012082      -0.44275185      -6.13095611      -0.02538640      -0.00151268       0.01633649
H       -0.87999170      -1.93095792      -5.14939172      -0.01247948      -0.05565449      -0.03120877
75
Properties=species:S:1:pos:R:3:forces:R:3 charge=0 unpaired=0 uhf=0 endpoint_role="alcohol encounter complex; requires optimization" energy=-2550.736579711314 pbc="F F F"
Ru       0.03728745       0.10301364       0.10364817       0.04949967      -0.05768365       0.08896512
N        0.16727979      -2.29841154       0.16538214       0.02990313       0.24779545      -0.06806358
C        1.47211290      -2.90770138       0.22751526      -0.03192630       0.08356201      -0.02467309
C        2.45730626      -2.10566838      -0.62045550       0.02556358       0.01142732      -0.00984632
P        2.31181729      -0.28825304      -0.26856192       0.04031675       0.00391367       0.01737736
C        3.34086094       0.41866064      -1.66768191       0.00335213       0.01068376       0.00137042
C        4.50038356      -0.48118702      -2.09823633      -0.00129011       0.00304037      -0.00209176
C        2.48160933       0.77759006      -2.87428159      -0.01055157      -0.00358094       0.00875043
C        3.48980372       0.03487087       1.14050430       0.03195657       0.00596183       0.01227558
C        3.22495752      -0.85895169       2.34669905       0.02297988       0.00200941       0.00592644
C        3.34771901       1.50240649       1.53593729       0.01332943       0.00470332       0.00747987
C       -0.43807744      -1.70366648       1.22628854      -0.03384715       0.00831707       0.02356764
C       -1.95977561      -1.68465388       1.20075184      -0.02883278      -0.01600236       0.01308894
P       -2.26951845       0.03715233       0.60014025      -0.00200663      -0.01377347       0.01465420
C       -2.91087919       0.99860569       2.06697729      -0.00296373       0.00173854       0.00444415
C       -2.93215677       2.46756535       1.64634020       0.00214768       0.00039024      -0.00088300
C       -2.05435115       0.81902888       3.31399102      -0.00694627       0.00381952       0.00689944
C       -3.81452090      -0.12688270      -0.45007518       0.01214310       0.00004811      -0.00533793
C       -4.95504878      -0.85857746       0.26097996       0.00833106       0.00290335      -0.00264732
C       -3.51551608      -0.81500251      -1.77863359       0.01376584      -0.00739455      -0.00244041
H        1.79194022      -2.96591412       1.27373184      -0.04996227       0.05938605      -0.01817378
H        1.42115749      -3.93441815      -0.16530040      -0.11190231       0.08129162      -0.01131640
H        3.48024611      -2.46548187      -0.49623402       0.01572368      -0.01493005       0.00211537
H        2.14936842      -2.21257139      -1.66655819       0.03066758       0.01799640      -0.01276138
H        3.75663766       1.34989433      -1.26107708       0.00735207       0.01278369      -0.00839115
H        5.15951764       0.08464136      -2.75505653      -0.00054808      -0.00013687      -0.00378011
H        4.13587302      -1.34242077      -2.65344853      -0.00778332       0.00637703      -0.00249862
H        5.09080433      -0.82595191      -1.25190892      -0.00190432      -0.00120886      -0.00377281
H        3.11187138       1.11869967      -3.69519157      -0.01780875      -0.02109928      -0.00321441
H        1.90802070      -0.08271291      -3.21957319      -0.01994227      -0.00377146       0.02567531
H        1.79081791       1.58003852      -2.62034827      -0.00359052       0.00362573       0.00262816
H        4.50472266      -0.15059420       0.76981696       0.03347302       0.01225772       0.01458711
H        3.84129829      -0.53558533       3.18358031       0.01384187       0.00069317       0.01236447
H        3.46649555      -1.89820622       2.13458521       0.02400422       0.00225304       0.00485213
H        2.18104003      -0.77842952       2.64852067       0.01984481       0.00118600      -0.00313663
H        2.32478049       1.69763968       1.85753580       0.00984216      -0.00641161       0.00215269
H        4.02794583       1.74033310       2.35096720       0.00540695       0.01519634       0.01006226
H        3.56645687       2.16589024       0.70175992       0.00697430       0.00541836       0.00640591
H        0.31208294       0.32224088       1.57714356       0.03979651       0.03010000       0.07931513
H        0.00088178      -1.98110847       2.19319242      -0.02195980      -0.07098672      -0.00266341
H       -2.39995023      -1.90957479       2.17380008      -0.03906606      -0.01293132       0.00969428
H       -2.32387969      -2.39994330       0.45547164      -0.02143563      -0.01611166       0.00814491
H       -3.92821755       0.65813895       2.28591044      -0.00507408       0.00389327       0.00034288
H       -3.59189098       2.62892208       0.79490304       0.00191911       0.00216260      -0.00023652
H       -3.27561131       3.09351739       2.46765150       0.00580008       0.00417909      -0.00205596
H       -1.92407173       2.77663981       1.36434990       0.00268404      -0.00258657      -0.00159705
H       -2.44829020       1.44205060       4.11464657      -0.01162693      -0.00197891       0.00856431
H       -2.05105038      -0.21301992       3.65790198       0.00097330       0.00256177       0.00390602
H       -1.03058147       1.12685745       3.11223836      -0.00936727       0.01259665       0.01054424
H       -4.12542121       0.90479311      -0.66294237       0.01575002       0.00164508      -0.00783137
H       -4.67331965      -1.88171324       0.50114251       0.00696454       0.00086124       0.00264539
H       -5.26965395      -0.35885449       1.17295830       0.00347792       0.00886210      -0.00455749
H       -5.81517229      -0.90008432      -0.40584027       0.01236451       0.00185580      -0.00951693
H       -2.67756858      -0.35684369      -2.29425262       0.01082045      -0.00693644      -0.01206633
H       -3.27381489      -1.86921701      -1.64798199       0.02002316      -0.00792206       0.00290420
H       -4.38393995      -0.75471791      -2.43361148       0.01039157      -0.01485514       0.00124325
C       -0.34639866       0.47642048      -1.71942145      -0.08783510       0.03573971      -0.24331782
O       -0.69850625       0.95480383      -2.70205440       0.12623797      -0.21010095       0.41401637
H        0.15855870       1.64374118       0.14528073       0.00052962      -0.03663331      -0.01406602
O       -1.92249437      -3.90499250      -3.65265031      -0.00752371      -0.05917339      -0.07651818
C       -0.72669798      -4.03893489      -3.55333451      -0.00825179      -0.01435513      -0.03551768
C        0.31296867      -3.33525265      -4.30465369      -0.00356400      -0.02155524      -0.03582553
C        1.64738566      -3.70397911      -4.15415776      -0.00242638      -0.00951292      -0.01668456
C        2.64483593      -2.96009841      -4.75612572       0.00097913       0.00006499      -0.00142415
C        2.31871242      -1.82477667      -5.48071325      -0.00032683       0.00089401      -0.00088704
C        0.99235591      -1.43814741      -5.61388035      -0.00152784      -0.01268974      -0.02484662
C       -0.00843456      -2.19928770      -5.04764715      -0.00325889      -0.02725013      -0.04403034
H       -0.32174436      -2.40173446      -0.72641258      -0.02727626       0.06094497      -0.01072759
H       -0.27577579      -1.81033604      -2.31625180      -0.06984445      -0.10294121      -0.04157946
H       -0.31009336      -4.76221864      -2.81174803      -0.01488846       0.03633685       0.00708846
H        1.89727819      -4.56703957      -3.55036482      -0.00441656      -0.00787867      -0.01204878
H        3.67939506      -3.25485106      -4.64784913       0.00355930       0.00905693       0.01148793
H        3.10090205      -1.22986579      -5.93023362      -0.00038898       0.01408736       0.01796021
H        0.74517806      -0.52902121      -6.14282645      -0.00435053      -0.01209801      -0.02471289
H       -1.04312136      -1.89374349      -5.09408299      -0.00647480      -0.04013093      -0.05776013
75
Properties=species:S:1:pos:R:3:forces:R:3 charge=0 unpaired=0 uhf=0 endpoint_role="alcohol encounter complex; requires optimization" energy=-2550.5933508843173 pbc="F F F"
Ru      -0.00444602       0.22721770      -0.18199573       0.00626110       0.00071955       0.01145662
N        0.20522166      -2.81530038       0.33113812       0.00353535       0.00552137      -0.00049596
C        1.62754393      -3.03086439       0.34307279       0.00415798       0.00552422       0.01099815
C        2.45980769      -2.10949635      -0.57145284       0.00266753      -0.00016818       0.00554180
P        2.28002388      -0.27922926      -0.33076972       0.00480323      -0.00028513       0.00338815
C        3.37810063       0.40178632      -1.69613651      -0.00057428      -0.00542277      -0.00179873
C        4.56278407      -0.48518312      -2.07719759      -0.00450308      -0.01114542      -0.00335235
C        2.56037190       0.75121016      -2.93375826      -0.00506197      -0.00697859       0.00125891
C        3.41110789       0.10804854       1.11293482       0.00297389       0.00581053       0.00161215
C        3.16504164      -0.75694019       2.34441557       0.00812521       0.00658756       0.00292722
C        3.25434549       1.58097023       1.48148760      -0.00676861       0.00539010      -0.00188322
C       -0.35597497      -1.75508144       1.02985180      -0.00368994      -0.00777647       0.00637926
C       -1.88124071      -1.72027006       0.93233201      -0.00158432      -0.00241347      -0.00913715
P       -2.24675568       0.02887136       0.47663004       0.00208996      -0.00035176      -0.00232967
C       -2.85314066       0.88638583       2.02368663       0.00264079      -0.00017020      -0.00314972
C       -2.82669977       2.38706587       1.73890500       0.00586848      -0.00045419      -0.00343187
C       -2.02458431       0.56752049       3.26179484       0.00387595      -0.00187922      -0.00484816
C       -3.83612604      -0.07101312      -0.50701005       0.00622670      -0.00114535      -0.00684633
C       -4.88720495      -0.98337501       0.12712371       0.01035672      -0.00588455      -0.00570170
C       -3.55678317      -0.50628959      -1.94149770       0.00668127      -0.00053933      -0.00624913
H        1.96234875      -2.96427949       1.38035645      -0.00579482       0.01581162       0.01284714
H        1.79153182      -4.06011756      -0.00141883       0.00745011       0.00289946       0.02286805
H        3.51248509      -2.38754484      -0.47165979       0.00341687       0.00003465       0.00138583
H        2.14033147      -2.27581775      -1.60627195      -0.00308541      -0.00327781       0.00757891
H        3.77008254       1.33959522      -1.28027759       0.00500742      -0.00616731      -0.00526991
H        5.23017160       0.07966704      -2.72717422      -0.00351225      -0.01417526      -0.00509426
H        4.22844693      -1.36506992      -2.62183478      -0.00914317      -0.00953681      -0.00286047
H        5.13570063      -0.79949822      -1.20725623      -0.00405020      -0.01273975      -0.00421341
H        3.21349763       1.07500893      -3.74366560      -0.00693866      -0.02736182      -0.00764795
H        1.98427590      -0.10792139      -3.27600954      -0.02229523      -0.00077005       0.01606114
H        1.87216992       1.56423505      -2.70818065       0.00962686       0.00620024      -0.00329628
H        4.43514513      -0.06728416       0.76051964       0.00379762       0.01138086       0.00160691
H        3.75268521      -0.37786311       3.17937933       0.00236843       0.01414332       0.00325880
H        3.46224457      -1.78832199       2.17287562       0.01769215       0.00895416       0.00632873
H        2.11466336      -0.72113435       2.62834689       0.00744882      -0.00193171       0.00105751
H        2.23189890       1.77228372       1.80579723      -0.00755549      -0.00208719      -0.00018293
H        3.93650392       1.83840868       2.29012668      -0.00757903       0.01357940      -0.00396130
H        3.46601340       2.23325192       0.63696966      -0.01473509       0.00459363      -0.00451640
H        0.24319879       0.22380515       1.31266389       0.00424329      -0.03220867       0.00913381
H       -0.01728592      -1.80792722       2.07011504      -0.01251638      -0.01680959       0.00756721
H       -2.37685240      -2.07059011       1.84317883      -0.01124538      -0.00703138      -0.01672239
H       -2.19383190      -2.34465258       0.08930486       0.00721195       0.00296736      -0.01603258
H       -3.88672226       0.56863686       2.19989620       0.00189724       0.00215048      -0.00316369
H       -3.45457782       2.63926484       0.88532611       0.00693301       0.00102929      -0.00358206
H       -3.18403163       2.94559571       2.60226944       0.00718880       0.00113406      -0.00404064
H       -1.80487355       2.69618202       1.51470127       0.00662947      -0.00253927      -0.00319787
H       -2.40282460       1.14119245       4.10673204       0.00303826      -0.00735214      -0.00176014
H       -2.07567945      -0.48799605       3.51977446       0.00868979      -0.00301796      -0.00945651
H       -0.98394807       0.84291682       3.09980398       0.00243795       0.00325450      -0.00482494
H       -4.22307164       0.95785489      -0.52784224       0.00249564      -0.00308942      -0.00602572
H       -4.56809907      -2.02279665       0.09810649       0.01257991      -0.00448937      -0.01075498
H       -5.10398650      -0.71412341       1.15829034       0.01470804      -0.00919276      -0.00461288
H       -5.81393808      -0.90314383      -0.43986267       0.00818084      -0.00652362      -0.00191621
H       -2.86140882       0.17414228      -2.42685456      -0.00327435       0.00560826      -0.01034849
H       -3.12037704      -1.50393684      -1.98162369       0.01855182       0.00551095      -0.00540360
H       -4.48018933      -0.51853884      -2.51996067       0.00531190      -0.01460991      -0.00300467
C       -0.34957360       0.90268869      -1.90976730      -0.02935981       0.07018846      -0.07302363
O       -0.67816567       1.22745266      -2.95706655       0.02283872       0.03974920       0.14181167
H        0.20549953       1.70790488       0.16239007       0.00857663      -0.00824829       0.04270720
O       -2.03022880      -3.71122454      -3.25739601      -0.01148452      -0.02222461      -0.02872563
C       -0.84054894      -3.91455928      -3.21565098      -0.00912129      -0.00315023      -0.00732285
C        0.19142018      -3.26569526      -4.02156231      -0.00702693      -0.00457175      -0.00456137
C        1.51470156      -3.69748475      -3.93831637      -0.00553386       0.00128471       0.00398348
C        2.50525768      -3.03603355      -4.63872063      -0.00435204       0.00429547       0.00838344
C        2.18662549      -1.92331732      -5.40285994      -0.00536486       0.00338642       0.00697735
C        0.87520941      -1.47574437      -5.47327578      -0.00706746      -0.00376475      -0.00435871
C       -0.12202275      -2.15000297      -4.79773571      -0.00798619      -0.00909092      -0.01071054
H       -0.17590902      -2.90579875      -0.60134628       0.00986222       0.01417981      -0.01724198
H       -0.30589724      -1.48244728      -1.95152642      -0.01360704       0.00487987      -0.01861207
H       -0.42914649      -4.65735888      -2.49307975      -0.01122158       0.01842927       0.01397312
H        1.75886535      -4.55327255      -3.32229750      -0.00549312       0.00215620       0.00568691
H        3.52911858      -3.37860991      -4.58329378      -0.00300526       0.00741613       0.01223212
H        2.96504908      -1.39621095      -5.93600210      -0.00480745       0.00830639       0.01340127
H        0.63688482      -0.59123080      -6.04619070      -0.00888973      -0.00603032      -0.00780385
H       -1.14510648      -1.80501454      -4.81391313      -0.01021912      -0.01647020      -0.01893799
75
Properties=species:S:1:pos:R:3:forces:R:3 charge=0 unpaired=0 uhf=0 endpoint_role="alcohol encounter complex; requires optimization" energy=-2550.7101307376856 pbc="F F F"
Ru      -0.00582991       0.22395384      -0.24082118       0.00046978       0.00064063      -0.00363857
N        0.21188787      -2.79812711      -0.05602490      -0.00030170      -0.00168877      -0.02330605
C        1.62124132      -3.04441090       0.17542571      -0.00048992      -0.00175053      -0.00862483
C        2.52700319      -2.08949320      -0.61378462       0.00199758       0.00032486      -0.00297323
P        2.28270377      -0.27162999      -0.34365298      -0.00050889      -0.00054841      -0.00046602
C        3.40118974       0.42410201      -1.69458576       0.00131489      -0.00072786       0.00020098
C        4.61270024      -0.43765518      -2.05004758       0.00084421      -0.00155801       0.00022537
C        2.61016017       0.75039815      -2.95559214       0.00217380      -0.00015298      -0.00028024
C        3.39941900       0.13162013       1.10781693      -0.00163254       0.00005908       0.00018589
C        3.12084680      -0.72868267       2.33526409      -0.00320419      -0.00002935      -0.00022527
C        3.24745171       1.60805456       1.46623774      -0.00280351      -0.00002062       0.00007859
C       -0.31873862      -1.68830861       0.74473364       0.00223421       0.00478477      -0.01998998
C       -1.86623393      -1.74913034       0.76356248       0.00075483      -0.00100092      -0.01452243
P       -2.25339195       0.01511027       0.44602362       0.00045678       0.00024032      -0.00384206
C       -2.85515655       0.81192956       2.02866670       0.00095004      -0.00208405      -0.00186316
C       -2.79018313       2.32337781       1.81221430       0.00394819      -0.00147503       0.00154208
C       -2.04089646       0.41223090       3.25235669       0.00061219      -0.00702232      -0.00303060
C       -3.86194680      -0.01719497      -0.52082027      -0.00074083       0.00163462      -0.00250359
C       -4.87447139      -1.00970344       0.04908999       0.00380469      -0.00311670      -0.00199524
C       -3.59835779      -0.32264186      -1.99156151      -0.00284650       0.00498769      -0.00409655
H        1.86703224      -2.99482114       1.25064003      -0.00635497      -0.00168524      -0.00602595
H        1.84922976      -4.06200272      -0.16528209       0.00398142      -0.00121638      -0.00786105
H        3.56831023      -2.35133075      -0.40955737       0.00226755       0.00092483      -0.00170636
H        2.32284899      -2.24232933      -1.67974859       0.00371581       0.00159663      -0.00399255
H        3.76306811       1.37227300      -1.27832810       0.00193127      -0.00110269       0.00037943
H        5.28130512       0.14041344      -2.68690939       0.00231202      -0.00181586       0.00147241
H        4.31238085      -1.32574966      -2.60119686       0.00044592      -0.00065409      -0.00109205
H        5.17446834      -0.74134437      -1.16976591      -0.00035995      -0.00323087       0.00041576
H        3.27247746       1.13952371      -3.72816253       0.00303228      -0.00073515      -0.00005006
H        2.11605576      -0.13782332      -3.34846413       0.00193352      -0.00018155      -0.00080046
H        1.85680628       1.50761481      -2.74232802       0.00241258       0.00062083      -0.00089690
H        4.42878108      -0.05231047       0.77189648      -0.00121854       0.00029572       0.00101540
H        3.69444865      -0.35746988       3.18396022      -0.00490647       0.00017567       0.00091503
H        3.40387210      -1.76538922       2.16742094      -0.00299742      -0.00005670       0.00003167
H        2.06363443      -0.68109628       2.59213998      -0.00380992      -0.00057546      -0.00232257
H        2.22432663       1.80558064       1.78254588      -0.00275828      -0.00132299       0.00082861
H        3.92507575       1.86953383       2.27762561      -0.00276169       0.00107593      -0.00031475
H        3.46382241       2.25480372       0.61846137      -0.00452640       0.00025017      -0.00019546
H        0.24523992       0.58122781       1.22535380       0.00038422       0.01615174      -0.00244575
H        0.02774164      -1.82068355       1.79537027       0.00031795       0.00055832      -0.01812853
H       -2.30400680      -2.18426383       1.66968886       0.00219422      -0.00807705      -0.01663328
H       -2.20893112      -2.32314946      -0.10535741       0.00167814       0.00388913      -0.01843226
H       -3.89865766       0.51057196       2.18232830       0.00028040      -0.00050418      -0.00282100
H       -3.39972480       2.62659977       0.96156778       0.00476830       0.00163752       0.00190194
H       -3.14420311       2.85408877       2.69451779       0.00506712      -0.00202195       0.00242518
H       -1.75913855       2.61609672       1.61160718       0.00452306      -0.00301052       0.00234837
H       -2.39590520       0.96013109       4.12437241       0.00199987      -0.01061314      -0.00006383
H       -2.12678622      -0.65243522       3.45996580       0.00057109      -0.00810060      -0.00784311
H       -0.99037943       0.65484299       3.09879402       0.00076525      -0.00723472      -0.00250853
H       -4.27227280       0.99841821      -0.44363390      -0.00316424       0.00066246       0.00105658
H       -4.54168392      -2.03331991      -0.10809374       0.00598661      -0.00224323      -0.00720414
H       -5.04453362      -0.86134964       1.11319661       0.00845826      -0.00746377       0.00001412
H       -5.82769115      -0.88559887      -0.46358834       0.00115397      -0.00325383       0.00254425
H       -2.95396167       0.43497519      -2.43295975      -0.01378790       0.01287718      -0.00719721
H       -3.12870452      -1.29933384      -2.11258455       0.00697889       0.00967249      -0.00620147
H       -4.53549753      -0.33193722      -2.54753089      -0.00514246      -0.00553054       0.00016606
C       -0.35144274       0.50146785      -2.03012539      -0.00172926      -0.01050260      -0.00495407
O       -0.61638188       0.69202169      -3.15539335      -0.00145470      -0.01764549      -0.00873407
H        0.17353736       1.78525311      -0.28840701       0.00135164       0.00519468      -0.02192418
O       -1.96859436      -3.37777935      -2.76930194       0.00021691       0.01248215       0.01688024
C       -0.83442287      -3.77200645      -2.91691004       0.00193546       0.01027112       0.01765171
C        0.18116569      -3.16546254      -3.77710536       0.00061048       0.00815198       0.01440138
C        1.48043554      -3.67768686      -3.79217331      -0.00033145       0.00437781       0.00872995
C        2.44709575      -3.09345462      -4.58830466      -0.00231257      -0.00010364       0.00222002
C        2.12467004      -2.00218739      -5.38323820      -0.00342127      -0.00138720       0.00070327
C        0.83247686      -1.49600654      -5.38594634      -0.00280921       0.00094850       0.00420777
C       -0.13576327      -2.07169266      -4.58626931      -0.00076581       0.00581444       0.01147541
H       -0.30991345      -3.64759894       0.15598993      -0.00794926      -0.05689918       0.07000730
H       -0.28501148      -0.75160840      -1.45392544       0.00344426       0.05467729       0.04131685
H       -0.48318865      -4.67763187      -2.38288220       0.00338011       0.01098916       0.01964015
H        1.72358720      -4.52989013      -3.17283287       0.00003448       0.00446793       0.00859984
H        3.45409305      -3.48515416      -4.59254919      -0.00307174      -0.00269915      -0.00203690
H        2.88382389      -1.54303751      -5.99954738      -0.00483688      -0.00440155      -0.00379020
H        0.58537154      -0.64443850      -6.00200668      -0.00399889      -0.00133973       0.00130514
H       -1.14466044      -1.68630525      -4.57094923      -0.00069688       0.00634893       0.01264777
75
Properties=species:S:1:pos:R:3:forces:R:3 charge=0 unpaired=0 uhf=0 endpoint_role="hydrogenated catalyst plus aldehyde; requires optimization" energy=-2550.772123679421 pbc="F F F"
Ru       0.02221453       0.24857797      -0.31133961       0.00208001      -0.00128386      -0.00215637
N        0.28593989      -2.82647176      -0.07957612      -0.00046462      -0.00073422      -0.00150386
C        1.70154870      -3.00479794       0.18651426      -0.00053601       0.00086436       0.00025435
C        2.59193845      -2.04196961      -0.60814626      -0.00029357       0.00135724      -0.00045539
P        2.31337389      -0.22407488      -0.37523134       0.00216817      -0.00082820       0.00345824
C        3.45055949       0.45644322      -1.71757867      -0.00004588      -0.00021629      -0.00099216
C        4.69087248      -0.38642390      -2.01535475       0.00030279      -0.00011205       0.00122927
C        2.68389137       0.72182605      -3.00800475       0.00160532       0.00033619      -0.00056130
C        3.38771162       0.22417246       1.09462763      -0.00020650      -0.00001297      -0.00180200
C        3.08648656      -0.61713726       2.33013595       0.00020140       0.00084967       0.00000969
C        3.20317827       1.70480154       1.41887308      -0.00037943       0.00164945       0.00099311
C       -0.29836298      -1.68832229       0.64109841      -0.00080947      -0.00174593       0.00098270
C       -1.84055891      -1.77201634       0.55551246       0.00096002      -0.00152246       0.00067352
P       -2.22731732       0.00571370       0.36148067      -0.00034869       0.00109767       0.00039912
C       -2.81974574       0.66529350       2.00849697       0.00009644      -0.00019897      -0.00066513
C       -2.69031241       2.18645594       1.95008070       0.00117628      -0.00022369      -0.00129477
C       -2.04417571       0.10483274       3.19373372       0.00018736      -0.00079348      -0.00008358
C       -3.84665063       0.05696203      -0.58404480       0.00114541      -0.00130350       0.00090710
C       -4.79052309      -1.06597513      -0.15741051      -0.00081566      -0.00016727       0.00014453
C       -3.59645087      -0.00385326      -2.08615566       0.00001190       0.00069953      -0.00031420
H        1.91853973      -2.91507137       1.26479794       0.00030253      -0.00061159      -0.00020760
H        1.97478854      -4.02271052      -0.11897913      -0.00027241       0.00054795      -0.00038633
H        3.63556141      -2.27741870      -0.38389208      -0.00074143       0.00015306      -0.00043921
H        2.40794668      -2.21750459      -1.67408622      -0.00045096       0.00016227       0.00010074
H        3.77921568       1.42572913      -1.32273731      -0.00048947       0.00043401      -0.00021783
H        5.36762731       0.19179301      -2.64339400      -0.00008595       0.00024163      -0.00025634
H        4.42707454      -1.29243783      -2.55591901      -0.00002650       0.00051209       0.00029832
H        5.23086529      -0.65935222      -1.11169465       0.00017664       0.00010034      -0.00016565
H        3.35807178       1.09359274      -3.77892796       0.00019274      -0.00016753       0.00013353
H        2.21361959      -0.18887159      -3.37875270      -0.00064836       0.00033862       0.00020803
H        1.91336438       1.47325606      -2.84129658      -0.00046678      -0.00015890       0.00023816
H        4.42860047       0.05047407       0.79090107      -0.00015055      -0.00007348      -0.00091355
H        3.60995469      -0.20766851       3.19338592       0.00042354      -0.00072472      -0.00045449
H        3.41017339      -1.64721928       2.19888199      -0.00054166      -0.00048045       0.00043810
H        2.01804838      -0.59977078       2.54112171       0.00021085      -0.00039482       0.00009908
H        2.17253535       1.88933383       1.71804128       0.00105405      -0.00047040       0.00035229
H        3.86491185       1.99728626       2.23276562       0.00032085      -0.00027786      -0.00083601
H        3.41729666       2.33677867       0.55933868      -0.00034186      -0.00075082       0.00023716
H        0.25255183       0.60608823       1.15934484      -0.00007563       0.00071451      -0.00038960
H       -0.02201535      -1.78547109       1.71560113       0.00020498       0.00090353       0.00016843
H       -2.32987556      -2.30017424       1.38297242       0.00045622       0.00040156      -0.00041831
H       -2.11502682      -2.26209350      -0.38440942       0.00046791       0.00065699      -0.00037483
H       -3.87836120       0.39342982       2.11171695      -0.00009560      -0.00076569       0.00089352
H       -3.26113284       2.59656432       1.11727178      -0.00102138       0.00028282       0.00087952
H       -3.04920187       2.64064531       2.87222010      -0.00049042      -0.00000461       0.00047048
H       -1.64356943       2.45488689       1.80534077      -0.00048042       0.00128397       0.00084364
H       -2.38437064       0.57744131       4.11424247       0.00011675      -0.00002634      -0.00016038
H       -2.18485607      -0.96978921       3.29119711      -0.00063846       0.00049762       0.00008558
H       -0.98102706       0.30990288       3.07573007      -0.00065066       0.00001650      -0.00065823
H       -4.30137163       1.02651622      -0.34058452      -0.00042645      -0.00029347      -0.00039768
H       -4.44221533      -2.02164121      -0.54333064       0.00000526      -0.00001015      -0.00015482
H       -4.87432046      -1.13970195       0.92534884       0.00071271      -0.00014055      -0.00045433
H       -5.78468521      -0.88248298      -0.56297216       0.00037543       0.00099985       0.00014814
H       -3.00039994       0.84700307      -2.41346053      -0.00092418       0.00073499      -0.00126948
H       -3.07560844      -0.92516339      -2.34863076       0.00084585      -0.00073562      -0.00037803
H       -4.54177589       0.01375012      -2.62796575      -0.00041380      -0.00042371       0.00019170
C       -0.31747144       0.53501721      -2.09937845      -0.00305397       0.00134985      -0.00198772
O       -0.57719855       0.72117026      -3.22454089       0.00136919      -0.00156246       0.00076464
H        0.18525828       1.81244314      -0.35956515       0.00024766       0.00024080      -0.00004575
O       -2.08049690      -3.26555890      -2.46607167       0.00283089      -0.00022053      -0.00043275
C       -0.96538928      -3.70902384      -2.63229367      -0.00405386       0.00128438       0.00210452
C        0.04078424      -3.16633113      -3.54267557       0.00010896      -0.00018742       0.00091603
C        1.32207661      -3.71949599      -3.58195750      -0.00092849      -0.00163857      -0.00120438
C        2.27194904      -3.20578056      -4.44406586       0.00037151      -0.00162729       0.00019010
C        1.95022870      -2.14461002      -5.27934497      -0.00005482      -0.00023671      -0.00058294
C        0.67649045      -1.59465606      -5.25317716       0.00107279       0.00044615       0.00021178
C       -0.27440847      -2.10067344      -4.38872716      -0.00050679       0.00112131      -0.00058671
H       -0.19837633      -3.67517140       0.21861246      -0.00010659       0.00091695       0.00125028
H       -0.21872911      -0.73257505      -1.51010230      -0.00070407      -0.00080490       0.00133420
H       -0.63763733      -4.61600667      -2.08882039       0.00025794       0.00092920       0.00086133
H        1.56385332      -4.54630701      -2.92898433      -0.00104155       0.00031505      -0.00080474
H        3.26517497      -3.63054821      -4.47033726      -0.00036327       0.00114714      -0.00013837
H        2.69508093      -1.74415555      -5.95154386       0.00077173      -0.00034105       0.00060645
H        0.42936259      -0.76540433      -5.89895170       0.00123563      -0.00039433       0.00090734
H       -1.26998048      -1.68274082      -4.35438845       0.00007841      -0.00092039       0.00016008
