57
Properties=species:S:1:pos:R:3:forces:R:3 energy:=T -80.989979432365=T gnorm:=T 0.000602540939=T xtb:=T 6.7.1=T (edcfbbe)=T energy=-2203.8495944235656 pbc="F F F"
Fe       0.27270095      -0.18381510       0.23549218       0.00240553      -0.00114337      -0.00361942
C        2.37331574      -2.36909929      -0.31607360      -0.00091312      -0.00041382      -0.00022375
P        2.35328995      -0.62097011       0.28780755       0.00222046      -0.00224460       0.00081897
C        3.81395316       0.17979015      -0.41495018       0.00205537       0.00120811      -0.00055934
C        3.64049902       1.08151521      -1.45846881      -0.00054362      -0.00087937       0.00047067
C        4.74639614       1.70149035      -2.01257746      -0.00035491      -0.00058399       0.00026457
C        6.01263427       1.42392348      -1.51995614       0.00092047       0.00027311       0.00132825
C        6.18001448       0.53228823      -0.47030464       0.00051803       0.00028309      -0.00037949
C        5.08064188      -0.09276137       0.08911840      -0.00092588       0.00044300      -0.00051143
C        2.50873191      -0.63058721       2.07835915       0.00197034       0.00069160      -0.00091775
C        1.96667239      -1.68022081       2.80557226       0.00315750       0.00306805       0.00154113
C        1.32381103      -1.42057591       3.99868820      -0.00208545       0.00927257       0.00427901
C        1.20354115      -0.12127979       4.45775340      -0.00852206      -0.00654106       0.00621814
C        1.80240252       0.92075643       3.76857022      -0.00092729       0.00572267      -0.00657684
C        2.44299778       0.66955064       2.57816450       0.00689018       0.00203702       0.00375498
C        1.04785722      -2.91520660       0.09936490      -0.00003632      -0.00345609      -0.00023115
C        0.77581360      -4.25627563       0.28296986       0.00029275       0.00399190       0.00105317
C       -0.44472459      -4.63832015       0.81777400       0.00081211       0.00003314      -0.00065527
C       -1.34287141      -3.66247312       1.22110756      -0.00045907       0.00424570      -0.00001512
C       -1.02780487      -2.33698472       1.00778437      -0.00056648      -0.00449675       0.00068367
C       -1.80044500      -1.17445804       1.50910244      -0.00221968       0.00125591       0.00151344
N       -1.58374588      -0.03981432       0.59659658      -0.00447379       0.00235150       0.00035849
C       -1.48462185       1.26582037       1.27929344      -0.00082506      -0.00254690      -0.00004857
C       -0.26878865       1.98031744       0.68877107       0.00064601      -0.00065334      -0.00058361
C       -2.59990003      -0.07433903      -0.47585807      -0.00022987       0.00133173      -0.00182807
C       -2.41220630       1.02254806      -1.50404298      -0.00096655      -0.00009616      -0.00046373
N        0.11417508      -1.98573636       0.39275769       0.00268136       0.00143924      -0.00180569
H        3.20434423      -2.95818990       0.08868233      -0.00136593       0.00256037      -0.00239569
H        2.47282270      -2.33108448      -1.40825810      -0.00123861      -0.00038875       0.00212095
H        2.63934212       1.28537134      -1.81649447       0.00151436      -0.00060962      -0.00038681
H        4.62664070       2.40412799      -2.82439333       0.00091467      -0.00093261      -0.00037924
H        6.87579065       1.91068223      -1.95181034       0.00026431       0.00057271       0.00024817
H        7.17071956       0.32937310      -0.08907952      -0.00083179       0.00049076      -0.00005666
H        5.19152885      -0.78165223       0.91510474      -0.00054185       0.00048707       0.00027640
H        2.00682537      -2.69148932       2.42715512       0.00078151      -0.00428388      -0.00140251
H        0.85956513      -2.23207549       4.54125301       0.00156429      -0.00341562       0.00149958
H        0.62383728       0.08469516       5.34719964       0.00762836      -0.00367096      -0.00754222
H        1.70973157       1.93510823       4.13107151       0.00124348      -0.00309548      -0.00017955
H        2.83634202       1.47866829       1.97310354      -0.00141742       0.00013155       0.00170918
H        1.52456505      -4.98939387       0.02583558       0.00096863      -0.00083046       0.00012914
H       -0.67403563      -5.68352394       0.95604318      -0.00045993      -0.00216352       0.00004128
H       -2.26973133      -3.92265655       1.70655612      -0.00169783       0.00000831       0.00035550
H       -2.86379563      -1.39258061       1.63373366       0.00064080       0.00030442       0.00022061
H       -1.36032739      -0.91958748       2.47835390      -0.00132041       0.00068321      -0.00080429
H       -1.31137167       1.08636117       2.33850402       0.00070687       0.00047271      -0.00116238
H       -2.40676798       1.83720508       1.15963998       0.00103611      -0.00165355      -0.00084450
H        0.37638103       2.36697127       1.47296462       0.00075426       0.00087281      -0.00016025
H        0.39651623       1.30393757       0.04721566      -0.00044554       0.00362033       0.00181472
H       -0.54945131       2.78778421       0.01475333       0.00050705      -0.00076435       0.00068012
H       -3.59097686       0.00675892      -0.01856868       0.00050228       0.00036555      -0.00012615
H       -2.50155820      -1.05156423      -0.95245497       0.00055269       0.00025383      -0.00013583
H       -3.06209554       0.82303110      -2.35310777       0.00156858       0.00057098       0.00248722
H       -2.66776262       2.00172278      -1.11042464      -0.00012831      -0.00138236      -0.00034518
H       -1.38331254       1.04315061      -1.85955501      -0.00158061      -0.00003150      -0.00007208
C        0.26336213      -0.44336111      -1.48085789      -0.00228446      -0.00417051       0.00076205
O        0.39902081      -0.85357691      -2.53898732      -0.00048482       0.00175042       0.00032889
H        0.39495546      -0.12139188       1.60822249      -0.00787165      -0.00034476      -0.00054575
