57
Properties=species:S:1:pos:R:3 energy:=T -80.989979432365=T gnorm:=T 0.000602540939=T xtb:=T 6.7.1=T (edcfbbe)=T pbc="F F F"
Fe       0.27270095      -0.18381510       0.23549218
C        2.37331574      -2.36909929      -0.31607360
P        2.35328995      -0.62097011       0.28780755
C        3.81395316       0.17979015      -0.41495018
C        3.64049902       1.08151521      -1.45846881
C        4.74639614       1.70149035      -2.01257746
C        6.01263427       1.42392348      -1.51995614
C        6.18001448       0.53228823      -0.47030464
C        5.08064188      -0.09276137       0.08911840
C        2.50873191      -0.63058721       2.07835915
C        1.96667239      -1.68022081       2.80557226
C        1.32381103      -1.42057591       3.99868820
C        1.20354115      -0.12127979       4.45775340
C        1.80240252       0.92075643       3.76857022
C        2.44299778       0.66955064       2.57816450
C        1.04785722      -2.91520660       0.09936490
C        0.77581360      -4.25627563       0.28296986
C       -0.44472459      -4.63832015       0.81777400
C       -1.34287141      -3.66247312       1.22110756
C       -1.02780487      -2.33698472       1.00778437
C       -1.80044500      -1.17445804       1.50910244
N       -1.58374588      -0.03981432       0.59659658
C       -1.48462185       1.26582037       1.27929344
C       -0.26878865       1.98031744       0.68877107
C       -2.59990003      -0.07433903      -0.47585807
C       -2.41220630       1.02254806      -1.50404298
N        0.11417508      -1.98573636       0.39275769
H        3.20434423      -2.95818990       0.08868233
H        2.47282270      -2.33108448      -1.40825810
H        2.63934212       1.28537134      -1.81649447
H        4.62664070       2.40412799      -2.82439333
H        6.87579065       1.91068223      -1.95181034
H        7.17071956       0.32937310      -0.08907952
H        5.19152885      -0.78165223       0.91510474
H        2.00682537      -2.69148932       2.42715512
H        0.85956513      -2.23207549       4.54125301
H        0.62383728       0.08469516       5.34719964
H        1.70973157       1.93510823       4.13107151
H        2.83634202       1.47866829       1.97310354
H        1.52456505      -4.98939387       0.02583558
H       -0.67403563      -5.68352394       0.95604318
H       -2.26973133      -3.92265655       1.70655612
H       -2.86379563      -1.39258061       1.63373366
H       -1.36032739      -0.91958748       2.47835390
H       -1.31137167       1.08636117       2.33850402
H       -2.40676798       1.83720508       1.15963998
H        0.37638103       2.36697127       1.47296462
H        0.39651623       1.30393757       0.04721566
H       -0.54945131       2.78778421       0.01475333
H       -3.59097686       0.00675892      -0.01856868
H       -2.50155820      -1.05156423      -0.95245497
H       -3.06209554       0.82303110      -2.35310777
H       -2.66776262       2.00172278      -1.11042464
H       -1.38331254       1.04315061      -1.85955501
C        0.26336213      -0.44336111      -1.48085789
O        0.39902081      -0.85357691      -2.53898732
H        0.39495546      -0.12139188       1.60822249
