28

O       0.023178060000000     -1.603156760000000     -1.433093100000000
C       0.254215950000000     -0.377425990000000     -0.771153520000000
N      -0.410793960000000     -0.347360960000000      0.511014970000000
C      -1.754025670000000     -0.046839380000000      0.651949350000000
C      -2.661511470000000     -0.238127860000000     -0.390496350000000
C      -4.002971950000000      0.037425150000000     -0.202476920000000
C      -4.467992640000000      0.495349810000000      1.018966020000000
C      -3.572933820000000      0.674785220000000      2.061659360000000
C      -2.229722460000000      0.411052110000000      1.882657260000000
C       1.733391870000000     -0.122216620000000     -0.570985930000000
C       2.478848310000000     -0.967239050000000      0.245080500000000
C       3.832717040000000     -0.748762950000000      0.427668000000000
C       4.455413560000000      0.315574750000000     -0.203228400000000
C       3.718956440000000      1.159836020000000     -1.016876840000000
C       2.364069230000000      0.941344220000000     -1.201339910000000
H       0.321565160000000     -2.321266750000000     -0.861136850000000
H      -0.169687050000000      0.375467960000000     -1.453512320000000
H       0.168589920000000     -0.071357830000000      1.290073420000000
H      -2.316187280000000     -0.616431360000000     -1.340057990000000
H      -4.693539820000000     -0.112827300000000     -1.020518920000000
H      -5.517804110000000      0.706744590000000      1.159383930000000
H      -3.923672940000000      1.029012120000000      3.020936320000000
H      -1.534310910000000      0.557448500000000      2.698410180000000
H       1.997561960000000     -1.796655270000000      0.745876750000000
H       4.402432380000000     -1.411010070000000      1.063153420000000
H       5.512443260000000      0.485864800000000     -0.060808030000000
H       4.200167180000000      1.990878050000000     -1.511419330000000
H       1.791603770000000      1.599894880000000     -1.838684450000000
