15

C       1.512659330000000     -0.153562250000000     -0.087762190000000
C      -0.013406380000000     -0.170918810000000     -0.189898060000000
C      -0.631976650000000     -0.639796640000000      1.133647640000000
C      -0.540448520000000      1.224389440000000     -0.550290050000000
O      -0.327929670000000     -1.093627820000000     -1.228713880000000
H       1.833512230000000      0.533560880000000      0.689765740000000
H       1.940020160000000      0.154755260000000     -1.038401600000000
H       1.875985470000000     -1.151709550000000      0.142623430000000
H      -1.719076680000000     -0.651540510000000      1.064765650000000
H      -0.289440810000000     -1.645710880000000      1.366587270000000
H      -0.343364610000000      0.025941170000000      1.942422150000000
H      -1.627476250000000      1.216126820000000     -0.620727210000000
H      -0.134225580000000      1.537042400000000     -1.509813470000000
H      -0.247963330000000      1.946294210000000      0.207273540000000
H      -1.286868710000000     -1.131243720000000     -1.321478970000000
