      -----------------------------------------------------------      
     |                   =====================                   |     
     |                           x T B                           |     
     |                   =====================                   |     
     |                         S. Grimme                         |     
     |          Mulliken Center for Theoretical Chemistry        |     
     |                    University of Bonn                     |     
      -----------------------------------------------------------      

   * xtb version 6.7.1 (edcfbbe) compiled by 'VssAdministrator@runnervm171ch' on 2026-06-10

   xtb is free software: you can redistribute it and/or modify it under
   the terms of the GNU Lesser General Public License as published by
   the Free Software Foundation, either version 3 of the License, or
   (at your option) any later version.
   
   xtb is distributed in the hope that it will be useful,
   but WITHOUT ANY WARRANTY; without even the implied warranty of
   MERCHANTABILITY or FITNESS FOR A PARTICULAR PURPOSE.  See the
   GNU Lesser General Public License for more details.
   
   Cite this work as:
   * C. Bannwarth, E. Caldeweyher, S. Ehlert, A. Hansen, P. Pracht,
     J. Seibert, S. Spicher, S. Grimme, WIREs Comput. Mol. Sci., 2020, 11,
     e01493. DOI: 10.1002/wcms.1493
   
   for GFN2-xTB:
   * C. Bannwarth, S. Ehlert and S. Grimme., J. Chem. Theory Comput., 2019,
     15, 1652-1671. DOI: 10.1021/acs.jctc.8b01176
   for GFN1-xTB:
   * S. Grimme, C. Bannwarth, P. Shushkov, J. Chem. Theory Comput., 2017,
     13, 1989-2009. DOI: 10.1021/acs.jctc.7b00118
   for GFN0-xTB:
   * P. Pracht, E. Caldeweyher, S. Ehlert, S. Grimme, ChemRxiv, 2019, preprint.
     DOI: 10.26434/chemrxiv.8326202.v1
   for GFN-FF:
   * S. Spicher and S. Grimme, Angew. Chem. Int. Ed., 2020, 59, 15665-15673.
     DOI: 10.1002/anie.202004239
   
   for ALPB and GBSA implicit solvation:
   * S. Ehlert, M. Stahn, S. Spicher, S. Grimme, J. Chem. Theory Comput.,
     2021, 17, 4250-4261. DOI: 10.1021/acs.jctc.1c00471
   
   for ddCOSMO and CPCM-X implicit solvation:
   * M. Stahn, S. Ehlert, S. Grimme, J. Phys. Chem. A,
     2023, XX, XXXX-XXXX. DOI: 10.1021/acs.jpca.3c04382
   
   for DFT-D4:
   * E. Caldeweyher, C. Bannwarth and S. Grimme, J. Chem. Phys., 2017,
     147, 034112. DOI: 10.1063/1.4993215
   * E. Caldeweyher, S. Ehlert, A. Hansen, H. Neugebauer, S. Spicher,
     C. Bannwarth and S. Grimme, J. Chem. Phys., 2019, 150, 154122.
     DOI: 10.1063/1.5090222
   * E. Caldeweyher, J.-M. Mewes, S. Ehlert and S. Grimme, Phys. Chem. Chem. Phys.
     2020, 22, 8499-8512. DOI: 10.1039/D0CP00502A
   
   for sTDA-xTB:
   * S. Grimme and C. Bannwarth, J. Chem. Phys., 2016, 145, 054103.
     DOI: 10.1063/1.4959605
   
   in the mass-spec context:
   * V. Asgeirsson, C. Bauer and S. Grimme, Chem. Sci., 2017, 8, 4879.
     DOI: 10.1039/c7sc00601b
   * J. Koopman and S. Grimme, ACS Omega 2019, 4, 12, 15120-15133.
     DOI: 10.1021/acsomega.9b02011
   
   for metadynamics refer to:
   * S. Grimme, J. Chem. Theory Comput., 2019, 155, 2847-2862
     DOI: 10.1021/acs.jctc.9b00143
   
   for SPH calculations refer to:
   * S. Spicher and S. Grimme, J. Chem. Theory Comput., 2021, 17, 1701-1714
     DOI: 10.1021/acs.jctc.0c01306
   
   for ONIOM refer to:
   * C. Plett, A. Katbashev, S. Ehlert, S. Grimme, M. Bursch,
     Phys. Chem. Chem. Phys., 2023, 25, 17860-17868. DOI: 10.1039/D3CP02178E
   
   for DIPRO refer to:
   * J. Kohn, N. Gildemeister, S. Grimme, D. Fazzi, A. Hansen,
     J. Chem. Phys., 2023, just accepted.
   
   for PTB refer to:
   * S. Grimme, M. Mueller, A. Hansen, J. Chem. Phys., 2023, 158, 124111.
     DOI: 10.1063/5.0137838
   
   with help from (in alphabetical order)
   P. Atkinson, C. Bannwarth, F. Bohle, G. Brandenburg, E. Caldeweyher
   M. Checinski, S. Dohm, S. Ehlert, S. Ehrlich, I. Gerasimov, C. Hölzer
   A. Katbashev, J. Kohn, J. Koopman, C. Lavigne, S. Lehtola, F. März, M. Müller,
   F. Musil, H. Neugebauer, J. Pisarek, C. Plett, P. Pracht, F. Pultar,
   J. Seibert, P. Shushkov, S. Spicher, M. Stahn, M. Steiner, T. Strunk,
   J. Stückrath, T. Rose, and J. Unsleber
   
 * started run on 2026/09/13 at 01:17:17.190     
   ID    Z sym.   atoms
    1   44 Ru     1
    2    7 N      2
    3    6 C      3, 4, 6-19, 21-32, 61, 65-71
    4   15 P      5, 20
    5    1 H      33-60, 63, 72-79
    6    8 O      62, 64

           -------------------------------------------------
          |                Calculation Setup                |
           -------------------------------------------------

          program call               : C:\Users\HUIWEI\miniconda3\envs\phase2ff\Library\bin\xtb.exe input.xyz --gfn 2 --chrg 0 --uhf 0 --etemp 300.0 --iterations 500 --acc 0.5 --opt tight --cycles 250 --grad --alpb toluene gsolv
          coordinate file            : input.xyz
          omp threads                :                     2

########################################################################
[WARNING] Please study the warnings concerning your input carefully
-1- prog_main_parseArguments: Unknown reference state 'gsolv'
########################################################################

           -------------------------------------------------
          |                 G F N 2 - x T B                 |
           -------------------------------------------------

        Reference                      10.1021/acs.jctc.8b01176
      * Hamiltonian:
        H0-scaling (s, p, d)           1.850000    2.230000    2.230000
        zeta-weighting                 0.500000
      * Dispersion:
        s8                             2.700000
        a1                             0.520000
        a2                             5.000000
        s9                             5.000000
      * Repulsion:
        kExp                           1.500000    1.000000
        rExp                           1.000000
      * Coulomb:
        alpha                          2.000000
        third order                    shell-resolved
        anisotropic                    true
        a3                             3.000000
        a5                             4.000000
        cn-shift                       1.200000
        cn-exp                         4.000000
        max-rad                        5.000000

      * Solvation model:               ALPB
        Solvent                        toluene
        Parameter file                 internal GFN2-xTB/ALPB
        Dielectric constant                7.0000E+00
        Reference state                gsolv [1 M gas/solution]
        Free energy shift                  2.2081E-03 Eh       1.3856E+00 kcal/mol
        Temperature                        2.9815E+02 K
        Density                            8.6700E-01 kg/L
        Solvent mass                       7.8110E+01 g/mol
        Interaction kernel             P16
        Born radius scaling (c1)           1.7172E+00
        Born radii integrator          GBOBC
        Born offset                        0.0000E+00 a0       0.0000E+00 AA
        H-bond correction              false
        Ion screening                  false
        Surface tension                    1.0000E-05 Eh       1.5569E+01 dyn/cm
        Grid points                               230 per atom

          ...................................................
          :                      SETUP                      :
          :.................................................:
          :  # basis functions                 223          :
          :  # atomic orbitals                 220          :
          :  # shells                          124          :
          :  # electrons                       216          :
          :  max. iterations                   500          :
          :  Hamiltonian                  GFN2-xTB          :
          :  restarted?                      false          :
          :  GBSA solvation                   true          :
          :  PC potential                    false          :
          :  electronic temp.          300.0000000     K    :
          :  accuracy                    0.5000000          :
          :  -> integral cutoff          0.2801030E+02      :
          :  -> integral neglect         0.5000000E-08      :
          :  -> SCF convergence          0.5000000E-06 Eh   :
          :  -> wf. convergence          0.5000000E-04 e    :
          :  Broyden damping             0.4000000          :
          :  net charge                          0          :
          :  unpaired electrons                  0          :
          ...................................................

 iter      E             dE          RMSdq      gap      omega  full diag
   1   -114.0121687 -0.114012E+03  0.665E+00    0.44       0.0  T
   2   -105.5923470  0.841982E+01  0.948E+00    0.12       1.0  T
   3   -115.0995685 -0.950722E+01  0.426E+00    0.27       1.0  T
   4   -116.2388524 -0.113928E+01  0.272E+00    0.77       1.0  T
   5   -116.3663443 -0.127492E+00  0.141E+00    0.25       1.0  T
   6   -116.3636362  0.270806E-02  0.131E+00    1.60       1.0  T
   7   -116.4295627 -0.659264E-01  0.558E-01    1.03       1.0  T
   8   -116.4510115 -0.214488E-01  0.277E-01    0.90       1.0  T
   9   -116.4520316 -0.102016E-02  0.194E-01    0.73       1.0  T
  10   -116.4530209 -0.989240E-03  0.113E-01    0.77       1.0  T
  11   -116.4532382 -0.217310E-03  0.529E-02    0.74       1.0  T
  12   -116.4533565 -0.118370E-03  0.293E-02    0.73       1.0  T
  13   -116.4533940 -0.374952E-04  0.137E-02    0.75       1.0  T
  14   -116.4533969 -0.281191E-05  0.711E-03    0.75       1.6  T
  15   -116.4533976 -0.765806E-06  0.464E-03    0.75       2.4  T
  16   -116.4533983 -0.671176E-06  0.176E-03    0.75       6.4  T
  17   -116.4533983 -0.204728E-07  0.980E-04    0.75      11.5  T
  18   -116.4533983 -0.296672E-07  0.426E-04    0.75      26.4  T
  19   -116.4533983 -0.340667E-08  0.221E-04    0.75      51.0  T

   *** convergence criteria satisfied after 19 iterations ***

         #    Occupation            Energy/Eh            Energy/eV
      -------------------------------------------------------------
         1        2.0000           -0.8448968             -22.9908
       ...           ...                  ...                  ...
       102        2.0000           -0.4109573             -11.1827
       103        2.0000           -0.3916410             -10.6571
       104        2.0000           -0.3860452             -10.5048
       105        2.0000           -0.3808030             -10.3622
       106        2.0000           -0.3773229             -10.2675
       107        2.0000           -0.3347858              -9.1100
       108        2.0000           -0.3180876              -8.6556 (HOMO)
       109        0.0000           -0.2904932              -7.9047 (LUMO)
       110                         -0.2799249              -7.6171
       111                         -0.2764946              -7.5238
       112                         -0.2693028              -7.3281
       113                         -0.2676904              -7.2842
       ...                                ...                  ...
       220                          4.4018195             119.7796
      -------------------------------------------------------------
                  HL-Gap            0.0275944 Eh            0.7509 eV
             Fermi-level           -0.3042904 Eh           -8.2802 eV

 SCC (total)                   0 d,  0 h,  0 min,  0.353 sec
 SCC setup                      ...        0 min,  0.002 sec (  0.687%)
 Dispersion                     ...        0 min,  0.002 sec (  0.494%)
 classical contributions        ...        0 min,  0.000 sec (  0.103%)
 integral evaluation            ...        0 min,  0.017 sec (  4.926%)
 iterations                     ...        0 min,  0.262 sec ( 74.307%)
 molecular gradient             ...        0 min,  0.068 sec ( 19.232%)
 printout                       ...        0 min,  0.001 sec (  0.246%)

         :::::::::::::::::::::::::::::::::::::::::::::::::::::
         ::                     SUMMARY                     ::
         :::::::::::::::::::::::::::::::::::::::::::::::::::::
         :: total energy            -114.542167357315 Eh    ::
         :: total w/o Gsasa/hb      -114.496774998953 Eh    ::
         :: gradient norm              0.582862425648 Eh/a0 ::
         :: HOMO-LUMO gap              0.750880532324 eV    ::
         ::.................................................::
         :: SCC energy              -116.449037297699 Eh    ::
         :: -> isotropic ES            0.046622202197 Eh    ::
         :: -> anisotropic ES          0.024173066461 Eh    ::
         :: -> anisotropic XC          0.070535368026 Eh    ::
         :: -> dispersion             -0.134235545729 Eh    ::
         :: -> Gsolv                  -0.059513439315 Eh    ::
         ::    -> Gelec               -0.014121080953 Eh    ::
         ::    -> Gsasa               -0.047600501501 Eh    ::
         ::    -> Ghb                  0.000000000000 Eh    ::
         ::    -> Gshift               0.002208143139 Eh    ::
         :: repulsion energy           1.906869940384 Eh    ::
         :: add. restraining           0.000000000000 Eh    ::
         :: total charge              -0.000000000015 e     ::
         :::::::::::::::::::::::::::::::::::::::::::::::::::::

      ----------------------------------------------------------- 
     |                   =====================                   |
     |                        A N C O P T                        |
     |                   =====================                   |
     |               Approximate Normal Coordinate               |
     |                Rational Function Optimizer                |
      ----------------------------------------------------------- 
      ----------------------------------------------------------- 
     |                   =====================                   |
     |                        A N C O P T                        |
     |                   =====================                   |
     |               Approximate Normal Coordinate               |
     |                Rational Function Optimizer                |
      ----------------------------------------------------------- 

          ...................................................
          :                      SETUP                      :
          :.................................................:
          :   optimization level             tight          :
          :   max. optcycles                   250          :
          :   ANC micro-cycles                  20          :
          :   degrees of freedom               231          :
          :.................................................:
          :   RF solver                   davidson          :
          :   write xtbopt.log                true          :
          :   linear?                        false          :
          :   energy convergence         0.1000000E-05 Eh   :
          :   grad. convergence          0.8000000E-03 Eh/α :
          :   maxmium RF displ.          1.0000000          :
          :   Hlow (freq-cutoff)         0.1000000E-01      :
          :   Hmax (freq-cutoff)         5.0000000          :
          :   S6 in model hess.         20.0000000          :
          ...................................................

generating ANC from exact Hessian ...
Using Lindh-Hessian (1995)
 Shifting diagonal of input Hessian by    9.8900993812082467E-003
 Lowest  eigenvalues of input Hessian
    0.000000    0.000000    0.000000    0.000000    0.000000    0.000000
    0.010000    0.010060    0.010237    0.010392    0.010448    0.010599
    0.010640    0.010736    0.010864    0.010934    0.010957    0.011285
 Highest eigenvalues
    2.003551    2.004743    2.007245    2.022784    2.300078    2.354738


........................................................................
.............................. CYCLE    1 ..............................
........................................................................

 iter      E             dE          RMSdq      gap      omega  full diag
   1   -116.4533983 -0.116453E+03  0.111E-04    0.75       0.0  T
   2   -116.4533983  0.137426E-08  0.140E-04    0.75      80.5  T
   3   -116.4533983 -0.165792E-08  0.848E-05    0.75     132.6  T
     SCC iter.                  ...        0 min,  0.040 sec
     gradient                   ...        0 min,  0.062 sec
 * total energy  :  -114.5421674 Eh     change       -0.1383555E-08 Eh
   gradient norm :     0.5828708 Eh/α   predicted     0.0000000E+00 (-100.00%)
   displ. norm   :     0.6211322 α      lambda       -0.2914155E+00
   maximum displ.:     0.1995607 α      in ANC's #181, #146, #74, ...

........................................................................
.............................. CYCLE    2 ..............................
........................................................................

 iter      E             dE          RMSdq      gap      omega  full diag
   1   -116.6857389 -0.116686E+03  0.857E-01    1.83       0.0  T
   2   -116.7020716 -0.163327E-01  0.720E-01    1.63       1.0  T
   3   -116.7083054 -0.623377E-02  0.378E-01    1.66       1.0  T
   4   -116.7063476  0.195779E-02  0.265E-01    1.64       1.0  T
   5   -116.7061394  0.208182E-03  0.185E-01    1.57       1.0  T
   6   -116.7077805 -0.164108E-02  0.118E-01    1.64       1.0  T
   7   -116.7088319 -0.105135E-02  0.224E-02    1.61       1.0  T
   8   -116.7088404 -0.850668E-05  0.115E-02    1.62       1.0  T
   9   -116.7088413 -0.946595E-06  0.462E-03    1.62       2.4  T
  10   -116.7088416 -0.325680E-06  0.228E-03    1.62       4.9  T
  11   -116.7088417 -0.999177E-07  0.112E-03    1.62      10.0  T
  12   -116.7088418 -0.188564E-07  0.577E-04    1.62      19.5  T
  13   -116.7088418 -0.581318E-08  0.220E-04    1.62      51.2  T
  14   -116.7088418 -0.802970E-09  0.108E-04    1.62     104.2  T
     SCC iter.                  ...        0 min,  0.197 sec
     gradient                   ...        0 min,  0.060 sec
 * total energy  :  -114.7919235 Eh     change       -0.2497562E+00 Eh
   gradient norm :     0.4171739 Eh/α   predicted    -0.2020150E+00 ( -19.12%)
   displ. norm   :     0.7238341 α      lambda       -0.2671968E+00
   maximum displ.:     0.2640930 α      in ANC's #181, #230, #146, ...

........................................................................
.............................. CYCLE    3 ..............................
........................................................................

 iter      E             dE          RMSdq      gap      omega  full diag
   1   -116.9302756 -0.116930E+03  0.762E-01    2.04       0.0  T
   2   -116.9367025 -0.642692E-02  0.486E-01    1.95       1.0  T
   3   -116.9369731 -0.270557E-03  0.323E-01    2.00       1.0  T
   4   -116.9333783  0.359480E-02  0.255E-01    1.84       1.0  T
   5   -116.9362265 -0.284821E-02  0.186E-01    1.97       1.0  T
   6   -116.9389140 -0.268750E-02  0.428E-02    1.93       1.0  T
   7   -116.9389400 -0.259766E-04  0.185E-02    1.93       1.0  T
   8   -116.9389409 -0.929880E-06  0.988E-03    1.93       1.1  T
   9   -116.9389418 -0.893854E-06  0.340E-03    1.93       3.3  T
  10   -116.9389418 -0.560390E-07  0.204E-03    1.93       5.5  T
  11   -116.9389420 -0.190459E-06  0.749E-04    1.93      15.0  T
  12   -116.9389420 -0.720185E-08  0.378E-04    1.93      29.8  T
  13   -116.9389420 -0.308242E-08  0.154E-04    1.93      73.1  T
     SCC iter.                  ...        0 min,  0.175 sec
     gradient                   ...        0 min,  0.064 sec
 * total energy  :  -114.9841254 Eh     change       -0.1922018E+00 Eh
   gradient norm :     0.1971599 Eh/α   predicted    -0.2035956E+00 (   5.93%)
   displ. norm   :     0.6990463 α      lambda       -0.1143037E+00
   maximum displ.:     0.2125061 α      in ANC's #30, #74, #47, ...

........................................................................
.............................. CYCLE    4 ..............................
........................................................................

 iter      E             dE          RMSdq      gap      omega  full diag
   1   -117.0263982 -0.117026E+03  0.404E-01    2.08       0.0  T
   2   -117.0273451 -0.946879E-03  0.278E-01    1.99       1.0  T
   3   -117.0277055 -0.360386E-03  0.165E-01    2.06       1.0  T
   4   -117.0261056  0.159990E-02  0.163E-01    1.92       1.0  T
   5   -117.0275621 -0.145654E-02  0.896E-02    2.05       1.0  T
   6   -117.0281446 -0.582454E-03  0.246E-02    2.00       1.0  T
   7   -117.0281464 -0.184271E-05  0.853E-03    2.01       1.3  T
   8   -117.0281470 -0.593253E-06  0.444E-03    2.01       2.5  T
   9   -117.0281473 -0.291575E-06  0.185E-03    2.01       6.1  T
  10   -117.0281473 -0.254487E-07  0.101E-03    2.01      11.1  T
  11   -117.0281474 -0.357340E-07  0.393E-04    2.01      28.6  T
  12   -117.0281474 -0.301468E-08  0.209E-04    2.01      53.8  T
     SCC iter.                  ...        0 min,  0.181 sec
     gradient                   ...        0 min,  0.062 sec
 * total energy  :  -115.0765385 Eh     change       -0.9241317E-01 Eh
   gradient norm :     0.1204143 Eh/α   predicted    -0.8508007E-01 (  -7.94%)
   displ. norm   :     0.7473279 α      lambda       -0.7825124E-01
   maximum displ.:     0.2761910 α      in ANC's #30, #74, #29, ...

........................................................................
.............................. CYCLE    5 ..............................
........................................................................

 iter      E             dE          RMSdq      gap      omega  full diag
   1   -117.0793342 -0.117079E+03  0.322E-01    2.00       0.0  T
   2   -117.0794800 -0.145754E-03  0.246E-01    1.91       1.0  T
   3   -117.0794034  0.765520E-04  0.154E-01    2.02       1.0  T
   4   -117.0783778  0.102564E-02  0.167E-01    1.87       1.0  T
   5   -117.0804594 -0.208158E-02  0.454E-02    1.96       1.0  T
   6   -117.0805287 -0.693715E-04  0.186E-02    1.95       1.0  T
   7   -117.0805320 -0.327438E-05  0.628E-03    1.95       1.8  T
   8   -117.0805322 -0.160232E-06  0.306E-03    1.95       3.7  T
   9   -117.0805323 -0.174010E-06  0.141E-03    1.95       8.0  T
  10   -117.0805324 -0.435606E-07  0.720E-04    1.95      15.6  T
  11   -117.0805324 -0.146977E-07  0.367E-04    1.95      30.6  T
  12   -117.0805324 -0.435664E-08  0.178E-04    1.95      63.3  T
     SCC iter.                  ...        0 min,  0.161 sec
     gradient                   ...        0 min,  0.068 sec
 * total energy  :  -115.1419730 Eh     change       -0.6543445E-01 Eh
   gradient norm :     0.0822300 Eh/α   predicted    -0.6097729E-01 (  -6.81%)
   displ. norm   :     0.7861383 α      lambda       -0.5712847E-01
   maximum displ.:     0.3323084 α      in ANC's #30, #72, #74, ...

........................................................................
.............................. CYCLE    6 ..............................
........................................................................

 iter      E             dE          RMSdq      gap      omega  full diag
   1   -117.1115880 -0.117112E+03  0.324E-01    1.94       0.0  T
   2   -117.1117828 -0.194720E-03  0.277E-01    1.87       1.0  T
   3   -117.1120581 -0.275340E-03  0.133E-01    1.96       1.0  T
   4   -117.1104854  0.157269E-02  0.163E-01    1.83       1.0  T
   5   -117.1125258 -0.204040E-02  0.559E-02    1.93       1.0  T
   6   -117.1126731 -0.147322E-03  0.182E-02    1.91       1.0  T
   7   -117.1126772 -0.405095E-05  0.742E-03    1.91       1.5  T
   8   -117.1126777 -0.512703E-06  0.361E-03    1.91       3.1  T
   9   -117.1126779 -0.163555E-06  0.184E-03    1.91       6.1  T
  10   -117.1126779 -0.763567E-07  0.106E-03    1.91      10.6  T
  11   -117.1126780 -0.253942E-07  0.480E-04    1.91      23.4  T
  12   -117.1126780 -0.442252E-08  0.174E-04    1.91      64.7  T
     SCC iter.                  ...        0 min,  0.170 sec
     gradient                   ...        0 min,  0.070 sec
 * total energy  :  -115.1896295 Eh     change       -0.4765657E-01 Eh
   gradient norm :     0.0621462 Eh/α   predicted    -0.4621734E-01 (  -3.02%)
   displ. norm   :     0.8303501 α      lambda       -0.4355968E-01
   maximum displ.:     0.3952684 α      in ANC's #30, #29, #72, ...

........................................................................
.............................. CYCLE    7 ..............................
........................................................................

 iter      E             dE          RMSdq      gap      omega  full diag
   1   -117.1394412 -0.117139E+03  0.284E-01    1.89       0.0  T
   2   -117.1375916  0.184962E-02  0.256E-01    1.78       1.0  T
   3   -117.1377596 -0.167989E-03  0.206E-01    1.95       1.0  T
   4   -117.1401569 -0.239730E-02  0.116E-01    1.82       1.0  T
   5   -117.1407462 -0.589365E-03  0.371E-02    1.86       1.0  T
   6   -117.1407623 -0.160806E-04  0.194E-02    1.85       1.0  T
   7   -117.1407684 -0.609928E-05  0.576E-03    1.85       2.0  T
   8   -117.1407684 -0.190344E-07  0.352E-03    1.85       3.2  T
   9   -117.1407687 -0.243082E-06  0.167E-03    1.85       6.7  T
  10   -117.1407687  0.450176E-08  0.946E-04    1.85      11.9  T
  11   -117.1407687 -0.293834E-07  0.333E-04    1.85      33.8  T
  12   -117.1407687 -0.405777E-09  0.162E-04    1.85      69.6  T
     SCC iter.                  ...        0 min,  0.182 sec
     gradient                   ...        0 min,  0.061 sec
 * total energy  :  -115.2234541 Eh     change       -0.3382458E-01 Eh
   gradient norm :     0.0574176 Eh/α   predicted    -0.3679663E-01 (   8.79%)
   displ. norm   :     0.8463271 α      lambda       -0.3503478E-01
   maximum displ.:     0.4173684 α      in ANC's #30, #26, #24, ...

........................................................................
.............................. CYCLE    8 ..............................
........................................................................

 iter      E             dE          RMSdq      gap      omega  full diag
   1   -117.1486253 -0.117149E+03  0.350E-01    1.86       0.0  T
   2   -117.1490494 -0.424144E-03  0.321E-01    1.89       1.0  T
   3   -117.1495245 -0.475102E-03  0.126E-01    1.85       1.0  T
   4   -117.1484098  0.111473E-02  0.138E-01    1.92       1.0  T
   5   -117.1491406 -0.730845E-03  0.783E-02    1.82       1.0  T
   6   -117.1496571 -0.516503E-03  0.231E-02    1.87       1.0  T
   7   -117.1496809 -0.237800E-04  0.759E-03    1.87       1.5  T
   8   -117.1496816 -0.711950E-06  0.362E-03    1.87       3.1  T
   9   -117.1496817 -0.920827E-07  0.196E-03    1.87       5.7  T
  10   -117.1496818 -0.413716E-07  0.969E-04    1.87      11.6  T
  11   -117.1496818 -0.117850E-07  0.496E-04    1.87      22.7  T
  12   -117.1496818 -0.356069E-08  0.161E-04    1.87      69.9  T
     SCC iter.                  ...        0 min,  0.170 sec
     gradient                   ...        0 min,  0.064 sec
 * total energy  :  -115.2501658 Eh     change       -0.2671170E-01 Eh
   gradient norm :     0.0449216 Eh/α   predicted    -0.3006463E-01 (  12.55%)
   displ. norm   :     0.8023501 α      lambda       -0.2371224E-01
   maximum displ.:     0.4487858 α      in ANC's #30, #29, #12, ...

........................................................................
.............................. CYCLE    9 ..............................
........................................................................

 iter      E             dE          RMSdq      gap      omega  full diag
   1   -117.1706060 -0.117171E+03  0.236E-01    1.87       0.0  T
   2   -117.1692970  0.130894E-02  0.227E-01    1.80       1.0  T
   3   -117.1699201 -0.623026E-03  0.156E-01    1.93       1.0  T
   4   -117.1708345 -0.914430E-03  0.108E-01    1.82       1.0  T
   5   -117.1714785 -0.644008E-03  0.311E-02    1.87       1.0  T
   6   -117.1715030 -0.245072E-04  0.129E-02    1.86       1.0  T
   7   -117.1715053 -0.231170E-05  0.483E-03    1.86       2.3  T
   8   -117.1715054 -0.397839E-07  0.285E-03    1.86       3.9  T
   9   -117.1715055 -0.112926E-06  0.105E-03    1.86      10.7  T
  10   -117.1715055  0.806560E-08  0.649E-04    1.86      17.3  T
  11   -117.1715055 -0.218411E-07  0.161E-04    1.86      69.7  T
  12   -117.1715055 -0.163993E-10  0.746E-05    1.86     150.7  T
     SCC iter.                  ...        0 min,  0.180 sec
     gradient                   ...        0 min,  0.069 sec
 * total energy  :  -115.2699930 Eh     change       -0.1982722E-01 Eh
   gradient norm :     0.0369887 Eh/α   predicted    -0.1948873E-01 (  -1.71%)
   displ. norm   :     0.8281587 α      lambda       -0.1954985E-01
   maximum displ.:     0.4663433 α      in ANC's #30, #12, #29, ...

........................................................................
.............................. CYCLE   10 ..............................
........................................................................

 iter      E             dE          RMSdq      gap      omega  full diag
   1   -117.1806018 -0.117181E+03  0.196E-01    1.86       0.0  T
   2   -117.1805362  0.655596E-04  0.172E-01    1.90       1.0  T
   3   -117.1805711 -0.348750E-04  0.106E-01    1.83       1.0  T
   4   -117.1799218  0.649297E-03  0.119E-01    1.92       1.0  T
   5   -117.1809029 -0.981099E-03  0.336E-02    1.85       1.0  T
   6   -117.1809744 -0.714927E-04  0.113E-02    1.87       1.0  T
   7   -117.1809783 -0.388079E-05  0.388E-03    1.86       2.9  T
   8   -117.1809783 -0.648212E-07  0.234E-03    1.86       4.8  T
   9   -117.1809784 -0.868541E-07  0.107E-03    1.86      10.5  T
  10   -117.1809784 -0.137451E-07  0.532E-04    1.86      21.2  T
  11   -117.1809784 -0.435462E-08  0.268E-04    1.86      42.0  T
  12   -117.1809784 -0.830994E-09  0.102E-04    1.86     109.8  T
     SCC iter.                  ...        0 min,  0.183 sec
     gradient                   ...        0 min,  0.066 sec
 * total energy  :  -115.2861169 Eh     change       -0.1612387E-01 Eh
   gradient norm :     0.0285838 Eh/α   predicted    -0.1647904E-01 (   2.20%)
   displ. norm   :     0.8226257 α      lambda       -0.1528024E-01
   maximum displ.:     0.4448612 α      in ANC's #30, #12, #29, ...

........................................................................
.............................. CYCLE   11 ..............................
........................................................................

 iter      E             dE          RMSdq      gap      omega  full diag
   1   -117.1951573 -0.117195E+03  0.198E-01    1.87       0.0  T
   2   -117.1952789 -0.121625E-03  0.156E-01    1.90       1.0  T
   3   -117.1954377 -0.158847E-03  0.770E-02    1.89       1.0  T
   4   -117.1953188  0.118995E-03  0.463E-02    1.87       1.0  T
   5   -117.1953156  0.315300E-05  0.421E-02    1.91       1.0  T
   6   -117.1954663 -0.150698E-03  0.974E-03    1.89       1.2  T
   7   -117.1954693 -0.304072E-05  0.348E-03    1.89       3.2  T
   8   -117.1954694 -0.369602E-07  0.221E-03    1.89       5.1  T
   9   -117.1954694 -0.564624E-07  0.758E-04    1.89      14.8  T
  10   -117.1954694 -0.399091E-08  0.380E-04    1.89      29.6  T
  11   -117.1954694 -0.397144E-08  0.179E-04    1.89      62.8  T
     SCC iter.                  ...        0 min,  0.156 sec
     gradient                   ...        0 min,  0.068 sec
 * total energy  :  -115.2990013 Eh     change       -0.1288437E-01 Eh
   gradient norm :     0.0218447 Eh/α   predicted    -0.1281030E-01 (  -0.57%)
   displ. norm   :     0.8122693 α      lambda       -0.1155229E-01
   maximum displ.:     0.4140845 α      in ANC's #30, #12, #29, ...

........................................................................
.............................. CYCLE   12 ..............................
........................................................................

 iter      E             dE          RMSdq      gap      omega  full diag
   1   -117.2055677 -0.117206E+03  0.142E-01    1.89       0.0  T
   2   -117.2056567 -0.890046E-04  0.116E-01    1.91       1.0  T
   3   -117.2056986 -0.419020E-04  0.598E-02    1.90       1.0  T
   4   -117.2056852  0.133504E-04  0.218E-02    1.91       1.0  T
   5   -117.2056473  0.379557E-04  0.259E-02    1.89       1.0  T
   6   -117.2056979 -0.505825E-04  0.964E-03    1.91       1.2  T
   7   -117.2057044 -0.658272E-05  0.242E-03    1.90       4.7  T
   8   -117.2057045 -0.100051E-06  0.119E-03    1.90       9.5  T
   9   -117.2057046 -0.436911E-07  0.414E-04    1.90      27.1  T
  10   -117.2057046 -0.531973E-08  0.238E-04    1.90      47.3  T
     SCC iter.                  ...        0 min,  0.146 sec
     gradient                   ...        0 min,  0.061 sec
 * total energy  :  -115.3089906 Eh     change       -0.9989334E-02 Eh
   gradient norm :     0.0205213 Eh/α   predicted    -0.9587150E-02 (  -4.03%)
   displ. norm   :     0.8046780 α      lambda       -0.9226975E-02
   maximum displ.:     0.3865064 α      in ANC's #30, #12, #32, ...

........................................................................
.............................. CYCLE   13 ..............................
........................................................................

 iter      E             dE          RMSdq      gap      omega  full diag
   1   -117.2141509 -0.117214E+03  0.138E-01    1.91       0.0  T
   2   -117.2140240  0.126976E-03  0.114E-01    1.96       1.0  T
   3   -117.2140021  0.218990E-04  0.773E-02    1.90       1.0  T
   4   -117.2137611  0.240914E-03  0.846E-02    1.97       1.0  T
   5   -117.2143071 -0.546003E-03  0.101E-02    1.93       1.1  T
   6   -117.2143088 -0.161610E-05  0.500E-03    1.93       2.2  T
   7   -117.2143091 -0.310279E-06  0.202E-03    1.93       5.6  T
   8   -117.2143091 -0.615403E-07  0.144E-03    1.93       7.8  T
   9   -117.2143092 -0.464655E-07  0.462E-04    1.93      24.4  T
  10   -117.2143092 -0.524378E-08  0.176E-04    1.93      64.0  T
     SCC iter.                  ...        0 min,  0.145 sec
     gradient                   ...        0 min,  0.059 sec
 * total energy  :  -115.3170260 Eh     change       -0.8035419E-02 Eh
   gradient norm :     0.0198916 Eh/α   predicted    -0.7600773E-02 (  -5.41%)
   displ. norm   :     0.7981564 α      lambda       -0.7596472E-02
   maximum displ.:     0.3531118 α      in ANC's #30, #12, #32, ...

........................................................................
.............................. CYCLE   14 ..............................
........................................................................

 iter      E             dE          RMSdq      gap      omega  full diag
   1   -117.2214567 -0.117221E+03  0.127E-01    1.93       0.0  T
   2   -117.2213979  0.587751E-04  0.945E-02    1.97       1.0  T
   3   -117.2212532  0.144749E-03  0.771E-02    1.91       1.0  T
   4   -117.2210796  0.173560E-03  0.791E-02    1.98       1.0  T
   5   -117.2215697 -0.490083E-03  0.853E-03    1.95       1.3  T
   6   -117.2215705 -0.746733E-06  0.427E-03    1.95       2.6  T
   7   -117.2215707 -0.237144E-06  0.187E-03    1.95       6.0  T
   8   -117.2215708 -0.672800E-07  0.132E-03    1.95       8.5  T
   9   -117.2215708 -0.327981E-07  0.393E-04    1.95      28.6  T
  10   -117.2215708 -0.278958E-08  0.167E-04    1.95      67.5  T
     SCC iter.                  ...        0 min,  0.151 sec
     gradient                   ...        0 min,  0.068 sec
 * total energy  :  -115.3236478 Eh     change       -0.6621712E-02 Eh
   gradient norm :     0.0186565 Eh/α   predicted    -0.6217913E-02 (  -6.10%)
   displ. norm   :     0.7903078 α      lambda       -0.6308520E-02
   maximum displ.:     0.3409075 α      in ANC's #12, #30, #32, ...

........................................................................
.............................. CYCLE   15 ..............................
........................................................................

 iter      E             dE          RMSdq      gap      omega  full diag
   1   -117.2275928 -0.117228E+03  0.133E-01    1.94       0.0  T
   2   -117.2273466  0.246210E-03  0.106E-01    2.01       1.0  T
   3   -117.2271829  0.163648E-03  0.943E-02    1.92       1.0  T
   4   -117.2274652 -0.282212E-03  0.682E-02    2.00       1.0  T
   5   -117.2277662 -0.301085E-03  0.108E-02    1.97       1.0  T
   6   -117.2277679 -0.166599E-05  0.416E-03    1.97       2.7  T
   7   -117.2277681 -0.159270E-06  0.186E-03    1.97       6.0  T
   8   -117.2277681 -0.426539E-07  0.119E-03    1.97       9.4  T
   9   -117.2277681 -0.603589E-08  0.380E-04    1.97      29.6  T
  10   -117.2277681 -0.117615E-08  0.175E-04    1.97      64.3  T
     SCC iter.                  ...        0 min,  0.151 sec
     gradient                   ...        0 min,  0.068 sec
 * total energy  :  -115.3291085 Eh     change       -0.5460713E-02 Eh
   gradient norm :     0.0160002 Eh/α   predicted    -0.5124383E-02 (  -6.16%)
   displ. norm   :     0.7813835 α      lambda       -0.5109081E-02
   maximum displ.:     0.3438711 α      in ANC's #12, #30, #32, ...

........................................................................
.............................. CYCLE   16 ..............................
........................................................................

 iter      E             dE          RMSdq      gap      omega  full diag
   1   -117.2318401 -0.117232E+03  0.134E-01    1.97       0.0  T
   2   -117.2316992  0.140863E-03  0.969E-02    2.02       1.0  T
   3   -117.2312775  0.421666E-03  0.102E-01    1.93       1.0  T
   4   -117.2316265 -0.348949E-03  0.696E-02    2.01       1.0  T
   5   -117.2319614 -0.334911E-03  0.850E-03    1.99       1.3  T
   6   -117.2319623 -0.846425E-06  0.343E-03    1.99       3.3  T
   7   -117.2319623 -0.324558E-07  0.182E-03    1.99       6.2  T
   8   -117.2319623 -0.502051E-07  0.110E-03    1.99      10.2  T
   9   -117.2319623 -0.994120E-08  0.361E-04    1.99      31.2  T
  10   -117.2319623 -0.115651E-08  0.155E-04    1.99      72.4  T
     SCC iter.                  ...        0 min,  0.146 sec
     gradient                   ...        0 min,  0.059 sec
 * total energy  :  -115.3334478 Eh     change       -0.4339298E-02 Eh
   gradient norm :     0.0136195 Eh/α   predicted    -0.4114246E-02 (  -5.19%)
   displ. norm   :     0.7635368 α      lambda       -0.3916277E-02
   maximum displ.:     0.3280393 α      in ANC's #12, #30, #32, ...

........................................................................
.............................. CYCLE   17 ..............................
........................................................................

 iter      E             dE          RMSdq      gap      omega  full diag
   1   -117.2349105 -0.117235E+03  0.128E-01    1.98       0.0  T
   2   -117.2347130  0.197546E-03  0.978E-02    2.03       1.0  T
   3   -117.2344400  0.273010E-03  0.963E-02    1.95       1.0  T
   4   -117.2347836 -0.343602E-03  0.642E-02    2.02       1.0  T
   5   -117.2350490 -0.265425E-03  0.101E-02    2.00       1.1  T
   6   -117.2350509 -0.189665E-05  0.333E-03    2.00       3.4  T
   7   -117.2350511 -0.205564E-06  0.148E-03    2.00       7.6  T
   8   -117.2350511 -0.196880E-07  0.850E-04    2.00      13.2  T
   9   -117.2350511 -0.354130E-08  0.318E-04    2.00      35.3  T
  10   -117.2350511  0.854214E-10  0.164E-04    2.00      68.7  T
     SCC iter.                  ...        0 min,  0.139 sec
     gradient                   ...        0 min,  0.063 sec
 * total energy  :  -115.3366554 Eh     change       -0.3207683E-02 Eh
   gradient norm :     0.0129917 Eh/α   predicted    -0.3099717E-02 (  -3.37%)
   displ. norm   :     0.7295934 α      lambda       -0.2872280E-02
   maximum displ.:     0.3016619 α      in ANC's #30, #12, #32, ...

........................................................................
.............................. CYCLE   18 ..............................
........................................................................

 iter      E             dE          RMSdq      gap      omega  full diag
   1   -117.2359464 -0.117236E+03  0.121E-01    2.00       0.0  T
   2   -117.2359009  0.455112E-04  0.778E-02    2.03       1.0  T
   3   -117.2353538  0.547116E-03  0.948E-02    1.96       1.0  T
   4   -117.2357975 -0.443722E-03  0.520E-02    2.03       1.0  T
   5   -117.2359884 -0.190934E-03  0.531E-03    2.01       2.1  T
   6   -117.2359890 -0.617845E-06  0.314E-03    2.01       3.6  T
   7   -117.2359892 -0.152970E-06  0.143E-03    2.01       7.9  T
   8   -117.2359892 -0.336887E-07  0.825E-04    2.01      13.6  T
   9   -117.2359892 -0.133703E-07  0.273E-04    2.01      41.2  T
  10   -117.2359892 -0.425487E-09  0.114E-04    2.01      98.7  T
     SCC iter.                  ...        0 min,  0.151 sec
     gradient                   ...        0 min,  0.061 sec
 * total energy  :  -115.3389223 Eh     change       -0.2266854E-02 Eh
   gradient norm :     0.0137826 Eh/α   predicted    -0.2200609E-02 (  -2.92%)
   displ. norm   :     0.6848433 α      lambda       -0.2155302E-02
   maximum displ.:     0.2847731 α      in ANC's #30, #12, #32, ...

........................................................................
.............................. CYCLE   19 ..............................
........................................................................

 iter      E             dE          RMSdq      gap      omega  full diag
   1   -117.2382835 -0.117238E+03  0.995E-02    2.01       0.0  T
   2   -117.2382843 -0.787195E-06  0.616E-02    2.02       1.0  T
   3   -117.2381287  0.155661E-03  0.593E-02    1.99       1.0  T
   4   -117.2381786 -0.499664E-04  0.381E-02    2.03       1.0  T
   5   -117.2383012 -0.122563E-03  0.450E-03    2.01       2.5  T
   6   -117.2383022 -0.962120E-06  0.172E-03    2.01       6.6  T
   7   -117.2383022 -0.394608E-07  0.846E-04    2.01      13.3  T
   8   -117.2383022 -0.102692E-07  0.496E-04    2.01      22.7  T
   9   -117.2383022 -0.487408E-08  0.179E-04    2.01      63.0  T
     SCC iter.                  ...        0 min,  0.128 sec
     gradient                   ...        0 min,  0.059 sec
 * total energy  :  -115.3405834 Eh     change       -0.1661106E-02 Eh
   gradient norm :     0.0138187 Eh/α   predicted    -0.1583086E-02 (  -4.70%)
   displ. norm   :     0.6348457 α      lambda       -0.1678167E-02
   maximum displ.:     0.2695573 α      in ANC's #30, #12, #24, ...

........................................................................
.............................. CYCLE   20 ..............................
........................................................................

 iter      E             dE          RMSdq      gap      omega  full diag
   1   -117.2408728 -0.117241E+03  0.884E-02    2.01       0.0  T
   2   -117.2408837 -0.108699E-04  0.593E-02    2.01       1.0  T
   3   -117.2408818  0.182883E-05  0.455E-02    2.02       1.0  T
   4   -117.2408714  0.104751E-04  0.175E-02    2.00       1.0  T
   5   -117.2408838 -0.124773E-04  0.118E-02    2.02       1.0  T
   6   -117.2408957 -0.118600E-04  0.189E-03    2.01       6.0  T
   7   -117.2408958 -0.676942E-07  0.894E-04    2.01      12.6  T
   8   -117.2408958 -0.886703E-08  0.452E-04    2.01      24.9  T
   9   -117.2408958 -0.251727E-08  0.185E-04    2.01      60.8  T
     SCC iter.                  ...        0 min,  0.128 sec
     gradient                   ...        0 min,  0.071 sec
 * total energy  :  -115.3418620 Eh     change       -0.1278554E-02 Eh
   gradient norm :     0.0120309 Eh/α   predicted    -0.1177260E-02 (  -7.92%)
   displ. norm   :     0.5892919 α      lambda       -0.1315750E-02
   maximum displ.:     0.2550378 α      in ANC's #30, #14, #12, ...
 * RMSD in coord.:     1.4274529 α      energy gain  -0.7996946E+00 Eh

generating ANC from exact Hessian ...
Using Lindh-Hessian (1995)
 Shifting diagonal of input Hessian by    1.0734556344479524E-002
 Lowest  eigenvalues of input Hessian
    0.010000    0.000000    0.000000    0.000000    0.000000    0.000000
    0.000000    0.010797    0.010817    0.010827    0.010951    0.011009
    0.011052    0.011104    0.011203    0.011345    0.011414    0.011442
 Highest eigenvalues
    2.000562    2.003163    2.004436    2.009016    2.017641    2.357193


........................................................................
.............................. CYCLE   21 ..............................
........................................................................

 iter      E             dE          RMSdq      gap      omega  full diag
   1   -117.2427222 -0.117243E+03  0.910E-02    2.01       0.0  T
   2   -117.2426951  0.271463E-04  0.696E-02    2.00       1.0  T
   3   -117.2426666  0.284718E-04  0.547E-02    2.03       1.0  T
   4   -117.2426080  0.585495E-04  0.495E-02    1.98       1.0  T
   5   -117.2427856 -0.177521E-03  0.130E-02    2.01       1.0  T
   6   -117.2427942 -0.862215E-05  0.267E-03    2.01       4.2  T
   7   -117.2427942 -0.699781E-07  0.139E-03    2.01       8.1  T
   8   -117.2427943 -0.194817E-07  0.647E-04    2.01      17.4  T
   9   -117.2427943 -0.415923E-08  0.258E-04    2.01      43.7  T
  10   -117.2427943  0.511164E-10  0.138E-04    2.01      81.4  T
     SCC iter.                  ...        0 min,  0.141 sec
     gradient                   ...        0 min,  0.058 sec
 * total energy  :  -115.3427729 Eh     change       -0.9109432E-03 Eh
   gradient norm :     0.0109425 Eh/α   predicted     0.0000000E+00 (-100.00%)
   displ. norm   :     0.2288380 α      lambda       -0.1184717E-02
   maximum displ.:     0.1019425 α      in ANC's #38, #5, #1, ...

........................................................................
.............................. CYCLE   22 ..............................
........................................................................

 iter      E             dE          RMSdq      gap      omega  full diag
   1   -117.2448977 -0.117245E+03  0.727E-02    2.02       0.0  T
   2   -117.2448862  0.115131E-04  0.460E-02    2.00       1.0  T
   3   -117.2447355  0.150703E-03  0.513E-02    2.04       1.0  T
   4   -117.2448528 -0.117351E-03  0.324E-02    2.00       1.0  T
   5   -117.2449333 -0.805270E-04  0.465E-03    2.02       2.4  T
   6   -117.2449338 -0.458652E-06  0.267E-03    2.02       4.2  T
   7   -117.2449339 -0.427178E-07  0.133E-03    2.02       8.5  T
   8   -117.2449339 -0.250935E-07  0.658E-04    2.02      17.1  T
   9   -117.2449339 -0.139308E-07  0.212E-04    2.02      53.0  T
  10   -117.2449339 -0.108378E-08  0.758E-05    2.02     148.5  T
     SCC iter.                  ...        0 min,  0.159 sec
     gradient                   ...        0 min,  0.080 sec
 * total energy  :  -115.3436360 Eh     change       -0.8630730E-03 Eh
   gradient norm :     0.0069224 Eh/α   predicted    -0.6233805E-03 ( -27.77%)
   displ. norm   :     0.4205277 α      lambda       -0.1366101E-02
   maximum displ.:     0.1880971 α      in ANC's #38, #5, #10, ...

........................................................................
.............................. CYCLE   23 ..............................
........................................................................

 iter      E             dE          RMSdq      gap      omega  full diag
   1   -117.2441097 -0.117244E+03  0.987E-02    2.04       0.0  T
   2   -117.2436336  0.476099E-03  0.105E-01    1.98       1.0  T
   3   -117.2440460 -0.412387E-03  0.646E-02    2.05       1.0  T
   4   -117.2442376 -0.191640E-03  0.409E-02    2.01       1.0  T
   5   -117.2443119 -0.742467E-04  0.133E-02    2.02       1.0  T
   6   -117.2443138 -0.193977E-05  0.519E-03    2.02       2.2  T
   7   -117.2443144 -0.559086E-06  0.158E-03    2.02       7.1  T
   8   -117.2443144 -0.222408E-07  0.737E-04    2.02      15.3  T
   9   -117.2443144 -0.613157E-08  0.333E-04    2.02      33.8  T
  10   -117.2443144 -0.387621E-08  0.130E-04    2.02      86.5  T
     SCC iter.                  ...        0 min,  0.150 sec
     gradient                   ...        0 min,  0.069 sec
 * total energy  :  -115.3443181 Eh     change       -0.6821044E-03 Eh
   gradient norm :     0.0161702 Eh/α   predicted    -0.8038470E-03 (  17.85%)
   displ. norm   :     0.2995583 α      lambda       -0.8693528E-03
   maximum displ.:     0.1427084 α      in ANC's #5, #19, #38, ...

........................................................................
.............................. CYCLE   24 ..............................
........................................................................

 iter      E             dE          RMSdq      gap      omega  full diag
   1   -117.2421968 -0.117242E+03  0.109E-01    2.03       0.0  T
   2   -117.2421728  0.240257E-04  0.677E-02    2.03       1.0  T
   3   -117.2418322  0.340591E-03  0.760E-02    1.99       1.0  T
   4   -117.2420639 -0.231742E-03  0.474E-02    2.05       1.0  T
   5   -117.2422253 -0.161382E-03  0.876E-03    2.02       1.3  T
   6   -117.2422282 -0.284385E-05  0.313E-03    2.02       3.6  T
   7   -117.2422282 -0.102720E-08  0.126E-03    2.02       8.9  T
   8   -117.2422282 -0.293447E-07  0.584E-04    2.02      19.3  T
   9   -117.2422282 -0.645555E-08  0.241E-04    2.02      46.7  T
  10   -117.2422282 -0.652989E-09  0.134E-04    2.02      84.1  T
     SCC iter.                  ...        0 min,  0.152 sec
     gradient                   ...        0 min,  0.065 sec
 * total energy  :  -115.3445431 Eh     change       -0.2250462E-03 Eh
   gradient norm :     0.0202442 Eh/α   predicted    -0.4736842E-03 ( 110.48%)
   displ. norm   :     0.2398355 α      lambda       -0.1182745E-02
   maximum displ.:     0.1301593 α      in ANC's #5, #10, #2, ...

........................................................................
.............................. CYCLE   25 ..............................
........................................................................

 iter      E             dE          RMSdq      gap      omega  full diag
   1   -117.2463286 -0.117246E+03  0.862E-02    2.02       0.0  T
   2   -117.2461987  0.129899E-03  0.640E-02    1.99       1.0  T
   3   -117.2460505  0.148252E-03  0.680E-02    2.04       1.0  T
   4   -117.2463500 -0.299526E-03  0.285E-02    2.00       1.0  T
   5   -117.2463728 -0.227631E-04  0.830E-03    2.02       1.4  T
   6   -117.2463750 -0.226702E-05  0.345E-03    2.01       3.3  T
   7   -117.2463752 -0.136776E-06  0.145E-03    2.01       7.8  T
   8   -117.2463752 -0.115226E-07  0.692E-04    2.01      16.3  T
   9   -117.2463752 -0.172663E-08  0.238E-04    2.01      47.2  T
  10   -117.2463752 -0.232717E-09  0.116E-04    2.01      96.6  T
     SCC iter.                  ...        0 min,  0.144 sec
     gradient                   ...        0 min,  0.073 sec
 * total energy  :  -115.3450353 Eh     change       -0.4921481E-03 Eh
   gradient norm :     0.0090475 Eh/α   predicted    -0.6253919E-03 (  27.07%)
   displ. norm   :     0.2290385 α      lambda       -0.6470053E-03
   maximum displ.:     0.1229303 α      in ANC's #5, #10, #14, ...

........................................................................
.............................. CYCLE   26 ..............................
........................................................................

 iter      E             dE          RMSdq      gap      omega  full diag
   1   -117.2468807 -0.117247E+03  0.710E-02    2.02       0.0  T
   2   -117.2468664  0.142382E-04  0.537E-02    2.01       1.0  T
   3   -117.2468556  0.108128E-04  0.372E-02    2.03       1.0  T
   4   -117.2468107  0.448564E-04  0.382E-02    2.00       1.0  T
   5   -117.2469209 -0.110184E-03  0.993E-03    2.02       1.1  T
   6   -117.2469236 -0.270448E-05  0.291E-03    2.02       3.9  T
   7   -117.2469236  0.475677E-08  0.123E-03    2.02       9.1  T
   8   -117.2469237 -0.347942E-07  0.580E-04    2.02      19.4  T
   9   -117.2469237 -0.358820E-08  0.277E-04    2.02      40.6  T
  10   -117.2469237 -0.937291E-09  0.113E-04    2.02      99.8  T
     SCC iter.                  ...        0 min,  0.182 sec
     gradient                   ...        0 min,  0.081 sec
 * total energy  :  -115.3453809 Eh     change       -0.3456297E-03 Eh
   gradient norm :     0.0081106 Eh/α   predicted    -0.3404743E-03 (  -1.49%)
   displ. norm   :     0.3671781 α      lambda       -0.6240639E-03
   maximum displ.:     0.2310396 α      in ANC's #5, #10, #7, ...

........................................................................
.............................. CYCLE   27 ..............................
........................................................................

 iter      E             dE          RMSdq      gap      omega  full diag
   1   -117.2443389 -0.117244E+03  0.719E-02    2.03       0.0  T
   2   -117.2443253  0.135821E-04  0.510E-02    2.01       1.0  T
   3   -117.2442870  0.383641E-04  0.407E-02    2.04       1.0  T
   4   -117.2442464  0.405440E-04  0.396E-02    2.00       1.0  T
   5   -117.2443632 -0.116813E-03  0.954E-03    2.03       1.2  T
   6   -117.2443662 -0.301128E-05  0.267E-03    2.02       4.2  T
   7   -117.2443663 -0.190391E-07  0.957E-04    2.02      11.8  T
   8   -117.2443663 -0.493696E-08  0.464E-04    2.02      24.2  T
   9   -117.2443663 -0.105824E-08  0.236E-04    2.02      47.7  T
     SCC iter.                  ...        0 min,  0.177 sec
     gradient                   ...        0 min,  0.080 sec
 * total energy  :  -115.3456800 Eh     change       -0.2990895E-03 Eh
   gradient norm :     0.0116114 Eh/α   predicted    -0.3541009E-03 (  18.39%)
   displ. norm   :     0.2646773 α      lambda       -0.4854946E-03
   maximum displ.:     0.1706829 α      in ANC's #5, #10, #7, ...

........................................................................
.............................. CYCLE   28 ..............................
........................................................................

 iter      E             dE          RMSdq      gap      omega  full diag
   1   -117.2451503 -0.117245E+03  0.444E-02    2.02       0.0  T
   2   -117.2451171  0.331412E-04  0.343E-02    2.03       1.0  T
   3   -117.2450495  0.675750E-04  0.387E-02    2.00       1.0  T
   4   -117.2451522 -0.102626E-03  0.143E-02    2.03       1.0  T
   5   -117.2451619 -0.970639E-05  0.367E-03    2.02       3.1  T
   6   -117.2451623 -0.436631E-06  0.129E-03    2.02       8.7  T
   7   -117.2451623 -0.419098E-08  0.668E-04    2.02      16.9  T
   8   -117.2451623 -0.109888E-07  0.305E-04    2.02      36.8  T
   9   -117.2451623 -0.145418E-08  0.131E-04    2.02      85.6  T
     SCC iter.                  ...        0 min,  0.174 sec
     gradient                   ...        0 min,  0.082 sec
 * total energy  :  -115.3460411 Eh     change       -0.3610872E-03 Eh
   gradient norm :     0.0052170 Eh/α   predicted    -0.2597537E-03 ( -28.06%)
   displ. norm   :     0.5312469 α      lambda       -0.6094159E-03
   maximum displ.:     0.3370897 α      in ANC's #5, #10, #7, ...

........................................................................
.............................. CYCLE   29 ..............................
........................................................................

 iter      E             dE          RMSdq      gap      omega  full diag
   1   -117.2437515 -0.117244E+03  0.810E-02    2.02       0.0  T
   2   -117.2437620 -0.105023E-04  0.489E-02    2.01       1.0  T
   3   -117.2437599  0.216736E-05  0.305E-02    2.02       1.0  T
   4   -117.2437637 -0.379552E-05  0.118E-02    2.01       1.0  T
   5   -117.2437666 -0.293050E-05  0.883E-03    2.02       1.3  T
   6   -117.2437725 -0.593445E-05  0.251E-03    2.01       4.5  T
   7   -117.2437727 -0.138141E-06  0.136E-03    2.02       8.2  T
   8   -117.2437727 -0.521642E-07  0.645E-04    2.02      17.4  T
   9   -117.2437727 -0.379656E-08  0.199E-04    2.02      56.5  T
  10   -117.2437727 -0.864418E-09  0.106E-04    2.02     106.5  T
     SCC iter.                  ...        0 min,  0.167 sec
     gradient                   ...        0 min,  0.065 sec
 * total energy  :  -115.3464108 Eh     change       -0.3696833E-03 Eh
   gradient norm :     0.0079818 Eh/α   predicted    -0.3907041E-03 (   5.69%)
   displ. norm   :     0.4360263 α      lambda       -0.4886663E-03
   maximum displ.:     0.2968564 α      in ANC's #5, #10, #7, ...

........................................................................
.............................. CYCLE   30 ..............................
........................................................................

 iter      E             dE          RMSdq      gap      omega  full diag
   1   -117.2454641 -0.117245E+03  0.683E-02    2.01       0.0  T
   2   -117.2454667 -0.259863E-05  0.407E-02    2.01       1.0  T
   3   -117.2454407  0.259783E-04  0.264E-02    2.02       1.0  T
   4   -117.2454553 -0.146428E-04  0.143E-02    2.01       1.0  T
   5   -117.2454670 -0.116902E-04  0.649E-03    2.02       1.7  T
   6   -117.2454705 -0.351270E-05  0.128E-03    2.01       8.8  T
   7   -117.2454706 -0.628568E-07  0.497E-04    2.01      22.6  T
   8   -117.2454706 -0.851102E-09  0.261E-04    2.01      43.1  T
     SCC iter.                  ...        0 min,  0.123 sec
     gradient                   ...        0 min,  0.066 sec
 * total energy  :  -115.3467414 Eh     change       -0.3306624E-03 Eh
   gradient norm :     0.0079910 Eh/α   predicted    -0.2907875E-03 ( -12.06%)
   displ. norm   :     0.4440746 α      lambda       -0.4107165E-03
   maximum displ.:     0.3035961 α      in ANC's #5, #10, #25, ...

........................................................................
.............................. CYCLE   31 ..............................
........................................................................

 iter      E             dE          RMSdq      gap      omega  full diag
   1   -117.2455550 -0.117246E+03  0.697E-02    2.02       0.0  T
   2   -117.2455572 -0.220853E-05  0.412E-02    2.01       1.0  T
   3   -117.2455200  0.372190E-04  0.304E-02    2.03       1.0  T
   4   -117.2454764  0.436198E-04  0.320E-02    2.00       1.0  T
   5   -117.2455629 -0.865296E-04  0.547E-03    2.02       2.1  T
   6   -117.2455646 -0.170587E-05  0.223E-03    2.01       5.1  T
   7   -117.2455647 -0.525708E-07  0.881E-04    2.01      12.8  T
   8   -117.2455647 -0.620477E-08  0.398E-04    2.01      28.3  T
   9   -117.2455647 -0.115179E-08  0.174E-04    2.01      64.5  T
     SCC iter.                  ...        0 min,  0.147 sec
     gradient                   ...        0 min,  0.064 sec
 * total energy  :  -115.3470595 Eh     change       -0.3181202E-03 Eh
   gradient norm :     0.0052484 Eh/α   predicted    -0.2458580E-03 ( -22.72%)
   displ. norm   :     0.4606856 α      lambda       -0.3867814E-03
   maximum displ.:     0.3188983 α      in ANC's #5, #10, #7, ...

........................................................................
.............................. CYCLE   32 ..............................
........................................................................

 iter      E             dE          RMSdq      gap      omega  full diag
   1   -117.2479185 -0.117248E+03  0.679E-02    2.01       0.0  T
   2   -117.2479199 -0.145292E-05  0.403E-02    2.01       1.0  T
   3   -117.2478566  0.632757E-04  0.316E-02    2.03       1.0  T
   4   -117.2478702 -0.135795E-04  0.256E-02    2.00       1.0  T
   5   -117.2479251 -0.549158E-04  0.375E-03    2.02       3.0  T
   6   -117.2479260 -0.863764E-06  0.157E-03    2.01       7.2  T
   7   -117.2479260 -0.429341E-07  0.718E-04    2.01      15.7  T
   8   -117.2479260 -0.410373E-08  0.393E-04    2.01      28.6  T
   9   -117.2479260 -0.206416E-08  0.125E-04    2.01      90.1  T
     SCC iter.                  ...        0 min,  0.134 sec
     gradient                   ...        0 min,  0.060 sec
 * total energy  :  -115.3473600 Eh     change       -0.3004520E-03 Eh
   gradient norm :     0.0050193 Eh/α   predicted    -0.2344372E-03 ( -21.97%)
   displ. norm   :     0.5351241 α      lambda       -0.3689151E-03
   maximum displ.:     0.3806363 α      in ANC's #5, #10, #7, ...

........................................................................
.............................. CYCLE   33 ..............................
........................................................................

 iter      E             dE          RMSdq      gap      omega  full diag
   1   -117.2476386 -0.117248E+03  0.759E-02    2.01       0.0  T
   2   -117.2476414 -0.277791E-05  0.452E-02    2.01       1.0  T
   3   -117.2476186  0.227397E-04  0.275E-02    2.00       1.0  T
   4   -117.2475968  0.218228E-04  0.232E-02    2.02       1.0  T
   5   -117.2476447 -0.478489E-04  0.330E-03    2.01       3.4  T
   6   -117.2476452 -0.534480E-06  0.137E-03    2.01       8.2  T
   7   -117.2476452 -0.249700E-07  0.677E-04    2.01      16.6  T
   8   -117.2476452 -0.557212E-08  0.249E-04    2.01      45.1  T
   9   -117.2476452 -0.671463E-09  0.126E-04    2.01      89.4  T
     SCC iter.                  ...        0 min,  0.122 sec
     gradient                   ...        0 min,  0.060 sec
 * total energy  :  -115.3476589 Eh     change       -0.2988670E-03 Eh
   gradient norm :     0.0049559 Eh/α   predicted    -0.2372803E-03 ( -20.61%)
   displ. norm   :     0.5452996 α      lambda       -0.3929489E-03
   maximum displ.:     0.3886084 α      in ANC's #5, #10, #6, ...

........................................................................
.............................. CYCLE   34 ..............................
........................................................................

 iter      E             dE          RMSdq      gap      omega  full diag
   1   -117.2491330 -0.117249E+03  0.698E-02    2.01       0.0  T
   2   -117.2491327  0.230650E-06  0.421E-02    2.01       1.0  T
   3   -117.2490732  0.595044E-04  0.342E-02    1.99       1.0  T
   4   -117.2490559  0.173641E-04  0.304E-02    2.03       1.0  T
   5   -117.2491381 -0.822048E-04  0.228E-03    2.01       4.9  T
   6   -117.2491381 -0.754213E-07  0.116E-03    2.01       9.7  T
   7   -117.2491382 -0.732315E-08  0.486E-04    2.01      23.1  T
   8   -117.2491382 -0.243092E-08  0.225E-04    2.01      49.9  T
     SCC iter.                  ...        0 min,  0.112 sec
     gradient                   ...        0 min,  0.060 sec
 * total energy  :  -115.3479699 Eh     change       -0.3110786E-03 Eh
   gradient norm :     0.0061878 Eh/α   predicted    -0.2548986E-03 ( -18.06%)
   displ. norm   :     0.6496464 α      lambda       -0.4098229E-03
   maximum displ.:     0.4703913 α      in ANC's #5, #6, #10, ...

........................................................................
.............................. CYCLE   35 ..............................
........................................................................

 iter      E             dE          RMSdq      gap      omega  full diag
   1   -117.2462701 -0.117246E+03  0.793E-02    2.01       0.0  T
   2   -117.2462732 -0.304445E-05  0.478E-02    2.01       1.0  T
   3   -117.2462647  0.847714E-05  0.317E-02    2.00       1.0  T
   4   -117.2462755 -0.108193E-04  0.566E-03    2.01       2.0  T
   5   -117.2462756 -0.533070E-07  0.365E-03    2.00       3.1  T
   6   -117.2462761 -0.509464E-06  0.281E-03    2.01       4.0  T
   7   -117.2462766 -0.520003E-06  0.700E-04    2.01      16.1  T
   8   -117.2462766 -0.835499E-09  0.329E-04    2.01      34.2  T
   9   -117.2462766 -0.165089E-08  0.177E-04    2.01      63.5  T
     SCC iter.                  ...        0 min,  0.138 sec
     gradient                   ...        0 min,  0.058 sec
 * total energy  :  -115.3482787 Eh     change       -0.3088006E-03 Eh
   gradient norm :     0.0055546 Eh/α   predicted    -0.2913965E-03 (  -5.64%)
   displ. norm   :     0.5421852 α      lambda       -0.4762766E-03
   maximum displ.:     0.3605370 α      in ANC's #5, #6, #14, ...

........................................................................
.............................. CYCLE   36 ..............................
........................................................................

 iter      E             dE          RMSdq      gap      omega  full diag
   1   -117.2542910 -0.117254E+03  0.631E-02    2.00       0.0  T
   2   -117.2542928 -0.183477E-05  0.384E-02    2.00       1.0  T
   3   -117.2542767  0.160749E-04  0.298E-02    2.00       1.0  T
   4   -117.2542646  0.121579E-04  0.186E-02    2.01       1.0  T
   5   -117.2542954 -0.308297E-04  0.270E-03    2.00       4.2  T
   6   -117.2542956 -0.231204E-06  0.147E-03    2.00       7.7  T
   7   -117.2542956 -0.253830E-07  0.596E-04    2.00      18.9  T
   8   -117.2542956 -0.365512E-08  0.275E-04    2.00      40.9  T
   9   -117.2542957 -0.993438E-09  0.120E-04    2.00      94.0  T
     SCC iter.                  ...        0 min,  0.122 sec
     gradient                   ...        0 min,  0.060 sec
 * total energy  :  -115.3485165 Eh     change       -0.2378021E-03 Eh
   gradient norm :     0.0078808 Eh/α   predicted    -0.3081450E-03 (  29.58%)
   displ. norm   :     0.6209458 α      lambda       -0.4694333E-03
   maximum displ.:     0.4369625 α      in ANC's #5, #6, #25, ...

........................................................................
.............................. CYCLE   37 ..............................
........................................................................

 iter      E             dE          RMSdq      gap      omega  full diag
   1   -117.2458557 -0.117246E+03  0.762E-02    2.00       0.0  T
   2   -117.2458594 -0.366042E-05  0.467E-02    2.00       1.0  T
   3   -117.2458309  0.284837E-04  0.397E-02    2.00       1.0  T
   4   -117.2458553 -0.244415E-04  0.145E-02    2.01       1.0  T
   5   -117.2458632 -0.782935E-05  0.903E-03    2.00       1.2  T
   6   -117.2458701 -0.698627E-05  0.159E-03    2.00       7.1  T
   7   -117.2458702 -0.837915E-07  0.662E-04    2.00      17.0  T
   8   -117.2458702 -0.198500E-08  0.363E-04    2.00      31.0  T
   9   -117.2458702 -0.554763E-09  0.140E-04    2.00      80.5  T
     SCC iter.                  ...        0 min,  0.136 sec
     gradient                   ...        0 min,  0.063 sec
 * total energy  :  -115.3488034 Eh     change       -0.2868701E-03 Eh
   gradient norm :     0.0073401 Eh/α   predicted    -0.3252180E-03 (  13.37%)
   displ. norm   :     0.2886476 α      lambda       -0.2438256E-03
   maximum displ.:     0.1766283 α      in ANC's #5, #6, #14, ...

........................................................................
.............................. CYCLE   38 ..............................
........................................................................

 iter      E             dE          RMSdq      gap      omega  full diag
   1   -117.2460158 -0.117246E+03  0.374E-02    2.01       0.0  T
   2   -117.2460107  0.514771E-05  0.249E-02    2.00       1.0  T
   3   -117.2459566  0.541290E-04  0.308E-02    2.02       1.0  T
   4   -117.2460050 -0.484041E-04  0.148E-02    2.00       1.0  T
   5   -117.2460197 -0.147709E-04  0.262E-03    2.00       4.3  T
   6   -117.2460200 -0.230908E-06  0.794E-04    2.00      14.2  T
   7   -117.2460200 -0.474684E-08  0.475E-04    2.00      23.7  T
   8   -117.2460200 -0.341220E-08  0.190E-04    2.00      59.2  T
     SCC iter.                  ...        0 min,  0.112 sec
     gradient                   ...        0 min,  0.061 sec
 * total energy  :  -115.3489898 Eh     change       -0.1863492E-03 Eh
   gradient norm :     0.0062907 Eh/α   predicted    -0.1320714E-03 ( -29.13%)
   displ. norm   :     0.5052764 α      lambda       -0.4382468E-03
   maximum displ.:     0.2857023 α      in ANC's #5, #6, #14, ...

........................................................................
.............................. CYCLE   39 ..............................
........................................................................

 iter      E             dE          RMSdq      gap      omega  full diag
   1   -117.2489102 -0.117249E+03  0.604E-02    2.01       0.0  T
   2   -117.2489078  0.237637E-05  0.377E-02    2.00       1.0  T
   3   -117.2487960  0.111820E-03  0.428E-02    2.02       1.0  T
   4   -117.2488852 -0.892119E-04  0.194E-02    1.99       1.0  T
   5   -117.2489143 -0.290925E-04  0.420E-03    2.00       2.7  T
   6   -117.2489150 -0.751266E-06  0.111E-03    2.00      10.1  T
   7   -117.2489150 -0.128764E-07  0.609E-04    2.00      18.5  T
   8   -117.2489150 -0.254762E-08  0.247E-04    2.00      45.5  T
   9   -117.2489150 -0.306173E-09  0.991E-05    2.00     113.5  T
     SCC iter.                  ...        0 min,  0.127 sec
     gradient                   ...        0 min,  0.065 sec
 * total energy  :  -115.3492865 Eh     change       -0.2967035E-03 Eh
   gradient norm :     0.0060880 Eh/α   predicted    -0.2750685E-03 (  -7.29%)
   displ. norm   :     0.4881976 α      lambda       -0.3971546E-03
   maximum displ.:     0.2597144 α      in ANC's #5, #6, #14, ...

........................................................................
.............................. CYCLE   40 ..............................
........................................................................

 iter      E             dE          RMSdq      gap      omega  full diag
   1   -117.2498234 -0.117250E+03  0.577E-02    2.00       0.0  T
   2   -117.2498251 -0.168138E-05  0.351E-02    2.00       1.0  T
   3   -117.2498030  0.220730E-04  0.264E-02    2.01       1.0  T
   4   -117.2497971  0.588598E-05  0.183E-02    1.99       1.0  T
   5   -117.2498261 -0.290200E-04  0.442E-03    2.01       2.5  T
   6   -117.2498273 -0.113182E-05  0.116E-03    2.00       9.7  T
   7   -117.2498273 -0.588385E-08  0.605E-04    2.00      18.6  T
   8   -117.2498273 -0.169453E-08  0.261E-04    2.00      43.1  T
   9   -117.2498273 -0.397222E-09  0.106E-04    2.00     106.6  T
     SCC iter.                  ...        0 min,  0.135 sec
     gradient                   ...        0 min,  0.063 sec
 * total energy  :  -115.3495032 Eh     change       -0.2167124E-03 Eh
   gradient norm :     0.0078869 Eh/α   predicted    -0.2459063E-03 (  13.47%)
   displ. norm   :     0.5767736 α      lambda       -0.2888931E-03
   maximum displ.:     0.3778909 α      in ANC's #5, #6, #8, ...

........................................................................
.............................. CYCLE   41 ..............................
........................................................................

 iter      E             dE          RMSdq      gap      omega  full diag
   1   -117.2443831 -0.117244E+03  0.597E-02    2.00       0.0  T
   2   -117.2443845 -0.134652E-05  0.353E-02    2.00       1.0  T
   3   -117.2443791  0.534379E-05  0.149E-02    2.00       1.0  T
   4   -117.2443815 -0.236026E-05  0.669E-03    2.01       1.7  T
   5   -117.2443849 -0.343147E-05  0.245E-03    2.00       4.6  T
   6   -117.2443853 -0.375412E-06  0.112E-03    2.00      10.0  T
   7   -117.2443853 -0.208786E-07  0.399E-04    2.00      28.2  T
   8   -117.2443853 -0.144783E-08  0.147E-04    2.00      76.4  T
     SCC iter.                  ...        0 min,  0.115 sec
     gradient                   ...        0 min,  0.069 sec
 * total energy  :  -115.3496577 Eh     change       -0.1545197E-03 Eh
   gradient norm :     0.0068675 Eh/α   predicted    -0.1925000E-03 (  24.58%)
   displ. norm   :     0.2906073 α      lambda       -0.4699018E-03
   maximum displ.:     0.1222950 α      in ANC's #6, #8, #2, ...

........................................................................
.............................. CYCLE   42 ..............................
........................................................................

 iter      E             dE          RMSdq      gap      omega  full diag
   1   -117.2561343 -0.117256E+03  0.619E-02    2.00       0.0  T
   2   -117.2561287  0.565082E-05  0.415E-02    2.01       1.0  T
   3   -117.2560830  0.456676E-04  0.388E-02    1.99       1.0  T
   4   -117.2560693  0.136748E-04  0.307E-02    2.02       1.0  T
   5   -117.2561452 -0.758234E-04  0.453E-03    2.00       2.5  T
   6   -117.2561459 -0.739059E-06  0.167E-03    2.00       6.7  T
   7   -117.2561459 -0.577984E-07  0.605E-04    2.00      18.6  T
   8   -117.2561460 -0.277046E-08  0.226E-04    2.00      49.9  T
   9   -117.2561460 -0.377000E-09  0.122E-04    2.00      92.6  T
     SCC iter.                  ...        0 min,  0.141 sec
     gradient                   ...        0 min,  0.063 sec
 * total energy  :  -115.3497650 Eh     change       -0.1072628E-03 Eh
   gradient norm :     0.0090514 Eh/α   predicted    -0.2547951E-03 ( 137.54%)
   displ. norm   :     0.2668159 α      lambda       -0.2954842E-03
   maximum displ.:     0.1766156 α      in ANC's #5, #6, #3, ...
 * RMSD in coord.:     0.8471460 α      energy gain  -0.7903005E-02 Eh

generating ANC from exact Hessian ...
Using Lindh-Hessian (1995)
 Shifting diagonal of input Hessian by    1.0314719034470269E-002
 Lowest  eigenvalues of input Hessian
    0.010000    0.000000    0.000000    0.000000    0.000000    0.000000
    0.000000    0.010398    0.010433    0.010472    0.010594    0.010654
    0.010677    0.010725    0.010862    0.010993    0.011041    0.011057
 Highest eigenvalues
    1.999624    2.002021    2.004167    2.004813    2.017568    2.359980


........................................................................
.............................. CYCLE   43 ..............................
........................................................................

 iter      E             dE          RMSdq      gap      omega  full diag
   1   -117.2510841 -0.117251E+03  0.345E-02    2.00       0.0  T
   2   -117.2510816  0.251054E-05  0.207E-02    2.01       1.0  T
   3   -117.2510214  0.601875E-04  0.289E-02    1.99       1.0  T
   4   -117.2510808 -0.593883E-04  0.102E-02    2.01       1.1  T
   5   -117.2510871 -0.632972E-05  0.205E-03    2.00       5.5  T
   6   -117.2510872 -0.808385E-07  0.109E-03    2.00      10.3  T
   7   -117.2510872 -0.368552E-07  0.400E-04    2.00      28.1  T
   8   -117.2510872 -0.185882E-08  0.190E-04    2.00      59.3  T
     SCC iter.                  ...        0 min,  0.105 sec
     gradient                   ...        0 min,  0.059 sec
 * total energy  :  -115.3499596 Eh     change       -0.1945949E-03 Eh
   gradient norm :     0.0033176 Eh/α   predicted     0.0000000E+00 (-100.00%)
   displ. norm   :     0.0683130 α      lambda       -0.8914881E-04
   maximum displ.:     0.0322579 α      in ANC's #7, #13, #22, ...

........................................................................
.............................. CYCLE   44 ..............................
........................................................................

 iter      E             dE          RMSdq      gap      omega  full diag
   1   -117.2517881 -0.117252E+03  0.245E-02    2.00       0.0  T
   2   -117.2517884 -0.276763E-06  0.144E-02    2.00       1.0  T
   3   -117.2517827  0.562937E-05  0.113E-02    2.01       1.0  T
   4   -117.2517829 -0.167913E-06  0.833E-03    2.00       1.4  T
   5   -117.2517887 -0.580142E-05  0.186E-03    2.00       6.0  T
   6   -117.2517889 -0.199065E-06  0.754E-04    2.00      14.9  T
   7   -117.2517889 -0.205807E-08  0.279E-04    2.00      40.3  T
   8   -117.2517889 -0.270077E-09  0.119E-04    2.00      94.3  T
     SCC iter.                  ...        0 min,  0.125 sec
     gradient                   ...        0 min,  0.060 sec
 * total energy  :  -115.3500065 Eh     change       -0.4689124E-04 Eh
   gradient norm :     0.0029696 Eh/α   predicted    -0.4482596E-04 (  -4.40%)
   displ. norm   :     0.2336417 α      lambda       -0.2622547E-03
   maximum displ.:     0.1155545 α      in ANC's #7, #13, #20, ...

........................................................................
.............................. CYCLE   45 ..............................
........................................................................

 iter      E             dE          RMSdq      gap      omega  full diag
   1   -117.2538462 -0.117254E+03  0.542E-02    2.00       0.0  T
   2   -117.2538517 -0.549653E-05  0.335E-02    2.00       1.0  T
   3   -117.2538511  0.613089E-06  0.215E-02    2.00       1.0  T
   4   -117.2538529 -0.184179E-05  0.753E-03    2.00       1.5  T
   5   -117.2538523  0.601106E-06  0.724E-03    2.00       1.6  T
   6   -117.2538564 -0.408724E-05  0.220E-03    2.00       5.1  T
   7   -117.2538566 -0.190966E-06  0.796E-04    2.00      14.1  T
   8   -117.2538566 -0.491248E-08  0.474E-04    2.00      23.8  T
   9   -117.2538566 -0.215003E-08  0.190E-04    2.00      59.3  T
     SCC iter.                  ...        0 min,  0.124 sec
     gradient                   ...        0 min,  0.060 sec
 * total energy  :  -115.3500524 Eh     change       -0.4597316E-04 Eh
   gradient norm :     0.0066905 Eh/α   predicted    -0.1382868E-03 ( 200.80%)
   displ. norm   :     0.0743143 α      lambda       -0.1797591E-03
   maximum displ.:     0.0338023 α      in ANC's #7, #23, #38, ...

........................................................................
.............................. CYCLE   46 ..............................
........................................................................

 iter      E             dE          RMSdq      gap      omega  full diag
   1   -117.2531480 -0.117253E+03  0.338E-02    2.00       0.0  T
   2   -117.2531463  0.169804E-05  0.237E-02    2.00       1.0  T
   3   -117.2531408  0.550295E-05  0.164E-02    1.99       1.0  T
   4   -117.2531258  0.150460E-04  0.188E-02    2.01       1.0  T
   5   -117.2531535 -0.277299E-04  0.348E-03    2.00       3.2  T
   6   -117.2531537 -0.219877E-06  0.173E-03    2.00       6.5  T
   7   -117.2531537 -0.153241E-07  0.619E-04    2.00      18.2  T
   8   -117.2531537 -0.991147E-08  0.292E-04    2.00      38.5  T
   9   -117.2531537 -0.545114E-09  0.117E-04    2.00      96.1  T
     SCC iter.                  ...        0 min,  0.130 sec
     gradient                   ...        0 min,  0.071 sec
 * total energy  :  -115.3501411 Eh     change       -0.8864137E-04 Eh
   gradient norm :     0.0042334 Eh/α   predicted    -0.9037644E-04 (   1.96%)
   displ. norm   :     0.0798294 α      lambda       -0.1162166E-03
   maximum displ.:     0.0441292 α      in ANC's #7, #13, #4, ...

........................................................................
.............................. CYCLE   47 ..............................
........................................................................

 iter      E             dE          RMSdq      gap      omega  full diag
   1   -117.2515812 -0.117252E+03  0.298E-02    2.00       0.0  T
   2   -117.2515825 -0.129693E-05  0.194E-02    2.00       1.0  T
   3   -117.2515818  0.677398E-06  0.139E-02    1.99       1.0  T
   4   -117.2515776  0.426770E-05  0.104E-02    2.00       1.1  T
   5   -117.2515832 -0.564431E-05  0.488E-03    1.99       2.3  T
   6   -117.2515851 -0.193867E-05  0.115E-03    2.00       9.8  T
   7   -117.2515852 -0.548320E-07  0.377E-04    2.00      29.9  T
   8   -117.2515852 -0.175544E-08  0.190E-04    2.00      59.1  T
     SCC iter.                  ...        0 min,  0.124 sec
     gradient                   ...        0 min,  0.064 sec
 * total energy  :  -115.3501932 Eh     change       -0.5214074E-04 Eh
   gradient norm :     0.0022231 Eh/α   predicted    -0.5848329E-04 (  12.16%)
   displ. norm   :     0.1256024 α      lambda       -0.7189537E-04
   maximum displ.:     0.0727684 α      in ANC's #7, #13, #4, ...

........................................................................
.............................. CYCLE   48 ..............................
........................................................................

 iter      E             dE          RMSdq      gap      omega  full diag
   1   -117.2513488 -0.117251E+03  0.242E-02    2.00       0.0  T
   2   -117.2513492 -0.425228E-06  0.153E-02    2.00       1.0  T
   3   -117.2513488  0.423790E-06  0.102E-02    2.00       1.1  T
   4   -117.2513445  0.429450E-05  0.846E-03    1.99       1.3  T
   5   -117.2513498 -0.533179E-05  0.248E-03    2.00       4.5  T
   6   -117.2513503 -0.468064E-06  0.589E-04    2.00      19.1  T
   7   -117.2513503 -0.856809E-08  0.225E-04    2.00      50.1  T
   8   -117.2513503 -0.349061E-09  0.136E-04    2.00      82.7  T
     SCC iter.                  ...        0 min,  0.119 sec
     gradient                   ...        0 min,  0.063 sec
 * total energy  :  -115.3502473 Eh     change       -0.5405085E-04 Eh
   gradient norm :     0.0020803 Eh/α   predicted    -0.3651548E-04 ( -32.44%)
   displ. norm   :     0.2536033 α      lambda       -0.1099521E-03
   maximum displ.:     0.1469620 α      in ANC's #7, #13, #4, ...

........................................................................
.............................. CYCLE   49 ..............................
........................................................................

 iter      E             dE          RMSdq      gap      omega  full diag
   1   -117.2514613 -0.117251E+03  0.427E-02    1.99       0.0  T
   2   -117.2514585  0.275109E-05  0.262E-02    2.00       1.0  T
   3   -117.2513506  0.107919E-03  0.360E-02    1.98       1.0  T
   4   -117.2514589 -0.108328E-03  0.799E-03    2.00       1.4  T
   5   -117.2514634 -0.449199E-05  0.149E-03    1.99       7.5  T
   6   -117.2514635 -0.666763E-07  0.822E-04    2.00      13.7  T
   7   -117.2514635 -0.493806E-08  0.381E-04    2.00      29.5  T
   8   -117.2514635 -0.155325E-09  0.187E-04    2.00      60.1  T
     SCC iter.                  ...        0 min,  0.122 sec
     gradient                   ...        0 min,  0.064 sec
 * total energy  :  -115.3503311 Eh     change       -0.8387558E-04 Eh
   gradient norm :     0.0017827 Eh/α   predicted    -0.5851621E-04 ( -30.23%)
   displ. norm   :     0.4208305 α      lambda       -0.9571950E-04
   maximum displ.:     0.2514522 α      in ANC's #7, #4, #13, ...

........................................................................
.............................. CYCLE   50 ..............................
........................................................................

 iter      E             dE          RMSdq      gap      omega  full diag
   1   -117.2514041 -0.117251E+03  0.690E-02    1.99       0.0  T
   2   -117.2514006  0.357041E-05  0.413E-02    2.00       1.0  T
   3   -117.2511962  0.204349E-03  0.486E-02    1.97       1.0  T
   4   -117.2514022 -0.205954E-03  0.910E-03    2.00       1.2  T
   5   -117.2514067 -0.449617E-05  0.179E-03    1.99       6.3  T
   6   -117.2514067 -0.355737E-07  0.836E-04    1.99      13.5  T
   7   -117.2514067 -0.292131E-08  0.385E-04    1.99      29.2  T
   8   -117.2514067 -0.782919E-09  0.147E-04    1.99      76.8  T
     SCC iter.                  ...        0 min,  0.124 sec
     gradient                   ...        0 min,  0.062 sec
 * total energy  :  -115.3504436 Eh     change       -0.1124184E-03 Eh
   gradient norm :     0.0024899 Eh/α   predicted    -0.5162704E-04 ( -54.08%)
   displ. norm   :     0.2335222 α      lambda       -0.8479845E-04
   maximum displ.:     0.1456642 α      in ANC's #7, #4, #3, ...

........................................................................
.............................. CYCLE   51 ..............................
........................................................................

 iter      E             dE          RMSdq      gap      omega  full diag
   1   -117.2522655 -0.117252E+03  0.364E-02    1.99       0.0  T
   2   -117.2522637  0.172723E-05  0.220E-02    2.00       1.0  T
   3   -117.2521870  0.767043E-04  0.297E-02    1.98       1.0  T
   4   -117.2522647 -0.776567E-04  0.532E-03    2.00       2.1  T
   5   -117.2522666 -0.188849E-05  0.121E-03    1.99       9.3  T
   6   -117.2522666 -0.475107E-07  0.361E-04    1.99      31.2  T
   7   -117.2522666 -0.390088E-10  0.190E-04    1.99      59.3  T
     SCC iter.                  ...        0 min,  0.099 sec
     gradient                   ...        0 min,  0.065 sec
 * total energy  :  -115.3505180 Eh     change       -0.7446618E-04 Eh
   gradient norm :     0.0020252 Eh/α   predicted    -0.4471160E-04 ( -39.96%)
   displ. norm   :     0.3122749 α      lambda       -0.1097730E-03
   maximum displ.:     0.1973210 α      in ANC's #7, #4, #3, ...

........................................................................
.............................. CYCLE   52 ..............................
........................................................................

 iter      E             dE          RMSdq      gap      omega  full diag
   1   -117.2529903 -0.117253E+03  0.455E-02    1.99       0.0  T
   2   -117.2529901  0.247332E-06  0.269E-02    2.00       1.0  T
   3   -117.2529521  0.379385E-04  0.212E-02    1.98       1.0  T
   4   -117.2529872 -0.351154E-04  0.725E-03    2.00       1.6  T
   5   -117.2529913 -0.408147E-05  0.104E-03    1.99      10.8  T
   6   -117.2529913 -0.255064E-07  0.560E-04    1.99      20.1  T
   7   -117.2529913 -0.216529E-08  0.257E-04    1.99      43.9  T
   8   -117.2529913 -0.837375E-09  0.963E-05    1.99     116.8  T
     SCC iter.                  ...        0 min,  0.124 sec
     gradient                   ...        0 min,  0.067 sec
 * total energy  :  -115.3506080 Eh     change       -0.9000256E-04 Eh
   gradient norm :     0.0013303 Eh/α   predicted    -0.6024061E-04 ( -33.07%)
   displ. norm   :     0.4809272 α      lambda       -0.8995271E-04
   maximum displ.:     0.3080726 α      in ANC's #7, #4, #3, ...

........................................................................
.............................. CYCLE   53 ..............................
........................................................................

 iter      E             dE          RMSdq      gap      omega  full diag
   1   -117.2525326 -0.117253E+03  0.671E-02    1.99       0.0  T
   2   -117.2525297  0.288701E-05  0.404E-02    2.00       1.0  T
   3   -117.2523856  0.144082E-03  0.442E-02    1.97       1.0  T
   4   -117.2525154 -0.129771E-03  0.159E-02    2.00       1.0  T
   5   -117.2525359 -0.205329E-04  0.185E-03    1.99       6.1  T
   6   -117.2525360 -0.794475E-07  0.880E-04    1.99      12.8  T
   7   -117.2525360 -0.461894E-08  0.350E-04    1.99      32.2  T
   8   -117.2525360 -0.348862E-09  0.187E-04    1.99      60.2  T
     SCC iter.                  ...        0 min,  0.153 sec
     gradient                   ...        0 min,  0.089 sec
 * total energy  :  -115.3506961 Eh     change       -0.8808633E-04 Eh
   gradient norm :     0.0021098 Eh/α   predicted    -0.4960058E-04 ( -43.69%)
   displ. norm   :     0.1884222 α      lambda       -0.5615469E-04
   maximum displ.:     0.1228563 α      in ANC's #7, #4, #3, ...

........................................................................
.............................. CYCLE   54 ..............................
........................................................................

 iter      E             dE          RMSdq      gap      omega  full diag
   1   -117.2526496 -0.117253E+03  0.256E-02    1.99       0.0  T
   2   -117.2526498 -0.119121E-06  0.152E-02    1.99       1.0  T
   3   -117.2526449  0.489537E-05  0.109E-02    2.00       1.0  T
   4   -117.2526442  0.672576E-06  0.819E-03    1.99       1.4  T
   5   -117.2526501 -0.591929E-05  0.739E-04    1.99      15.2  T
   6   -117.2526501 -0.174786E-08  0.541E-04    1.99      20.8  T
   7   -117.2526501 -0.788103E-08  0.270E-04    1.99      41.7  T
   8   -117.2526501 -0.169223E-08  0.103E-04    1.99     109.3  T
     SCC iter.                  ...        0 min,  0.145 sec
     gradient                   ...        0 min,  0.073 sec
 * total energy  :  -115.3507328 Eh     change       -0.3667484E-04 Eh
   gradient norm :     0.0019054 Eh/α   predicted    -0.2907833E-04 ( -20.71%)
   displ. norm   :     0.2135406 α      lambda       -0.4156262E-04
   maximum displ.:     0.1431061 α      in ANC's #7, #4, #3, ...

........................................................................
.............................. CYCLE   55 ..............................
........................................................................

 iter      E             dE          RMSdq      gap      omega  full diag
   1   -117.2534144 -0.117253E+03  0.272E-02    1.99       0.0  T
   2   -117.2534147 -0.240920E-06  0.165E-02    1.99       1.0  T
   3   -117.2534116  0.302422E-05  0.119E-02    1.99       1.0  T
   4   -117.2534093  0.233733E-05  0.854E-03    1.99       1.3  T
   5   -117.2534150 -0.573595E-05  0.176E-03    1.99       6.4  T
   6   -117.2534152 -0.192497E-06  0.405E-04    1.99      27.8  T
   7   -117.2534152 -0.189236E-08  0.189E-04    1.99      59.6  T
     SCC iter.                  ...        0 min,  0.120 sec
     gradient                   ...        0 min,  0.071 sec
 * total energy  :  -115.3507793 Eh     change       -0.4651559E-04 Eh
   gradient norm :     0.0014390 Eh/α   predicted    -0.2120350E-04 ( -54.42%)
   displ. norm   :     0.1915131 α      lambda       -0.3475873E-04
   maximum displ.:     0.1296338 α      in ANC's #7, #3, #4, ...

........................................................................
.............................. CYCLE   56 ..............................
........................................................................

 iter      E             dE          RMSdq      gap      omega  full diag
   1   -117.2527271 -0.117253E+03  0.290E-02    1.99       0.0  T
   2   -117.2527278 -0.741292E-06  0.173E-02    1.99       1.0  T
   3   -117.2527273  0.514561E-06  0.112E-02    1.99       1.0  T
   4   -117.2527284 -0.106866E-05  0.389E-03    1.99       2.9  T
   5   -117.2527287 -0.293972E-06  0.190E-03    1.99       5.9  T
   6   -117.2527287 -0.470600E-07  0.167E-03    1.99       6.7  T
   7   -117.2527290 -0.214882E-06  0.294E-04    1.99      38.3  T
   8   -117.2527290 -0.601077E-09  0.161E-04    1.99      69.7  T
     SCC iter.                  ...        0 min,  0.146 sec
     gradient                   ...        0 min,  0.071 sec
 * total energy  :  -115.3508108 Eh     change       -0.3153717E-04 Eh
   gradient norm :     0.0012247 Eh/α   predicted    -0.1766713E-04 ( -43.98%)
   displ. norm   :     0.1173750 α      lambda       -0.1885456E-04
   maximum displ.:     0.0729521 α      in ANC's #7, #3, #13, ...

........................................................................
.............................. CYCLE   57 ..............................
........................................................................

 iter      E             dE          RMSdq      gap      omega  full diag
   1   -117.2527916 -0.117253E+03  0.183E-02    1.99       0.0  T
   2   -117.2527919 -0.249367E-06  0.111E-02    1.99       1.0  T
   3   -117.2527896  0.228088E-05  0.906E-03    1.99       1.2  T
   4   -117.2527887  0.865981E-06  0.735E-03    1.99       1.5  T
   5   -117.2527926 -0.386526E-05  0.213E-03    1.99       5.3  T
   6   -117.2527929 -0.307497E-06  0.510E-04    1.99      22.0  T
   7   -117.2527929 -0.644499E-08  0.186E-04    1.99      60.6  T
   8   -117.2527929 -0.470592E-09  0.951E-05    1.99     118.3  T
     SCC iter.                  ...        0 min,  0.145 sec
     gradient                   ...        0 min,  0.067 sec
 * total energy  :  -115.3508272 Eh     change       -0.1633633E-04 Eh
   gradient norm :     0.0012381 Eh/α   predicted    -0.9486380E-05 ( -41.93%)
   displ. norm   :     0.1143743 α      lambda       -0.1590996E-04
   maximum displ.:     0.0607177 α      in ANC's #7, #13, #3, ...

........................................................................
.............................. CYCLE   58 ..............................
........................................................................

 iter      E             dE          RMSdq      gap      omega  full diag
   1   -117.2535653 -0.117254E+03  0.233E-02    1.99       0.0  T
   2   -117.2535632  0.201574E-05  0.149E-02    1.99       1.0  T
   3   -117.2535347  0.285208E-04  0.197E-02    2.00       1.0  T
   4   -117.2535629 -0.282168E-04  0.763E-03    1.99       1.5  T
   5   -117.2535663 -0.332075E-05  0.118E-03    1.99       9.5  T
   6   -117.2535663 -0.336799E-07  0.511E-04    1.99      22.0  T
   7   -117.2535663 -0.445696E-08  0.208E-04    1.99      54.0  T
   8   -117.2535663 -0.202149E-09  0.983E-05    1.99     114.5  T
     SCC iter.                  ...        0 min,  0.156 sec
     gradient                   ...        0 min,  0.091 sec
 * total energy  :  -115.3508417 Eh     change       -0.1452535E-04 Eh
   gradient norm :     0.0011999 Eh/α   predicted    -0.8002873E-05 ( -44.90%)
   displ. norm   :     0.1154841 α      lambda       -0.1484660E-04
   maximum displ.:     0.0580974 α      in ANC's #7, #3, #11, ...

........................................................................
.............................. CYCLE   59 ..............................
........................................................................

 iter      E             dE          RMSdq      gap      omega  full diag
   1   -117.2534062 -0.117253E+03  0.221E-02    1.99       0.0  T
   2   -117.2534059  0.328836E-06  0.132E-02    1.99       1.0  T
   3   -117.2533891  0.167524E-04  0.148E-02    1.98       1.0  T
   4   -117.2534043 -0.151920E-04  0.543E-03    1.99       2.1  T
   5   -117.2534066 -0.227120E-05  0.878E-04    1.99      12.8  T
   6   -117.2534066 -0.201779E-07  0.474E-04    1.99      23.7  T
   7   -117.2534066 -0.256392E-08  0.188E-04    1.99      59.8  T
     SCC iter.                  ...        0 min,  0.123 sec
     gradient                   ...        0 min,  0.068 sec
 * total energy  :  -115.3508582 Eh     change       -0.1650837E-04 Eh
   gradient norm :     0.0010058 Eh/α   predicted    -0.7468329E-05 ( -54.76%)
   displ. norm   :     0.1598810 α      lambda       -0.1765012E-04
   maximum displ.:     0.0687717 α      in ANC's #7, #3, #11, ...

........................................................................
.............................. CYCLE   60 ..............................
........................................................................

 iter      E             dE          RMSdq      gap      omega  full diag
   1   -117.2525472 -0.117253E+03  0.335E-02    1.99       0.0  T
   2   -117.2525471  0.969776E-07  0.199E-02    1.99       1.0  T
   3   -117.2525344  0.127022E-04  0.156E-02    1.99       1.0  T
   4   -117.2525361 -0.175051E-05  0.114E-02    2.00       1.0  T
   5   -117.2525477 -0.116063E-04  0.127E-03    1.99       8.8  T
   6   -117.2525478 -0.348270E-07  0.504E-04    1.99      22.3  T
   7   -117.2525478 -0.558757E-09  0.232E-04    1.99      48.6  T
   8   -117.2525478 -0.237534E-09  0.903E-05    1.99     124.5  T
     SCC iter.                  ...        0 min,  0.134 sec
     gradient                   ...        0 min,  0.072 sec
 * total energy  :  -115.3508766 Eh     change       -0.1841128E-04 Eh
   gradient norm :     0.0010824 Eh/α   predicted    -0.8929001E-05 ( -51.50%)
   displ. norm   :     0.1752207 α      lambda       -0.1530211E-04
   maximum displ.:     0.0746425 α      in ANC's #3, #7, #11, ...

........................................................................
.............................. CYCLE   61 ..............................
........................................................................

 iter      E             dE          RMSdq      gap      omega  full diag
   1   -117.2526886 -0.117253E+03  0.377E-02    1.99       0.0  T
   2   -117.2526878  0.793610E-06  0.226E-02    2.00       1.0  T
   3   -117.2526668  0.209841E-04  0.205E-02    1.99       1.0  T
   4   -117.2526685 -0.170963E-05  0.155E-02    2.00       1.0  T
   5   -117.2526895 -0.209650E-04  0.198E-03    1.99       5.7  T
   6   -117.2526896 -0.132148E-06  0.564E-04    2.00      20.0  T
   7   -117.2526896 -0.488264E-08  0.245E-04    2.00      46.0  T
   8   -117.2526896 -0.208288E-09  0.126E-04    2.00      89.1  T
     SCC iter.                  ...        0 min,  0.123 sec
     gradient                   ...        0 min,  0.059 sec
 * total energy  :  -115.3508923 Eh     change       -0.1563852E-04 Eh
   gradient norm :     0.0010836 Eh/α   predicted    -0.7758106E-05 ( -50.39%)
   displ. norm   :     0.1769094 α      lambda       -0.1459268E-04
   maximum displ.:     0.0855952 α      in ANC's #3, #7, #11, ...

........................................................................
.............................. CYCLE   62 ..............................
........................................................................

 iter      E             dE          RMSdq      gap      omega  full diag
   1   -117.2524138 -0.117252E+03  0.379E-02    2.00       0.0  T
   2   -117.2524127  0.109058E-05  0.226E-02    2.00       1.0  T
   3   -117.2523788  0.339286E-04  0.226E-02    1.99       1.0  T
   4   -117.2523999 -0.210706E-04  0.133E-02    2.00       1.0  T
   5   -117.2524146 -0.147348E-04  0.135E-03    2.00       8.3  T
   6   -117.2524146 -0.387777E-07  0.443E-04    2.00      25.4  T
   7   -117.2524146 -0.185172E-08  0.183E-04    2.00      61.4  T
     SCC iter.                  ...        0 min,  0.104 sec
     gradient                   ...        0 min,  0.065 sec
 * total energy  :  -115.3509088 Eh     change       -0.1658541E-04 Eh
   gradient norm :     0.0010978 Eh/α   predicted    -0.7399857E-05 ( -55.38%)
   displ. norm   :     0.2218673 α      lambda       -0.1937172E-04
   maximum displ.:     0.1159070 α      in ANC's #3, #7, #5, ...

........................................................................
.............................. CYCLE   63 ..............................
........................................................................

 iter      E             dE          RMSdq      gap      omega  full diag
   1   -117.2523967 -0.117252E+03  0.465E-02    2.00       0.0  T
   2   -117.2523958  0.934993E-06  0.276E-02    2.00       1.0  T
   3   -117.2523520  0.437315E-04  0.254E-02    1.98       1.0  T
   4   -117.2523822 -0.301665E-04  0.136E-02    2.00       1.0  T
   5   -117.2523976 -0.154206E-04  0.141E-03    2.00       8.0  T
   6   -117.2523977 -0.409382E-07  0.412E-04    2.00      27.3  T
   7   -117.2523977 -0.593090E-09  0.168E-04    2.00      67.0  T
     SCC iter.                  ...        0 min,  0.104 sec
     gradient                   ...        0 min,  0.072 sec
 * total energy  :  -115.3509309 Eh     change       -0.2204835E-04 Eh
   gradient norm :     0.0011155 Eh/α   predicted    -0.9900604E-05 ( -55.10%)
   displ. norm   :     0.2693277 α      lambda       -0.2193579E-04
   maximum displ.:     0.1480895 α      in ANC's #3, #7, #5, ...

........................................................................
.............................. CYCLE   64 ..............................
........................................................................

 iter      E             dE          RMSdq      gap      omega  full diag
   1   -117.2524217 -0.117252E+03  0.555E-02    2.00       0.0  T
   2   -117.2524187  0.294944E-05  0.331E-02    2.00       1.0  T
   3   -117.2522743  0.144394E-03  0.409E-02    1.98       1.0  T
   4   -117.2524205 -0.146186E-03  0.664E-03    2.00       1.7  T
   5   -117.2524231 -0.259505E-05  0.854E-04    2.00      13.2  T
   6   -117.2524231 -0.198620E-07  0.502E-04    2.00      22.4  T
   7   -117.2524231 -0.467413E-08  0.193E-04    2.00      58.2  T
   8   -117.2524231  0.135998E-10  0.945E-05    2.00     119.0  T
     SCC iter.                  ...        0 min,  0.130 sec
     gradient                   ...        0 min,  0.065 sec
 * total energy  :  -115.3509545 Eh     change       -0.2359735E-04 Eh
   gradient norm :     0.0012708 Eh/α   predicted    -0.1132306E-04 ( -52.02%)
   displ. norm   :     0.2751401 α      lambda       -0.2079372E-04
   maximum displ.:     0.1549007 α      in ANC's #3, #7, #5, ...

........................................................................
.............................. CYCLE   65 ..............................
........................................................................

 iter      E             dE          RMSdq      gap      omega  full diag
   1   -117.2520589 -0.117252E+03  0.560E-02    2.00       0.0  T
   2   -117.2520586  0.306721E-06  0.331E-02    2.00       1.0  T
   3   -117.2520185  0.400656E-04  0.235E-02    1.99       1.0  T
   4   -117.2520508 -0.322800E-04  0.106E-02    2.00       1.1  T
   5   -117.2520600 -0.921617E-05  0.107E-03    2.00      10.5  T
   6   -117.2520601 -0.282713E-07  0.543E-04    2.00      20.7  T
   7   -117.2520601 -0.175970E-08  0.220E-04    2.00      51.2  T
   8   -117.2520601 -0.152724E-09  0.931E-05    2.00     120.9  T
     SCC iter.                  ...        0 min,  0.128 sec
     gradient                   ...        0 min,  0.073 sec
 * total energy  :  -115.3509775 Eh     change       -0.2301739E-04 Eh
   gradient norm :     0.0015408 Eh/α   predicted    -0.1074777E-04 ( -53.31%)
   displ. norm   :     0.3478451 α      lambda       -0.2787194E-04
   maximum displ.:     0.1970547 α      in ANC's #3, #7, #5, ...

........................................................................
.............................. CYCLE   66 ..............................
........................................................................

 iter      E             dE          RMSdq      gap      omega  full diag
   1   -117.2523606 -0.117252E+03  0.716E-02    2.00       0.0  T
   2   -117.2523600  0.521408E-06  0.425E-02    2.00       1.0  T
   3   -117.2522997  0.603499E-04  0.321E-02    1.99       1.0  T
   4   -117.2523316 -0.318703E-04  0.192E-02    2.01       1.0  T
   5   -117.2523631 -0.315223E-04  0.235E-03    2.00       4.8  T
   6   -117.2523633 -0.222315E-06  0.766E-04    2.00      14.7  T
   7   -117.2523633 -0.101970E-08  0.418E-04    2.00      26.9  T
   8   -117.2523633 -0.394948E-09  0.167E-04    2.00      67.3  T
     SCC iter.                  ...        0 min,  0.118 sec
     gradient                   ...        0 min,  0.066 sec
 * total energy  :  -115.3510060 Eh     change       -0.2849647E-04 Eh
   gradient norm :     0.0013649 Eh/α   predicted    -0.1469002E-04 ( -48.45%)
   displ. norm   :     0.2648554 α      lambda       -0.1831364E-04
   maximum displ.:     0.1501903 α      in ANC's #3, #7, #5, ...
 * RMSD in coord.:     0.4438557 α      energy gain  -0.1241034E-02 Eh

generating ANC from exact Hessian ...
Using Lindh-Hessian (1995)
 Shifting diagonal of input Hessian by    1.0089133680737192E-002
 Lowest  eigenvalues of input Hessian
    0.010000    0.000000    0.000000    0.000000    0.000000    0.000000
    0.000000    0.010203    0.010215    0.010290    0.010377    0.010445
    0.010487    0.010614    0.010679    0.010768    0.010791    0.010883
 Highest eigenvalues
    1.999087    2.000679    2.003113    2.003742    2.019305    2.358033


........................................................................
.............................. CYCLE   67 ..............................
........................................................................

 iter      E             dE          RMSdq      gap      omega  full diag
   1   -117.2523223 -0.117252E+03  0.552E-02    2.00       0.0  T
   2   -117.2523226 -0.215479E-06  0.327E-02    2.00       1.0  T
   3   -117.2523075  0.150706E-04  0.215E-02    1.99       1.0  T
   4   -117.2523077 -0.205492E-06  0.136E-02    2.01       1.0  T
   5   -117.2523237 -0.160371E-04  0.208E-03    2.00       5.4  T
   6   -117.2523240 -0.218461E-06  0.608E-04    2.00      18.5  T
   7   -117.2523240 -0.802615E-09  0.346E-04    2.00      32.5  T
   8   -117.2523240 -0.312468E-09  0.138E-04    2.00      81.6  T
     SCC iter.                  ...        0 min,  0.134 sec
     gradient                   ...        0 min,  0.071 sec
 * total energy  :  -115.3510245 Eh     change       -0.1847881E-04 Eh
   gradient norm :     0.0013346 Eh/α   predicted     0.0000000E+00 (-100.00%)
   displ. norm   :     0.0323161 α      lambda       -0.8754655E-05
   maximum displ.:     0.0131245 α      in ANC's #29, #4, #10, ...

........................................................................
.............................. CYCLE   68 ..............................
........................................................................

 iter      E             dE          RMSdq      gap      omega  full diag
   1   -117.2532726 -0.117253E+03  0.951E-03    2.00       0.0  T
   2   -117.2532722  0.467124E-06  0.630E-03    2.00       1.8  T
   3   -117.2532678  0.439387E-05  0.843E-03    2.00       1.3  T
   4   -117.2532722 -0.440933E-05  0.330E-03    2.00       3.4  T
   5   -117.2532728 -0.672581E-06  0.573E-04    2.00      19.6  T
   6   -117.2532729 -0.141252E-07  0.192E-04    2.00      58.5  T
   7   -117.2532729 -0.805031E-09  0.801E-05    2.00     140.4  T
     SCC iter.                  ...        0 min,  0.103 sec
     gradient                   ...        0 min,  0.065 sec
 * total energy  :  -115.3510335 Eh     change       -0.9032304E-05 Eh
   gradient norm :     0.0005346 Eh/α   predicted    -0.4418466E-05 ( -51.08%)
   displ. norm   :     0.0841366 α      lambda       -0.1373871E-04
   maximum displ.:     0.0335154 α      in ANC's #29, #4, #9, ...

........................................................................
.............................. CYCLE   69 ..............................
........................................................................

 iter      E             dE          RMSdq      gap      omega  full diag
   1   -117.2540349 -0.117254E+03  0.259E-02    2.00       0.0  T
   2   -117.2540351 -0.153911E-06  0.154E-02    2.00       1.0  T
   3   -117.2540302  0.490465E-05  0.114E-02    2.00       1.0  T
   4   -117.2540277  0.245393E-05  0.936E-03    2.01       1.2  T
   5   -117.2540353 -0.761009E-05  0.182E-03    2.00       6.2  T
   6   -117.2540355 -0.169114E-06  0.635E-04    2.00      17.7  T
   7   -117.2540355 -0.303359E-08  0.229E-04    2.00      49.1  T
   8   -117.2540355 -0.187384E-09  0.143E-04    2.00      78.8  T
     SCC iter.                  ...        0 min,  0.123 sec
     gradient                   ...        0 min,  0.068 sec
 * total energy  :  -115.3510292 Eh     change        0.4296898E-05 Eh
   gradient norm :     0.0028563 Eh/α   predicted    -0.6891058E-05 (-260.37%)
   displ. norm   :     0.0764019 α      lambda       -0.3408418E-04
   maximum displ.:     0.0279913 α      in ANC's #29, #4, #10, ...

........................................................................
.............................. CYCLE   70 ..............................
........................................................................

 iter      E             dE          RMSdq      gap      omega  full diag
   1   -117.2539791 -0.117254E+03  0.222E-02    2.00       0.0  T
   2   -117.2539792 -0.786547E-07  0.133E-02    2.00       1.0  T
   3   -117.2539751  0.400415E-05  0.101E-02    2.00       1.1  T
   4   -117.2539730  0.216418E-05  0.864E-03    2.00       1.3  T
   5   -117.2539795 -0.654082E-05  0.955E-04    2.00      11.8  T
   6   -117.2539796 -0.316094E-07  0.478E-04    2.00      23.6  T
   7   -117.2539796 -0.236385E-08  0.202E-04    2.00      55.8  T
     SCC iter.                  ...        0 min,  0.113 sec
     gradient                   ...        0 min,  0.067 sec
 * total energy  :  -115.3510473 Eh     change       -0.1805680E-04 Eh
   gradient norm :     0.0019904 Eh/α   predicted    -0.1714207E-04 (  -5.07%)
   displ. norm   :     0.0365841 α      lambda       -0.1269382E-04
   maximum displ.:     0.0122644 α      in ANC's #7, #4, #23, ...

........................................................................
.............................. CYCLE   71 ..............................
........................................................................

 iter      E             dE          RMSdq      gap      omega  full diag
   1   -117.2529646 -0.117253E+03  0.124E-02    2.00       0.0  T
   2   -117.2529635  0.110625E-05  0.826E-03    2.00       1.4  T
   3   -117.2529567  0.679716E-05  0.107E-02    2.00       1.1  T
   4   -117.2529644 -0.771309E-05  0.392E-03    2.00       2.9  T
   5   -117.2529653 -0.924849E-06  0.132E-03    2.00       8.5  T
   6   -117.2529654 -0.702542E-07  0.478E-04    2.00      23.5  T
   7   -117.2529654 -0.124187E-08  0.114E-04    2.00      98.4  T
     SCC iter.                  ...        0 min,  0.107 sec
     gradient                   ...        0 min,  0.078 sec
 * total energy  :  -115.3510545 Eh     change       -0.7223599E-05 Eh
   gradient norm :     0.0012127 Eh/α   predicted    -0.6353348E-05 ( -12.05%)
   displ. norm   :     0.0480285 α      lambda       -0.9481671E-05
   maximum displ.:     0.0188712 α      in ANC's #4, #7, #10, ...

........................................................................
.............................. CYCLE   72 ..............................
........................................................................

 iter      E             dE          RMSdq      gap      omega  full diag
   1   -117.2526749 -0.117253E+03  0.133E-02    2.00       0.0  T
   2   -117.2526750 -0.128444E-06  0.788E-03    2.00       1.4  T
   3   -117.2526746  0.436771E-06  0.514E-03    2.00       2.2  T
   4   -117.2526749 -0.258366E-06  0.227E-03    2.00       5.0  T
   5   -117.2526750 -0.184183E-06  0.149E-03    2.00       7.6  T
   6   -117.2526752 -0.179451E-06  0.347E-04    2.00      32.4  T
   7   -117.2526752 -0.276556E-08  0.126E-04    2.00      89.3  T
     SCC iter.                  ...        0 min,  0.124 sec
     gradient                   ...        0 min,  0.071 sec
 * total energy  :  -115.3510616 Eh     change       -0.7124789E-05 Eh
   gradient norm :     0.0010990 Eh/α   predicted    -0.4746047E-05 ( -33.39%)
   displ. norm   :     0.1022112 α      lambda       -0.1264971E-04
   maximum displ.:     0.0433267 α      in ANC's #4, #7, #9, ...

........................................................................
.............................. CYCLE   73 ..............................
........................................................................

 iter      E             dE          RMSdq      gap      omega  full diag
   1   -117.2528319 -0.117253E+03  0.272E-02    2.00       0.0  T
   2   -117.2528320 -0.715366E-07  0.161E-02    2.00       1.0  T
   3   -117.2528288  0.323311E-05  0.105E-02    2.00       1.1  T
   4   -117.2528286  0.210438E-06  0.633E-03    2.00       1.8  T
   5   -117.2528322 -0.362378E-05  0.103E-03    2.00      10.9  T
   6   -117.2528322 -0.582436E-07  0.381E-04    2.00      29.5  T
   7   -117.2528322 -0.192611E-08  0.135E-04    2.00      83.0  T
     SCC iter.                  ...        0 min,  0.118 sec
     gradient                   ...        0 min,  0.076 sec
 * total energy  :  -115.3510736 Eh     change       -0.1200027E-04 Eh
   gradient norm :     0.0010044 Eh/α   predicted    -0.6355160E-05 ( -47.04%)
   displ. norm   :     0.2201892 α      lambda       -0.1967008E-04
   maximum displ.:     0.0937838 α      in ANC's #4, #7, #9, ...

........................................................................
.............................. CYCLE   74 ..............................
........................................................................

 iter      E             dE          RMSdq      gap      omega  full diag
   1   -117.2527297 -0.117253E+03  0.557E-02    2.00       0.0  T
   2   -117.2527294  0.247933E-06  0.336E-02    2.00       1.0  T
   3   -117.2526880  0.414555E-04  0.297E-02    2.01       1.0  T
   4   -117.2527085 -0.204978E-04  0.163E-02    1.99       1.0  T
   5   -117.2527317 -0.232593E-04  0.231E-03    2.00       4.9  T
   6   -117.2527319 -0.162465E-06  0.996E-04    2.00      11.3  T
   7   -117.2527319 -0.357782E-08  0.440E-04    2.00      25.6  T
   8   -117.2527319 -0.386429E-08  0.168E-04    2.00      67.1  T
     SCC iter.                  ...        0 min,  0.144 sec
     gradient                   ...        0 min,  0.079 sec
 * total energy  :  -115.3510816 Eh     change       -0.7980366E-05 Eh
   gradient norm :     0.0018560 Eh/α   predicted    -0.1004885E-04 (  25.92%)
   displ. norm   :     0.1900015 α      lambda       -0.2235678E-04
   maximum displ.:     0.0875079 α      in ANC's #4, #7, #9, ...

........................................................................
.............................. CYCLE   75 ..............................
........................................................................

 iter      E             dE          RMSdq      gap      omega  full diag
   1   -117.2522272 -0.117252E+03  0.491E-02    2.00       0.0  T
   2   -117.2522269  0.268527E-06  0.291E-02    2.00       1.0  T
   3   -117.2521886  0.383048E-04  0.255E-02    2.01       1.0  T
   4   -117.2522149 -0.262759E-04  0.136E-02    1.99       1.0  T
   5   -117.2522292 -0.142896E-04  0.284E-03    2.00       4.0  T
   6   -117.2522297 -0.471301E-06  0.630E-04    2.00      17.9  T
   7   -117.2522297 -0.336856E-08  0.283E-04    2.00      39.7  T
   8   -117.2522297 -0.978588E-09  0.135E-04    2.00      83.5  T
     SCC iter.                  ...        0 min,  0.122 sec
     gradient                   ...        0 min,  0.065 sec
 * total energy  :  -115.3510989 Eh     change       -0.1727210E-04 Eh
   gradient norm :     0.0015418 Eh/α   predicted    -0.1135878E-04 ( -34.24%)
   displ. norm   :     0.0743969 α      lambda       -0.1317178E-04
   maximum displ.:     0.0376555 α      in ANC's #4, #7, #6, ...

........................................................................
.............................. CYCLE   76 ..............................
........................................................................

 iter      E             dE          RMSdq      gap      omega  full diag
   1   -117.2529115 -0.117253E+03  0.209E-02    2.00       0.0  T
   2   -117.2529103  0.114611E-05  0.133E-02    1.99       1.0  T
   3   -117.2528971  0.132128E-04  0.152E-02    2.00       1.0  T
   4   -117.2529069 -0.978577E-05  0.868E-03    1.99       1.3  T
   5   -117.2529126 -0.566973E-05  0.166E-03    2.00       6.8  T
   6   -117.2529127 -0.139157E-06  0.576E-04    2.00      19.5  T
   7   -117.2529127 -0.668524E-08  0.143E-04    2.00      78.7  T
   8   -117.2529127 -0.826930E-10  0.875E-05    2.00     128.5  T
     SCC iter.                  ...        0 min,  0.137 sec
     gradient                   ...        0 min,  0.075 sec
 * total energy  :  -115.3511078 Eh     change       -0.8958002E-05 Eh
   gradient norm :     0.0010214 Eh/α   predicted    -0.6606224E-05 ( -26.25%)
   displ. norm   :     0.0950565 α      lambda       -0.1130241E-04
   maximum displ.:     0.0487408 α      in ANC's #4, #7, #6, ...

........................................................................
.............................. CYCLE   77 ..............................
........................................................................

 iter      E             dE          RMSdq      gap      omega  full diag
   1   -117.2536875 -0.117254E+03  0.242E-02    1.99       0.0  T
   2   -117.2536867  0.803569E-06  0.148E-02    1.99       1.0  T
   3   -117.2536679  0.187868E-04  0.167E-02    2.00       1.0  T
   4   -117.2536821 -0.141734E-04  0.876E-03    1.99       1.3  T
   5   -117.2536881 -0.596638E-05  0.837E-04    1.99      13.4  T
   6   -117.2536881 -0.235594E-07  0.369E-04    1.99      30.5  T
   7   -117.2536881 -0.191521E-08  0.146E-04    1.99      77.0  T
     SCC iter.                  ...        0 min,  0.122 sec
     gradient                   ...        0 min,  0.075 sec
 * total energy  :  -115.3511197 Eh     change       -0.1185850E-04 Eh
   gradient norm :     0.0010353 Eh/α   predicted    -0.5676598E-05 ( -52.13%)
   displ. norm   :     0.2391191 α      lambda       -0.1818101E-04
   maximum displ.:     0.1204058 α      in ANC's #4, #7, #6, ...

........................................................................
.............................. CYCLE   78 ..............................
........................................................................

 iter      E             dE          RMSdq      gap      omega  full diag
   1   -117.2534161 -0.117253E+03  0.589E-02    1.99       0.0  T
   2   -117.2534165 -0.443970E-06  0.348E-02    2.00       1.0  T
   3   -117.2534125  0.405250E-05  0.168E-02    1.99       1.0  T
   4   -117.2534144 -0.190273E-05  0.554E-03    2.00       2.0  T
   5   -117.2534167 -0.232057E-05  0.189E-03    1.99       6.0  T
   6   -117.2534170 -0.257043E-06  0.556E-04    1.99      20.2  T
   7   -117.2534170 -0.246651E-08  0.198E-04    1.99      56.8  T
   8   -117.2534170 -0.596856E-10  0.849E-05    1.99     132.6  T
     SCC iter.                  ...        0 min,  0.151 sec
     gradient                   ...        0 min,  0.070 sec
 * total energy  :  -115.3511405 Eh     change       -0.2076572E-04 Eh
   gradient norm :     0.0008568 Eh/α   predicted    -0.9323428E-05 ( -55.10%)
   displ. norm   :     0.3124196 α      lambda       -0.2144558E-04
   maximum displ.:     0.1627636 α      in ANC's #4, #7, #6, ...

........................................................................
.............................. CYCLE   79 ..............................
........................................................................

 iter      E             dE          RMSdq      gap      omega  full diag
   1   -117.2523473 -0.117252E+03  0.760E-02    1.99       0.0  T
   2   -117.2523479 -0.627174E-06  0.448E-02    1.99       1.0  T
   3   -117.2523306  0.173628E-04  0.217E-02    2.00       1.0  T
   4   -117.2523395 -0.894951E-05  0.102E-02    1.99       1.1  T
   5   -117.2523486 -0.907197E-05  0.204E-03    2.00       5.5  T
   6   -117.2523488 -0.207777E-06  0.748E-04    1.99      15.0  T
   7   -117.2523488 -0.269063E-08  0.371E-04    1.99      30.3  T
   8   -117.2523488 -0.373424E-08  0.131E-04    1.99      86.1  T
     SCC iter.                  ...        0 min,  0.146 sec
     gradient                   ...        0 min,  0.067 sec
 * total energy  :  -115.3511616 Eh     change       -0.2110352E-04 Eh
   gradient norm :     0.0017856 Eh/α   predicted    -0.1119061E-04 ( -46.97%)
   displ. norm   :     0.2776449 α      lambda       -0.2352282E-04
   maximum displ.:     0.1456929 α      in ANC's #4, #7, #6, ...

........................................................................
.............................. CYCLE   80 ..............................
........................................................................

 iter      E             dE          RMSdq      gap      omega  full diag
   1   -117.2522257 -0.117252E+03  0.647E-02    1.99       0.0  T
   2   -117.2522258 -0.117887E-06  0.381E-02    1.99       1.0  T
   3   -117.2521925  0.333333E-04  0.219E-02    1.98       1.0  T
   4   -117.2522174 -0.249605E-04  0.106E-02    2.00       1.1  T
   5   -117.2522270 -0.954435E-05  0.145E-03    1.99       7.8  T
   6   -117.2522271 -0.874001E-07  0.591E-04    1.99      19.0  T
   7   -117.2522271 -0.315553E-08  0.242E-04    1.99      46.4  T
   8   -117.2522271 -0.602739E-09  0.108E-04    1.99     104.6  T
     SCC iter.                  ...        0 min,  0.156 sec
     gradient                   ...        0 min,  0.083 sec
 * total energy  :  -115.3511855 Eh     change       -0.2390417E-04 Eh
   gradient norm :     0.0015980 Eh/α   predicted    -0.1216786E-04 ( -49.10%)
   displ. norm   :     0.2720665 α      lambda       -0.2487574E-04
   maximum displ.:     0.1438909 α      in ANC's #4, #7, #6, ...

........................................................................
.............................. CYCLE   81 ..............................
........................................................................

 iter      E             dE          RMSdq      gap      omega  full diag
   1   -117.2528049 -0.117253E+03  0.601E-02    1.99       0.0  T
   2   -117.2528054 -0.459620E-06  0.353E-02    1.99       1.0  T
   3   -117.2527973  0.807897E-05  0.123E-02    1.99       1.0  T
   4   -117.2528007 -0.340637E-05  0.745E-03    2.00       1.5  T
   5   -117.2528058 -0.512564E-05  0.847E-04    1.99      13.3  T
   6   -117.2528058 -0.117856E-07  0.492E-04    1.99      22.9  T
   7   -117.2528058 -0.354028E-08  0.258E-04    1.99      43.6  T
     SCC iter.                  ...        0 min,  0.128 sec
     gradient                   ...        0 min,  0.077 sec
 * total energy  :  -115.3512156 Eh     change       -0.3011734E-04 Eh
   gradient norm :     0.0011188 Eh/α   predicted    -0.1285208E-04 ( -57.33%)
   displ. norm   :     0.6476296 α      lambda       -0.5156066E-04
   maximum displ.:     0.3422957 α      in ANC's #4, #7, #6, ...

........................................................................
.............................. CYCLE   82 ..............................
........................................................................

 iter      E             dE          RMSdq      gap      omega  full diag
   1   -117.2499863 -0.117250E+03  0.147E-01    1.99       0.0  T
   2   -117.2499892 -0.292613E-05  0.863E-02    1.99       1.0  T
   3   -117.2499608  0.283875E-04  0.316E-02    2.00       1.0  T
   4   -117.2499693 -0.846571E-05  0.161E-02    1.98       1.0  T
   5   -117.2499913 -0.219458E-04  0.267E-03    1.99       4.2  T
   6   -117.2499917 -0.409912E-06  0.114E-03    1.99       9.8  T
   7   -117.2499917 -0.154799E-07  0.526E-04    1.99      21.4  T
   8   -117.2499917 -0.271027E-08  0.180E-04    1.99      62.6  T
   9   -117.2499917 -0.208544E-09  0.856E-05    1.99     131.5  T
     SCC iter.                  ...        0 min,  0.145 sec
     gradient                   ...        0 min,  0.062 sec
 * total energy  :  -115.3512515 Eh     change       -0.3587456E-04 Eh
   gradient norm :     0.0043498 Eh/α   predicted    -0.3059172E-04 ( -14.73%)
   displ. norm   :     0.2074407 α      lambda       -0.8647526E-04
   maximum displ.:     0.0903400 α      in ANC's #7, #4, #6, ...

........................................................................
.............................. CYCLE   83 ..............................
........................................................................

 iter      E             dE          RMSdq      gap      omega  full diag
   1   -117.2528539 -0.117253E+03  0.412E-02    1.99       0.0  T
   2   -117.2528546 -0.619042E-06  0.252E-02    1.99       1.0  T
   3   -117.2528514  0.314915E-05  0.169E-02    1.98       1.0  T
   4   -117.2528450  0.640886E-05  0.107E-02    1.99       1.1  T
   5   -117.2528552 -0.102347E-04  0.171E-03    1.99       6.6  T
   6   -117.2528553 -0.101992E-06  0.572E-04    1.99      19.7  T
   7   -117.2528553 -0.223656E-08  0.295E-04    1.99      38.1  T
   8   -117.2528553 -0.378719E-09  0.959E-05    1.99     117.3  T
     SCC iter.                  ...        0 min,  0.114 sec
     gradient                   ...        0 min,  0.070 sec
 * total energy  :  -115.3513040 Eh     change       -0.5254162E-04 Eh
   gradient norm :     0.0022376 Eh/α   predicted    -0.4510261E-04 ( -14.16%)
   displ. norm   :     0.3402397 α      lambda       -0.5209060E-04
   maximum displ.:     0.1789899 α      in ANC's #7, #4, #6, ...

........................................................................
.............................. CYCLE   84 ..............................
........................................................................

 iter      E             dE          RMSdq      gap      omega  full diag
   1   -117.2526677 -0.117253E+03  0.719E-02    1.99       0.0  T
   2   -117.2526680 -0.331400E-06  0.425E-02    1.99       1.0  T
   3   -117.2526415  0.265904E-04  0.240E-02    1.98       1.0  T
   4   -117.2526460 -0.457203E-05  0.159E-02    2.00       1.0  T
   5   -117.2526693 -0.233071E-04  0.119E-03    1.99       9.4  T
   6   -117.2526694 -0.154019E-07  0.600E-04    1.99      18.7  T
   7   -117.2526694 -0.315542E-08  0.299E-04    1.99      37.7  T
   8   -117.2526694 -0.996778E-09  0.137E-04    1.99      82.0  T
     SCC iter.                  ...        0 min,  0.124 sec
     gradient                   ...        0 min,  0.067 sec
 * total energy  :  -115.3513458 Eh     change       -0.4177131E-04 Eh
   gradient norm :     0.0018409 Eh/α   predicted    -0.2906165E-04 ( -30.43%)
   displ. norm   :     0.7942459 α      lambda       -0.7255100E-04
   maximum displ.:     0.4315897 α      in ANC's #7, #4, #6, ...

........................................................................
.............................. CYCLE   85 ..............................
........................................................................

 iter      E             dE          RMSdq      gap      omega  full diag
   1   -117.2495571 -0.117250E+03  0.167E-01    1.99       0.0  T
   2   -117.2495585 -0.135823E-05  0.984E-02    1.99       1.0  T
   3   -117.2494002  0.158256E-03  0.545E-02    1.97       1.0  T
   4   -117.2494579 -0.577062E-04  0.343E-02    2.01       1.0  T
   5   -117.2495650 -0.107049E-03  0.313E-03    1.99       3.6  T
   6   -117.2495652 -0.192789E-06  0.143E-03    1.99       7.8  T
   7   -117.2495652 -0.125799E-07  0.607E-04    1.99      18.5  T
   8   -117.2495652 -0.411887E-09  0.318E-04    1.99      35.4  T
   9   -117.2495652 -0.298220E-08  0.104E-04    1.99     107.9  T
     SCC iter.                  ...        0 min,  0.153 sec
     gradient                   ...        0 min,  0.073 sec
 * total energy  :  -115.3514037 Eh     change       -0.5795415E-04 Eh
   gradient norm :     0.0053104 Eh/α   predicted    -0.4644773E-04 ( -19.85%)
   displ. norm   :     0.1867274 α      lambda       -0.1033195E-03
   maximum displ.:     0.0939315 α      in ANC's #7, #4, #8, ...

........................................................................
.............................. CYCLE   86 ..............................
........................................................................

 iter      E             dE          RMSdq      gap      omega  full diag
   1   -117.2541384 -0.117254E+03  0.361E-02    1.99       0.0  T
   2   -117.2541390 -0.536893E-06  0.216E-02    1.99       1.0  T
   3   -117.2541349  0.403974E-05  0.155E-02    2.00       1.0  T
   4   -117.2541326  0.232975E-05  0.924E-03    1.99       1.2  T
   5   -117.2541390 -0.637754E-05  0.280E-03    1.99       4.0  T
   6   -117.2541396 -0.595768E-06  0.620E-04    1.99      18.1  T
   7   -117.2541396 -0.762516E-08  0.249E-04    1.99      45.2  T
   8   -117.2541396 -0.190383E-09  0.126E-04    1.99      89.6  T
     SCC iter.                  ...        0 min,  0.143 sec
     gradient                   ...        0 min,  0.085 sec
 * total energy  :  -115.3514396 Eh     change       -0.3592203E-04 Eh
   gradient norm :     0.0048987 Eh/α   predicted    -0.5346277E-04 (  48.83%)
   displ. norm   :     0.2910123 α      lambda       -0.8021503E-04
   maximum displ.:     0.1532692 α      in ANC's #7, #4, #6, ...

........................................................................
.............................. CYCLE   87 ..............................
........................................................................

 iter      E             dE          RMSdq      gap      omega  full diag
   1   -117.2527774 -0.117253E+03  0.601E-02    1.99       0.0  T
   2   -117.2527744  0.295266E-05  0.358E-02    1.98       1.0  T
   3   -117.2526191  0.155309E-03  0.425E-02    2.01       1.0  T
   4   -117.2527766 -0.157507E-03  0.717E-03    1.99       1.6  T
   5   -117.2527789 -0.232336E-05  0.127E-03    1.99       8.8  T
   6   -117.2527790 -0.845501E-07  0.647E-04    1.99      17.4  T
   7   -117.2527790 -0.606778E-08  0.233E-04    1.99      48.3  T
   8   -117.2527790 -0.762100E-09  0.104E-04    1.99     108.4  T
     SCC iter.                  ...        0 min,  0.130 sec
     gradient                   ...        0 min,  0.074 sec
 * total energy  :  -115.3515005 Eh     change       -0.6086152E-04 Eh
   gradient norm :     0.0028862 Eh/α   predicted    -0.4350844E-04 ( -28.51%)
   displ. norm   :     0.4519774 α      lambda       -0.8842462E-04
   maximum displ.:     0.2517568 α      in ANC's #7, #4, #6, ...

........................................................................
.............................. CYCLE   88 ..............................
........................................................................

 iter      E             dE          RMSdq      gap      omega  full diag
   1   -117.2506530 -0.117251E+03  0.929E-02    1.99       0.0  T
   2   -117.2506467  0.630630E-05  0.553E-02    1.98       1.0  T
   3   -117.2502963  0.350403E-03  0.631E-02    2.02       1.0  T
   4   -117.2506525 -0.356219E-03  0.951E-03    1.98       1.2  T
   5   -117.2506563 -0.384082E-05  0.166E-03    1.98       6.8  T
   6   -117.2506565 -0.108797E-06  0.891E-04    1.98      12.6  T
   7   -117.2506565 -0.119084E-07  0.361E-04    1.98      31.2  T
   8   -117.2506565 -0.146539E-08  0.163E-04    1.98      68.9  T
     SCC iter.                  ...        0 min,  0.145 sec
     gradient                   ...        0 min,  0.078 sec
 * total energy  :  -115.3515545 Eh     change       -0.5395867E-04 Eh
   gradient norm :     0.0042854 Eh/α   predicted    -0.5324847E-04 (  -1.32%)
   displ. norm   :     0.1575162 α      lambda       -0.6742487E-04
   maximum displ.:     0.0790758 α      in ANC's #7, #4, #6, ...

........................................................................
.............................. CYCLE   89 ..............................
........................................................................

 iter      E             dE          RMSdq      gap      omega  full diag
   1   -117.2526670 -0.117253E+03  0.336E-02    1.98       0.0  T
   2   -117.2526637  0.325839E-05  0.211E-02    1.98       1.0  T
   3   -117.2525926  0.711790E-04  0.299E-02    2.00       1.0  T
   4   -117.2526646 -0.720255E-04  0.799E-03    1.98       1.4  T
   5   -117.2526682 -0.363185E-05  0.125E-03    1.98       9.0  T
   6   -117.2526682 -0.299614E-07  0.508E-04    1.98      22.1  T
   7   -117.2526682 -0.255979E-08  0.247E-04    1.98      45.5  T
   8   -117.2526682 -0.474373E-09  0.132E-04    1.98      85.1  T
     SCC iter.                  ...        0 min,  0.140 sec
     gradient                   ...        0 min,  0.072 sec
 * total energy  :  -115.3516030 Eh     change       -0.4851879E-04 Eh
   gradient norm :     0.0042788 Eh/α   predicted    -0.3455092E-04 ( -28.79%)
   displ. norm   :     0.4351193 α      lambda       -0.1021384E-03
   maximum displ.:     0.2471061 α      in ANC's #7, #4, #6, ...

........................................................................
.............................. CYCLE   90 ..............................
........................................................................

 iter      E             dE          RMSdq      gap      omega  full diag
   1   -117.2520101 -0.117252E+03  0.904E-02    1.98       0.0  T
   2   -117.2520114 -0.123378E-05  0.531E-02    1.98       1.0  T
   3   -117.2520080  0.337957E-05  0.179E-02    1.98       1.0  T
   4   -117.2520114 -0.338424E-05  0.400E-03    1.99       2.8  T
   5   -117.2520115 -0.111009E-06  0.263E-03    1.98       4.3  T
   6   -117.2520121 -0.573756E-06  0.629E-04    1.98      17.9  T
   7   -117.2520121 -0.550868E-08  0.290E-04    1.98      38.8  T
   8   -117.2520121 -0.890608E-09  0.111E-04    1.98     101.3  T
     SCC iter.                  ...        0 min,  0.141 sec
     gradient                   ...        0 min,  0.096 sec
 * total energy  :  -115.3516791 Eh     change       -0.7611374E-04 Eh
   gradient norm :     0.0043857 Eh/α   predicted    -0.6073884E-04 ( -20.20%)
   displ. norm   :     0.3725083 α      lambda       -0.1432632E-03
   maximum displ.:     0.2010581 α      in ANC's #7, #4, #2, ...

........................................................................
.............................. CYCLE   91 ..............................
........................................................................

 iter      E             dE          RMSdq      gap      omega  full diag
   1   -117.2541275 -0.117254E+03  0.832E-02    1.99       0.0  T
   2   -117.2541242  0.327337E-05  0.495E-02    2.00       1.0  T
   3   -117.2539206  0.203602E-03  0.509E-02    1.96       1.0  T
   4   -117.2541120 -0.191420E-03  0.162E-02    2.00       1.0  T
   5   -117.2541305 -0.184391E-04  0.271E-03    1.99       4.2  T
   6   -117.2541308 -0.300823E-06  0.836E-04    1.99      13.5  T
   7   -117.2541308 -0.822277E-08  0.319E-04    1.99      35.3  T
   8   -117.2541308 -0.598263E-09  0.149E-04    1.99      75.4  T
     SCC iter.                  ...        0 min,  0.164 sec
     gradient                   ...        0 min,  0.083 sec
 * total energy  :  -115.3517529 Eh     change       -0.7380952E-04 Eh
   gradient norm :     0.0039349 Eh/α   predicted    -0.8157525E-04 (  10.52%)
   displ. norm   :     0.5499439 α      lambda       -0.1175520E-03
   maximum displ.:     0.3163570 α      in ANC's #7, #4, #6, ...

........................................................................
.............................. CYCLE   92 ..............................
........................................................................

 iter      E             dE          RMSdq      gap      omega  full diag
   1   -117.2497388 -0.117250E+03  0.115E-01    1.99       0.0  T
   2   -117.2497407 -0.195119E-05  0.674E-02    1.99       1.0  T
   3   -117.2497293  0.114778E-04  0.200E-02    1.99       1.0  T
   4   -117.2497395 -0.102557E-04  0.582E-03    2.00       1.9  T
   5   -117.2497418 -0.226820E-05  0.288E-03    1.99       3.9  T
   6   -117.2497424 -0.593704E-06  0.842E-04    1.99      13.4  T
   7   -117.2497424 -0.697830E-08  0.329E-04    1.99      34.2  T
   8   -117.2497424 -0.902148E-09  0.176E-04    1.99      63.9  T
     SCC iter.                  ...        0 min,  0.161 sec
     gradient                   ...        0 min,  0.080 sec
 * total energy  :  -115.3518264 Eh     change       -0.7346391E-04 Eh
   gradient norm :     0.0056921 Eh/α   predicted    -0.7655565E-04 (   4.21%)
   displ. norm   :     0.2252036 α      lambda       -0.1286318E-03
   maximum displ.:     0.1164903 α      in ANC's #7, #4, #2, ...
 * RMSD in coord.:     0.6701489 α      energy gain  -0.8203692E-03 Eh

generating ANC from exact Hessian ...
Using Lindh-Hessian (1995)
 Shifting diagonal of input Hessian by    9.9494872472385993E-003
 Lowest  eigenvalues of input Hessian
    0.000000    0.000000    0.000000    0.000000    0.000000    0.000000
    0.010000    0.010071    0.010101    0.010173    0.010251    0.010322
    0.010360    0.010477    0.010577    0.010601    0.010700    0.010894
 Highest eigenvalues
    1.998327    2.000157    2.002660    2.003107    2.013293    2.357430


........................................................................
.............................. CYCLE   93 ..............................
........................................................................

 iter      E             dE          RMSdq      gap      omega  full diag
   1   -117.2517491 -0.117252E+03  0.542E-02    1.99       0.0  T
   2   -117.2517500 -0.931020E-06  0.328E-02    1.99       1.0  T
   3   -117.2517341  0.158632E-04  0.262E-02    1.99       1.0  T
   4   -117.2517353 -0.119225E-05  0.139E-02    1.98       1.0  T
   5   -117.2517520 -0.167210E-04  0.259E-03    1.99       4.3  T
   6   -117.2517525 -0.451207E-06  0.775E-04    1.99      14.5  T
   7   -117.2517525 -0.918745E-08  0.405E-04    1.99      27.8  T
   8   -117.2517525 -0.287567E-08  0.168E-04    1.99      67.2  T
     SCC iter.                  ...        0 min,  0.149 sec
     gradient                   ...        0 min,  0.080 sec
 * total energy  :  -115.3518928 Eh     change       -0.6642677E-04 Eh
   gradient norm :     0.0060829 Eh/α   predicted     0.0000000E+00 (-100.00%)
   displ. norm   :     0.0541939 α      lambda       -0.9650997E-04
   maximum displ.:     0.0204399 α      in ANC's #15, #10, #16, ...

........................................................................
.............................. CYCLE   94 ..............................
........................................................................

 iter      E             dE          RMSdq      gap      omega  full diag
   1   -117.2542647 -0.117254E+03  0.219E-02    1.99       0.0  T
   2   -117.2542631  0.160082E-05  0.145E-02    1.98       1.0  T
   3   -117.2542537  0.931937E-05  0.143E-02    1.99       1.0  T
   4   -117.2542563 -0.259418E-05  0.112E-02    1.98       1.0  T
   5   -117.2542657 -0.938904E-05  0.178E-03    1.98       6.3  T
   6   -117.2542659 -0.132439E-06  0.643E-04    1.98      17.5  T
   7   -117.2542659 -0.711825E-08  0.258E-04    1.98      43.6  T
   8   -117.2542659 -0.377085E-09  0.142E-04    1.98      79.2  T
     SCC iter.                  ...        0 min,  0.137 sec
     gradient                   ...        0 min,  0.071 sec
 * total energy  :  -115.3519537 Eh     change       -0.6086710E-04 Eh
   gradient norm :     0.0019348 Eh/α   predicted    -0.4846112E-04 ( -20.38%)
   displ. norm   :     0.1699228 α      lambda       -0.9419272E-04
   maximum displ.:     0.0611879 α      in ANC's #15, #7, #16, ...

........................................................................
.............................. CYCLE   95 ..............................
........................................................................

 iter      E             dE          RMSdq      gap      omega  full diag
   1   -117.2574980 -0.117257E+03  0.644E-02    1.99       0.0  T
   2   -117.2575020 -0.398041E-05  0.378E-02    1.99       1.0  T
   3   -117.2574824  0.195795E-04  0.252E-02    1.98       1.0  T
   4   -117.2574603  0.221010E-04  0.223E-02    2.00       1.0  T
   5   -117.2575031 -0.427507E-04  0.582E-03    1.99       1.9  T
   6   -117.2575047 -0.165844E-05  0.148E-03    1.99       7.6  T
   7   -117.2575047 -0.167969E-07  0.734E-04    1.99      15.3  T
   8   -117.2575047 -0.323504E-08  0.352E-04    1.99      31.9  T
   9   -117.2575047 -0.105734E-08  0.177E-04    1.99      63.7  T
     SCC iter.                  ...        0 min,  0.142 sec
     gradient                   ...        0 min,  0.059 sec
 * total energy  :  -115.3517794 Eh     change        0.1742668E-03 Eh
   gradient norm :     0.0107311 Eh/α   predicted    -0.4779715E-04 (-127.43%)
   displ. norm   :     0.0597195 α      lambda       -0.3143995E-03
   maximum displ.:     0.0296864 α      in ANC's #22, #18, #25, ...

........................................................................
.............................. CYCLE   96 ..............................
........................................................................

 iter      E             dE          RMSdq      gap      omega  full diag
   1   -117.2571205 -0.117257E+03  0.337E-02    1.99       0.0  T
   2   -117.2571184  0.202762E-05  0.205E-02    1.98       1.0  T
   3   -117.2570817  0.367079E-04  0.239E-02    2.00       1.0  T
   4   -117.2571122 -0.304642E-04  0.130E-02    1.98       1.0  T
   5   -117.2571235 -0.112877E-04  0.302E-03    1.99       3.7  T
   6   -117.2571237 -0.192280E-06  0.118E-03    1.99       9.5  T
   7   -117.2571237 -0.148682E-07  0.475E-04    1.99      23.7  T
   8   -117.2571237 -0.121709E-08  0.259E-04    1.99      43.4  T
     SCC iter.                  ...        0 min,  0.121 sec
     gradient                   ...        0 min,  0.071 sec
 * total energy  :  -115.3519873 Eh     change       -0.2079416E-03 Eh
   gradient norm :     0.0062138 Eh/α   predicted    -0.1577609E-03 ( -24.13%)
   displ. norm   :     0.0575142 α      lambda       -0.1239143E-03
   maximum displ.:     0.0264356 α      in ANC's #23, #7, #10, ...

........................................................................
.............................. CYCLE   97 ..............................
........................................................................

 iter      E             dE          RMSdq      gap      omega  full diag
   1   -117.2548337 -0.117255E+03  0.294E-02    1.98       0.0  T
   2   -117.2548265  0.718290E-05  0.216E-02    1.99       1.0  T
   3   -117.2548145  0.120294E-04  0.189E-02    1.98       1.0  T
   4   -117.2548245 -0.100428E-04  0.141E-02    1.99       1.0  T
   5   -117.2548382 -0.136997E-04  0.254E-03    1.98       4.4  T
   6   -117.2548383 -0.119950E-06  0.129E-03    1.98       8.7  T
   7   -117.2548383 -0.100155E-07  0.469E-04    1.98      24.0  T
   8   -117.2548383 -0.535323E-08  0.255E-04    1.98      44.2  T
     SCC iter.                  ...        0 min,  0.116 sec
     gradient                   ...        0 min,  0.062 sec
 * total energy  :  -115.3520356 Eh     change       -0.4827163E-04 Eh
   gradient norm :     0.0025253 Eh/α   predicted    -0.6216252E-04 (  28.78%)
   displ. norm   :     0.0838649 α      lambda       -0.5943897E-04
   maximum displ.:     0.0364357 α      in ANC's #7, #10, #15, ...

........................................................................
.............................. CYCLE   98 ..............................
........................................................................

 iter      E             dE          RMSdq      gap      omega  full diag
   1   -117.2544060 -0.117254E+03  0.308E-02    1.98       0.0  T
   2   -117.2544059  0.126565E-06  0.192E-02    1.98       1.0  T
   3   -117.2543919  0.139941E-04  0.183E-02    1.99       1.0  T
   4   -117.2543944 -0.250944E-05  0.125E-02    1.98       1.0  T
   5   -117.2544078 -0.133801E-04  0.282E-03    1.98       4.0  T
   6   -117.2544082 -0.380202E-06  0.795E-04    1.98      14.1  T
   7   -117.2544082 -0.253975E-08  0.329E-04    1.98      34.2  T
   8   -117.2544082 -0.191376E-08  0.146E-04    1.98      77.2  T
     SCC iter.                  ...        0 min,  0.129 sec
     gradient                   ...        0 min,  0.081 sec
 * total energy  :  -115.3520617 Eh     change       -0.2612029E-04 Eh
   gradient norm :     0.0018270 Eh/α   predicted    -0.2993029E-04 (  14.59%)
   displ. norm   :     0.1530508 α      lambda       -0.4563634E-04
   maximum displ.:     0.0706071 α      in ANC's #7, #19, #10, ...

........................................................................
.............................. CYCLE   99 ..............................
........................................................................

 iter      E             dE          RMSdq      gap      omega  full diag
   1   -117.2550616 -0.117255E+03  0.453E-02    1.98       0.0  T
   2   -117.2550571  0.447709E-05  0.287E-02    1.98       1.0  T
   3   -117.2549880  0.691290E-04  0.329E-02    2.00       1.0  T
   4   -117.2550406 -0.526025E-04  0.185E-02    1.97       1.0  T
   5   -117.2550654 -0.248126E-04  0.278E-03    1.98       4.0  T
   6   -117.2550658 -0.396445E-06  0.642E-04    1.98      17.5  T
   7   -117.2550658 -0.325331E-08  0.286E-04    1.98      39.3  T
   8   -117.2550658 -0.404157E-09  0.170E-04    1.98      66.3  T
     SCC iter.                  ...        0 min,  0.140 sec
     gradient                   ...        0 min,  0.078 sec
 * total energy  :  -115.3520990 Eh     change       -0.3724360E-04 Eh
   gradient norm :     0.0022051 Eh/α   predicted    -0.2305629E-04 ( -38.09%)
   displ. norm   :     0.1764397 α      lambda       -0.6904040E-04
   maximum displ.:     0.0860679 α      in ANC's #7, #10, #1, ...

........................................................................
.............................. CYCLE  100 ..............................
........................................................................

 iter      E             dE          RMSdq      gap      omega  full diag
   1   -117.2550829 -0.117255E+03  0.498E-02    1.98       0.0  T
   2   -117.2550831 -0.207197E-06  0.293E-02    1.98       1.0  T
   3   -117.2550679  0.152617E-04  0.174E-02    1.98       1.0  T
   4   -117.2550699 -0.203821E-05  0.126E-02    1.99       1.0  T
   5   -117.2550839 -0.139872E-04  0.175E-03    1.98       6.4  T
   6   -117.2550840 -0.144923E-06  0.545E-04    1.98      20.6  T
   7   -117.2550840 -0.144081E-08  0.257E-04    1.98      43.8  T
   8   -117.2550840 -0.123306E-08  0.104E-04    1.98     107.9  T
     SCC iter.                  ...        0 min,  0.118 sec
     gradient                   ...        0 min,  0.066 sec
 * total energy  :  -115.3521516 Eh     change       -0.5265628E-04 Eh
   gradient norm :     0.0024911 Eh/α   predicted    -0.3559623E-04 ( -32.40%)
   displ. norm   :     0.2579888 α      lambda       -0.7250869E-04
   maximum displ.:     0.1330406 α      in ANC's #7, #10, #1, ...

........................................................................
.............................. CYCLE  101 ..............................
........................................................................

 iter      E             dE          RMSdq      gap      omega  full diag
   1   -117.2539787 -0.117254E+03  0.710E-02    1.98       0.0  T
   2   -117.2539724  0.636544E-05  0.431E-02    1.99       1.0  T
   3   -117.2537588  0.213584E-03  0.528E-02    1.95       1.0  T
   4   -117.2539588 -0.200041E-03  0.180E-02    1.99       1.0  T
   5   -117.2539820 -0.232050E-04  0.204E-03    1.98       5.5  T
   6   -117.2539822 -0.156719E-06  0.670E-04    1.98      16.8  T
   7   -117.2539822 -0.337616E-08  0.346E-04    1.98      32.5  T
   8   -117.2539822 -0.279854E-09  0.181E-04    1.98      62.0  T
     SCC iter.                  ...        0 min,  0.129 sec
     gradient                   ...        0 min,  0.064 sec
 * total energy  :  -115.3522045 Eh     change       -0.5285011E-04 Eh
   gradient norm :     0.0020990 Eh/α   predicted    -0.3866911E-04 ( -26.83%)
   displ. norm   :     0.2305693 α      lambda       -0.5625150E-04
   maximum displ.:     0.1265442 α      in ANC's #7, #10, #1, ...

........................................................................
.............................. CYCLE  102 ..............................
........................................................................

 iter      E             dE          RMSdq      gap      omega  full diag
   1   -117.2535349 -0.117254E+03  0.598E-02    1.98       0.0  T
   2   -117.2535328  0.207164E-05  0.357E-02    1.98       1.0  T
   3   -117.2534176  0.115270E-03  0.389E-02    1.96       1.0  T
   4   -117.2535255 -0.107951E-03  0.130E-02    1.99       1.0  T
   5   -117.2535372 -0.116568E-04  0.234E-03    1.98       4.8  T
   6   -117.2535374 -0.253018E-06  0.526E-04    1.98      21.4  T
   7   -117.2535374 -0.562835E-09  0.292E-04    1.98      38.5  T
   8   -117.2535374 -0.495049E-09  0.136E-04    1.98      82.9  T
     SCC iter.                  ...        0 min,  0.108 sec
     gradient                   ...        0 min,  0.066 sec
 * total energy  :  -115.3522493 Eh     change       -0.4477869E-04 Eh
   gradient norm :     0.0024720 Eh/α   predicted    -0.2962314E-04 ( -33.85%)
   displ. norm   :     0.2933720 α      lambda       -0.8313451E-04
   maximum displ.:     0.1705159 α      in ANC's #7, #10, #1, ...

........................................................................
.............................. CYCLE  103 ..............................
........................................................................

 iter      E             dE          RMSdq      gap      omega  full diag
   1   -117.2540468 -0.117254E+03  0.693E-02    1.98       0.0  T
   2   -117.2540447  0.203330E-05  0.414E-02    1.98       1.0  T
   3   -117.2539290  0.115752E-03  0.402E-02    1.96       1.0  T
   4   -117.2540279 -0.989336E-04  0.163E-02    1.99       1.0  T
   5   -117.2540488 -0.209426E-04  0.168E-03    1.98       6.7  T
   6   -117.2540490 -0.111398E-06  0.614E-04    1.98      18.3  T
   7   -117.2540490 -0.213068E-08  0.304E-04    1.98      37.1  T
   8   -117.2540490 -0.928210E-09  0.152E-04    1.98      74.1  T
     SCC iter.                  ...        0 min,  0.138 sec
     gradient                   ...        0 min,  0.087 sec
 * total energy  :  -115.3523197 Eh     change       -0.7039272E-04 Eh
   gradient norm :     0.0028236 Eh/α   predicted    -0.4514558E-04 ( -35.87%)
   displ. norm   :     0.4953924 α      lambda       -0.1383907E-03
   maximum displ.:     0.2998797 α      in ANC's #7, #10, #1, ...

........................................................................
.............................. CYCLE  104 ..............................
........................................................................

 iter      E             dE          RMSdq      gap      omega  full diag
   1   -117.2539368 -0.117254E+03  0.110E-01    1.98       0.0  T
   2   -117.2539375 -0.705243E-06  0.651E-02    1.97       1.0  T
   3   -117.2538967  0.408291E-04  0.333E-02    1.99       1.0  T
   4   -117.2539138 -0.171322E-04  0.169E-02    1.97       1.0  T
   5   -117.2539394 -0.255863E-04  0.158E-03    1.98       7.1  T
   6   -117.2539394 -0.436571E-07  0.840E-04    1.98      13.4  T
   7   -117.2539394 -0.167623E-08  0.335E-04    1.98      33.6  T
   8   -117.2539394 -0.379245E-09  0.144E-04    1.98      78.3  T
     SCC iter.                  ...        0 min,  0.221 sec
     gradient                   ...        0 min,  0.121 sec
 * total energy  :  -115.3524416 Eh     change       -0.1219711E-03 Eh
   gradient norm :     0.0028338 Eh/α   predicted    -0.8618021E-04 ( -29.34%)
   displ. norm   :     0.5032261 α      lambda       -0.1563556E-03
   maximum displ.:     0.3187315 α      in ANC's #7, #1, #8, ...

........................................................................
.............................. CYCLE  105 ..............................
........................................................................

 iter      E             dE          RMSdq      gap      omega  full diag
   1   -117.2545396 -0.117255E+03  0.996E-02    1.97       0.0  T
   2   -117.2545376  0.199632E-05  0.589E-02    1.97       1.0  T
   3   -117.2543639  0.173661E-03  0.469E-02    2.00       1.0  T
   4   -117.2545218 -0.157882E-03  0.169E-02    1.96       1.0  T
   5   -117.2545426 -0.208261E-04  0.174E-03    1.97       6.5  T
   6   -117.2545427 -0.101794E-06  0.832E-04    1.97      13.5  T
   7   -117.2545427 -0.590633E-08  0.367E-04    1.97      30.7  T
   8   -117.2545427 -0.515954E-09  0.161E-04    1.97      70.0  T
     SCC iter.                  ...        0 min,  0.166 sec
     gradient                   ...        0 min,  0.079 sec
 * total energy  :  -115.3525767 Eh     change       -0.1351005E-03 Eh
   gradient norm :     0.0019290 Eh/α   predicted    -0.9797675E-04 ( -27.48%)
   displ. norm   :     0.7379911 α      lambda       -0.1546193E-03
   maximum displ.:     0.4833658 α      in ANC's #7, #1, #8, ...

........................................................................
.............................. CYCLE  106 ..............................
........................................................................

 iter      E             dE          RMSdq      gap      omega  full diag
   1   -117.2558612 -0.117256E+03  0.132E-01    1.97       0.0  T
   2   -117.2558493  0.119616E-04  0.788E-02    1.96       1.0  T
   3   -117.2552128  0.636486E-03  0.865E-02    2.02       1.0  T
   4   -117.2558300 -0.617188E-03  0.253E-02    1.96       1.0  T
   5   -117.2558713 -0.412681E-04  0.267E-03    1.97       4.2  T
   6   -117.2558714 -0.192335E-06  0.135E-03    1.97       8.4  T
   7   -117.2558715 -0.165612E-07  0.605E-04    1.97      18.6  T
   8   -117.2558715 -0.214267E-08  0.224E-04    1.97      50.2  T
   9   -117.2558715 -0.517957E-09  0.971E-05    1.97     115.9  T
     SCC iter.                  ...        0 min,  0.158 sec
     gradient                   ...        0 min,  0.076 sec
 * total energy  :  -115.3527455 Eh     change       -0.1688223E-03 Eh
   gradient norm :     0.0023407 Eh/α   predicted    -0.9602936E-04 ( -43.12%)
   displ. norm   :     0.3280617 α      lambda       -0.8857454E-04
   maximum displ.:     0.2239236 α      in ANC's #7, #1, #10, ...

........................................................................
.............................. CYCLE  107 ..............................
........................................................................

 iter      E             dE          RMSdq      gap      omega  full diag
   1   -117.2545325 -0.117255E+03  0.669E-02    1.97       0.0  T
   2   -117.2545338 -0.125771E-05  0.397E-02    1.97       1.0  T
   3   -117.2545233  0.104909E-04  0.254E-02    1.97       1.0  T
   4   -117.2545314 -0.812759E-05  0.866E-03    1.96       1.3  T
   5   -117.2545342 -0.284439E-05  0.516E-03    1.97       2.2  T
   6   -117.2545365 -0.226179E-05  0.108E-03    1.97      10.4  T
   7   -117.2545365 -0.325496E-07  0.386E-04    1.97      29.2  T
   8   -117.2545365 -0.220253E-08  0.202E-04    1.97      55.8  T
     SCC iter.                  ...        0 min,  0.132 sec
     gradient                   ...        0 min,  0.070 sec
 * total energy  :  -115.3528059 Eh     change       -0.6030511E-04 Eh
   gradient norm :     0.0031180 Eh/α   predicted    -0.4905668E-04 ( -18.65%)
   displ. norm   :     0.3845195 α      lambda       -0.1326712E-03
   maximum displ.:     0.2690498 α      in ANC's #7, #1, #16, ...

........................................................................
.............................. CYCLE  108 ..............................
........................................................................

 iter      E             dE          RMSdq      gap      omega  full diag
   1   -117.2592452 -0.117259E+03  0.577E-02    1.97       0.0  T
   2   -117.2592476 -0.236489E-05  0.350E-02    1.96       1.0  T
   3   -117.2592427  0.485945E-05  0.236E-02    1.97       1.0  T
   4   -117.2592434 -0.731384E-06  0.110E-02    1.96       1.0  T
   5   -117.2592486 -0.513267E-05  0.620E-03    1.97       1.8  T
   6   -117.2592518 -0.323891E-05  0.143E-03    1.97       7.9  T
   7   -117.2592519 -0.695239E-07  0.468E-04    1.97      24.0  T
   8   -117.2592519 -0.248789E-08  0.253E-04    1.97      44.5  T
     SCC iter.                  ...        0 min,  0.147 sec
     gradient                   ...        0 min,  0.081 sec
 * total energy  :  -115.3528323 Eh     change       -0.2640941E-04 Eh
   gradient norm :     0.0040778 Eh/α   predicted    -0.7614649E-04 ( 188.33%)
   displ. norm   :     0.2643380 α      lambda       -0.1327275E-03
   maximum displ.:     0.1840833 α      in ANC's #7, #1, #10, ...

........................................................................
.............................. CYCLE  109 ..............................
........................................................................

 iter      E             dE          RMSdq      gap      omega  full diag
   1   -117.2551832 -0.117255E+03  0.662E-02    1.97       0.0  T
   2   -117.2551840 -0.780653E-06  0.389E-02    1.97       1.0  T
   3   -117.2551724  0.115365E-04  0.173E-02    1.96       1.0  T
   4   -117.2551796 -0.713527E-05  0.810E-03    1.97       1.4  T
   5   -117.2551843 -0.475471E-05  0.310E-03    1.97       3.6  T
   6   -117.2551850 -0.724410E-06  0.888E-04    1.97      12.7  T
   7   -117.2551851 -0.135308E-07  0.342E-04    1.97      32.9  T
   8   -117.2551851 -0.242935E-09  0.172E-04    1.97      65.5  T
     SCC iter.                  ...        0 min,  0.148 sec
     gradient                   ...        0 min,  0.080 sec
 * total energy  :  -115.3528982 Eh     change       -0.6593150E-04 Eh
   gradient norm :     0.0027919 Eh/α   predicted    -0.7100189E-04 (   7.69%)
   displ. norm   :     0.1344854 α      lambda       -0.4508932E-04
   maximum displ.:     0.0624369 α      in ANC's #7, #16, #1, ...

........................................................................
.............................. CYCLE  110 ..............................
........................................................................

 iter      E             dE          RMSdq      gap      omega  full diag
   1   -117.2558738 -0.117256E+03  0.202E-02    1.97       0.0  T
   2   -117.2558741 -0.275735E-06  0.125E-02    1.97       1.0  T
   3   -117.2558731  0.100851E-05  0.935E-03    1.97       1.2  T
   4   -117.2558714  0.167375E-05  0.676E-03    1.97       1.7  T
   5   -117.2558746 -0.321569E-05  0.277E-03    1.97       4.1  T
   6   -117.2558752 -0.585662E-06  0.456E-04    1.97      24.7  T
   7   -117.2558752 -0.268214E-08  0.153E-04    1.97      73.5  T
   8   -117.2558752 -0.307082E-09  0.924E-05    1.97     121.8  T
     SCC iter.                  ...        0 min,  0.136 sec
     gradient                   ...        0 min,  0.067 sec
 * total energy  :  -115.3529305 Eh     change       -0.3230013E-04 Eh
   gradient norm :     0.0019297 Eh/α   predicted    -0.2295307E-04 ( -28.94%)
   displ. norm   :     0.2341151 α      lambda       -0.6921447E-04
   maximum displ.:     0.1347064 α      in ANC's #7, #16, #20, ...

........................................................................
.............................. CYCLE  111 ..............................
........................................................................

 iter      E             dE          RMSdq      gap      omega  full diag
   1   -117.2562798 -0.117256E+03  0.538E-02    1.97       0.0  T
   2   -117.2562779  0.184243E-05  0.326E-02    1.97       1.0  T
   3   -117.2562253  0.526157E-04  0.311E-02    1.96       1.0  T
   4   -117.2562414 -0.161297E-04  0.216E-02    1.98       1.0  T
   5   -117.2562821 -0.406196E-04  0.174E-03    1.97       6.5  T
   6   -117.2562821 -0.439082E-07  0.666E-04    1.97      16.9  T
   7   -117.2562821 -0.291327E-08  0.360E-04    1.97      31.2  T
   8   -117.2562821 -0.765326E-09  0.167E-04    1.97      67.2  T
     SCC iter.                  ...        0 min,  0.169 sec
     gradient                   ...        0 min,  0.082 sec
 * total energy  :  -115.3529994 Eh     change       -0.6890707E-04 Eh
   gradient norm :     0.0020006 Eh/α   predicted    -0.3545087E-04 ( -48.55%)
   displ. norm   :     0.2186411 α      lambda       -0.5615323E-04
   maximum displ.:     0.1761218 α      in ANC's #7, #16, #20, ...

........................................................................
.............................. CYCLE  112 ..............................
........................................................................

 iter      E             dE          RMSdq      gap      omega  full diag
   1   -117.2559384 -0.117256E+03  0.529E-02    1.97       0.0  T
   2   -117.2559374  0.103201E-05  0.316E-02    1.97       1.0  T
   3   -117.2558883  0.490134E-04  0.279E-02    1.96       1.0  T
   4   -117.2559137 -0.253152E-04  0.174E-02    1.98       1.0  T
   5   -117.2559397 -0.260710E-04  0.965E-04    1.97      11.7  T
   6   -117.2559397 -0.165200E-07  0.674E-04    1.97      16.7  T
   7   -117.2559398 -0.789569E-08  0.254E-04    1.97      44.4  T
   8   -117.2559398  0.246274E-10  0.123E-04    1.97      91.6  T
     SCC iter.                  ...        0 min,  0.144 sec
     gradient                   ...        0 min,  0.073 sec
 * total energy  :  -115.3530392 Eh     change       -0.3981267E-04 Eh
   gradient norm :     0.0025199 Eh/α   predicted    -0.2942038E-04 ( -26.10%)
   displ. norm   :     0.2920434 α      lambda       -0.6904894E-04
   maximum displ.:     0.2364422 α      in ANC's #7, #16, #13, ...

........................................................................
.............................. CYCLE  113 ..............................
........................................................................

 iter      E             dE          RMSdq      gap      omega  full diag
   1   -117.2554422 -0.117255E+03  0.693E-02    1.97       0.0  T
   2   -117.2554403  0.181671E-05  0.413E-02    1.97       1.0  T
   3   -117.2553547  0.856168E-04  0.366E-02    1.95       1.0  T
   4   -117.2553965 -0.417528E-04  0.237E-02    1.98       1.0  T
   5   -117.2554445 -0.480426E-04  0.131E-03    1.97       8.6  T
   6   -117.2554446 -0.234199E-07  0.810E-04    1.97      13.9  T
   7   -117.2554446 -0.861769E-08  0.341E-04    1.97      33.0  T
   8   -117.2554446 -0.345281E-09  0.161E-04    1.97      69.9  T
     SCC iter.                  ...        0 min,  0.148 sec
     gradient                   ...        0 min,  0.082 sec
 * total energy  :  -115.3530785 Eh     change       -0.3930581E-04 Eh
   gradient norm :     0.0024677 Eh/α   predicted    -0.3747376E-04 (  -4.66%)
   displ. norm   :     0.1271829 α      lambda       -0.3560682E-04
   maximum displ.:     0.0919797 α      in ANC's #7, #16, #10, ...

........................................................................
.............................. CYCLE  114 ..............................
........................................................................

 iter      E             dE          RMSdq      gap      omega  full diag
   1   -117.2564675 -0.117256E+03  0.274E-02    1.97       0.0  T
   2   -117.2564673  0.254649E-06  0.162E-02    1.97       1.0  T
   3   -117.2564563  0.110038E-04  0.138E-02    1.96       1.0  T
   4   -117.2564571 -0.820739E-06  0.112E-02    1.97       1.0  T
   5   -117.2564680 -0.109161E-04  0.728E-04    1.97      15.4  T
   6   -117.2564680 -0.125881E-07  0.281E-04    1.97      40.0  T
   7   -117.2564680 -0.107315E-08  0.121E-04    1.97      92.7  T
     SCC iter.                  ...        0 min,  0.123 sec
     gradient                   ...        0 min,  0.076 sec
 * total energy  :  -115.3531028 Eh     change       -0.2427921E-04 Eh
   gradient norm :     0.0015560 Eh/α   predicted    -0.1809328E-04 ( -25.48%)
   displ. norm   :     0.3345795 α      lambda       -0.4717962E-04
   maximum displ.:     0.2753093 α      in ANC's #7, #16, #5, ...

........................................................................
.............................. CYCLE  115 ..............................
........................................................................

 iter      E             dE          RMSdq      gap      omega  full diag
   1   -117.2566362 -0.117257E+03  0.720E-02    1.96       0.0  T
   2   -117.2566377 -0.148340E-05  0.425E-02    1.97       1.0  T
   3   -117.2566308  0.685776E-05  0.239E-02    1.96       1.0  T
   4   -117.2566383 -0.741514E-05  0.582E-03    1.97       1.9  T
   5   -117.2566392 -0.947152E-06  0.259E-03    1.97       4.3  T
   6   -117.2566397 -0.444905E-06  0.142E-03    1.97       7.9  T
   7   -117.2566398 -0.140524E-06  0.343E-04    1.97      32.8  T
   8   -117.2566398 -0.328114E-09  0.202E-04    1.97      55.7  T
     SCC iter.                  ...        0 min,  0.167 sec
     gradient                   ...        0 min,  0.087 sec
 * total energy  :  -115.3531219 Eh     change       -0.1908689E-04 Eh
   gradient norm :     0.0037164 Eh/α   predicted    -0.2476611E-04 (  29.75%)
   displ. norm   :     0.0638311 α      lambda       -0.3166377E-04
   maximum displ.:     0.0347448 α      in ANC's #7, #20, #1, ...

........................................................................
.............................. CYCLE  116 ..............................
........................................................................

 iter      E             dE          RMSdq      gap      omega  full diag
   1   -117.2574022 -0.117257E+03  0.156E-02    1.97       0.0  T
   2   -117.2574024 -0.130197E-06  0.946E-03    1.97       1.2  T
   3   -117.2574023  0.185120E-07  0.576E-03    1.97       2.0  T
   4   -117.2574024 -0.561811E-07  0.946E-04    1.97      11.9  T
   5   -117.2574024 -0.889386E-09  0.583E-04    1.97      19.3  T
   6   -117.2574024 -0.162051E-07  0.388E-04    1.97      29.0  T
   7   -117.2574024 -0.953668E-08  0.114E-04    1.97      98.3  T
     SCC iter.                  ...        0 min,  0.138 sec
     gradient                   ...        0 min,  0.085 sec
 * total energy  :  -115.3531402 Eh     change       -0.1827854E-04 Eh
   gradient norm :     0.0015236 Eh/α   predicted    -0.1589917E-04 ( -13.02%)
   displ. norm   :     0.0742245 α      lambda       -0.1726778E-04
   maximum displ.:     0.0337293 α      in ANC's #13, #14, #20, ...

........................................................................
.............................. CYCLE  117 ..............................
........................................................................

 iter      E             dE          RMSdq      gap      omega  full diag
   1   -117.2563523 -0.117256E+03  0.203E-02    1.97       0.0  T
   2   -117.2563525 -0.132495E-06  0.124E-02    1.97       1.0  T
   3   -117.2563511  0.138092E-05  0.913E-03    1.97       1.2  T
   4   -117.2563480  0.313593E-05  0.799E-03    1.97       1.4  T
   5   -117.2563530 -0.499548E-05  0.204E-03    1.97       5.5  T
   6   -117.2563532 -0.282765E-06  0.436E-04    1.97      25.8  T
   7   -117.2563532 -0.476146E-08  0.172E-04    1.97      65.4  T
     SCC iter.                  ...        0 min,  0.143 sec
     gradient                   ...        0 min,  0.083 sec
 * total energy  :  -115.3531502 Eh     change       -0.1004701E-04 Eh
   gradient norm :     0.0024686 Eh/α   predicted    -0.8657558E-05 ( -13.83%)
   displ. norm   :     0.0486777 α      lambda       -0.1507460E-04
   maximum displ.:     0.0224067 α      in ANC's #1, #13, #14, ...

........................................................................
.............................. CYCLE  118 ..............................
........................................................................

 iter      E             dE          RMSdq      gap      omega  full diag
   1   -117.2565221 -0.117257E+03  0.112E-02    1.97       0.0  T
   2   -117.2565221  0.344839E-08  0.684E-03    1.97       1.6  T
   3   -117.2565213  0.817134E-06  0.542E-03    1.97       2.1  T
   4   -117.2565205  0.785637E-06  0.480E-03    1.97       2.3  T
   5   -117.2565223 -0.181968E-05  0.113E-03    1.97      10.0  T
   6   -117.2565224 -0.817004E-07  0.262E-04    1.97      43.0  T
   7   -117.2565224 -0.134105E-08  0.112E-04    1.97     100.7  T
     SCC iter.                  ...        0 min,  0.135 sec
     gradient                   ...        0 min,  0.072 sec
 * total energy  :  -115.3531600 Eh     change       -0.9800765E-05 Eh
   gradient norm :     0.0013364 Eh/α   predicted    -0.7559881E-05 ( -22.86%)
   displ. norm   :     0.1293452 α      lambda       -0.1018280E-04
   maximum displ.:     0.0965157 α      in ANC's #7, #16, #1, ...

........................................................................
.............................. CYCLE  119 ..............................
........................................................................

 iter      E             dE          RMSdq      gap      omega  full diag
   1   -117.2562427 -0.117256E+03  0.262E-02    1.97       0.0  T
   2   -117.2562429 -0.133644E-06  0.155E-02    1.97       1.0  T
   3   -117.2562425  0.380817E-06  0.664E-03    1.97       1.7  T
   4   -117.2562428 -0.262073E-06  0.166E-03    1.97       6.8  T
   5   -117.2562429 -0.143330E-06  0.890E-04    1.97      12.6  T
   6   -117.2562430 -0.615982E-07  0.309E-04    1.97      36.4  T
   7   -117.2562430 -0.142327E-08  0.130E-04    1.97      86.7  T
     SCC iter.                  ...        0 min,  0.126 sec
     gradient                   ...        0 min,  0.067 sec
 * total energy  :  -115.3531688 Eh     change       -0.8807218E-05 Eh
   gradient norm :     0.0013469 Eh/α   predicted    -0.5131267E-05 ( -41.74%)
   displ. norm   :     0.0802009 α      lambda       -0.7145518E-05
   maximum displ.:     0.0432371 α      in ANC's #1, #7, #13, ...

........................................................................
.............................. CYCLE  120 ..............................
........................................................................

 iter      E             dE          RMSdq      gap      omega  full diag
   1   -117.2570272 -0.117257E+03  0.127E-02    1.97       0.0  T
   2   -117.2570272 -0.962902E-08  0.779E-03    1.97       1.4  T
   3   -117.2570262  0.966568E-06  0.607E-03    1.97       1.9  T
   4   -117.2570246  0.164648E-05  0.559E-03    1.96       2.0  T
   5   -117.2570273 -0.278508E-05  0.844E-04    1.97      13.3  T
   6   -117.2570274 -0.280732E-07  0.210E-04    1.97      53.5  T
   7   -117.2570274 -0.322032E-09  0.111E-04    1.97     101.3  T
     SCC iter.                  ...        0 min,  0.123 sec
     gradient                   ...        0 min,  0.066 sec
 * total energy  :  -115.3531739 Eh     change       -0.5069962E-05 Eh
   gradient norm :     0.0014043 Eh/α   predicted    -0.3587748E-05 ( -29.24%)
   displ. norm   :     0.0922004 α      lambda       -0.6355835E-05
   maximum displ.:     0.0738237 α      in ANC's #7, #1, #16, ...
 * RMSD in coord.:     0.5118367 α      energy gain  -0.1347517E-02 Eh

generating ANC from exact Hessian ...
Using Lindh-Hessian (1995)
 Shifting diagonal of input Hessian by    9.9538953778542574E-003
 Lowest  eigenvalues of input Hessian
    0.000000    0.000000    0.000000    0.000000    0.000000    0.000000
    0.010000    0.010074    0.010115    0.010194    0.010258    0.010341
    0.010461    0.010510    0.010582    0.010694    0.010765    0.010901
 Highest eigenvalues
    2.000504    2.000990    2.003599    2.003670    2.020947    2.358220


........................................................................
.............................. CYCLE  121 ..............................
........................................................................

 iter      E             dE          RMSdq      gap      omega  full diag
   1   -117.2565944 -0.117257E+03  0.188E-02    1.97       0.0  T
   2   -117.2565943  0.120281E-06  0.112E-02    1.97       1.0  T
   3   -117.2565881  0.622543E-05  0.972E-03    1.96       1.2  T
   4   -117.2565919 -0.379554E-05  0.581E-03    1.97       1.9  T
   5   -117.2565946 -0.269007E-05  0.768E-04    1.97      14.6  T
   6   -117.2565946 -0.264133E-07  0.213E-04    1.97      52.9  T
   7   -117.2565946 -0.246587E-09  0.940E-05    1.97     119.7  T
     SCC iter.                  ...        0 min,  0.132 sec
     gradient                   ...        0 min,  0.083 sec
 * total energy  :  -115.3531803 Eh     change       -0.6419810E-05 Eh
   gradient norm :     0.0006924 Eh/α   predicted     0.0000000E+00 (-100.00%)
   displ. norm   :     0.0206650 α      lambda       -0.2940644E-05
   maximum displ.:     0.0097549 α      in ANC's #1, #20, #9, ...

........................................................................
.............................. CYCLE  122 ..............................
........................................................................

 iter      E             dE          RMSdq      gap      omega  full diag
   1   -117.2567460 -0.117257E+03  0.537E-03    1.97       0.0  T
   2   -117.2567460 -0.242301E-07  0.335E-03    1.97       3.4  T
   3   -117.2567459  0.603473E-07  0.229E-03    1.97       4.9  T
   4   -117.2567456  0.361184E-06  0.231E-03    1.97       4.9  T
   5   -117.2567460 -0.453575E-06  0.525E-04    1.97      21.4  T
   6   -117.2567460 -0.174240E-07  0.176E-04    1.97      64.1  T
   7   -117.2567460 -0.203855E-09  0.521E-05    1.97     216.0  T
     SCC iter.                  ...        0 min,  0.139 sec
     gradient                   ...        0 min,  0.083 sec
 * total energy  :  -115.3531831 Eh     change       -0.2768758E-05 Eh
   gradient norm :     0.0003935 Eh/α   predicted    -0.1480336E-05 ( -46.53%)
   displ. norm   :     0.0613121 α      lambda       -0.6356807E-05
   maximum displ.:     0.0277713 α      in ANC's #1, #20, #9, ...

........................................................................
.............................. CYCLE  123 ..............................
........................................................................

 iter      E             dE          RMSdq      gap      omega  full diag
   1   -117.2569735 -0.117257E+03  0.155E-02    1.97       0.0  T
   2   -117.2569737 -0.192900E-06  0.946E-03    1.97       1.2  T
   3   -117.2569737 -0.360215E-07  0.593E-03    1.97       1.9  T
   4   -117.2569736  0.998904E-07  0.197E-03    1.97       5.7  T
   5   -117.2569736  0.283011E-07  0.165E-03    1.97       6.8  T
   6   -117.2569738 -0.217286E-06  0.494E-04    1.97      22.8  T
   7   -117.2569738 -0.108005E-07  0.182E-04    1.97      61.8  T
     SCC iter.                  ...        0 min,  0.148 sec
     gradient                   ...        0 min,  0.083 sec
 * total energy  :  -115.3531819 Eh     change        0.1130901E-05 Eh
   gradient norm :     0.0019950 Eh/α   predicted    -0.3184638E-05 (-381.60%)
   displ. norm   :     0.0793035 α      lambda       -0.1480761E-04
   maximum displ.:     0.0362951 α      in ANC's #1, #9, #20, ...

........................................................................
.............................. CYCLE  124 ..............................
........................................................................

 iter      E             dE          RMSdq      gap      omega  full diag
   1   -117.2570170 -0.117257E+03  0.200E-02    1.97       0.0  T
   2   -117.2570163  0.647736E-06  0.120E-02    1.97       1.0  T
   3   -117.2570027  0.135920E-04  0.145E-02    1.97       1.0  T
   4   -117.2570140 -0.112231E-04  0.710E-03    1.96       1.6  T
   5   -117.2570178 -0.381642E-05  0.154E-03    1.97       7.3  T
   6   -117.2570179 -0.833809E-07  0.686E-04    1.97      16.4  T
   7   -117.2570179 -0.359162E-08  0.219E-04    1.97      51.3  T
   8   -117.2570179 -0.690363E-10  0.105E-04    1.97     107.1  T
     SCC iter.                  ...        0 min,  0.141 sec
     gradient                   ...        0 min,  0.081 sec
 * total energy  :  -115.3531848 Eh     change       -0.2867292E-05 Eh
   gradient norm :     0.0022943 Eh/α   predicted    -0.7427905E-05 ( 159.06%)
   displ. norm   :     0.0186331 α      lambda       -0.1359173E-04
   maximum displ.:     0.0097213 α      in ANC's #19, #14, #17, ...

........................................................................
.............................. CYCLE  125 ..............................
........................................................................

 iter      E             dE          RMSdq      gap      omega  full diag
   1   -117.2567665 -0.117257E+03  0.744E-03    1.97       0.0  T
   2   -117.2567666 -0.927369E-07  0.472E-03    1.97       2.4  T
   3   -117.2567666  0.840552E-08  0.278E-03    1.97       4.1  T
   4   -117.2567658  0.748259E-06  0.312E-03    1.97       3.6  T
   5   -117.2567667 -0.837482E-06  0.522E-04    1.97      21.6  T
   6   -117.2567667 -0.125127E-07  0.315E-04    1.97      35.8  T
   7   -117.2567667 -0.210699E-08  0.100E-04    1.97     112.1  T
     SCC iter.                  ...        0 min,  0.120 sec
     gradient                   ...        0 min,  0.081 sec
 * total energy  :  -115.3531925 Eh     change       -0.7678095E-05 Eh
   gradient norm :     0.0009315 Eh/α   predicted    -0.6799260E-05 ( -11.45%)
   displ. norm   :     0.0249484 α      lambda       -0.5776082E-05
   maximum displ.:     0.0109281 α      in ANC's #1, #20, #45, ...

........................................................................
.............................. CYCLE  126 ..............................
........................................................................

 iter      E             dE          RMSdq      gap      omega  full diag
   1   -117.2565681 -0.117257E+03  0.130E-02    1.97       0.0  T
   2   -117.2565682 -0.770127E-07  0.843E-03    1.97       1.3  T
   3   -117.2565679  0.306279E-06  0.610E-03    1.97       1.8  T
   4   -117.2565663  0.156129E-05  0.589E-03    1.96       1.9  T
   5   -117.2565689 -0.262216E-05  0.190E-03    1.97       5.9  T
   6   -117.2565691 -0.220465E-06  0.512E-04    1.97      22.0  T
   7   -117.2565692 -0.503931E-09  0.216E-04    1.97      52.1  T
   8   -117.2565692 -0.903952E-09  0.999E-05    1.97     112.6  T
     SCC iter.                  ...        0 min,  0.154 sec
     gradient                   ...        0 min,  0.088 sec
 * total energy  :  -115.3531925 Eh     change       -0.1377995E-07 Eh
   gradient norm :     0.0014526 Eh/α   predicted    -0.2889489E-05 (*******%)
   displ. norm   :     0.0328604 α      lambda       -0.6321564E-05
   maximum displ.:     0.0178877 α      in ANC's #1, #9, #16, ...

........................................................................
.............................. CYCLE  127 ..............................
........................................................................

 iter      E             dE          RMSdq      gap      omega  full diag
   1   -117.2566880 -0.117257E+03  0.108E-02    1.97       0.0  T
   2   -117.2566882 -0.151374E-06  0.683E-03    1.97       1.6  T
   3   -117.2566881  0.700769E-07  0.503E-03    1.97       2.2  T
   4   -117.2566876  0.525641E-06  0.386E-03    1.97       2.9  T
   5   -117.2566885 -0.888255E-06  0.194E-03    1.97       5.8  T
   6   -117.2566887 -0.288641E-06  0.360E-04    1.97      31.3  T
   7   -117.2566887 -0.580556E-09  0.156E-04    1.97      72.2  T
     SCC iter.                  ...        0 min,  0.155 sec
     gradient                   ...        0 min,  0.078 sec
 * total energy  :  -115.3531970 Eh     change       -0.4448995E-05 Eh
   gradient norm :     0.0005471 Eh/α   predicted    -0.3162657E-05 ( -28.91%)
   displ. norm   :     0.0452220 α      lambda       -0.4483388E-05
   maximum displ.:     0.0243651 α      in ANC's #1, #9, #10, ...

........................................................................
.............................. CYCLE  128 ..............................
........................................................................

 iter      E             dE          RMSdq      gap      omega  full diag
   1   -117.2568539 -0.117257E+03  0.111E-02    1.97       0.0  T
   2   -117.2568540 -0.122324E-06  0.654E-03    1.97       1.7  T
   3   -117.2568534  0.664711E-06  0.439E-03    1.97       2.6  T
   4   -117.2568535 -0.128549E-06  0.287E-03    1.97       3.9  T
   5   -117.2568540 -0.546123E-06  0.125E-03    1.97       9.0  T
   6   -117.2568542 -0.123094E-06  0.389E-04    1.97      28.9  T
   7   -117.2568542 -0.371426E-08  0.130E-04    1.97      86.7  T
     SCC iter.                  ...        0 min,  0.130 sec
     gradient                   ...        0 min,  0.077 sec
 * total energy  :  -115.3531978 Eh     change       -0.8041608E-06 Eh
   gradient norm :     0.0009496 Eh/α   predicted    -0.2244171E-05 ( 179.07%)
   displ. norm   :     0.0279438 α      lambda       -0.4199310E-05
   maximum displ.:     0.0166641 α      in ANC's #1, #10, #6, ...

........................................................................
.............................. CYCLE  129 ..............................
........................................................................

 iter      E             dE          RMSdq      gap      omega  full diag
   1   -117.2567811 -0.117257E+03  0.642E-03    1.97       0.0  T
   2   -117.2567811 -0.226765E-07  0.381E-03    1.97       3.0  T
   3   -117.2567803  0.847263E-06  0.383E-03    1.97       2.9  T
   4   -117.2567808 -0.527590E-06  0.227E-03    1.97       5.0  T
   5   -117.2567812 -0.403840E-06  0.688E-04    1.97      16.4  T
   6   -117.2567812 -0.256680E-07  0.216E-04    1.97      52.2  T
   7   -117.2567812 -0.184286E-09  0.913E-05    1.97     123.3  T
     SCC iter.                  ...        0 min,  0.124 sec
     gradient                   ...        0 min,  0.070 sec
 * total energy  :  -115.3532017 Eh     change       -0.3975781E-05 Eh
   gradient norm :     0.0004331 Eh/α   predicted    -0.2105250E-05 ( -47.05%)
   displ. norm   :     0.0466605 α      lambda       -0.2940371E-05
   maximum displ.:     0.0288967 α      in ANC's #1, #10, #6, ...

........................................................................
.............................. CYCLE  130 ..............................
........................................................................

 iter      E             dE          RMSdq      gap      omega  full diag
   1   -117.2566682 -0.117257E+03  0.906E-03    1.97       0.0  T
   2   -117.2566681  0.122248E-06  0.559E-03    1.97       2.0  T
   3   -117.2566653  0.277156E-05  0.647E-03    1.97       1.7  T
   4   -117.2566675 -0.215027E-05  0.326E-03    1.97       3.5  T
   5   -117.2566683 -0.842310E-06  0.397E-04    1.97      28.3  T
   6   -117.2566683 -0.637073E-08  0.183E-04    1.97      61.6  T
   7   -117.2566683 -0.392859E-09  0.689E-05    1.97     163.2  T
     SCC iter.                  ...        0 min,  0.110 sec
     gradient                   ...        0 min,  0.069 sec
 * total energy  :  -115.3532046 Eh     change       -0.2859020E-05 Eh
   gradient norm :     0.0004379 Eh/α   predicted    -0.1476454E-05 ( -48.36%)
   displ. norm   :     0.0599812 α      lambda       -0.2485423E-05
   maximum displ.:     0.0368702 α      in ANC's #1, #10, #11, ...

........................................................................
.............................. CYCLE  131 ..............................
........................................................................

 iter      E             dE          RMSdq      gap      omega  full diag
   1   -117.2566859 -0.117257E+03  0.108E-02    1.97       0.0  T
   2   -117.2566858  0.783290E-07  0.651E-03    1.97       1.7  T
   3   -117.2566825  0.325313E-05  0.689E-03    1.96       1.6  T
   4   -117.2566851 -0.260590E-05  0.325E-03    1.97       3.5  T
   5   -117.2566860 -0.829674E-06  0.466E-04    1.97      24.2  T
   6   -117.2566860 -0.103365E-07  0.147E-04    1.97      76.8  T
   7   -117.2566860 -0.168157E-09  0.675E-05    1.97     166.6  T
     SCC iter.                  ...        0 min,  0.114 sec
     gradient                   ...        0 min,  0.067 sec
 * total energy  :  -115.3532074 Eh     change       -0.2800278E-05 Eh
   gradient norm :     0.0004995 Eh/α   predicted    -0.1245746E-05 ( -55.51%)
   displ. norm   :     0.0849107 α      lambda       -0.3376233E-05
   maximum displ.:     0.0531098 α      in ANC's #1, #10, #11, ...

........................................................................
.............................. CYCLE  132 ..............................
........................................................................

 iter      E             dE          RMSdq      gap      omega  full diag
   1   -117.2567172 -0.117257E+03  0.156E-02    1.97       0.0  T
   2   -117.2567172 -0.612405E-07  0.928E-03    1.97       1.2  T
   3   -117.2567166  0.643031E-06  0.584E-03    1.97       1.9  T
   4   -117.2567167 -0.615444E-07  0.284E-03    1.96       4.0  T
   5   -117.2567173 -0.651793E-06  0.745E-04    1.97      15.1  T
   6   -117.2567173 -0.402886E-07  0.216E-04    1.97      52.0  T
   7   -117.2567173 -0.112428E-08  0.823E-05    1.97     136.7  T
     SCC iter.                  ...        0 min,  0.108 sec
     gradient                   ...        0 min,  0.069 sec
 * total energy  :  -115.3532110 Eh     change       -0.3632655E-05 Eh
   gradient norm :     0.0002802 Eh/α   predicted    -0.1695418E-05 ( -53.33%)
   displ. norm   :     0.0679120 α      lambda       -0.2395066E-05
   maximum displ.:     0.0438026 α      in ANC's #1, #11, #10, ...

........................................................................
.............................. CYCLE  133 ..............................
........................................................................

 iter      E             dE          RMSdq      gap      omega  full diag
   1   -117.2567340 -0.117257E+03  0.122E-02    1.97       0.0  T
   2   -117.2567340 -0.458071E-07  0.719E-03    1.97       1.6  T
   3   -117.2567337  0.311245E-06  0.362E-03    1.97       3.1  T
   4   -117.2567341 -0.354326E-06  0.875E-04    1.97      12.9  T
   5   -117.2567341 -0.807212E-08  0.218E-04    1.97      51.5  T
   6   -117.2567341  0.370670E-08  0.246E-04    1.97      45.7  T
     SCC iter.                  ...        0 min,  0.091 sec
     gradient                   ...        0 min,  0.067 sec
 * total energy  :  -115.3532137 Eh     change       -0.2655642E-05 Eh
   gradient norm :     0.0002446 Eh/α   predicted    -0.1204438E-05 ( -54.65%)
   displ. norm   :     0.0552123 α      lambda       -0.1887460E-05
   maximum displ.:     0.0365584 α      in ANC's #1, #11, #10, ...

........................................................................
.............................. CYCLE  134 ..............................
........................................................................

 iter      E             dE          RMSdq      gap      omega  full diag
   1   -117.2567869 -0.117257E+03  0.956E-03    1.97       0.0  T
   2   -117.2567870 -0.236899E-07  0.562E-03    1.97       2.0  T
   3   -117.2567869  0.532353E-07  0.272E-03    1.97       4.1  T
   4   -117.2567869 -0.833602E-08  0.873E-04    1.97      12.9  T
   5   -117.2567869 -0.384327E-07  0.475E-04    1.97      23.7  T
   6   -117.2567870 -0.185912E-07  0.105E-04    1.97     107.3  T
     SCC iter.                  ...        0 min,  0.095 sec
     gradient                   ...        0 min,  0.063 sec
 * total energy  :  -115.3532161 Eh     change       -0.2424561E-05 Eh
   gradient norm :     0.0002688 Eh/α   predicted    -0.9466869E-06 ( -60.95%)
   displ. norm   :     0.0628296 α      lambda       -0.2227413E-05
   maximum displ.:     0.0417414 α      in ANC's #1, #11, #10, ...

........................................................................
.............................. CYCLE  135 ..............................
........................................................................

 iter      E             dE          RMSdq      gap      omega  full diag
   1   -117.2568294 -0.117257E+03  0.106E-02    1.97       0.0  T
   2   -117.2568295 -0.207653E-07  0.625E-03    1.97       1.8  T
   3   -117.2568292  0.217025E-06  0.365E-03    1.97       3.1  T
   4   -117.2568291  0.137921E-06  0.207E-03    1.96       5.4  T
   5   -117.2568295 -0.372008E-06  0.374E-04    1.97      30.1  T
   6   -117.2568295 -0.791145E-08  0.111E-04    1.97     101.6  T
     SCC iter.                  ...        0 min,  0.084 sec
     gradient                   ...        0 min,  0.060 sec
 * total energy  :  -115.3532191 Eh     change       -0.2964662E-05 Eh
   gradient norm :     0.0002254 Eh/α   predicted    -0.1118368E-05 ( -62.28%)
   displ. norm   :     0.0818203 α      lambda       -0.2693472E-05
   maximum displ.:     0.0538583 α      in ANC's #1, #11, #3, ...

........................................................................
.............................. CYCLE  136 ..............................
........................................................................

 iter      E             dE          RMSdq      gap      omega  full diag
   1   -117.2568118 -0.117257E+03  0.135E-02    1.97       0.0  T
   2   -117.2568118 -0.381082E-07  0.802E-03    1.97       1.4  T
   3   -117.2568116  0.168751E-06  0.467E-03    1.97       2.4  T
   4   -117.2568115  0.789912E-07  0.179E-03    1.97       6.3  T
   5   -117.2568118 -0.267449E-06  0.446E-04    1.97      25.2  T
   6   -117.2568118 -0.133564E-07  0.142E-04    1.97      79.5  T
     SCC iter.                  ...        0 min,  0.101 sec
     gradient                   ...        0 min,  0.067 sec
 * total energy  :  -115.3532225 Eh     change       -0.3470966E-05 Eh
   gradient norm :     0.0002017 Eh/α   predicted    -0.1352926E-05 ( -61.02%)
   displ. norm   :     0.0943860 α      lambda       -0.2736016E-05
   maximum displ.:     0.0621099 α      in ANC's #1, #11, #3, ...

........................................................................
.............................. CYCLE  137 ..............................
........................................................................

 iter      E             dE          RMSdq      gap      omega  full diag
   1   -117.2567849 -0.117257E+03  0.149E-02    1.97       0.0  T
   2   -117.2567849 -0.408130E-07  0.875E-03    1.97       1.3  T
   3   -117.2567848  0.100766E-06  0.329E-03    1.97       3.4  T
   4   -117.2567849 -0.238882E-07  0.108E-03    1.97      10.4  T
   5   -117.2567849 -0.859336E-07  0.415E-04    1.97      27.1  T
   6   -117.2567850 -0.117606E-07  0.150E-04    1.97      74.9  T
     SCC iter.                  ...        0 min,  0.098 sec
     gradient                   ...        0 min,  0.059 sec
 * total energy  :  -115.3532261 Eh     change       -0.3571372E-05 Eh
   gradient norm :     0.0002497 Eh/α   predicted    -0.1375782E-05 ( -61.48%)
   displ. norm   :     0.1028061 α      lambda       -0.2834620E-05
   maximum displ.:     0.0681223 α      in ANC's #1, #11, #3, ...

........................................................................
.............................. CYCLE  138 ..............................
........................................................................

 iter      E             dE          RMSdq      gap      omega  full diag
   1   -117.2568540 -0.117257E+03  0.157E-02    1.97       0.0  T
   2   -117.2568540 -0.510804E-07  0.927E-03    1.97       1.2  T
   3   -117.2568539  0.161164E-06  0.450E-03    1.97       2.5  T
   4   -117.2568539 -0.712416E-07  0.121E-03    1.97       9.3  T
   5   -117.2568540 -0.105197E-06  0.508E-04    1.97      22.2  T
   6   -117.2568541 -0.175989E-07  0.173E-04    1.97      65.0  T
   7   -117.2568541 -0.368814E-09  0.943E-05    1.97     119.3  T
     SCC iter.                  ...        0 min,  0.104 sec
     gradient                   ...        0 min,  0.069 sec
 * total energy  :  -115.3532299 Eh     change       -0.3791111E-05 Eh
   gradient norm :     0.0002424 Eh/α   predicted    -0.1425411E-05 ( -62.40%)
   displ. norm   :     0.1119449 α      lambda       -0.3116844E-05
   maximum displ.:     0.0748851 α      in ANC's #1, #3, #11, ...

........................................................................
.............................. CYCLE  139 ..............................
........................................................................

 iter      E             dE          RMSdq      gap      omega  full diag
   1   -117.2568857 -0.117257E+03  0.164E-02    1.97       0.0  T
   2   -117.2568858 -0.579842E-07  0.963E-03    1.97       1.2  T
   3   -117.2568856  0.135718E-06  0.380E-03    1.97       3.0  T
   4   -117.2568858 -0.166165E-06  0.594E-04    1.97      19.0  T
   5   -117.2568858 -0.580324E-08  0.219E-04    1.97      51.3  T
   6   -117.2568858  0.383838E-08  0.251E-04    1.97      44.9  T
     SCC iter.                  ...        0 min,  0.098 sec
     gradient                   ...        0 min,  0.072 sec
 * total energy  :  -115.3532341 Eh     change       -0.4205545E-05 Eh
   gradient norm :     0.0001987 Eh/α   predicted    -0.1568302E-05 ( -62.71%)
   displ. norm   :     0.1211238 α      lambda       -0.3425703E-05
   maximum displ.:     0.0820365 α      in ANC's #1, #3, #11, ...

........................................................................
.............................. CYCLE  140 ..............................
........................................................................

 iter      E             dE          RMSdq      gap      omega  full diag
   1   -117.2569235 -0.117257E+03  0.170E-02    1.97       0.0  T
   2   -117.2569236 -0.792175E-07  0.100E-02    1.97       1.1  T
   3   -117.2569233  0.324380E-06  0.468E-03    1.97       2.4  T
   4   -117.2569235 -0.271184E-06  0.131E-03    1.97       8.6  T
   5   -117.2569236 -0.912232E-07  0.645E-04    1.97      17.4  T
   6   -117.2569237 -0.281885E-07  0.243E-04    1.97      46.3  T
   7   -117.2569237 -0.137715E-08  0.111E-04    1.97     101.3  T
     SCC iter.                  ...        0 min,  0.111 sec
     gradient                   ...        0 min,  0.071 sec
 * total energy  :  -115.3532387 Eh     change       -0.4622162E-05 Eh
   gradient norm :     0.0001868 Eh/α   predicted    -0.1725963E-05 ( -62.66%)
   displ. norm   :     0.1224967 α      lambda       -0.3371932E-05
   maximum displ.:     0.0841045 α      in ANC's #1, #3, #11, ...

........................................................................
.............................. CYCLE  141 ..............................
........................................................................

 iter      E             dE          RMSdq      gap      omega  full diag
   1   -117.2569774 -0.117257E+03  0.165E-02    1.97       0.0  T
   2   -117.2569775 -0.858980E-07  0.972E-03    1.97       1.2  T
   3   -117.2569773  0.231880E-06  0.495E-03    1.97       2.3  T
   4   -117.2569775 -0.279701E-06  0.978E-04    1.97      11.5  T
   5   -117.2569776 -0.244875E-07  0.324E-04    1.97      34.7  T
   6   -117.2569776  0.914308E-08  0.413E-04    1.97      27.3  T
     SCC iter.                  ...        0 min,  0.095 sec
     gradient                   ...        0 min,  0.069 sec
 * total energy  :  -115.3532433 Eh     change       -0.4554816E-05 Eh
   gradient norm :     0.0001732 Eh/α   predicted    -0.1700472E-05 ( -62.67%)
   displ. norm   :     0.1065865 α      lambda       -0.2860518E-05
   maximum displ.:     0.0742978 α      in ANC's #1, #3, #5, ...

........................................................................
.............................. CYCLE  142 ..............................
........................................................................

 iter      E             dE          RMSdq      gap      omega  full diag
   1   -117.2570185 -0.117257E+03  0.138E-02    1.97       0.0  T
   2   -117.2570185  0.147259E-07  0.819E-03    1.96       1.4  T
   3   -117.2570163  0.216553E-05  0.665E-03    1.97       1.7  T
   4   -117.2570160  0.292474E-06  0.542E-03    1.96       2.1  T
   5   -117.2570187 -0.263598E-05  0.565E-04    1.97      19.9  T
   6   -117.2570187 -0.132329E-07  0.213E-04    1.97      52.8  T
   7   -117.2570187 -0.352799E-09  0.109E-04    1.97     103.0  T
     SCC iter.                  ...        0 min,  0.109 sec
     gradient                   ...        0 min,  0.075 sec
 * total energy  :  -115.3532473 Eh     change       -0.3967436E-05 Eh
   gradient norm :     0.0001964 Eh/α   predicted    -0.1441196E-05 ( -63.67%)
   displ. norm   :     0.0890687 α      lambda       -0.2440102E-05
   maximum displ.:     0.0628120 α      in ANC's #1, #3, #5, ...

........................................................................
.............................. CYCLE  143 ..............................
........................................................................

 iter      E             dE          RMSdq      gap      omega  full diag
   1   -117.2570167 -0.117257E+03  0.110E-02    1.97       0.0  T
   2   -117.2570168 -0.446492E-07  0.651E-03    1.97       1.7  T
   3   -117.2570166  0.191286E-06  0.386E-03    1.96       2.9  T
   4   -117.2570163  0.238517E-06  0.238E-03    1.97       4.7  T
   5   -117.2570168 -0.468889E-06  0.524E-04    1.97      21.5  T
   6   -117.2570168 -0.161825E-07  0.176E-04    1.97      64.0  T
   7   -117.2570168 -0.176698E-09  0.861E-05    1.97     130.7  T
     SCC iter.                  ...        0 min,  0.103 sec
     gradient                   ...        0 min,  0.070 sec
 * total energy  :  -115.3532507 Eh     change       -0.3449028E-05 Eh
   gradient norm :     0.0001581 Eh/α   predicted    -0.1228141E-05 ( -64.39%)
   displ. norm   :     0.0767863 α      lambda       -0.2249190E-05
   maximum displ.:     0.0544432 α      in ANC's #1, #3, #6, ...

........................................................................
.............................. CYCLE  144 ..............................
........................................................................

 iter      E             dE          RMSdq      gap      omega  full diag
   1   -117.2570624 -0.117257E+03  0.917E-03    1.97       0.0  T
   2   -117.2570623  0.104237E-06  0.559E-03    1.96       2.0  T
   3   -117.2570605  0.186378E-05  0.574E-03    1.97       2.0  T
   4   -117.2570611 -0.651517E-06  0.403E-03    1.96       2.8  T
   5   -117.2570625 -0.141270E-05  0.422E-04    1.97      26.7  T
   6   -117.2570625 -0.594878E-08  0.148E-04    1.97      76.3  T
   7   -117.2570625 -0.263526E-09  0.759E-05    1.97     148.2  T
     SCC iter.                  ...        0 min,  0.118 sec
     gradient                   ...        0 min,  0.071 sec
 * total energy  :  -115.3532539 Eh     change       -0.3227221E-05 Eh
   gradient norm :     0.0001380 Eh/α   predicted    -0.1130954E-05 ( -64.96%)
   displ. norm   :     0.0781254 α      lambda       -0.2442411E-05
   maximum displ.:     0.0551201 α      in ANC's #1, #3, #6, ...

........................................................................
.............................. CYCLE  145 ..............................
........................................................................

 iter      E             dE          RMSdq      gap      omega  full diag
   1   -117.2570395 -0.117257E+03  0.915E-03    1.97       0.0  T
   2   -117.2570395  0.874354E-08  0.548E-03    1.97       2.1  T
   3   -117.2570387  0.813369E-06  0.444E-03    1.97       2.5  T
   4   -117.2570382  0.534993E-06  0.399E-03    1.96       2.8  T
   5   -117.2570396 -0.143763E-05  0.377E-04    1.97      29.8  T
   6   -117.2570396 -0.535448E-08  0.141E-04    1.97      79.5  T
   7   -117.2570396 -0.134065E-09  0.735E-05    1.97     153.1  T
     SCC iter.                  ...        0 min,  0.107 sec
     gradient                   ...        0 min,  0.067 sec
 * total energy  :  -115.3532575 Eh     change       -0.3523653E-05 Eh
   gradient norm :     0.0001313 Eh/α   predicted    -0.1227032E-05 ( -65.18%)
   displ. norm   :     0.0937819 α      lambda       -0.3042411E-05
   maximum displ.:     0.0655904 α      in ANC's #1, #3, #6, ...

........................................................................
.............................. CYCLE  146 ..............................
........................................................................

 iter      E             dE          RMSdq      gap      omega  full diag
   1   -117.2570285 -0.117257E+03  0.108E-02    1.97       0.0  T
   2   -117.2570285  0.448687E-07  0.647E-03    1.96       1.7  T
   3   -117.2570266  0.187311E-05  0.588E-03    1.97       1.9  T
   4   -117.2570270 -0.381022E-06  0.423E-03    1.96       2.7  T
   5   -117.2570286 -0.162543E-05  0.384E-04    1.97      29.3  T
   6   -117.2570286 -0.439890E-08  0.155E-04    1.97      72.5  T
   7   -117.2570286 -0.191349E-09  0.771E-05    1.97     146.0  T
     SCC iter.                  ...        0 min,  0.101 sec
     gradient                   ...        0 min,  0.063 sec
 * total energy  :  -115.3532618 Eh     change       -0.4333232E-05 Eh
   gradient norm :     0.0001355 Eh/α   predicted    -0.1528272E-05 ( -64.73%)
   displ. norm   :     0.1193049 α      lambda       -0.3814262E-05
   maximum displ.:     0.0829638 α      in ANC's #1, #3, #6, ...

........................................................................
.............................. CYCLE  147 ..............................
........................................................................

 iter      E             dE          RMSdq      gap      omega  full diag
   1   -117.2570084 -0.117257E+03  0.136E-02    1.97       0.0  T
   2   -117.2570084  0.217707E-07  0.813E-03    1.97       1.4  T
   3   -117.2570062  0.218337E-05  0.665E-03    1.97       1.7  T
   4   -117.2570063 -0.676507E-07  0.496E-03    1.96       2.3  T
   5   -117.2570085 -0.226278E-05  0.387E-04    1.97      29.1  T
   6   -117.2570085 -0.415801E-08  0.184E-04    1.97      61.2  T
   7   -117.2570085 -0.265146E-09  0.934E-05    1.97     120.4  T
     SCC iter.                  ...        0 min,  0.115 sec
     gradient                   ...        0 min,  0.063 sec
 * total energy  :  -115.3532671 Eh     change       -0.5299909E-05 Eh
   gradient norm :     0.0001527 Eh/α   predicted    -0.1921114E-05 ( -63.75%)
   displ. norm   :     0.1435359 α      lambda       -0.4275779E-05
   maximum displ.:     0.0996465 α      in ANC's #1, #3, #6, ...

........................................................................
.............................. CYCLE  148 ..............................
........................................................................

 iter      E             dE          RMSdq      gap      omega  full diag
   1   -117.2569331 -0.117257E+03  0.160E-02    1.97       0.0  T
   2   -117.2569331 -0.371726E-08  0.952E-03    1.96       1.2  T
   3   -117.2569303  0.274705E-05  0.720E-03    1.97       1.6  T
   4   -117.2569311 -0.814857E-06  0.473E-03    1.96       2.4  T
   5   -117.2569332 -0.207253E-05  0.445E-04    1.97      25.3  T
   6   -117.2569332 -0.599253E-08  0.212E-04    1.97      53.2  T
   7   -117.2569332 -0.339625E-09  0.998E-05    1.97     112.7  T
     SCC iter.                  ...        0 min,  0.103 sec
     gradient                   ...        0 min,  0.071 sec
 * total energy  :  -115.3532730 Eh     change       -0.5891478E-05 Eh
   gradient norm :     0.0001857 Eh/α   predicted    -0.2160156E-05 ( -63.33%)
   displ. norm   :     0.1622170 α      lambda       -0.4466853E-05
   maximum displ.:     0.1129955 α      in ANC's #1, #3, #10, ...

........................................................................
.............................. CYCLE  149 ..............................
........................................................................

 iter      E             dE          RMSdq      gap      omega  full diag
   1   -117.2569323 -0.117257E+03  0.178E-02    1.97       0.0  T
   2   -117.2569324 -0.682200E-07  0.105E-02    1.97       1.1  T
   3   -117.2569313  0.105169E-05  0.571E-03    1.97       2.0  T
   4   -117.2569312  0.105861E-06  0.364E-03    1.96       3.1  T
   5   -117.2569325 -0.123301E-05  0.438E-04    1.97      25.7  T
   6   -117.2569325 -0.649875E-08  0.215E-04    1.97      52.3  T
   7   -117.2569325 -0.306017E-09  0.101E-04    1.97     111.1  T
     SCC iter.                  ...        0 min,  0.102 sec
     gradient                   ...        0 min,  0.069 sec
 * total energy  :  -115.3532792 Eh     change       -0.6191829E-05 Eh
   gradient norm :     0.0002032 Eh/α   predicted    -0.2260941E-05 ( -63.49%)
   displ. norm   :     0.1751117 α      lambda       -0.4559250E-05
   maximum displ.:     0.1224531 α      in ANC's #1, #3, #10, ...

........................................................................
.............................. CYCLE  150 ..............................
........................................................................

 iter      E             dE          RMSdq      gap      omega  full diag
   1   -117.2568731 -0.117257E+03  0.189E-02    1.96       0.0  T
   2   -117.2568732 -0.998686E-07  0.112E-02    1.96       1.0  T
   3   -117.2568728  0.371452E-06  0.475E-03    1.97       2.4  T
   4   -117.2568730 -0.211414E-06  0.162E-03    1.96       6.9  T
   5   -117.2568732 -0.212304E-06  0.538E-04    1.97      20.9  T
   6   -117.2568733 -0.158721E-07  0.242E-04    1.96      46.5  T
   7   -117.2568733 -0.943487E-09  0.110E-04    1.96     102.6  T
     SCC iter.                  ...        0 min,  0.095 sec
     gradient                   ...        0 min,  0.061 sec
 * total energy  :  -115.3532855 Eh     change       -0.6299845E-05 Eh
   gradient norm :     0.0002315 Eh/α   predicted    -0.2313477E-05 ( -63.28%)
   displ. norm   :     0.1869946 α      lambda       -0.4765457E-05
   maximum displ.:     0.1313983 α      in ANC's #1, #3, #10, ...
 * RMSD in coord.:     0.2372245 α      energy gain  -0.1115822E-03 Eh

generating ANC from exact Hessian ...
Using Lindh-Hessian (1995)
 Shifting diagonal of input Hessian by    1.0102982200050202E-002
 Lowest  eigenvalues of input Hessian
    0.010000    0.000000    0.000000    0.000000    0.000000    0.000000
    0.000000    0.010223    0.010264    0.010328    0.010408    0.010488
    0.010626    0.010680    0.010733    0.010845    0.010940    0.011054
 Highest eigenvalues
    2.001072    2.001122    2.003543    2.004010    2.022609    2.358597


........................................................................
.............................. CYCLE  151 ..............................
........................................................................

 iter      E             dE          RMSdq      gap      omega  full diag
   1   -117.2568445 -0.117257E+03  0.198E-02    1.96       0.0  T
   2   -117.2568446 -0.101895E-06  0.117E-02    1.96       1.0  T
   3   -117.2568441  0.476845E-06  0.442E-03    1.96       2.5  T
   4   -117.2568443 -0.160363E-06  0.213E-03    1.97       5.3  T
   5   -117.2568447 -0.382550E-06  0.398E-04    1.96      28.3  T
   6   -117.2568447 -0.180108E-08  0.260E-04    1.96      43.2  T
     SCC iter.                  ...        0 min,  0.089 sec
     gradient                   ...        0 min,  0.061 sec
 * total energy  :  -115.3532921 Eh     change       -0.6661280E-05 Eh
   gradient norm :     0.0002702 Eh/α   predicted     0.0000000E+00 (-100.00%)
   displ. norm   :     0.0106176 α      lambda       -0.1051407E-06
   maximum displ.:     0.0044746 α      in ANC's #15, #4, #7, ...

........................................................................
.............................. CYCLE  152 ..............................
........................................................................

 iter      E             dE          RMSdq      gap      omega  full diag
   1   -117.2571849 -0.117257E+03  0.246E-03    1.96       0.0  T
   2   -117.2571849  0.148826E-08  0.147E-03    1.96       7.7  T
   3   -117.2571848  0.730817E-07  0.127E-03    1.96       8.8  T
   4   -117.2571848  0.287025E-07  0.110E-03    1.96      10.2  T
   5   -117.2571849 -0.109947E-06  0.129E-04    1.96      87.0  T
   6   -117.2571849 -0.477783E-09  0.529E-05    1.96     212.6  T
     SCC iter.                  ...        0 min,  0.093 sec
     gradient                   ...        0 min,  0.064 sec
 * total energy  :  -115.3532930 Eh     change       -0.8895986E-06 Eh
   gradient norm :     0.0001916 Eh/α   predicted    -0.4043645E-06 ( -54.55%)
   displ. norm   :     0.0443321 α      lambda       -0.2440275E-05
   maximum displ.:     0.0190299 α      in ANC's #15, #4, #7, ...

   *** GEOMETRY OPTIMIZATION CONVERGED AFTER 152 ITERATIONS ***

------------------------------------------------------------------------
 total energy gain   :        -0.8111257 Eh     -508.9890 kcal/mol
 total RMSD          :         2.3245354 a0        1.2301 Å
 total power (kW/mol):       -14.0105930 (step)  -60.1031 (real)
------------------------------------------------------------------------

 ANCopt (total)                0 d,  0 h,  0 min, 35.433 sec
 optimizer setup                ...        0 min,  0.001 sec (  0.003%)
 model hessian                  ...        0 min,  0.387 sec (  1.092%)
 ANC generation                 ...        0 min,  0.103 sec (  0.292%)
 coordinate transformation      ...        0 min,  0.021 sec (  0.060%)
 single point calculation       ...        0 min, 34.753 sec ( 98.083%)
 optimization log               ...        0 min,  0.077 sec (  0.217%)
 hessian update                 ...        0 min,  0.018 sec (  0.051%)
 rational function              ...        0 min,  0.047 sec (  0.133%)

================
 final structure:
================
79
 xtb: 6.7.1 (edcfbbe)
Ru          -0.10522498851425       -0.53637263045920       -0.46736464249848
N            0.55242137884559       -2.64027511364483       -0.29370607749460
C            0.77287464872245       -2.09233307362266        0.87646912634626
C            2.14904565413784       -1.48404858728877        1.10474957497432
P            2.13786589663232       -0.12621479116448       -0.15204966714774
C            2.90442247804643        1.28062341020650        0.70354072651195
C            2.24270352247492        2.50189440406112        0.69697029411879
C            2.81143344889484        3.59710592575127        1.32493265943453
C            4.03453618798771        3.46942441876613        1.96368914711233
C            4.69320679917513        2.24828284255364        1.97473313103091
C            4.13403941512703        1.15308643056975        1.34312111117573
C            3.41486091098877       -0.59415614062173       -1.36310930411468
C            4.28967096082445        0.35059542143860       -1.89107951876743
C            5.20365320419525       -0.01981943181034       -2.86174641875779
C            5.24293470279759       -1.32680898891873       -3.31943251111325
C            4.35669728055103       -2.26510037487790       -2.81305702481720
C            3.44073519056247       -1.90135592277525       -1.84376856835372
C           -0.51737849933459       -3.60502898948183       -0.44125147849263
C           -1.88517089343683       -3.20107099941841        0.13634810871592
P           -2.20348290536401       -1.45605258270081       -0.40115909877000
C           -3.54299614978921       -0.88950761425877        0.70298382370006
C           -4.50917010497469       -1.73109672299870        1.24217515031752
C           -5.50098071727324       -1.20814877486364        2.05266897883945
C           -5.54047934421632        0.15028300694653        2.32299242141949
C           -4.58306848812091        0.99301606886755        1.78097256576651
C           -3.58764476735076        0.47494686007149        0.97263108472999
C           -3.17996674456719       -1.60565146687259       -1.94406453119803
C           -2.98930320734408       -0.61744242290840       -2.90564849967819
C           -3.71835474186435       -0.63252398448082       -4.08091005732092
C           -4.64991829960290       -1.63349178668920       -4.30402777429879
C           -4.85994558335887       -2.60776431806079       -3.34159602879616
C           -4.13627828887760       -2.59221661495112       -2.16247169376243
H            0.25670755352306       -2.44877802999282        1.77944297512307
H           -0.28174056583776        0.06022048168445        0.97341158430820
H            2.94889817815015       -2.22150717510603        0.97250164380028
H            2.21178860711562       -1.04069350374549        2.10336056001886
H            1.28074843383720        2.56648015988414        0.20187473529006
H            2.30105679278900        4.54977422884720        1.31886692308606
H            4.47785292481026        4.32288567768151        2.45657546338164
H            5.64707298862361        2.15454158562329        2.47452049279452
H            4.64547688816342        0.19917156114171        1.33684878076232
H            4.25225943640996        1.37361170329043       -1.54111546553465
H            5.88492125241846        0.71549879538147       -3.26563717044807
H            5.95752833423721       -1.61264955127619       -4.07776505992278
H            4.37703558160435       -3.28141778289737       -3.18057593456123
H            2.72877530622008       -2.62336280172812       -1.46265270970494
H           -0.62887797278248       -3.78822037620153       -1.51869749632860
H           -0.18456103764788       -4.54566070095152        0.02257979454425
H           -2.64412052168773       -3.90213173889575       -0.21602962033697
H           -1.87904531920377       -3.21050406997053        1.23135617555073
H           -4.48334458154502       -2.79317261800273        1.04741338504487
H           -6.24610915984072       -1.86461073546248        2.47911015252311
H           -6.31558595136485        0.55068041137228        2.96052174041184
H           -4.61081947723914        2.05234394161695        1.99362046953303
H           -2.81615391187921        1.10996267605811        0.55172473846907
H           -2.25693916325361        0.16043331958148       -2.71595672488346
H           -3.55854672888061        0.13544554507706       -4.82399185208973
H           -5.21574786649748       -1.65263198623190       -5.22414260311538
H           -5.59399454163378       -3.38319771490513       -3.50904784772856
H           -4.32754413995927       -3.35181779215104       -1.41809046498179
C            0.14548770054555       -0.98939963205526       -2.24264812338016
O            0.37030252837158       -1.31932081267818       -3.32215173610692
H           -0.55452163149456        0.88393206190261       -0.89940929014207
O           -1.77889414821784       -1.55934656569223        3.08586442269927
C           -1.65603028020140       -0.64792950053667        4.16025597269128
C           -0.24554722870098       -0.12499812710749        4.27822141424856
C            0.76924482481394       -0.97066339863348        4.71045530671630
C            2.07760348720793       -0.52370130529316        4.77248628659084
C            2.38317499574801        0.77690658162779        4.40533458849509
C            1.37797447367394        1.62301554117813        3.96957353576532
C            0.07131094133680        1.17199169693710        3.89814768087886
H           -1.50826623273400       -1.07918724035093        2.28467765149897
H           -1.93598684256419       -1.21055444546122        5.05657238098693
H           -2.36408713157489        0.18283483687325        4.02907252745204
H            0.52620740355155       -1.98519679782946        4.99553562058232
H            2.85894082387667       -1.19034463926740        5.11037968581329
H            3.40291784826158        1.13019205144006        4.45543795404691
H            1.61433719030172        2.63567767978628        3.67971439057189
H           -0.70898477447617        1.83162046743609        3.54598225308645

 Bond Distances (Angstroems)
 ---------------------------
Ru1-N2=2.2111        Ru1-C3=2.2356        Ru1-P5=2.3020        Ru1-P20=2.2919       Ru1-H34=1.5694       Ru1-C61=1.8492       
Ru1-H63=1.5511       N2-Ru1=2.2111        N2-C3=1.3108         N2-C18=1.4481        C3-Ru1=2.2356        C3-N2=1.3108         
C3-C4=1.5218         C3-H33=1.0995        C4-C3=1.5218         C4-P5=1.8502         C4-H35=1.0959        C4-H36=1.0944        
P5-Ru1=2.3020        P5-C4=1.8502         P5-C6=1.8163         P5-C12=1.8211        C6-P5=1.8163         C6-C7=1.3890         
C6-C11=1.3919        C7-C6=1.3890         C7-C8=1.3847         C7-H37=1.0838        C8-C7=1.3847         C8-C9=1.3857         
C8-H38=1.0808        C9-C8=1.3857         C9-C10=1.3875        C9-H39=1.0807        C10-C9=1.3875        C10-C11=1.3824       
C10-H40=1.0809       C11-C6=1.3919        C11-C10=1.3824       C11-H41=1.0824       C12-P5=1.8211        C12-C13=1.3916       
C12-C17=1.3930       C13-C12=1.3916       C13-C14=1.3838       C13-H42=1.0819       C14-C13=1.3838       C14-C15=1.3854       
C14-H43=1.0807       C15-C14=1.3854       C15-C16=1.3864       C15-H44=1.0805       C16-C15=1.3864       C16-C17=1.3823       
C16-H45=1.0809       C17-C12=1.3930       C17-C16=1.3823       C17-H46=1.0832       C18-N2=1.4481        C18-C19=1.5387       
C18-H47=1.0986       C18-H48=1.1003       C19-C18=1.5387       C19-P20=1.8535       C19-H49=1.0916       C19-H50=1.0951       
P20-Ru1=2.2919       P20-C19=1.8535       P20-C21=1.8260       P20-C27=1.8321       C21-P20=1.8260       C21-C22=1.3901       
C21-C26=1.3916       C22-C21=1.3901       C22-C23=1.3835       C22-H51=1.0801       C23-C22=1.3835       C23-C24=1.3856       
C23-H52=1.0807       C24-C23=1.3856       C24-C25=1.3859       C24-H53=1.0805       C25-C24=1.3859       C25-C26=1.3830       
C25-H54=1.0808       C26-C21=1.3916       C26-C25=1.3830       C26-H55=1.0843       C27-P20=1.8321       C27-C28=1.3920       
C27-C32=1.3912       C28-C27=1.3920       C28-C29=1.3831       C28-H56=1.0851       C29-C28=1.3831       C29-C30=1.3855       
C29-H57=1.0805       C30-C29=1.3855       C30-C31=1.3855       C30-H58=1.0803       C31-C30=1.3855       C31-C32=1.3836       
C31-H59=1.0808       C32-C27=1.3912       C32-C31=1.3836       C32-H60=1.0806       H33-C3=1.0995        H34-Ru1=1.5694       
H35-C4=1.0959        H36-C4=1.0944        H37-C7=1.0838        H38-C8=1.0808        H39-C9=1.0807        H40-C10=1.0809       
H41-C11=1.0824       H42-C13=1.0819       H43-C14=1.0807       H44-C15=1.0805       H45-C16=1.0809       H46-C17=1.0832       
H47-C18=1.0986       H48-C18=1.1003       H49-C19=1.0916       H50-C19=1.0951       H51-C22=1.0801       H52-C23=1.0807       
H53-C24=1.0805       H54-C25=1.0808       H55-C26=1.0843       H56-C28=1.0851       H57-C29=1.0805       H58-C30=1.0803       
H59-C31=1.0808       H60-C32=1.0806       C61-Ru1=1.8492       C61-O62=1.1510       O62-C61=1.1510       H63-Ru1=1.5511       
O64-C65=1.4142       O64-H72=0.9725       C65-O64=1.4142       C65-C66=1.5089       C65-H73=1.0947       C65-H74=1.0994       
C66-C65=1.5089       C66-C67=1.3899       C66-C71=1.3882       C67-C66=1.3899       C67-C68=1.3840       C67-H75=1.0815       
C68-C67=1.3840       C68-C69=1.3856       C68-H76=1.0812       C69-C68=1.3856       C69-C70=1.3843       C69-H77=1.0804       
C70-C69=1.3843       C70-C71=1.3842       C70-H78=1.0795       C71-C66=1.3882       C71-C70=1.3842       C71-H79=1.0807       
H72-O64=0.9725       H73-C65=1.0947       H74-C65=1.0994       H75-C67=1.0815       H76-C68=1.0812       H77-C69=1.0804       
H78-C70=1.0795       H79-C71=1.0807       
 C  H  Rav=1.0854 sigma=0.0070  Rmin=1.0795  Rmax=1.1003    34
 C  C  Rav=1.3991 sigma=0.0395  Rmin=1.3823  Rmax=1.5387    33
 N  C  Rav=1.3794 sigma=0.0687  Rmin=1.3108  Rmax=1.4481     2
 O  H  Rav=0.9725 sigma=0.0000  Rmin=0.9725  Rmax=0.9725     1
 O  C  Rav=1.2826 sigma=0.1316  Rmin=1.1510  Rmax=1.4142     2
 P  C  Rav=1.8332 sigma=0.0141  Rmin=1.8163  Rmax=1.8535     6
 Ru H  Rav=1.5602 sigma=0.0092  Rmin=1.5511  Rmax=1.5694     2
 Ru C  Rav=2.0424 sigma=0.1932  Rmin=1.8492  Rmax=2.2356     2
 Ru N  Rav=2.2111 sigma=0.0000  Rmin=2.2111  Rmax=2.2111     1
 Ru P  Rav=2.2969 sigma=0.0050  Rmin=2.2919  Rmax=2.3020     2

 selected bond angles (degree)
 --------------------
C3-Ru1-N2= 34.28               P5-Ru1-N2= 82.47               P5-Ru1-C3= 70.06               P20-Ru1-N2= 83.58              
P20-Ru1-C3= 93.61              P20-Ru1-P5=163.66              H34-Ru1-N2=108.85              H34-Ru1-C3= 75.93              
H34-Ru1-P5= 85.19              H34-Ru1-P20= 91.32             C61-Ru1-N2= 78.58              C61-Ru1-C3=110.69              
C61-Ru1-P5= 92.47              C61-Ru1-P20= 93.07             C61-Ru1-H34=171.78             H63-Ru1-N2=168.33              
H63-Ru1-C3=156.71              H63-Ru1-P5= 99.05              H63-Ru1-P20= 96.33             H63-Ru1-H34= 82.82             
H63-Ru1-C61= 89.78             C3-N2-Ru1= 73.88               C18-N2-Ru1=113.97              C18-N2-C3=119.58               
N2-C3-Ru1= 71.84               C4-C3-Ru1= 99.62               C4-C3-N2=116.94                H33-C3-Ru1=122.34              
H33-C3-N2=121.25               H33-C3-C4=115.53               P5-C4-C3=100.72                H35-C4-C3=111.90               
H35-C4-P5=114.60               H36-C4-C3=110.53               H36-C4-P5=108.84               H36-C4-H35=109.93              
C4-P5-Ru1= 88.18               C6-P5-Ru1=127.86               C6-P5-C4=104.24                C12-P5-Ru1=123.12              
C12-P5-C4=105.01               C12-P5-C6=102.49               C7-C6-P5=118.54                C11-C6-P5=121.22               
C11-C6-C7=120.24               C8-C7-C6=119.84                H37-C7-C6=118.51               H37-C7-C8=121.64               
C9-C8-C7=119.91                H38-C8-C7=120.05               H38-C8-C9=120.04               C10-C9-C8=120.25               
H39-C9-C8=119.97               H39-C9-C10=119.78              C11-C10-C9=120.11              H40-C10-C9=119.93              
H40-C10-C11=119.97             

 selected dihedral angles (degree)
 ---------------------------------
C3-N2-Ru1-P5= 65.36           C3-N2-Ru1-P20=253.89          C3-N2-Ru1-H34=343.09          C3-N2-Ru1-C61=159.43          
C3-N2-Ru1-H63=163.66          C18-N2-Ru1-C3=115.72          C18-N2-Ru1-P5=181.08          C18-N2-Ru1-P20=  9.61         
C18-N2-Ru1-H34= 98.81         C18-N2-Ru1-C61=275.15         C18-N2-Ru1-H63=279.37         N2-C3-Ru1-P5=253.46           
N2-C3-Ru1-P20= 73.06          N2-C3-Ru1-H34=163.52          N2-C3-Ru1-C61=338.40          N2-C3-Ru1-H63=188.28          
C4-C3-Ru1-N2=115.34           C4-C3-Ru1-P5=  8.80           C4-C3-Ru1-P20=188.40          C4-C3-Ru1-H34=278.86          
C4-C3-Ru1-C61= 93.75          C4-C3-Ru1-H63=303.62          H33-C3-Ru1-N2=244.00          H33-C3-Ru1-P5=137.46          
H33-C3-Ru1-P20=317.06         H33-C3-Ru1-H34= 47.52         H33-C3-Ru1-C61=222.40         H33-C3-Ru1-H63= 72.28         
Ru1-C3-N2-C18=251.21          C4-C3-N2-Ru1=268.25           C4-C3-N2-C18=159.45           H33-C3-N2-Ru1=117.35          
H33-C3-N2-C18=  8.56          P5-C4-C3-Ru1=349.51           P5-C4-C3-N2= 63.93            P5-C4-C3-H33=216.49           
H35-C4-C3-Ru1=227.32          H35-C4-C3-N2=301.75           H35-C4-C3-H33= 94.31          H36-C4-C3-Ru1=104.45          
H36-C4-C3-N2=178.88           H36-C4-C3-H33=331.44          C4-P5-Ru1-N2=319.87           C4-P5-Ru1-C3=352.87           
C4-P5-Ru1-P20=351.46          C4-P5-Ru1-H34= 69.63          C4-P5-Ru1-C61=241.74          C4-P5-Ru1-H63=151.56          
C6-P5-Ru1-N2=213.20           C6-P5-Ru1-C3=246.20           C6-P5-Ru1-P20=244.79          C6-P5-Ru1-H34=322.96          
C6-P5-Ru1-C61=135.06          C6-P5-Ru1-H63= 44.89          C12-P5-Ru1-N2= 66.64          C12-P5-Ru1-C3= 99.64          
C12-P5-Ru1-P20= 98.23         C12-P5-Ru1-H34=176.40         C12-P5-Ru1-C61=348.51         C12-P5-Ru1-H63=258.33         
Ru1-P5-C4-C3= 10.05           Ru1-P5-C4-H35=130.32          Ru1-P5-C4-H36=253.84          C6-P5-C4-C3=138.76            
C6-P5-C4-H35=259.03           C6-P5-C4-H36= 22.56           C12-P5-C4-C3=246.17           C12-P5-C4-H35=  6.44          
C12-P5-C4-H36=129.96          C7-C6-P5-Ru1=330.13           C7-C6-P5-C4=231.18            C7-C6-P5-C12=121.92           
C11-C6-P5-Ru1=150.79          C11-C6-P5-C4= 51.84           C11-C6-P5-C12=302.58          C8-C7-C6-P5=180.90            
C8-C7-C6-C11=  0.24           H37-C7-C6-P5=  1.45           H37-C7-C6-C11=180.79          C9-C8-C7-C6=359.65            
C9-C8-C7-H37=179.07           H38-C8-C7-C6=179.79           H38-C8-C7-H37=359.21          C10-C9-C8-C7=  0.11           
C10-C9-C8-H38=179.97          H39-C9-C8-C7=180.18           H39-C9-C8-H38=  0.04          C11-C10-C9-C8=  0.26          
C11-C10-C9-H39=180.18         H40-C10-C9-C8=180.00          H40-C10-C9-H39=359.92         
           -------------------------------------------------
          |                Final Singlepoint                |
           -------------------------------------------------

          ...................................................
          :                      SETUP                      :
          :.................................................:
          :  # basis functions                 223          :
          :  # atomic orbitals                 220          :
          :  # shells                          124          :
          :  # electrons                       216          :
          :  max. iterations                   500          :
          :  Hamiltonian                  GFN2-xTB          :
          :  restarted?                      false          :
          :  GBSA solvation                   true          :
          :  PC potential                    false          :
          :  electronic temp.          300.0000000     K    :
          :  accuracy                    0.5000000          :
          :  -> integral cutoff          0.2801030E+02      :
          :  -> integral neglect         0.5000000E-08      :
          :  -> SCF convergence          0.5000000E-06 Eh   :
          :  -> wf. convergence          0.5000000E-04 e    :
          :  Broyden damping             0.4000000          :
          :  net charge                          0          :
          :  unpaired electrons                  0          :
          ...................................................

 iter      E             dE          RMSdq      gap      omega  full diag
   1   -117.2571849 -0.117257E+03  0.192E-05    1.96       0.0  T
   2   -117.2571849 -0.738964E-12  0.127E-05    1.96     888.8  T
   3   -117.2571849 -0.156319E-12  0.805E-06    1.96    1397.4  T

   *** convergence criteria satisfied after 3 iterations ***

         #    Occupation            Energy/Eh            Energy/eV
      -------------------------------------------------------------
         1        2.0000           -0.7319631             -19.9177
       ...           ...                  ...                  ...
       102        2.0000           -0.3915236             -10.6539
       103        2.0000           -0.3867480             -10.5239
       104        2.0000           -0.3753351             -10.2134
       105        2.0000           -0.3741431             -10.1810
       106        2.0000           -0.3330455              -9.0626
       107        2.0000           -0.3302021              -8.9853
       108        2.0000           -0.3233734              -8.7994 (HOMO)
       109                         -0.2511999              -6.8355 (LUMO)
       110                         -0.2472338              -6.7276
       111                         -0.2415625              -6.5733
       112                         -0.2302132              -6.2644
       113                         -0.2298781              -6.2553
       ...                                ...                  ...
       220                          3.2672312              88.9059
      -------------------------------------------------------------
                  HL-Gap            0.0721735 Eh            1.9639 eV
             Fermi-level           -0.2872866 Eh           -7.8175 eV

 SCC (total)                   0 d,  0 h,  0 min,  0.132 sec
 SCC setup                      ...        0 min,  0.002 sec (  1.695%)
 Dispersion                     ...        0 min,  0.002 sec (  1.192%)
 classical contributions        ...        0 min,  0.000 sec (  0.286%)
 integral evaluation            ...        0 min,  0.016 sec ( 12.402%)
 iterations                     ...        0 min,  0.044 sec ( 33.327%)
 molecular gradient             ...        0 min,  0.066 sec ( 49.882%)
 printout                       ...        0 min,  0.002 sec (  1.203%)

         :::::::::::::::::::::::::::::::::::::::::::::::::::::
         ::                     SUMMARY                     ::
         :::::::::::::::::::::::::::::::::::::::::::::::::::::
         :: total energy            -115.353293020704 Eh    ::
         :: total w/o Gsasa/hb      -115.302858240577 Eh    ::
         :: gradient norm              0.000199138073 Eh/a0 ::
         :: HOMO-LUMO gap              1.963940637853 eV    ::
         ::.................................................::
         :: SCC energy              -117.252169726981 Eh    ::
         :: -> isotropic ES            0.040861257397 Eh    ::
         :: -> anisotropic ES          0.003799855585 Eh    ::
         :: -> anisotropic XC          0.066953538353 Eh    ::
         :: -> dispersion             -0.126866448117 Eh    ::
         :: -> Gsolv                  -0.053304751039 Eh    ::
         ::    -> Gelec               -0.002869970912 Eh    ::
         ::    -> Gsasa               -0.052642923266 Eh    ::
         ::    -> Ghb                  0.000000000000 Eh    ::
         ::    -> Gshift               0.002208143139 Eh    ::
         :: repulsion energy           1.898876706276 Eh    ::
         :: add. restraining           0.000000000000 Eh    ::
         :: total charge              -0.000000000000 e     ::
         :::::::::::::::::::::::::::::::::::::::::::::::::::::

           -------------------------------------------------
          |                Property Printout                |
           -------------------------------------------------

    * Orbital Energies and Occupations

         #    Occupation            Energy/Eh            Energy/eV
      -------------------------------------------------------------
         1        2.0000           -0.7319631             -19.9177
       ...           ...                  ...                  ...
        96        2.0000           -0.4077070             -11.0943
        97        2.0000           -0.4054715             -11.0334
        98        2.0000           -0.4035560             -10.9813
        99        2.0000           -0.4024815             -10.9521
       100        2.0000           -0.3995902             -10.8734
       101        2.0000           -0.3976240             -10.8199
       102        2.0000           -0.3915236             -10.6539
       103        2.0000           -0.3867480             -10.5239
       104        2.0000           -0.3753351             -10.2134
       105        2.0000           -0.3741431             -10.1810
       106        2.0000           -0.3330455              -9.0626
       107        2.0000           -0.3302021              -8.9853
       108        2.0000           -0.3233734              -8.7994 (HOMO)
       109                         -0.2511999              -6.8355 (LUMO)
       110                         -0.2472338              -6.7276
       111                         -0.2415625              -6.5733
       112                         -0.2302132              -6.2644
       113                         -0.2298781              -6.2553
       114                         -0.2283420              -6.2135
       115                         -0.2271976              -6.1824
       116                         -0.2260649              -6.1515
       117                         -0.2249974              -6.1225
       118                         -0.2237434              -6.0884
       119                         -0.2214415              -6.0257
       ...                                ...                  ...
       220                          3.2672312              88.9059
      -------------------------------------------------------------
                  HL-Gap            0.0721735 Eh            1.9639 eV
             Fermi-level           -0.2872866 Eh           -7.8175 eV

     #   Z          covCN         q      C6AA      α(0)
     1  44 Ru       6.391    -0.324   321.928    30.179
     2   7 N        2.568    -0.216    25.736     7.534
     3   6 C        3.899     0.107    18.773     6.159
     4   6 C        3.795    -0.034    21.192     6.555
     5  15 P        4.334    -0.004   160.390    22.750
     6   6 C        2.921     0.026    27.420     8.587
     7   6 C        3.011    -0.015    28.380     8.739
     8   6 C        2.918    -0.025    28.616     8.772
     9   6 C        2.920    -0.025    28.617     8.772
    10   6 C        2.919    -0.026    28.657     8.779
    11   6 C        2.986    -0.023    28.569     8.768
    12   6 C        2.918     0.025    27.447     8.591
    13   6 C        2.984    -0.024    28.585     8.770
    14   6 C        2.919    -0.027    28.665     8.780
    15   6 C        2.920    -0.025    28.639     8.776
    16   6 C        2.918    -0.025    28.632     8.775
    17   6 C        3.003    -0.019    28.478     8.754
    18   6 C        3.872     0.048    19.724     6.315
    19   6 C        3.748    -0.046    21.466     6.608
    20  15 P        4.183    -0.038   161.903    22.857
    21   6 C        2.919     0.028    27.374     8.580
    22   6 C        2.966    -0.022    28.552     8.765
    23   6 C        2.920    -0.026    28.660     8.779
    24   6 C        2.920    -0.026    28.652     8.778
    25   6 C        2.918    -0.027    28.665     8.780
    26   6 C        3.026    -0.021    28.512     8.759
    27   6 C        2.917     0.026    27.424     8.587
    28   6 C        3.019    -0.017    28.421     8.745
    29   6 C        2.918    -0.025    28.617     8.772
    30   6 C        2.920    -0.025    28.628     8.774
    31   6 C        2.919    -0.028    28.696     8.785
    32   6 C        2.964    -0.025    28.634     8.777
    33   1 H        0.923     0.020     2.740     2.589
    34   1 H        0.958    -0.174     9.044     4.700
    35   1 H        0.924     0.056     2.248     2.345
    36   1 H        0.925     0.061     2.183     2.311
    37   1 H        0.925     0.067     2.124     2.279
    38   1 H        0.926     0.041     2.436     2.441
    39   1 H        0.926     0.040     2.449     2.447
    40   1 H        0.926     0.039     2.465     2.455
    41   1 H        0.925     0.039     2.461     2.453
    42   1 H        0.925     0.037     2.495     2.470
    43   1 H        0.926     0.037     2.492     2.469
    44   1 H        0.926     0.037     2.495     2.470
    45   1 H        0.926     0.036     2.509     2.477
    46   1 H        0.925     0.056     2.246     2.344
    47   1 H        0.923     0.033     2.549     2.497
    48   1 H        0.923     0.028     2.620     2.531
    49   1 H        0.925     0.056     2.244     2.343
    50   1 H        0.925     0.069     2.094     2.263
    51   1 H        0.926     0.040     2.450     2.448
    52   1 H        0.926     0.038     2.472     2.459
    53   1 H        0.926     0.038     2.474     2.460
    54   1 H        0.926     0.039     2.467     2.456
    55   1 H        0.925     0.067     2.120     2.277
    56   1 H        0.925     0.063     2.160     2.298
    57   1 H        0.926     0.039     2.464     2.455
    58   1 H        0.926     0.039     2.461     2.453
    59   1 H        0.926     0.039     2.463     2.454
    60   1 H        0.926     0.040     2.454     2.450
    61   6 C        1.800     0.190    26.673     8.346
    62   8 O        0.857    -0.231    18.583     5.780
    63   1 H        0.963    -0.100     5.565     3.687
    64   8 O        1.654    -0.470    22.261     6.369
    65   6 C        3.679     0.084    19.390     6.307
    66   6 C        2.968     0.002    27.977     8.676
    67   6 C        2.924    -0.031    28.774     8.797
    68   6 C        2.918    -0.032    28.796     8.800
    69   6 C        2.920    -0.030    28.761     8.794
    70   6 C        2.919    -0.025    28.625     8.774
    71   6 C        2.923    -0.027    28.677     8.782
    72   1 H        0.804     0.318     0.668     1.284
    73   1 H        0.924     0.040     2.444     2.445
    74   1 H        0.923     0.016     2.791     2.613
    75   1 H        0.925     0.031     2.575     2.509
    76   1 H        0.925     0.029     2.602     2.522
    77   1 H        0.926     0.029     2.595     2.519
    78   1 H        0.926     0.033     2.542     2.493
    79   1 H        0.926     0.035     2.516     2.480

 Mol. C6AA /au·bohr⁶  :      92227.110388
 Mol. C8AA /au·bohr⁸  :    2708066.927436
 Mol. α(0) /au        :        490.769418


Wiberg/Mayer (AO) data.
largest (>0.10) Wiberg bond orders for each atom

 ---------------------------------------------------------------------------
     #   Z sym  total        # sym  WBO       # sym  WBO       # sym  WBO
 ---------------------------------------------------------------------------
     1  44 Ru   6.576 --    61 C    1.247    20 P    1.021     5 P    0.915
                            63 H    0.879    34 H    0.746     3 C    0.480
                             2 N    0.456    62 O    0.274
     2   7 N    3.181 --     3 C    1.476    18 C    1.006     1 Ru   0.456
     3   6 C    3.986 --     2 N    1.476     4 C    0.963    33 H    0.914
                             1 Ru   0.480
     4   6 C    3.990 --     5 P    0.981     3 C    0.963    36 H    0.936
                            35 H    0.934
     5  15 P    4.443 --    12 C    0.986     6 C    0.984     4 C    0.981
                             1 Ru   0.915
     6   6 C    3.979 --     7 C    1.393    11 C    1.378     5 P    0.984
                             9 C    0.105
     7   6 C    3.987 --     8 C    1.438     6 C    1.393    37 H    0.944
                            10 C    0.107
     8   6 C    3.991 --     9 C    1.442     7 C    1.438    38 H    0.969
                            11 C    0.111
     9   6 C    3.986 --     8 C    1.442    10 C    1.428    39 H    0.971
                             6 C    0.105
    10   6 C    3.989 --    11 C    1.454     9 C    1.428    40 H    0.969
                             7 C    0.107
    11   6 C    3.990 --    10 C    1.454     6 C    1.378    41 H    0.961
                             8 C    0.111
    12   6 C    3.979 --    13 C    1.384    17 C    1.377     5 P    0.986
                            15 C    0.104
    13   6 C    3.991 --    14 C    1.445    12 C    1.384    42 H    0.960
                            16 C    0.107
    14   6 C    3.991 --    13 C    1.445    15 C    1.438    43 H    0.969
                            17 C    0.109
    15   6 C    3.981 --    14 C    1.438    16 C    1.431    44 H    0.971
                            12 C    0.104
    16   6 C    3.991 --    17 C    1.452    15 C    1.431    45 H    0.970
                            13 C    0.107
    17   6 C    3.989 --    16 C    1.452    12 C    1.377    46 H    0.948
                            14 C    0.109
    18   6 C    3.990 --     2 N    1.006    19 C    0.969    47 H    0.965
                            48 H    0.956
    19   6 C    3.994 --    20 P    0.991    18 C    0.969    49 H    0.937
                            50 H    0.934
    20  15 P    4.524 --     1 Ru   1.021    19 C    0.991    27 C    0.978
                            21 C    0.977
    21   6 C    3.980 --    22 C    1.385    26 C    1.383    20 P    0.977
                            24 C    0.105
    22   6 C    3.990 --    23 C    1.447    21 C    1.385    51 H    0.960
                            25 C    0.109
    23   6 C    3.990 --    22 C    1.447    24 C    1.435    52 H    0.969
                            26 C    0.108
    24   6 C    3.986 --    25 C    1.436    23 C    1.435    53 H    0.971
                            21 C    0.105
    25   6 C    3.991 --    26 C    1.447    24 C    1.436    54 H    0.969
                            22 C    0.109
    26   6 C    3.986 --    25 C    1.447    21 C    1.383    55 H    0.940
                            23 C    0.108
    27   6 C    3.981 --    32 C    1.385    28 C    1.383    20 P    0.978
                            30 C    0.105
    28   6 C    3.988 --    29 C    1.446    27 C    1.383    56 H    0.933
                            31 C    0.108
    29   6 C    3.991 --    28 C    1.446    30 C    1.437    57 H    0.969
                            32 C    0.109
    30   6 C    3.986 --    29 C    1.437    31 C    1.434    58 H    0.971
                            27 C    0.105
    31   6 C    3.989 --    32 C    1.447    30 C    1.434    59 H    0.969
                            28 C    0.108
    32   6 C    3.990 --    31 C    1.447    27 C    1.385    60 H    0.957
                            29 C    0.109
    33   1 H    0.999 --     3 C    0.914
    34   1 H    0.967 --     1 Ru   0.746
    35   1 H    0.996 --     4 C    0.934
    36   1 H    0.996 --     4 C    0.936
    37   1 H    0.995 --     7 C    0.944
    38   1 H    0.998 --     8 C    0.969
    39   1 H    0.998 --     9 C    0.971
    40   1 H    0.998 --    10 C    0.969
    41   1 H    0.998 --    11 C    0.961
    42   1 H    0.998 --    13 C    0.960
    43   1 H    0.998 --    14 C    0.969
    44   1 H    0.998 --    15 C    0.971
    45   1 H    0.998 --    16 C    0.970
    46   1 H    0.997 --    17 C    0.948
    47   1 H    0.999 --    18 C    0.965
    48   1 H    0.998 --    18 C    0.956
    49   1 H    0.996 --    19 C    0.937
    50   1 H    0.995 --    19 C    0.934
    51   1 H    0.998 --    22 C    0.960
    52   1 H    0.998 --    23 C    0.969
    53   1 H    0.998 --    24 C    0.971
    54   1 H    0.998 --    25 C    0.969
    55   1 H    0.995 --    26 C    0.940
    56   1 H    0.996 --    28 C    0.933
    57   1 H    0.998 --    29 C    0.969
    58   1 H    0.998 --    30 C    0.971
    59   1 H    0.998 --    31 C    0.969
    60   1 H    0.998 --    32 C    0.957
    61   6 C    3.579 --    62 O    2.098     1 Ru   1.247
    62   8 O    2.448 --    61 C    2.098     1 Ru   0.274
    63   1 H    0.989 --     1 Ru   0.879
    64   8 O    1.945 --    65 C    0.987    72 H    0.848
    65   6 C    3.957 --    66 C    0.995    64 O    0.987    74 H    0.970
                            73 H    0.968
    66   6 C    3.988 --    71 C    1.418    67 C    1.414    65 C    0.995
                            69 C    0.111
    67   6 C    3.992 --    68 C    1.445    66 C    1.414    75 H    0.970
                            70 C    0.112
    68   6 C    3.992 --    67 C    1.445    69 C    1.435    76 H    0.971
                            71 C    0.111
    69   6 C    3.993 --    70 C    1.440    68 C    1.435    77 H    0.971
                            66 C    0.111
    70   6 C    3.992 --    71 C    1.441    69 C    1.440    78 H    0.969
                            67 C    0.112
    71   6 C    3.992 --    70 C    1.441    66 C    1.418    79 H    0.968
                            68 C    0.111
    72   1 H    0.898 --    64 O    0.848
    73   1 H    0.997 --    65 C    0.968
    74   1 H    0.999 --    65 C    0.970
    75   1 H    0.999 --    67 C    0.970
    76   1 H    0.999 --    68 C    0.971
    77   1 H    0.999 --    69 C    0.971
    78   1 H    0.999 --    70 C    0.969
    79   1 H    0.999 --    71 C    0.968
 ---------------------------------------------------------------------------

Topologies differ in total number of bonds
Writing topology from bond orders to xtbtopo.mol

molecular dipole:
                 x           y           z       tot (Debye)
 q only:        0.170       0.157       0.753
   full:        0.457      -0.781       0.813       3.091
molecular quadrupole (traceless):
                xx          xy          yy          xz          yz          zz
 q only:       21.444       8.488      -3.619       6.633       5.586     -17.825
  q+dip:       18.970      11.230       4.744       6.030       5.150     -23.714
   full:       18.462       8.941       1.283       6.790       4.937     -19.745

           -------------------------------------------------
          |                Geometry Summary                 |
           -------------------------------------------------

      molecular mass/u    :      678.6982773
   center of mass at/Å    :       -0.0195293      -0.5434096       0.1735993
  moments of inertia/u·Å² :        0.5105032E+04   0.7535589E+04   0.1051513E+05
rotational constants/cm⁻¹ :        0.3302160E-02   0.2237069E-02   0.1603178E-02

 * 82 selected distances

     #   Z          #   Z                                           value/Å
     2   7 N        3   6 C                                       1.3107824
     3   6 C        4   6 C                                       1.5218308
     1  44 Ru       5  15 P                                       2.3019797 (max)
     4   6 C        5  15 P                                       1.8502385
     5  15 P        6   6 C                                       1.8162704
     6   6 C        7   6 C                                       1.3890350
     7   6 C        8   6 C                                       1.3846585
     8   6 C        9   6 C                                       1.3857464
     9   6 C       10   6 C                                       1.3874999
     6   6 C       11   6 C                                       1.3918645
    10   6 C       11   6 C                                       1.3824100
     5  15 P       12   6 C                                       1.8210852
    12   6 C       13   6 C                                       1.3916181
    13   6 C       14   6 C                                       1.3837504
    14   6 C       15   6 C                                       1.3853670
    15   6 C       16   6 C                                       1.3864429
    12   6 C       17   6 C                                       1.3930091
    16   6 C       17   6 C                                       1.3823231
     2   7 N       18   6 C                                       1.4480994
    18   6 C       19   6 C                                       1.5387202
     1  44 Ru      20  15 P                                       2.2919166
    19   6 C       20  15 P                                       1.8534634
    20  15 P       21   6 C                                       1.8260343
    21   6 C       22   6 C                                       1.3901410
    22   6 C       23   6 C                                       1.3834968
    23   6 C       24   6 C                                       1.3856306
    24   6 C       25   6 C                                       1.3858645
    21   6 C       26   6 C                                       1.3915601
    25   6 C       26   6 C                                       1.3829969
    20  15 P       27   6 C                                       1.8320639
    27   6 C       28   6 C                                       1.3919604
    28   6 C       29   6 C                                       1.3831065
    29   6 C       30   6 C                                       1.3854707
    30   6 C       31   6 C                                       1.3854940
    27   6 C       32   6 C                                       1.3912385
    31   6 C       32   6 C                                       1.3835717
     3   6 C       33   1 H                                       1.0994742
     1  44 Ru      34   1 H                                       1.5693686
     4   6 C       35   1 H                                       1.0959466
     4   6 C       36   1 H                                       1.0944060
     7   6 C       37   1 H                                       1.0838121
     8   6 C       38   1 H                                       1.0807859
     9   6 C       39   1 H                                       1.0806771
    10   6 C       40   1 H                                       1.0809421
    11   6 C       41   1 H                                       1.0823869
    13   6 C       42   1 H                                       1.0818674
    14   6 C       43   1 H                                       1.0807160
    15   6 C       44   1 H                                       1.0804709
    16   6 C       45   1 H                                       1.0809186
    17   6 C       46   1 H                                       1.0832499
    18   6 C       47   1 H                                       1.0985815
    18   6 C       48   1 H                                       1.1003159
    19   6 C       49   1 H                                       1.0916323
    19   6 C       50   1 H                                       1.0950659
    22   6 C       51   1 H                                       1.0800947
    23   6 C       52   1 H                                       1.0807456
    24   6 C       53   1 H                                       1.0805333
    25   6 C       54   1 H                                       1.0808168
    26   6 C       55   1 H                                       1.0842535
    28   6 C       56   1 H                                       1.0850949
    29   6 C       57   1 H                                       1.0805029
    30   6 C       58   1 H                                       1.0803430
    31   6 C       59   1 H                                       1.0808169
    32   6 C       60   1 H                                       1.0805925
     1  44 Ru      61   6 C                                       1.8492491
    61   6 C       62   8 O                                       1.1509639
     1  44 Ru      63   1 H                                       1.5510628
    64   8 O       65   6 C                                       1.4142469
    66   6 C       67   6 C                                       1.3898846
    67   6 C       68   6 C                                       1.3839891
    68   6 C       69   6 C                                       1.3855524
    69   6 C       70   6 C                                       1.3842747
    66   6 C       71   6 C                                       1.3881780
    70   6 C       71   6 C                                       1.3841583
    64   8 O       72   1 H                                       0.9724674 (min)
    65   6 C       73   1 H                                       1.0946716
    65   6 C       74   1 H                                       1.0994195
    67   6 C       75   1 H                                       1.0814880
    68   6 C       76   1 H                                       1.0812370
    69   6 C       77   1 H                                       1.0803688
    70   6 C       78   1 H                                       1.0795233
    71   6 C       79   1 H                                       1.0807369

 * 9 distinct bonds (by element types)

   Z      Z             #   av. dist./Å        max./Å        min./Å
   1 H    6 C          34     1.0853673     1.1003159     1.0795233
   6 C    6 C          32     1.3956514     1.5387202     1.3823231
   6 C    7 N           2     1.3794409     1.4480994     1.3107824
   1 H    8 O           1     0.9724674     0.9724674     0.9724674
   6 C    8 O           2     1.2826054     1.4142469     1.1509639
   6 C   15 P           6     1.8331926     1.8534634     1.8162704
   1 H   44 Ru          2     1.5602157     1.5693686     1.5510628
   6 C   44 Ru          1     1.8492491     1.8492491     1.8492491
  15 P   44 Ru          2     2.2969482     2.3019797     2.2919166


optimized geometry written to: xtbopt.xyz


           -------------------------------------------------
          | TOTAL ENERGY             -115.353293020704 Eh   |
          | GRADIENT NORM               0.000199138073 Eh/α |
          | HOMO-LUMO GAP               1.963940637853 eV   |
           -------------------------------------------------

------------------------------------------------------------------------
 * finished run on 2026/09/13 at 01:17:53.203     
------------------------------------------------------------------------
 total:
 * wall-time:     0 d,  0 h,  0 min, 36.011 sec
 *  cpu-time:     0 d,  0 h,  0 min,  6.562 sec
 * ratio c/w:     0.182 speedup
 SCF:
 * wall-time:     0 d,  0 h,  0 min,  0.354 sec
 *  cpu-time:     0 d,  0 h,  0 min,  0.078 sec
 * ratio c/w:     0.221 speedup
 ANC optimizer:
 * wall-time:     0 d,  0 h,  0 min, 35.572 sec
 *  cpu-time:     0 d,  0 h,  0 min,  6.438 sec
 * ratio c/w:     0.181 speedup


normal termination of xtb
Note: The following floating-point exceptions are signalling: IEEE_DIVIDE_BY_ZERO IEEE_UNDERFLOW_FLAG IEEE_DENORMAL
