79
 energy: -115.353293020704 gnorm: 0.000199138073 xtb: 6.7.1 (edcfbbe)
Ru          -0.10522498851425       -0.53637263045920       -0.46736464249848
N            0.55242137884559       -2.64027511364483       -0.29370607749460
C            0.77287464872245       -2.09233307362266        0.87646912634626
C            2.14904565413784       -1.48404858728877        1.10474957497432
P            2.13786589663232       -0.12621479116448       -0.15204966714774
C            2.90442247804643        1.28062341020650        0.70354072651195
C            2.24270352247492        2.50189440406112        0.69697029411879
C            2.81143344889484        3.59710592575127        1.32493265943453
C            4.03453618798771        3.46942441876613        1.96368914711233
C            4.69320679917513        2.24828284255364        1.97473313103091
C            4.13403941512703        1.15308643056975        1.34312111117573
C            3.41486091098877       -0.59415614062173       -1.36310930411468
C            4.28967096082445        0.35059542143860       -1.89107951876743
C            5.20365320419525       -0.01981943181034       -2.86174641875779
C            5.24293470279759       -1.32680898891873       -3.31943251111325
C            4.35669728055103       -2.26510037487790       -2.81305702481720
C            3.44073519056247       -1.90135592277525       -1.84376856835372
C           -0.51737849933459       -3.60502898948183       -0.44125147849263
C           -1.88517089343683       -3.20107099941841        0.13634810871592
P           -2.20348290536401       -1.45605258270081       -0.40115909877000
C           -3.54299614978921       -0.88950761425877        0.70298382370006
C           -4.50917010497469       -1.73109672299870        1.24217515031752
C           -5.50098071727324       -1.20814877486364        2.05266897883945
C           -5.54047934421632        0.15028300694653        2.32299242141949
C           -4.58306848812091        0.99301606886755        1.78097256576651
C           -3.58764476735076        0.47494686007149        0.97263108472999
C           -3.17996674456719       -1.60565146687259       -1.94406453119803
C           -2.98930320734408       -0.61744242290840       -2.90564849967819
C           -3.71835474186435       -0.63252398448082       -4.08091005732092
C           -4.64991829960290       -1.63349178668920       -4.30402777429879
C           -4.85994558335887       -2.60776431806079       -3.34159602879616
C           -4.13627828887760       -2.59221661495112       -2.16247169376243
H            0.25670755352306       -2.44877802999282        1.77944297512307
H           -0.28174056583776        0.06022048168445        0.97341158430820
H            2.94889817815015       -2.22150717510603        0.97250164380028
H            2.21178860711562       -1.04069350374549        2.10336056001886
H            1.28074843383720        2.56648015988414        0.20187473529006
H            2.30105679278900        4.54977422884720        1.31886692308606
H            4.47785292481026        4.32288567768151        2.45657546338164
H            5.64707298862361        2.15454158562329        2.47452049279452
H            4.64547688816342        0.19917156114171        1.33684878076232
H            4.25225943640996        1.37361170329043       -1.54111546553465
H            5.88492125241846        0.71549879538147       -3.26563717044807
H            5.95752833423721       -1.61264955127619       -4.07776505992278
H            4.37703558160435       -3.28141778289737       -3.18057593456123
H            2.72877530622008       -2.62336280172812       -1.46265270970494
H           -0.62887797278248       -3.78822037620153       -1.51869749632860
H           -0.18456103764788       -4.54566070095152        0.02257979454425
H           -2.64412052168773       -3.90213173889575       -0.21602962033697
H           -1.87904531920377       -3.21050406997053        1.23135617555073
H           -4.48334458154502       -2.79317261800273        1.04741338504487
H           -6.24610915984072       -1.86461073546248        2.47911015252311
H           -6.31558595136485        0.55068041137228        2.96052174041184
H           -4.61081947723914        2.05234394161695        1.99362046953303
H           -2.81615391187921        1.10996267605811        0.55172473846907
H           -2.25693916325361        0.16043331958148       -2.71595672488346
H           -3.55854672888061        0.13544554507706       -4.82399185208973
H           -5.21574786649748       -1.65263198623190       -5.22414260311538
H           -5.59399454163378       -3.38319771490513       -3.50904784772856
H           -4.32754413995927       -3.35181779215104       -1.41809046498179
C            0.14548770054555       -0.98939963205526       -2.24264812338016
O            0.37030252837158       -1.31932081267818       -3.32215173610692
H           -0.55452163149456        0.88393206190261       -0.89940929014207
O           -1.77889414821784       -1.55934656569223        3.08586442269927
C           -1.65603028020140       -0.64792950053667        4.16025597269128
C           -0.24554722870098       -0.12499812710749        4.27822141424856
C            0.76924482481394       -0.97066339863348        4.71045530671630
C            2.07760348720793       -0.52370130529316        4.77248628659084
C            2.38317499574801        0.77690658162779        4.40533458849509
C            1.37797447367394        1.62301554117813        3.96957353576532
C            0.07131094133680        1.17199169693710        3.89814768087886
H           -1.50826623273400       -1.07918724035093        2.28467765149897
H           -1.93598684256419       -1.21055444546122        5.05657238098693
H           -2.36408713157489        0.18283483687325        4.02907252745204
H            0.52620740355155       -1.98519679782946        4.99553562058232
H            2.85894082387667       -1.19034463926740        5.11037968581329
H            3.40291784826158        1.13019205144006        4.45543795404691
H            1.61433719030172        2.63567767978628        3.67971439057189
H           -0.70898477447617        1.83162046743609        3.54598225308645
