78
Properties=species:S:1:pos:R:3:forces:R:3 charge=0 unpaired=0 uhf=0 energy=-3133.972940710056 pbc="F F F"
Co      -0.23912288      -0.23490033      -0.48001860      -0.00109028       0.00688174      -0.00136677
N        0.29956646      -2.22280893       0.18648716       0.00104852      -0.00311340       0.00167808
C        1.56070811      -2.86498117      -0.11992392      -0.00025050       0.00015330      -0.00014953
C        2.47752233      -1.87532528      -0.85635893       0.00108905      -0.00000294      -0.00035701
P        1.91429233      -0.10709891      -0.67374333      -0.00133009       0.00055422       0.00104784
C        2.87857785       0.44640451       0.77212514       0.00091952       0.00001239      -0.00082185
C        2.69255254      -0.23402952       1.97321522       0.00030567      -0.00031941       0.00058868
C        3.35881678       0.16654874       3.11512645      -0.00128470       0.00022061      -0.00034256
C        4.20762845       1.26208645       3.07399510       0.00031688       0.00067822      -0.00045105
C        4.37661957       1.95841423       1.88907187      -0.00036025       0.00076548       0.00078431
C        3.71272387       1.55817212       0.74194198      -0.00071827       0.00003835      -0.00063337
C        2.79697099       0.71006861      -2.04179019      -0.00021580      -0.00027202       0.00023005
C        2.12649527       1.71967707      -2.72243162      -0.00066092      -0.00029572      -0.00048484
C        2.74835684       2.40223256      -3.75276350      -0.00088326      -0.00009372      -0.00071577
C        4.04329586       2.07112483      -4.11473542       0.00103962       0.00058411       0.00011035
C        4.71655194       1.06409064      -3.44010498       0.00071485       0.00105018       0.00084100
C        4.10179242       0.38735079      -2.40216410       0.00059038      -0.00009599       0.00018336
C       -0.74941696      -3.05422194       0.74002388      -0.00012219      -0.00011636       0.00004189
C       -1.85464976      -2.14150929       1.28186096      -0.00006961      -0.00014902       0.00007923
P       -2.25992793      -0.84639939       0.01172698      -0.00033223      -0.00082263      -0.00082932
C       -3.47952161       0.22659534       0.82910570       0.00006580       0.00052932      -0.00015333
C       -3.55186833       0.42221507       2.20327485      -0.00048374       0.00014691       0.00067653
C       -4.46984995       1.31579392       2.72867970       0.00047040      -0.00068093       0.00028185
C       -5.31178326       2.02833807       1.89160412       0.00008184       0.00031180      -0.00019750
C       -5.22974828       1.85441720       0.51833848      -0.00026671       0.00003970       0.00071858
C       -4.31489233       0.96443212      -0.00932542       0.00059403      -0.00043263       0.00040598
C       -3.36487054      -1.83799225      -1.06465623      -0.00049084      -0.00034695       0.00083410
C       -2.96500213      -2.20345324      -2.34268877      -0.00034603      -0.00001597      -0.00096948
C       -3.77835009      -3.00188833      -3.12930467       0.00080670       0.00111560      -0.00030939
C       -4.99860660      -3.43832704      -2.64254248      -0.00040812       0.00009842       0.00037344
C       -5.40608265      -3.07322976      -1.36800823       0.00015375      -0.00049694      -0.00091850
C       -4.59465349      -2.27899023      -0.58036208       0.00104980       0.00015964       0.00003433
H        1.42718337      -3.76731082      -0.74341332      -0.00022794       0.00026437      -0.00030228
H        2.02486938      -3.18665486       0.82259966       0.00000680      -0.00028855      -0.00015731
H        2.46764897      -2.07457839      -1.93247585       0.00050440      -0.00012009      -0.00001525
H        3.50856541      -1.96709633      -0.50561438       0.00050043       0.00050000       0.00075235
H        2.00964787      -1.07118818       2.00626868      -0.00017482       0.00058192      -0.00019166
H        3.21384910      -0.37025117       4.04222289      -0.00001147       0.00030053      -0.00008283
H        4.72802246       1.57803595       3.96662470      -0.00003013       0.00014081      -0.00020993
H        5.02622358       2.82174663       1.85719384       0.00000095       0.00016718      -0.00029395
H        3.84234815       2.11268126      -0.17743454      -0.00011702       0.00024834      -0.00030013
H        1.10900515       1.95098995      -2.43079750       0.00011577       0.00026074       0.00037832
H        2.22307480       3.18797000      -4.27583850       0.00015118       0.00058287       0.00056468
H        4.53125849       2.59944151      -4.92093598       0.00031135       0.00032921       0.00002974
H        5.72941441       0.81004139      -3.71941263      -0.00014982      -0.00011492      -0.00044550
H        4.63808620      -0.38601562      -1.87126291       0.00006623      -0.00024461      -0.00057591
H       -1.16882112      -3.75375507      -0.00766162      -0.00005416       0.00019627      -0.00019869
H       -0.33549455      -3.65349335       1.56127036      -0.00003309      -0.00028429      -0.00031117
H       -2.74639563      -2.71040689       1.55831654       0.00005278      -0.00010774       0.00014840
H       -1.46971379      -1.61586960       2.16009760       0.00023448      -0.00020587      -0.00003207
H       -2.89591199      -0.11741914       2.87069754      -0.00030330      -0.00064755       0.00010023
H       -4.52495597       1.45796441       3.79868596      -0.00010393      -0.00022462       0.00025410
H       -6.02595142       2.72402385       2.30754793       0.00050705       0.00026921       0.00040605
H       -5.87731818       2.41700243      -0.13879207       0.00051772       0.00041946       0.00024277
H       -4.23534289       0.82740916      -1.08089573      -0.00009527       0.00022164       0.00021454
H       -2.01576472      -1.84925883      -2.72136152       0.00019470       0.00058420       0.00028695
H       -3.45920970      -3.28165422      -4.12321214       0.00007818       0.00065679      -0.00034556
H       -5.63542904      -4.06004324      -3.25502847       0.00036543       0.00041932      -0.00074131
H       -6.36012465      -3.41005161      -0.98813611       0.00029184      -0.00035626      -0.00017467
H       -4.91691154      -1.98962039       0.41149424      -0.00011154      -0.00077319       0.00002462
C       -0.28461085       0.85742407       0.88255255       0.00236420      -0.00126879       0.00152286
O       -0.38280367       1.75076146       1.61625759      -0.00001199       0.00090812      -0.00023827
O        3.30684341      -2.41817156      -4.06722221      -0.00174942      -0.00158405      -0.00207903
C        3.44042817      -1.61197604      -4.96058444       0.00184439       0.00242367       0.00367624
C        2.43126285      -0.65817228      -5.41016324      -0.00096781      -0.00132501      -0.00099908
C        1.19365554      -0.58806162      -4.76789277      -0.00169648       0.00016214      -0.00040086
C        0.24410602       0.32382384      -5.18225438      -0.00008739      -0.00083236       0.00007822
C        0.51870427       1.17109088      -6.24477986      -0.00013205      -0.00034447      -0.00022407
C        1.74417864       1.10647573      -6.89352316      -0.00003509      -0.00050465       0.00061474
C        2.69925463       0.19969642      -6.47887048      -0.00013289      -0.00040949      -0.00018233
H       -0.06221467      -1.78735617      -0.69780210       0.00034011      -0.00314026      -0.00038251
H        4.39529304      -1.55546648      -5.52167954      -0.00070725      -0.00087959       0.00021968
H       -0.36810178      -0.40756683      -1.92833001      -0.00112091      -0.00033298      -0.00054248
H        1.00006557      -1.24954659      -3.93689711      -0.00025577      -0.00079315      -0.00032248
H       -0.70406089       0.38203914      -4.66912833      -0.00027379      -0.00005870      -0.00038143
H       -0.22366069       1.88580207      -6.56914001       0.00025989      -0.00030196       0.00011388
H        1.95154496       1.76894756      -7.72117078       0.00018093      -0.00018205       0.00016566
H        3.65717114       0.14674630      -6.97697809      -0.00023877      -0.00039697       0.00012737
