78
Properties=species:S:1:pos:R:3:forces:R:3 charge=0 unpaired=0 uhf=0 energy=-3134.941166041809 pbc="F F F"
Co      -0.02338157      -0.42726824      -0.12090431       0.00626343       0.00178392       0.00171128
N        0.31978843      -2.14443690       0.46799080      -0.00055371      -0.00056522       0.00231415
C        1.48988596      -2.94124468       0.16343637      -0.00076946       0.00031307      -0.00034196
C        2.35974451      -2.26401561      -0.89055110       0.00040463      -0.00001255      -0.00006049
P        2.10182487      -0.47941450      -0.56688065       0.00056386      -0.00107918      -0.00080273
C        3.06761720      -0.23751674       0.95763506      -0.00008147       0.00000588       0.00001602
C        2.37575420       0.05446338       2.12633937      -0.00000667      -0.00044130       0.00027467
C        3.05573059       0.19491169       3.32278045      -0.00023785      -0.00084359       0.00010001
C        4.43290540       0.04359903       3.35333175       0.00021353      -0.00040065       0.00012011
C        5.12826093      -0.24414425       2.18830708       0.00020635       0.00134651      -0.00034463
C        4.45079708      -0.38431870       0.99065494       0.00025372       0.00099878      -0.00007191
C        3.13607294       0.39235772      -1.78550626      -0.00005434       0.00044323       0.00070367
C        3.56601460       1.67945596      -1.46938027      -0.00064186      -0.00041614       0.00069391
C        4.34221455       2.39531299      -2.36008109      -0.00001776       0.00026507      -0.00023921
C        4.68674627       1.83761060      -3.58141592       0.00003224       0.00038107       0.00014039
C        4.23807271       0.57045030      -3.91346432      -0.00037789       0.00017677      -0.00003403
C        3.45888197      -0.14909678      -3.02511921       0.00028169       0.00011222      -0.00024020
C       -0.56174062      -2.90796441       1.32693479      -0.00064373      -0.00134870       0.00020152
C       -1.70713553      -2.03772728       1.83668644       0.00026082      -0.00029286      -0.00078039
P       -2.05087935      -0.96608655       0.39199328       0.00049433       0.00345927      -0.00131954
C       -3.35528663       0.19936158       0.89333886      -0.00009700      -0.00083229       0.00028424
C       -3.77012819       0.39397334       2.20536122       0.00014660      -0.00031086       0.00011970
C       -4.74058227       1.33971151       2.49193656       0.00089991       0.00134884       0.00037491
C       -5.29587134       2.10118079       1.47733153       0.00089307       0.00041760       0.00057649
C       -4.87853420       1.91962690       0.16721043      -0.00016010      -0.00079628      -0.00007841
C       -3.91125252       0.97711793      -0.12122033      -0.00062843      -0.00026961      -0.00014302
C       -2.99229163      -2.11229286      -0.67013534      -0.00019135      -0.00021255      -0.00010281
C       -2.34000120      -2.75450619      -1.71545402      -0.00029048       0.00121880       0.00018402
C       -3.01685484      -3.67822219      -2.49290360      -0.00055756       0.00032851      -0.00046283
C       -4.34635173      -3.96429649      -2.22983275      -0.00024803       0.00044501      -0.00007105
C       -4.99914244      -3.32743555      -1.18513101      -0.00035729       0.00030720      -0.00027866
C       -4.32702293      -2.40485546      -0.40437468       0.00009029      -0.00004505       0.00018172
H        1.18907287      -3.94716754      -0.18658053       0.00026832      -0.00008327       0.00003440
H        2.08873557      -3.09542997       1.08406222       0.00013421       0.00035957      -0.00028812
H        1.97742157      -2.48632456      -1.88876111      -0.00025082       0.00015130       0.00018966
H        3.41094407      -2.55526396      -0.82043890       0.00025605      -0.00001927      -0.00022085
H        1.29393445       0.16271508       2.07253268      -0.00011090      -0.00059617       0.00029953
H        2.51613394       0.42235346       4.23132444       0.00017579      -0.00025186       0.00019995
H        4.96751484       0.15090327       4.28633119       0.00018204       0.00056150      -0.00011427
H        6.20254963      -0.35989628       2.21639001       0.00012175       0.00053818      -0.00013214
H        4.99144879      -0.60140320       0.07836744      -0.00010747       0.00036428      -0.00019494
H        3.28966543       2.10825906      -0.51416946      -0.00047051       0.00077292      -0.00007625
H        4.68044472       3.38920355      -2.10359056      -0.00045469       0.00049167       0.00007156
H        5.29813385       2.39389001      -4.27679535       0.00009560       0.00026255       0.00032881
H        4.49366176       0.14126093      -4.87147693       0.00033602      -0.00008423       0.00033127
H        3.09941162      -1.12969953      -3.29896504       0.00014326       0.00017542       0.00032892
H       -0.98530607      -3.77308935       0.77695086      -0.00023894      -0.00000202      -0.00072147
H        0.00650173      -3.32609569       2.17938384      -0.00015375      -0.00070536      -0.00066631
H       -2.57341239      -2.62328815       2.15613153       0.00006775      -0.00041172      -0.00059503
H       -1.35926700      -1.40309596       2.65696780      -0.00049360      -0.00085143      -0.00014399
H       -3.34161855      -0.19304600       3.00515759       0.00017368      -0.00026928      -0.00002745
H       -5.06351928       1.48401816       3.51332099      -0.00046006      -0.00101241       0.00003895
H       -6.05067866       2.83926546       1.70668102      -0.00063857      -0.00054812       0.00021646
H       -5.30635640       2.51665250      -0.62538049       0.00036993       0.00037854       0.00030105
H       -3.57336858       0.82808919      -1.13980972       0.00072524       0.00070495       0.00047667
H       -1.30100646      -2.52479840      -1.91291630      -0.00007791      -0.00059132      -0.00023222
H       -2.50550938      -4.17368212      -3.30587452      -0.00019239      -0.00032835       0.00023596
H       -4.87650378      -4.68386236      -2.83726522      -0.00030600       0.00018119       0.00001399
H       -6.03587250      -3.55274455      -0.97832442      -0.00026661       0.00108640      -0.00049078
H       -4.83773310      -1.90773638       0.40986300      -0.00004711       0.00097307      -0.00063322
C       -0.34765612       1.24494075      -0.37617638      -0.01119087      -0.00046833      -0.00060537
O       -0.61473921       2.37774734      -0.40894185       0.00430698      -0.00030707       0.00174538
O        0.26040142      -1.29239822      -3.19328199       0.00291859      -0.00021934       0.00264881
C       -0.28613295      -0.56800913      -4.27291921      -0.00139878       0.00025792      -0.00164232
C        0.55318968       0.62292256      -4.67000072       0.00028865      -0.00034552       0.00003264
C        0.66738911       1.70703604      -3.80836855      -0.00015958      -0.00041004      -0.00032349
C        1.43930633       2.80124205      -4.15155362       0.00084433      -0.00041838      -0.00040932
C        2.10535628       2.82633691      -5.36515121      -0.00028713      -0.00013195      -0.00013886
C        2.00048486       1.74949238      -6.22832148      -0.00005944       0.00020016      -0.00051627
C        1.23170786       0.65190155      -5.88042668       0.00068817      -0.00079491       0.00031857
H        0.21642527      -0.74302862      -2.38250940      -0.00103809      -0.00131388      -0.00118591
H       -0.34600088      -1.27945194      -5.10201371       0.00033976      -0.00084391      -0.00063517
H       -1.30652862      -0.23560839      -4.02631310       0.00098258      -0.00054097       0.00054096
H        0.14223695       1.69589598      -2.86431835      -0.00006656       0.00009492       0.00003782
H        1.51693708       3.63590477      -3.47021026      -0.00056605      -0.00000042      -0.00035509
H        2.70382658       3.68370015      -5.63698433      -0.00008663      -0.00024176      -0.00033180
H        2.51919629       1.76373114      -7.17635624       0.00024279      -0.00078390      -0.00015670
H        1.15385261      -0.18759831      -6.55722438       0.00037146      -0.00046428      -0.00017900
