78
Properties=species:S:1:pos:R:3 charge=0 unpaired=0 uhf=0 pbc="F F F"
Co      -0.02338157      -0.42726824      -0.12090431
N        0.31978843      -2.14443690       0.46799080
C        1.48988596      -2.94124468       0.16343637
C        2.35974451      -2.26401561      -0.89055110
P        2.10182487      -0.47941450      -0.56688065
C        3.06761720      -0.23751674       0.95763506
C        2.37575420       0.05446338       2.12633937
C        3.05573059       0.19491169       3.32278045
C        4.43290540       0.04359903       3.35333175
C        5.12826093      -0.24414425       2.18830708
C        4.45079708      -0.38431870       0.99065494
C        3.13607294       0.39235772      -1.78550626
C        3.56601460       1.67945596      -1.46938027
C        4.34221455       2.39531299      -2.36008109
C        4.68674627       1.83761060      -3.58141592
C        4.23807271       0.57045030      -3.91346432
C        3.45888197      -0.14909678      -3.02511921
C       -0.56174062      -2.90796441       1.32693479
C       -1.70713553      -2.03772728       1.83668644
P       -2.05087935      -0.96608655       0.39199328
C       -3.35528663       0.19936158       0.89333886
C       -3.77012819       0.39397334       2.20536122
C       -4.74058227       1.33971151       2.49193656
C       -5.29587134       2.10118079       1.47733153
C       -4.87853420       1.91962690       0.16721043
C       -3.91125252       0.97711793      -0.12122033
C       -2.99229163      -2.11229286      -0.67013534
C       -2.34000120      -2.75450619      -1.71545402
C       -3.01685484      -3.67822219      -2.49290360
C       -4.34635173      -3.96429649      -2.22983275
C       -4.99914244      -3.32743555      -1.18513101
C       -4.32702293      -2.40485546      -0.40437468
H        1.18907287      -3.94716754      -0.18658053
H        2.08873557      -3.09542997       1.08406222
H        1.97742157      -2.48632456      -1.88876111
H        3.41094407      -2.55526396      -0.82043890
H        1.29393445       0.16271508       2.07253268
H        2.51613394       0.42235346       4.23132444
H        4.96751484       0.15090327       4.28633119
H        6.20254963      -0.35989628       2.21639001
H        4.99144879      -0.60140320       0.07836744
H        3.28966543       2.10825906      -0.51416946
H        4.68044472       3.38920355      -2.10359056
H        5.29813385       2.39389001      -4.27679535
H        4.49366176       0.14126093      -4.87147693
H        3.09941162      -1.12969953      -3.29896504
H       -0.98530607      -3.77308935       0.77695086
H        0.00650173      -3.32609569       2.17938384
H       -2.57341239      -2.62328815       2.15613153
H       -1.35926700      -1.40309596       2.65696780
H       -3.34161855      -0.19304600       3.00515759
H       -5.06351928       1.48401816       3.51332099
H       -6.05067866       2.83926546       1.70668102
H       -5.30635640       2.51665250      -0.62538049
H       -3.57336858       0.82808919      -1.13980972
H       -1.30100646      -2.52479840      -1.91291630
H       -2.50550938      -4.17368212      -3.30587452
H       -4.87650378      -4.68386236      -2.83726522
H       -6.03587250      -3.55274455      -0.97832442
H       -4.83773310      -1.90773638       0.40986300
C       -0.34765612       1.24494075      -0.37617638
O       -0.61473921       2.37774734      -0.40894185
O        0.26040142      -1.29239822      -3.19328199
C       -0.28613295      -0.56800913      -4.27291921
C        0.55318968       0.62292256      -4.67000072
C        0.66738911       1.70703604      -3.80836855
C        1.43930633       2.80124205      -4.15155362
C        2.10535628       2.82633691      -5.36515121
C        2.00048486       1.74949238      -6.22832148
C        1.23170786       0.65190155      -5.88042668
H        0.21642527      -0.74302862      -2.38250940
H       -0.34600088      -1.27945194      -5.10201371
H       -1.30652862      -0.23560839      -4.02631310
H        0.14223695       1.69589598      -2.86431835
H        1.51693708       3.63590477      -3.47021026
H        2.70382658       3.68370015      -5.63698433
H        2.51919629       1.76373114      -7.17635624
H        1.15385261      -0.18759831      -6.55722438
