74
Properties=species:S:1:pos:R:3:forces:R:3 charge=0 unpaired=0 uhf=0 energy=-2548.3812876926654 pbc="F F F"
Co       0.00378484      -0.21008766      -0.38573764       0.00266885       0.00088858       0.00112780
N        0.15428405      -1.94485514       0.28594493      -0.00042281       0.00116666       0.00017597
C        1.41650025      -2.63669685       0.50141951      -0.00005683      -0.00003137      -0.00012894
C        2.56542847      -1.99534677      -0.27208353      -0.00010418      -0.00016207       0.00028877
P        2.18692681      -0.20015298      -0.36296824       0.00009485      -0.00073693       0.00024458
C        3.32902154       0.43000735      -1.70526961       0.00004726       0.00048053       0.00008253
C        4.69134796      -0.26096169      -1.72061957      -0.00017793      -0.00043739       0.00016492
C        2.66135402       0.31030785      -3.07090837       0.00041983      -0.00019460      -0.00010384
C        2.99201779       0.60394497       1.12201261       0.00021172       0.00016193       0.00022150
C        2.74174471      -0.17996344       2.40525349      -0.00031820       0.00013138       0.00004511
C        2.42021620       2.01574598       1.24156287      -0.00020790       0.00002190      -0.00008382
C       -0.85136883      -2.58229659       1.12276990      -0.00006185       0.00033553       0.00004489
C       -2.25476024      -2.05853602       0.82181582       0.00001290      -0.00024406       0.00010883
P       -2.06365706      -0.29804243       0.32539762       0.00017291      -0.00057505       0.00040523
C       -2.50232014       0.65280114       1.87240496      -0.00033091      -0.00002959       0.00002256
C       -2.62655512       2.14378791       1.56849214       0.00014010       0.00019425      -0.00005605
C       -1.40550053       0.41569448       2.90620408       0.00001390       0.00012941      -0.00023566
C       -3.52718792       0.02658668      -0.78504100       0.00001538      -0.00016321       0.00020212
C       -4.85520731      -0.48531942      -0.23377560      -0.00004683      -0.00006336       0.00019581
C       -3.23774410      -0.55832984      -2.16498321      -0.00026007      -0.00031817       0.00011389
H        1.66133573      -2.65724620       1.57890838      -0.00005864      -0.00019707       0.00000974
H        1.31633997      -3.69591000       0.19799229      -0.00009836      -0.00001720      -0.00012782
H        3.53550816      -2.21359623       0.17837968      -0.00000836       0.00025379       0.00033730
H        2.56180578      -2.35957865      -1.30400792       0.00022371      -0.00012235       0.00017837
H        3.47301007       1.49537948      -1.48421475       0.00047236      -0.00007608       0.00034106
H        5.35957927       0.26722934      -2.39962264      -0.00000754      -0.00048398      -0.00013631
H        4.59857740      -1.28604818      -2.07314965       0.00004786      -0.00043622       0.00055075
H        5.15363701      -0.27243212      -0.73574306       0.00012612       0.00017215       0.00011789
H        3.29009709       0.75465746      -3.84152265       0.00001682       0.00033068       0.00022474
H        2.49954110      -0.73504147      -3.32634349       0.00039106       0.00006719      -0.00032211
H        1.70003535       0.82112012      -3.07571327       0.00018032      -0.00027855       0.00018472
H        4.07195981       0.66568117       0.94007905      -0.00001543      -0.00006566      -0.00003206
H        3.07813616       0.39510538       3.26764638      -0.00014445       0.00020301       0.00005606
H        3.27801931      -1.12647003       2.40084172      -0.00018499       0.00010493       0.00014631
H        1.67785009      -0.37934355       2.52199553      -0.00019425       0.00008746       0.00007830
H        1.34070300       1.96411285       1.38758587      -0.00015571       0.00018065      -0.00014367
H        2.86368724       2.54204967       2.08566377      -0.00011741       0.00001896      -0.00003742
H        2.60599016       2.59650930       0.33930077       0.00018380       0.00006590      -0.00004342
H       -0.61299359      -2.43745873       2.19375641       0.00008815       0.00024625       0.00017089
H       -0.83193431      -3.67537800       0.95760951      -0.00011143       0.00005913       0.00027828
H       -2.92922169      -2.18465588       1.67157785       0.00000191       0.00006258       0.00010788
H       -2.65696714      -2.59391153      -0.04096741      -0.00000563       0.00001288       0.00007066
H       -3.45464485       0.27134507       2.26082527      -0.00016618       0.00019010      -0.00011921
H       -3.50260487       2.35742324       0.96057295       0.00002203       0.00004648      -0.00015907
H       -2.71482940       2.71042941       2.49473838       0.00011074       0.00030770      -0.00024796
H       -1.74184484       2.49288413       1.03631997       0.00007225       0.00005370      -0.00034638
H       -1.55318093       1.04986091       3.77955673      -0.00017439       0.00028941      -0.00007824
H       -1.39375117      -0.62060291       3.23643133      -0.00023854       0.00023806       0.00011050
H       -0.43636842       0.65181298       2.46374584       0.00008639       0.00004591       0.00004778
H       -3.57721860       1.11734793      -0.89079828      -0.00029420      -0.00009324      -0.00023237
H       -4.84275423      -1.56819502      -0.13235783      -0.00006764      -0.00010825       0.00034281
H       -5.08443795      -0.04551487       0.73410537      -0.00005037       0.00004744       0.00020291
H       -5.65949431      -0.22199867      -0.91997762      -0.00021511      -0.00020160       0.00017391
H       -2.32426925      -0.12210675      -2.56852417      -0.00016588      -0.00052395       0.00006289
H       -3.10644981      -1.63756732      -2.11761969      -0.00030609      -0.00037255       0.00024242
H       -4.05607760      -0.34072202      -2.85024791      -0.00019001      -0.00041462       0.00004311
C       -0.19344000       1.29958874      -1.18719951      -0.00261446      -0.00195584      -0.00171413
O       -0.34409427       2.32387361      -1.71929499       0.00080072       0.00075002       0.00062805
O       -0.92603521      -3.06606168      -2.05541356       0.00045859       0.00031953      -0.00024001
C       -0.29987827      -2.37516932      -3.10018170      -0.00003064       0.00013641      -0.00001646
C        0.94045717      -3.05155818      -3.63694936       0.00003246       0.00006797       0.00010728
C        1.54331672      -2.56847700      -4.79423547       0.00013730       0.00026078      -0.00044857
C        2.70057487      -3.15053699      -5.27867454      -0.00035491       0.00011575      -0.00129858
C        3.26950821      -4.22659524      -4.61524246       0.00045494      -0.00019619      -0.00085877
C        2.66634775      -4.72334081      -3.47301183       0.00054167       0.00013923       0.00058839
C        1.50763363      -4.13958002      -2.98880608      -0.00010516      -0.00003645       0.00023201
H       -0.53974983      -2.70303827      -1.21685209      -0.00008004      -0.00006993       0.00022053
H       -0.02414728      -1.35294284      -2.75769019      -0.00018830      -0.00028738      -0.00065491
H       -1.02733514      -2.26638152      -3.91529126      -0.00013956      -0.00042594      -0.00002736
H        1.09968846      -1.72980285      -5.31354627      -0.00002444       0.00021361      -0.00012716
H        3.16139818      -2.76431608      -6.17674074      -0.00000727       0.00033357       0.00021289
H        4.17514968      -4.67913985      -4.99286154       0.00008332       0.00037385      -0.00029342
H        3.09810907      -5.56885113      -2.95584824      -0.00002432       0.00003320      -0.00058357
H        1.02450949      -4.53502094      -2.10725166       0.00019704      -0.00001958      -0.00061563
