74
Properties=species:S:1:pos:R:3 charge=0 unpaired=0 uhf=0 pbc="F F F"
Co       0.22254422      -0.14837915      -0.50957968
N        0.43611844      -2.13795198      -0.43536029
C        1.62038684      -2.70137331       0.21576543
C        2.85348695      -1.91153873      -0.21491798
P        2.40386149      -0.11211095      -0.16676489
C        3.55594753       0.68636355      -1.39762864
C        5.04647725       0.53632279      -1.09280487
C        3.24025970       0.17871574      -2.80329319
C        3.09834525       0.45300382       1.47084104
C        2.47792023      -0.35593658       2.60659687
C        2.79759910       1.93994575       1.63502354
C       -0.78228055      -2.94253284      -0.24320538
C       -1.73178041      -2.27089690       0.74775004
P       -1.82945291      -0.48749707       0.24580281
C       -2.44073231       0.35849614       1.79482633
C       -2.86225677       1.79007164       1.46918811
C       -1.32528102       0.38855699       2.83472462
C       -3.31649869      -0.38694179      -0.88066652
C       -4.65143570      -0.77389749      -0.24397724
C       -3.08183331      -1.19859655      -2.15200038
H        1.47920235      -2.64673373       1.29872392
H        1.74158572      -3.75818546      -0.06509746
H        3.71966248      -2.14222814       0.40875657
H        3.08303284      -2.15397921      -1.25615712
H        3.27878787       1.74881545      -1.36218524
H        5.62070618       0.92575411      -1.93234081
H        5.31254575      -0.51041365      -0.95858692
H        5.33685393       1.09365625      -0.20613810
H        3.62044230       0.87185184      -3.55177495
H        3.69733587      -0.79274808      -2.97921241
H        2.16592885       0.08553984      -2.94249755
H        4.18069520       0.29020611       1.46617936
H        2.67613285       0.12668097       3.56199751
H        2.89253593      -1.36059288       2.64635106
H        1.39957057      -0.41839579       2.47116423
H        1.72476856       2.11321017       1.54830118
H        3.12978043       2.29216645       2.61025317
H        3.29794361       2.53130214       0.87060828
H       -0.51917064      -3.95045225       0.10083274
H       -1.28411374      -3.03176443      -1.20765418
H       -1.31721905      -2.31928941       1.75754594
H       -2.70819470      -2.75912047       0.74702597
H       -3.28997184      -0.21154910       2.18782355
H       -3.74326285       1.82584929       0.83365567
H       -3.08542533       2.33308101       2.38655529
H       -2.05037800       2.30563880       0.95563296
H       -1.65856467       0.91419975       3.72789292
H       -1.02042588      -0.61294933       3.12908173
H       -0.46556762       0.91639242       2.42325795
H       -3.34078213       0.67191824      -1.17089388
H       -4.63512241      -1.80199232       0.11193975
H       -4.91969819      -0.12293048       0.58330530
H       -5.43352075      -0.69711641      -0.99819100
H       -2.07990144      -1.02619379      -2.53534097
H       -3.21860224      -2.26310266      -1.96924747
H       -3.78287974      -0.90145786      -2.93000728
C        0.06249914       1.53647202      -0.80900576
O       -0.03699305       2.61640270      -1.20608013
O       -1.74031206      -1.67116641      -5.30923963
C       -0.53636446      -1.63491096      -5.22229842
C        0.29614676      -2.61406193      -4.51983411
C       -0.30410179      -3.62507284      -3.77097546
C        0.47182383      -4.48944867      -3.02329719
C        1.85258600      -4.35618516      -3.02514728
C        2.45597353      -3.36238891      -3.78147851
C        1.68320265      -2.49298788      -4.52724232
H        0.63537210      -2.12281614      -1.43608633
H        0.08248022      -0.59098310      -2.66904009
H        0.04023012      -0.80827900      -5.68370308
H       -1.38243879      -3.69483158      -3.77966984
H        0.00404570      -5.26817245      -2.43765627
H        2.46142318      -5.03022080      -2.43888615
H        3.53303427      -3.26882852      -3.78731782
H        2.14239561      -1.70130333      -5.10129869
