74
Properties=species:S:1:pos:R:3:forces:R:3 charge=0 unpaired=0 uhf=0 energy=-2548.363337939566 pbc="F F F"
Co       0.22254422      -0.14837915      -0.50957968       0.00001083      -0.00351756      -0.00228194
N        0.43611844      -2.13795198      -0.43536029       0.00083253       0.00129783      -0.00150345
C        1.62038684      -2.70137331       0.21576543      -0.00023869       0.00145434       0.00070155
C        2.85348695      -1.91153873      -0.21491798       0.00024041      -0.00210134       0.00109426
P        2.40386149      -0.11211095      -0.16676489      -0.00037544      -0.00010157      -0.00152572
C        3.55594753       0.68636355      -1.39762864       0.00042173      -0.00110742      -0.00020703
C        5.04647725       0.53632279      -1.09280487       0.00071012      -0.00046520      -0.00007591
C        3.24025970       0.17871574      -2.80329319      -0.00006158       0.00153351       0.00099454
C        3.09834525       0.45300382       1.47084104       0.00089425       0.00107996      -0.00046920
C        2.47792023      -0.35593658       2.60659687       0.00034702       0.00047577      -0.00034443
C        2.79759910       1.93994575       1.63502354      -0.00103882      -0.00038805       0.00308060
C       -0.78228055      -2.94253284      -0.24320538       0.00051918      -0.00203199       0.00026568
C       -1.73178041      -2.27089690       0.74775004      -0.00017303       0.00059956      -0.00074019
P       -1.82945291      -0.48749707       0.24580281       0.00397727      -0.00320603      -0.00057508
C       -2.44073231       0.35849614       1.79482633       0.00056295      -0.00003240       0.00160447
C       -2.86225677       1.79007164       1.46918811       0.00201539      -0.00055456      -0.00157319
C       -1.32528102       0.38855699       2.83472462      -0.00048205      -0.00030086      -0.00173424
C       -3.31649869      -0.38694179      -0.88066652      -0.00086679      -0.00042736      -0.00172743
C       -4.65143570      -0.77389749      -0.24397724      -0.00093586      -0.00046756      -0.00012359
C       -3.08183331      -1.19859655      -2.15200038       0.00030022      -0.00118620       0.00087317
H        1.47920235      -2.64673373       1.29872392      -0.00014724       0.00035215      -0.00007125
H        1.74158572      -3.75818546      -0.06509746      -0.00038575      -0.00041305       0.00086496
H        3.71966248      -2.14222814       0.40875657       0.00050788       0.00077072       0.00026354
H        3.08303284      -2.15397921      -1.25615712      -0.00003469       0.00012234       0.00010857
H        3.27878787       1.74881545      -1.36218524       0.00131342      -0.00013930      -0.00041748
H        5.62070618       0.92575411      -1.93234081       0.00018064      -0.00083941       0.00006252
H        5.31254575      -0.51041365      -0.95858692      -0.00030176      -0.00095986       0.00058871
H        5.33685393       1.09365625      -0.20613810      -0.00070937      -0.00005707      -0.00006226
H        3.62044230       0.87185184      -3.55177495       0.00026712      -0.00011823       0.00072352
H        3.69733587      -0.79274808      -2.97921241       0.00013547      -0.00119546       0.00025528
H        2.16592885       0.08553984      -2.94249755      -0.00111863      -0.00040448      -0.00038792
H        4.18069520       0.29020611       1.46617936       0.00018961      -0.00032973       0.00032067
H        2.67613285       0.12668097       3.56199751       0.00058451       0.00029411       0.00084260
H        2.89253593      -1.36059288       2.64635106       0.00051344      -0.00056031      -0.00057104
H        1.39957057      -0.41839579       2.47116423      -0.00041245       0.00023024       0.00005119
H        1.72476856       2.11321017       1.54830118       0.00032765       0.00028923       0.00053178
H        3.12978043       2.29216645       2.61025317       0.00007375       0.00019556       0.00031328
H        3.29794361       2.53130214       0.87060828      -0.00029365      -0.00081377      -0.00001693
H       -0.51917064      -3.95045225       0.10083274      -0.00007099       0.00050903       0.00098410
H       -1.28411374      -3.03176443      -1.20765418      -0.00085678      -0.00057166       0.00084155
H       -1.31721905      -2.31928941       1.75754594       0.00138826       0.00159114      -0.00040325
H       -2.70819470      -2.75912047       0.74702597      -0.00020223       0.00112464       0.00124247
H       -3.28997184      -0.21154910       2.18782355      -0.00068282       0.00113161       0.00008249
H       -3.74326285       1.82584929       0.83365567      -0.00165728       0.00022746      -0.00002519
H       -3.08542533       2.33308101       2.38655529       0.00019095      -0.00068877      -0.00070494
H       -2.05037800       2.30563880       0.95563296      -0.00133164       0.00190632      -0.00017922
H       -1.65856467       0.91419975       3.72789292       0.00001859       0.00085187      -0.00022070
H       -1.02042588      -0.61294933       3.12908173       0.00026514       0.00078415       0.00076257
H       -0.46556762       0.91639242       2.42325795       0.00002864       0.00091154      -0.00070005
H       -3.34078213       0.67191824      -1.17089388       0.00019639      -0.00072003      -0.00044152
H       -4.63512241      -1.80199232       0.11193975      -0.00038214      -0.00049541       0.00003074
H       -4.91969819      -0.12293048       0.58330530      -0.00022363      -0.00023312      -0.00052686
H       -5.43352075      -0.69711641      -0.99819100      -0.00004679      -0.00085316       0.00065704
H       -2.07990144      -1.02619379      -2.53534097      -0.00095622      -0.00101199      -0.00051327
H       -3.21860224      -2.26310266      -1.96924747       0.00025867      -0.00107358      -0.00008635
H       -3.78287974      -0.90145786      -2.93000728      -0.00004948      -0.00035817       0.00032463
C        0.06249914       1.53647202      -0.80900576      -0.00156750       0.00062017       0.00090645
O       -0.03699305       2.61640270      -1.20608013       0.00087910      -0.00027086      -0.00006516
O       -1.74031206      -1.67116641      -5.30923963      -0.00002376       0.00091319      -0.00135871
C       -0.53636446      -1.63491096      -5.22229842      -0.00060965       0.00068930       0.00082287
C        0.29614676      -2.61406193      -4.51983411      -0.00039047       0.00080252      -0.00133588
C       -0.30410179      -3.62507284      -3.77097546      -0.00039937       0.00025614       0.00024325
C        0.47182383      -4.48944867      -3.02329719      -0.00064527       0.00073215       0.00119045
C        1.85258600      -4.35618516      -3.02514728      -0.00017423       0.00127140       0.00063221
C        2.45597353      -3.36238891      -3.78147851       0.00014662       0.00124923       0.00141362
C        1.68320265      -2.49298788      -4.52724232      -0.00115311      -0.00033653      -0.00245516
H        0.63537210      -2.12281614      -1.43608633      -0.00169147       0.00080870      -0.00017408
H        0.08248022      -0.59098310      -2.66904009       0.00239734       0.00133162       0.00293453
H        0.04023012      -0.80827900      -5.68370308       0.00064539       0.00084220       0.00015497
H       -1.38243879      -3.69483158      -3.77966984       0.00002055       0.00055851       0.00066899
H        0.00404570      -5.26817245      -2.43765627      -0.00028446       0.00047700      -0.00038847
H        2.46142318      -5.03022080      -2.43888615      -0.00008825      -0.00024962      -0.00133082
H        3.53303427      -3.26882852      -3.78731782      -0.00036018      -0.00064339      -0.00169316
H        2.14239561      -1.70130333      -5.10129869       0.00006251       0.00093989      -0.00042278
