74
Properties=species:S:1:pos:R:3 charge=0 unpaired=0 uhf=0 endpoint_role="alcohol encounter complex; requires optimization" pbc="F F F"
Co       0.00378484      -0.21008766      -0.38573764
N        0.15428405      -1.94485514       0.28594493
C        1.41650025      -2.63669685       0.50141951
C        2.56542847      -1.99534677      -0.27208353
P        2.18692681      -0.20015298      -0.36296824
C        3.32902154       0.43000735      -1.70526961
C        4.69134796      -0.26096169      -1.72061957
C        2.66135402       0.31030785      -3.07090837
C        2.99201779       0.60394497       1.12201261
C        2.74174471      -0.17996344       2.40525349
C        2.42021620       2.01574598       1.24156287
C       -0.85136883      -2.58229659       1.12276990
C       -2.25476024      -2.05853602       0.82181582
P       -2.06365706      -0.29804243       0.32539762
C       -2.50232014       0.65280114       1.87240496
C       -2.62655512       2.14378791       1.56849214
C       -1.40550053       0.41569448       2.90620408
C       -3.52718792       0.02658668      -0.78504100
C       -4.85520731      -0.48531942      -0.23377560
C       -3.23774410      -0.55832984      -2.16498321
H        1.66133573      -2.65724620       1.57890838
H        1.31633997      -3.69591000       0.19799229
H        3.53550816      -2.21359623       0.17837968
H        2.56180578      -2.35957865      -1.30400792
H        3.47301007       1.49537948      -1.48421475
H        5.35957927       0.26722934      -2.39962264
H        4.59857740      -1.28604818      -2.07314965
H        5.15363701      -0.27243212      -0.73574306
H        3.29009709       0.75465746      -3.84152265
H        2.49954110      -0.73504147      -3.32634349
H        1.70003535       0.82112012      -3.07571327
H        4.07195981       0.66568117       0.94007905
H        3.07813616       0.39510538       3.26764638
H        3.27801931      -1.12647003       2.40084172
H        1.67785009      -0.37934355       2.52199553
H        1.34070300       1.96411285       1.38758587
H        2.86368724       2.54204967       2.08566377
H        2.60599016       2.59650930       0.33930077
H       -0.61299359      -2.43745873       2.19375641
H       -0.83193431      -3.67537800       0.95760951
H       -2.92922169      -2.18465588       1.67157785
H       -2.65696714      -2.59391153      -0.04096741
H       -3.45464485       0.27134507       2.26082527
H       -3.50260487       2.35742324       0.96057295
H       -2.71482940       2.71042941       2.49473838
H       -1.74184484       2.49288413       1.03631997
H       -1.55318093       1.04986091       3.77955673
H       -1.39375117      -0.62060291       3.23643133
H       -0.43636842       0.65181298       2.46374584
H       -3.57721860       1.11734793      -0.89079828
H       -4.84275423      -1.56819502      -0.13235783
H       -5.08443795      -0.04551487       0.73410537
H       -5.65949431      -0.22199867      -0.91997762
H       -2.32426925      -0.12210675      -2.56852417
H       -3.10644981      -1.63756732      -2.11761969
H       -4.05607760      -0.34072202      -2.85024791
C       -0.19344000       1.29958874      -1.18719951
O       -0.34409427       2.32387361      -1.71929499
O       -0.92603521      -3.06606168      -2.05541356
C       -0.29987827      -2.37516932      -3.10018170
C        0.94045717      -3.05155818      -3.63694936
C        1.54331672      -2.56847700      -4.79423547
C        2.70057487      -3.15053699      -5.27867454
C        3.26950821      -4.22659524      -4.61524246
C        2.66634775      -4.72334081      -3.47301183
C        1.50763363      -4.13958002      -2.98880608
H       -0.53974983      -2.70303827      -1.21685209
H       -0.02414728      -1.35294284      -2.75769019
H       -1.02733514      -2.26638152      -3.91529126
H        1.09968846      -1.72980285      -5.31354627
H        3.16139818      -2.76431608      -6.17674074
H        4.17514968      -4.67913985      -4.99286154
H        3.09810907      -5.56885113      -2.95584824
H        1.02450949      -4.53502094      -2.10725166
