74
Properties=species:S:1:pos:R:3:forces:R:3 charge=0 unpaired=0 uhf=0 endpoint_role="hydrogenated catalyst plus aldehyde; requires optimization" energy=-2548.3638156790944 pbc="F F F"
Co       0.23876750      -0.21454628      -0.64976270      -0.00021380      -0.00095354       0.00025103
N        0.20360929      -2.21524229      -0.72393739       0.00029066       0.00089810      -0.00016541
C        1.33976958      -2.96601600      -0.18599818       0.00070397      -0.00030138       0.00037935
C        2.63841726      -2.30234923      -0.63646834       0.00006983      -0.00009229       0.00030312
P        2.42215020      -0.47023713      -0.43894392      -0.00017524      -0.00055190      -0.00057029
C        3.59995270       0.27181505      -1.68072860       0.00049095       0.00010877       0.00002774
C        5.07354878      -0.08121532      -1.47826197       0.00017238      -0.00050172       0.00037200
C        3.15005757      -0.08679846      -3.09573695      -0.00007448      -0.00037316       0.00029210
C        3.26662467      -0.11830221       1.18783826       0.00017073       0.00027563       0.00029324
C        2.60924963      -0.92839438       2.30177804       0.00022486       0.00013708      -0.00029293
C        3.16453017       1.37769711       1.47061588      -0.00036838      -0.00010217       0.00023274
C       -1.09475508      -2.87742227      -0.51289807      -0.00054793      -0.00024797       0.00023463
C       -1.89918338      -2.17120936       0.57742109       0.00010898      -0.00001760      -0.00005787
P       -1.79745167      -0.35664262       0.20458854      -0.00145839      -0.00004484       0.00009100
C       -2.21578849       0.43908803       1.84185697       0.00042881       0.00052944      -0.00027448
C       -2.47001916       1.93171641       1.64046477      -0.00035037       0.00006667      -0.00092125
C       -1.05280031       0.25494689       2.81143123      -0.00001498      -0.00007968      -0.00004352
C       -3.31662291       0.00855417      -0.81966714      -0.00016712       0.00002554      -0.00074142
C       -4.65468151      -0.25940198      -0.13049121       0.00007431      -0.00096183       0.00034060
C       -3.25259724      -0.72809067      -2.15510572      -0.00022539      -0.00080278       0.00007458
H        1.26318837      -2.97587656       0.90476106      -0.00003266      -0.00006331       0.00022086
H        1.31209420      -4.00568202      -0.54482085       0.00017043       0.00013772       0.00025241
H        3.49993421      -2.68298295      -0.08387979       0.00002976      -0.00015081       0.00025843
H        2.78105285      -2.49225430      -1.70381965       0.00016443      -0.00014023       0.00018106
H        3.46105111       1.35446380      -1.55640733       0.00042161      -0.00024910       0.00030754
H        5.64774580       0.29711938      -2.32287836       0.00016826      -0.00069765       0.00009096
H        5.21227862      -1.15967138      -1.43188658      -0.00013588      -0.00040077       0.00054286
H        5.47759658       0.36854739      -0.57516949       0.00023711      -0.00018517       0.00008276
H        3.57501594       0.60894694      -3.81722856       0.00007635      -0.00022715       0.00021080
H        3.47134098      -1.09080075      -3.36474354       0.00035973      -0.00030514       0.00000192
H        2.06676664      -0.03762603      -3.17516754      -0.00064752      -0.00029773      -0.00002456
H        4.31812474      -0.41101170       1.10613759       0.00011409      -0.00001580       0.00015350
H        2.91616219      -0.54649450       3.27386624       0.00057140      -0.00008465       0.00062514
H        2.89552077      -1.97623254       2.24788121       0.00000910      -0.00018896      -0.00001504
H        1.52604288      -0.84861406       2.22843369      -0.00016129       0.00013808       0.00057718
H        2.11901952       1.68645278       1.46144377      -0.00027212       0.00012391       0.00048988
H        3.58876924       1.61272558       2.44542844       0.00024971       0.00000248       0.00025782
H        3.69487908       1.95925654       0.71902000      -0.00027720      -0.00014959       0.00011360
H       -0.94313889      -3.93282226      -0.25476249       0.00022408       0.00029039       0.00046474
H       -1.65337535      -2.83229537      -1.44877589       0.00004438      -0.00052100       0.00051114
H       -1.44199366      -2.34530390       1.55443664       0.00060825       0.00024780       0.00041559
H       -2.92801899      -2.53533200       0.60310426       0.00047736      -0.00016100       0.00084354
H       -3.10843638      -0.05101893       2.24630855      -0.00003074       0.00017429      -0.00017371
H       -3.37139674       2.12214034       1.06374091      -0.00034364       0.00022541      -0.00082522
H       -2.57492913       2.42760211       2.60447577      -0.00009536       0.00009125      -0.00081153
H       -1.62752434       2.38149369       1.11453854      -0.00022308       0.00008897      -0.00063286
H       -1.27024553       0.74888074       3.75688077       0.00026265       0.00079689      -0.00038826
H       -0.86160822      -0.79547198       3.01798260       0.00017021       0.00039303       0.00004274
H       -0.15605495       0.70338557       2.38508315       0.00032727       0.00057002      -0.00088328
H       -3.22242249       1.08122600      -1.03532329      -0.00011997      -0.00022541      -0.00000437
H       -4.74948125      -1.30557589       0.15315500      -0.00007296      -0.00061932       0.00022395
H       -4.79535816       0.35557755       0.75388963      -0.00011501      -0.00046404      -0.00016311
H       -5.45907774      -0.03156180      -0.82865044       0.00014637      -0.00079996       0.00010953
H       -2.25826578      -0.65087097      -2.58624635      -0.00077094      -0.00060815      -0.00000921
H       -3.51265570      -1.77866529      -2.03703708      -0.00013102      -0.00088063      -0.00022808
H       -3.95019433      -0.29025594      -2.86694226      -0.00007258      -0.00065283       0.00000218
C        0.27684347       1.49491366      -0.82380516       0.00069832      -0.00015838      -0.00100550
O        0.29362621       2.60561337      -1.13984555       0.00010121      -0.00038523       0.00037073
O       -2.14755769      -1.12274897      -5.41306422       0.00094037       0.00091700      -0.00062688
C       -0.94575134      -1.24013999      -5.39744737      -0.00122803       0.00110494       0.00100340
C       -0.20775647      -2.36333394      -4.81515313      -0.00042841      -0.00008857      -0.00056975
C       -0.89074656      -3.34688591      -4.10144401      -0.00007546       0.00128316      -0.00038782
C       -0.19199737      -4.35297604      -3.46288222      -0.00029044       0.00089831      -0.00051718
C        1.19256797      -4.38925725      -3.53988398       0.00037582       0.00068241      -0.00021474
C        1.87611021      -3.42256550      -4.26239452       0.00017745       0.00078338       0.00142701
C        1.18121899      -2.41202990      -4.89890110      -0.00113586       0.00000422      -0.00083345
H        0.35078946      -2.14956463      -1.73161202      -0.00032150      -0.00012755      -0.00058597
H       -0.06820963      -0.47371014      -2.82171679       0.00105067       0.00021322       0.00166405
H       -0.29444731      -0.45772580      -5.83597566       0.00026443       0.00059496      -0.00023511
H       -1.96825936      -3.28382827      -4.04907519       0.00002789       0.00002918       0.00011456
H       -0.72299549      -5.11054876      -2.90402002      -0.00008702       0.00050538       0.00003527
H        1.74135616      -5.17450274      -3.03895494      -0.00025705       0.00037137      -0.00034686
H        2.95459973      -3.46082180      -4.32754281      -0.00035324       0.00046087      -0.00138115
H        1.70594794      -1.64145130      -5.44482369       0.00007084       0.00070913      -0.00055646
