76
Properties=species:S:1:pos:R:3:forces:R:3 charge=0 unpaired=0 uhf=0 endpoint_role="alcohol encounter complex; requires optimization" energy=-2696.1263960972906 pbc="F F F"
Mn       0.42066161      -0.05229963       0.16355272      -0.00147250      -0.00435960      -0.00059866
N        0.30812161      -1.86598635       0.46157102       0.00055778       0.00633960      -0.00079817
C        1.39612223      -2.83583508       0.32553240       0.00047752      -0.00097794       0.00033555
C        2.46007057      -2.39481959      -0.67967227       0.00016603       0.00007402       0.00008213
P        2.43557388      -0.55575089      -0.68702176      -0.00008644      -0.00059606       0.00019768
C        2.80827427      -0.12190914      -2.46964474      -0.00015224      -0.00015484       0.00002659
C        4.12068977      -0.69305381      -3.00346675       0.00025168      -0.00020521      -0.00001679
C        1.63758787      -0.54073910      -3.35992980      -0.00035062      -0.00018380      -0.00014634
C        4.03328378      -0.11060289       0.16005662      -0.00004891      -0.00028737      -0.00004761
C        3.97905921      -0.54677850       1.62111098       0.00089515       0.00069747      -0.00134385
C        4.25746321       1.39632129       0.06252808      -0.00011013      -0.00023315      -0.00022452
C       -0.82945215      -2.60979224       0.99744724      -0.00072464      -0.00095684       0.00038098
C       -2.01884190      -1.72098699       1.36426914       0.00008175       0.00012569       0.00006692
P       -1.78607719      -0.16057878       0.42725348      -0.00047795      -0.00037663      -0.00047093
C       -2.86360655       1.06381030       1.32746688       0.00054174       0.00026428      -0.00022903
C       -2.78733047       2.40238728       0.59544119       0.00018131       0.00015879      -0.00030082
C       -2.40916895       1.23680642       2.77424930       0.00028563       0.00021868      -0.00054649
C       -2.72800638      -0.40358355      -1.17622231       0.00038944       0.00008935       0.00014109
C       -4.24417538      -0.52946834      -1.03999772      -0.00024125       0.00008975       0.00001415
C       -2.15596573      -1.61088110      -1.91960152      -0.00016896      -0.00026204       0.00005825
H        1.85246934      -3.00397507       1.31434529      -0.00000063       0.00062602      -0.00019311
H        0.98693506      -3.80802730      -0.00009970       0.00035677       0.00034174       0.00059671
H        3.44707055      -2.79200266      -0.43085766       0.00019776      -0.00033931      -0.00010428
H        2.18206638      -2.73862404      -1.68041975      -0.00037413      -0.00005432      -0.00010921
H        2.85364598       0.97590403      -2.47736867       0.00006948      -0.00017189      -0.00005214
H        4.19326344      -0.48863358      -4.07128051       0.00007481      -0.00044711       0.00009153
H        4.16536386      -1.77196291      -2.86388025       0.00013628       0.00031337       0.00034826
H        4.98365755      -0.24169449      -2.52090710      -0.00025905      -0.00003959      -0.00025663
H        1.73033323      -0.08173016      -4.34328312       0.00001286      -0.00018352       0.00007431
H        1.60751706      -1.62114793      -3.49650823       0.00028921       0.00028503      -0.00018284
H        0.69174170      -0.21464167      -2.92279005       0.00058430      -0.00047624      -0.00040700
H        4.84406185      -0.65271667      -0.34286567       0.00006195      -0.00014256      -0.00003605
H        4.92438546      -0.32512110       2.11502538       0.00065714       0.00004042       0.00034504
H        3.78645792      -1.61325237       1.71835505      -0.00116333      -0.00095285       0.00049451
H        3.18814402      -0.00929281       2.14064568      -0.00091190       0.00149777       0.00053328
H        3.36289482       1.92252091       0.40195227      -0.00063966       0.00059124      -0.00067247
H        5.09332170       1.69595914       0.69306073      -0.00032420       0.00032633       0.00007403
H        4.47269959       1.70701034      -0.95756926       0.00070731       0.00012272      -0.00080307
H       -0.50307440      -3.17352594       1.88893229       0.00016185       0.00012983      -0.00013415
H       -1.14606419      -3.36441381       0.25605566       0.00020538       0.00028981       0.00026246
H       -1.97715929      -1.46324112       2.42586586      -0.00010665       0.00006254       0.00020941
H       -2.97555951      -2.20602642       1.15656895       0.00014892       0.00005736       0.00006868
H       -3.89208650       0.68350909       1.32231723       0.00035319       0.00019007      -0.00011503
H       -3.14808811       2.32662157      -0.42838708       0.00007647      -0.00004372      -0.00028817
H       -3.38373821       3.15279248       1.11243967       0.00027535       0.00035201      -0.00021744
H       -1.75113768       2.74344448       0.56903730      -0.00006964      -0.00047353      -0.00026125
H       -2.93550585       2.07446786       3.22922725      -0.00036391       0.00105313       0.00009253
H       -2.61306797       0.35406735       3.37503906      -0.00064307      -0.00026564       0.00086649
H       -1.34146075       1.44725465       2.81435764       0.00015728      -0.00020837       0.00013342
H       -2.49036768       0.49709879      -1.76163491       0.00004087      -0.00005527      -0.00005170
H       -4.51575760      -1.29584573      -0.31540518      -0.00002001       0.00002910      -0.00018533
H       -4.70366146       0.41006108      -0.74372499       0.00026042      -0.00034974       0.00022099
H       -4.66554095      -0.81579844      -2.00348245       0.00026272       0.00050282       0.00044868
H       -1.06409417      -1.60455566      -1.87432367      -0.00009406      -0.00021516       0.00030376
H       -2.52042558      -2.53981419      -1.48342527      -0.00023275       0.00011769      -0.00017915
H       -2.45260674      -1.58924315      -2.96792937       0.00033772       0.00013768       0.00022995
C        0.26617705       1.34414580      -0.90197074       0.00104064       0.00137739       0.00133393
O        0.17546899       2.28452332      -1.58664193      -0.00071076      -0.00136109      -0.00028378
C        0.86731459       1.04326269       1.47026453       0.00105921      -0.00058318       0.00299127
O        1.16713525       1.77610736       2.33388193      -0.00113660      -0.00015934      -0.00218150
O        1.34552781      -1.66179339       3.46263573       0.00049129       0.00099519      -0.00081412
C        1.23172479      -0.82565710       4.58932423      -0.00024875       0.00000430      -0.00059268
C       -0.17901068      -0.70125319       5.11401653       0.00027260       0.00118756       0.00149067
C       -0.60061131       0.46465997       5.73948492      -0.00007077      -0.00063589       0.00019429
C       -1.88515431       0.56217173       6.24486435       0.00029209      -0.00064039      -0.00153244
C       -2.76520960      -0.50079973       6.12129511      -0.00032802       0.00099690       0.00134538
C       -2.35345771      -1.66424049       5.49285619       0.00129360      -0.00150314      -0.00080090
C       -1.06505903      -1.76432458       4.99662005      -0.00078105      -0.00075999      -0.00097333
H        0.91523812      -1.21862957       2.71088906      -0.00005497      -0.00080875       0.00144279
H        1.86146574      -1.28730107       5.36074014      -0.00052171       0.00017293       0.00003620
H        1.63577125       0.17348604       4.37657277       0.00055337      -0.00018493       0.00012896
H        0.08197873       1.29781088       5.82856652      -0.00073366      -0.00039604       0.00022299
H       -2.20291944       1.47243213       6.73223987      -0.00049709       0.00125997       0.00097039
H       -3.76921610      -0.42216430       6.51273532       0.00051454      -0.00073983      -0.00040828
H       -3.03522795      -2.49740813       5.39325389      -0.00042777      -0.00105063      -0.00046315
H       -0.73172283      -2.67371670       4.51582404      -0.00022563       0.00071695       0.00016818
