76
Properties=species:S:1:pos:R:3:forces:R:3 charge=0 unpaired=0 uhf=0 endpoint_role="hydrogenated catalyst plus aldehyde; requires optimization" energy=-2695.0356423004196 pbc="F F F"
Mn       0.44007453       0.35330004       0.18871666      -0.00227632       0.00061121       0.00219207
N        0.47515045      -1.81104741       0.98009114       0.00003906      -0.00043212       0.00013029
C        1.73821994      -2.55069056       0.85767696      -0.00017498       0.00011937      -0.00029010
C        2.44290136      -2.23223432      -0.46107580       0.00032982      -0.00021146      -0.00046732
P        2.39435013      -0.39278672      -0.73297400      -0.00208674       0.00255923      -0.00057904
C        2.69739596      -0.27078969      -2.58232165       0.00032774      -0.00111795       0.00006416
C        4.05260870      -0.77415791      -3.07870092      -0.00010138       0.00005781      -0.00024313
C        1.57368495      -0.97020197      -3.34791407       0.00002712       0.00055930      -0.00012972
C        4.05374939       0.16724292      -0.07158010       0.00006943      -0.00038886      -0.00025148
C        4.21174734      -0.14165355       1.41459969      -0.00020018      -0.00016799       0.00011058
C        4.16926115       1.66894287      -0.32483737      -0.00025869      -0.00082858      -0.00030875
C       -0.72654213      -2.60123059       0.72022184       0.00017057      -0.00016078       0.00000872
C       -1.95320389      -1.80088077       1.15590477       0.00026836       0.00012112      -0.00061492
P       -1.77112493      -0.05125532       0.53206605      -0.00064184       0.00045146       0.00279196
C       -2.77374654       0.92458746       1.77275602      -0.00033338       0.00046518       0.00034135
C       -2.87357687       2.35706875       1.25038907       0.00007518       0.00024815      -0.00047227
C       -2.11015493       0.92449884       3.14682164       0.00030220      -0.00075769       0.00007769
C       -2.93234123      -0.05117087      -0.94367417       0.00060845       0.00013269       0.00013148
C       -4.41837920      -0.24195925      -0.64505567       0.00008304      -0.00014622       0.00005622
C       -2.45427871      -1.10345557      -1.94418825      -0.00042671       0.00006426      -0.00045993
H        2.38216306      -2.26002443       1.69248504       0.00007258       0.00031841       0.00007591
H        1.55948976      -3.63326143       0.93310625       0.00012154       0.00002521       0.00034132
H        3.46934365      -2.60746772      -0.45730756      -0.00022093      -0.00020326       0.00027733
H        1.89628618      -2.69333910      -1.28768207       0.00055929       0.00006418       0.00093909
H        2.61086418       0.80590060      -2.78285029      -0.00031276      -0.00061261       0.00065700
H        4.04799865      -0.77985951      -4.16804091      -0.00002878      -0.00021588       0.00027752
H        4.24331115      -1.79068102      -2.73926308       0.00001231       0.00035886       0.00031361
H        4.87010870      -0.13351825      -2.75882198      -0.00006057       0.00039220      -0.00000053
H        1.52915385      -0.59628236      -4.36890955      -0.00021810      -0.00028827       0.00105485
H        1.73444086      -2.04584549      -3.39068659       0.00032254      -0.00007515      -0.00004286
H        0.61371232      -0.76882313      -2.87339663       0.00043357      -0.00025077       0.00002056
H        4.83984727      -0.36649449      -0.61751913       0.00025644      -0.00002024      -0.00010959
H        5.09031261       0.36957061       1.80759388       0.00050055       0.00042520       0.00008375
H        4.34520647      -1.20863840       1.58610450       0.00007079       0.00058595       0.00030482
H        3.34704939       0.20021680       1.98212396       0.00020274       0.00002291       0.00031341
H        3.31918362       2.18962650       0.12053229      -0.00071335       0.00025954       0.00034382
H        5.08447521       2.06412862       0.11436977       0.00079112       0.00020548       0.00017977
H        4.17665028       1.89280032      -1.38976889      -0.00024118      -0.00004487      -0.00109223
H       -0.69618809      -3.55787930       1.27035598      -0.00003835      -0.00000333      -0.00001395
H       -0.77277142      -2.82770322      -0.34967649      -0.00002328       0.00011786      -0.00003521
H       -2.00071886      -1.76869441       2.24833821      -0.00003870       0.00015044       0.00046000
H       -2.87220214      -2.25885877       0.78670602      -0.00042656      -0.00033718      -0.00041498
H       -3.76817939       0.47164809       1.86107821      -0.00018857      -0.00021862      -0.00006987
H       -3.46265708       2.41673137       0.33856810       0.00018464       0.00009058       0.00014055
H       -3.33049330       3.00547455       1.99671294       0.00006582      -0.00036881      -0.00023539
H       -1.87214370       2.73473310       1.02986545      -0.00033562       0.00000431       0.00030775
H       -2.66498941       1.56784778       3.82871218      -0.00036898       0.00053841       0.00026586
H       -2.07597940      -0.07034858       3.58769618      -0.00018699      -0.00029021       0.00013787
H       -1.09446705       1.31375422       3.07540035       0.00060983       0.00017478      -0.00023700
H       -2.77573268       0.93658675      -1.39643988      -0.00013652      -0.00013642       0.00017888
H       -4.59867521      -1.13691192      -0.05194452      -0.00000234       0.00074428      -0.00012599
H       -4.84410473       0.61105711      -0.12399981       0.00007389       0.00026976      -0.00001510
H       -4.95333403      -0.35423199      -1.58734083      -0.00009218       0.00019628       0.00000485
H       -1.36682457      -1.06619631      -2.02443445      -0.00040013      -0.00013406      -0.00001704
H       -2.75763344      -2.10298555      -1.63776366      -0.00021549       0.00034537      -0.00016036
H       -2.87449910      -0.90819591      -2.92888809       0.00005167       0.00001239       0.00010157
C        0.04687854       1.20820696      -1.29408127       0.00945236       0.00133808      -0.00585865
O       -0.20858233       1.83963529      -2.24662957      -0.00297197      -0.00204754       0.00450571
C        0.79612401       1.82007979       1.10415703      -0.00713593      -0.00060460      -0.00291018
O        0.96256970       2.91041591       1.56061548       0.00264326       0.00377614       0.00085954
O        1.40233666      -0.56768175       3.49730496       0.00134033      -0.00094965       0.00654479
C        1.00798544      -0.25125584       4.61468432      -0.00709641       0.00546426      -0.00714769
C       -0.06259657      -0.90103715       5.34698033       0.00163258      -0.00204892       0.00137967
C       -0.62058361      -2.10380847       4.89203131       0.00111137      -0.00012360       0.00204410
C       -1.65070759      -2.70404139       5.58494011      -0.00017837       0.00204147      -0.00022440
C       -2.14248898      -2.11772539       6.74335653       0.00276960       0.00123031      -0.00174368
C       -1.59031126      -0.93273195       7.21145213      -0.00046226      -0.00087756      -0.00177732
C       -0.55717362      -0.32881101       6.52469866       0.00060041      -0.00146500      -0.00128610
H        0.41782022      -1.49620207       1.95449548      -0.00009815       0.00026166       0.00055196
H        1.46813113       0.60881344       5.13323196       0.00216206      -0.00283435       0.00067394
H        1.04569953       0.80555017       1.75903253       0.00062752      -0.00367304       0.00003173
H       -0.21530659      -2.56366921       4.00148427      -0.00028577       0.00088107       0.00058586
H       -2.07451744      -3.63186932       5.22791302       0.00060029       0.00092757      -0.00004199
H       -2.95134190      -2.58664331       7.28352735      -0.00035061      -0.00091077       0.00011512
H       -1.97110951      -0.48223945       8.11636252       0.00055261      -0.00149051      -0.00190273
H       -0.12787444       0.59650759       6.88227530      -0.00079362      -0.00217587      -0.00069756
