76
Properties=species:S:1:pos:R:3 charge=0 unpaired=0 uhf=0 endpoint_role="hydrogenated catalyst plus aldehyde; requires optimization" pbc="F F F"
Mn       0.44007453       0.35330004       0.18871666
N        0.47515045      -1.81104741       0.98009114
C        1.73821994      -2.55069056       0.85767696
C        2.44290136      -2.23223432      -0.46107580
P        2.39435013      -0.39278672      -0.73297400
C        2.69739596      -0.27078969      -2.58232165
C        4.05260870      -0.77415791      -3.07870092
C        1.57368495      -0.97020197      -3.34791407
C        4.05374939       0.16724292      -0.07158010
C        4.21174734      -0.14165355       1.41459969
C        4.16926115       1.66894287      -0.32483737
C       -0.72654213      -2.60123059       0.72022184
C       -1.95320389      -1.80088077       1.15590477
P       -1.77112493      -0.05125532       0.53206605
C       -2.77374654       0.92458746       1.77275602
C       -2.87357687       2.35706875       1.25038907
C       -2.11015493       0.92449884       3.14682164
C       -2.93234123      -0.05117087      -0.94367417
C       -4.41837920      -0.24195925      -0.64505567
C       -2.45427871      -1.10345557      -1.94418825
H        2.38216306      -2.26002443       1.69248504
H        1.55948976      -3.63326143       0.93310625
H        3.46934365      -2.60746772      -0.45730756
H        1.89628618      -2.69333910      -1.28768207
H        2.61086418       0.80590060      -2.78285029
H        4.04799865      -0.77985951      -4.16804091
H        4.24331115      -1.79068102      -2.73926308
H        4.87010870      -0.13351825      -2.75882198
H        1.52915385      -0.59628236      -4.36890955
H        1.73444086      -2.04584549      -3.39068659
H        0.61371232      -0.76882313      -2.87339663
H        4.83984727      -0.36649449      -0.61751913
H        5.09031261       0.36957061       1.80759388
H        4.34520647      -1.20863840       1.58610450
H        3.34704939       0.20021680       1.98212396
H        3.31918362       2.18962650       0.12053229
H        5.08447521       2.06412862       0.11436977
H        4.17665028       1.89280032      -1.38976889
H       -0.69618809      -3.55787930       1.27035598
H       -0.77277142      -2.82770322      -0.34967649
H       -2.00071886      -1.76869441       2.24833821
H       -2.87220214      -2.25885877       0.78670602
H       -3.76817939       0.47164809       1.86107821
H       -3.46265708       2.41673137       0.33856810
H       -3.33049330       3.00547455       1.99671294
H       -1.87214370       2.73473310       1.02986545
H       -2.66498941       1.56784778       3.82871218
H       -2.07597940      -0.07034858       3.58769618
H       -1.09446705       1.31375422       3.07540035
H       -2.77573268       0.93658675      -1.39643988
H       -4.59867521      -1.13691192      -0.05194452
H       -4.84410473       0.61105711      -0.12399981
H       -4.95333403      -0.35423199      -1.58734083
H       -1.36682457      -1.06619631      -2.02443445
H       -2.75763344      -2.10298555      -1.63776366
H       -2.87449910      -0.90819591      -2.92888809
C        0.04687854       1.20820696      -1.29408127
O       -0.20858233       1.83963529      -2.24662957
C        0.79612401       1.82007979       1.10415703
O        0.96256970       2.91041591       1.56061548
O        1.40233666      -0.56768175       3.49730496
C        1.00798544      -0.25125584       4.61468432
C       -0.06259657      -0.90103715       5.34698033
C       -0.62058361      -2.10380847       4.89203131
C       -1.65070759      -2.70404139       5.58494011
C       -2.14248898      -2.11772539       6.74335653
C       -1.59031126      -0.93273195       7.21145213
C       -0.55717362      -0.32881101       6.52469866
H        0.41782022      -1.49620207       1.95449548
H        1.46813113       0.60881344       5.13323196
H        1.04569953       0.80555017       1.75903253
H       -0.21530659      -2.56366921       4.00148427
H       -2.07451744      -3.63186932       5.22791302
H       -2.95134190      -2.58664331       7.28352735
H       -1.97110951      -0.48223945       8.11636252
H       -0.12787444       0.59650759       6.88227530
