73

O       0.023178060000000     -1.603156760000000     -1.433093100000000
C       0.254215950000000     -0.377425990000000     -0.771153520000000
N      -0.410793960000000     -0.347360960000000      0.511014970000000
C      -1.754025670000000     -0.046839380000000      0.651949350000000
C      -2.661511470000000     -0.238127860000000     -0.390496350000000
C      -4.002971950000000      0.037425150000000     -0.202476920000000
C      -4.467992640000000      0.495349810000000      1.018966020000000
C      -3.572933820000000      0.674785220000000      2.061659360000000
C      -2.229722460000000      0.411052110000000      1.882657260000000
C       1.733391870000000     -0.122216620000000     -0.570985930000000
C       2.478848310000000     -0.967239050000000      0.245080500000000
C       3.832717040000000     -0.748762950000000      0.427668000000000
C       4.455413560000000      0.315574750000000     -0.203228400000000
C       3.718956440000000      1.159836020000000     -1.016876840000000
C       2.364069230000000      0.941344220000000     -1.201339910000000
H       0.321565160000000     -2.321266750000000     -0.861136850000000
H      -0.169687050000000      0.375467960000000     -1.453512320000000
H       0.168589920000000     -0.071357830000000      1.290073420000000
H      -2.316187280000000     -0.616431360000000     -1.340057990000000
H      -4.693539820000000     -0.112827300000000     -1.020518920000000
H      -5.517804110000000      0.706744590000000      1.159383930000000
H      -3.923672940000000      1.029012120000000      3.020936320000000
H      -1.534310910000000      0.557448500000000      2.698410180000000
H       1.997561960000000     -1.796655270000000      0.745876750000000
H       4.402432380000000     -1.411010070000000      1.063153420000000
H       5.512443260000000      0.485864800000000     -0.060808030000000
H       4.200167180000000      1.990878050000000     -1.511419330000000
H       1.791603770000000      1.599894880000000     -1.838684450000000
C       2.479702800158481     -4.036768831896934     -1.574052847481441
C       1.423748140453575     -4.723881685295498     -0.706616843677429
C       0.281572518004571     -5.259846805996299     -1.579786389216713
C       2.054416917541656     -5.870632477560759      0.094482669713525
O       0.931139486144751     -3.723648794311807      0.180133404399409
H       2.906424470585530     -4.741052710554837     -2.282238766149710
H       3.269949287559262     -3.638687606587390     -0.942820654827409
H       2.027305767004199     -3.210971879935809     -2.116987253217800
H      -0.471434893934822     -5.751497653423399     -0.965027571432464
H      -0.191234039604802     -4.439497229117203     -2.115450147501408
H       0.662298318200170     -5.977643574160814     -2.301198625043287
H       1.304162701937459     -6.364176224921119      0.711079889620253
H       2.835254371654574     -5.482199828499175      0.744764986330668
H       2.489489979693521     -6.606076747537399     -0.576658025342366
H       0.259311117267834     -4.122669319647755      0.744946349917167
C       0.470943805562692      1.972588254427962      4.323641091825916
C       1.490244658732129      0.862359085924705      4.062822186287768
C       2.916876538732536      1.425114821186227      4.110532560197862
C       1.333952151536605     -0.259979905879642      5.097456786511509
O       1.205805237277961      0.365335549858701      2.758400113073296
H       0.623850768457593      2.404983504116767      5.308165479484397
H      -0.535826438747776      1.567657596579450      4.261535606227231
H       0.574038761390902      2.749226981041069      3.570258606752813
H       3.645458217961788      0.636368737584693      3.926909373890515
H       3.038068046596832      2.191943658703919      3.348468728542886
H       3.118129145571520      1.862584738048729      5.084564084021977
H       2.060716917577706     -1.050968848664814      4.916325846526357
H       0.335331075406358     -0.686620262588578      5.032741284170558
H       1.486400139410158      0.127199369837101      6.101174125038915
H       1.832602209549404     -0.339491233679642      2.558577288926540
C      -0.374522322703668     -3.006707950789295      3.096649310358409
C      -1.083245850388940     -4.361578456468814      3.137225306939629
C      -0.327718119519422     -5.332285016898950      4.054370573408866
C      -2.527913144065014     -4.194158190438072      3.626559325187744
O      -1.075836279937843     -4.849928306356236      1.798974714804307
H      -0.340035430553216     -2.566223666824127      4.088828080036025
H      -0.903634660294376     -2.336424567994523      2.424211525284926
H       0.638815545817338     -3.134100366353189      2.724763592582807
H      -0.831043315638343     -6.297829969630729      4.086863856729767
H       0.683544029464623     -5.481920469668061      3.682331289931202
H      -0.275524411640422     -4.934765804085917      5.064258805652734
H      -3.034572257757362     -5.157934043824550      3.659598652189539
H      -3.074058132869772     -3.539486097884814      2.950849145937135
H      -2.541765548720494     -3.761270079921858      4.623059536362202
H      -1.516209700449640     -5.707536458173653      1.786172030136935
