47
Properties=species:S:1:pos:R:3 energy:=T -70.198332226046=T gnorm:=T 0.000549903349=T xtb:=T 6.7.1=T (edcfbbe)=T pbc="F F F"
Co       0.08353853      -0.38298513      -0.18433966
C        2.39408599      -2.45327834      -0.03838708
P        2.24054210      -0.64952260      -0.44012766
C        3.55036146       0.10663874       0.63989114
C        4.96455150      -0.25476401       0.19269447
C        3.34679645       1.61332260       0.78177007
C        2.76176550      -0.60945986      -2.22049259
C        1.64785886      -1.29893763      -3.01172676
C        2.96760309       0.81522071      -2.72818894
C        1.05235102      -3.06261775      -0.27757196
C        0.89132624      -4.41009024      -0.57896360
C       -0.38148493      -4.90535762      -0.80955777
C       -1.46499422      -4.04750402      -0.71140886
C       -1.24159200      -2.71525038      -0.38382986
C       -2.29391533      -1.72891624      -0.14415165
C       -3.65218118      -1.96656663      -0.25941296
C       -4.54334833      -0.96348869       0.11236386
C       -4.05609802       0.21225445       0.63551736
C       -2.66779705       0.38526504       0.73066537
O       -2.20333376       1.49142720       1.29071032
N       -1.81353691      -0.54079881       0.29510500
N        0.00407966      -2.23833976      -0.18616816
H        2.64298251      -2.54010817       1.02566374
H        3.17523300      -2.95585451      -0.61527982
H        3.36414668      -0.34631348       1.62540354
H        5.08477888      -1.33114245       0.08390091
H        5.21663764       0.22278442      -0.75066850
H        5.67819233       0.08807171       0.93989175
H        4.05683626       2.01477510       1.50252506
H        2.34002510       1.82723334       1.13967955
H        3.49475941       2.13254073      -0.16136429
H        3.69781742      -1.17363873      -2.32220427
H        1.60005922      -2.36555272      -2.79781477
H        0.67917520      -0.84466302      -2.76496053
H        1.81487793      -1.17952216      -4.08067764
H        3.18962703       0.79472215      -3.79412970
H        3.79796364       1.30666871      -2.22811339
H        2.06935588       1.41187328      -2.58408992
H        1.75464758      -5.05451543      -0.63548091
H       -0.52825015      -5.94477510      -1.05869268
H       -2.46394260      -4.41088841      -0.88459970
H       -4.02216972      -2.90644710      -0.63247865
H       -5.60657431      -1.11880854       0.01683213
H       -4.69816142       1.00419402       0.98339687
H       -1.23671380       1.44891192       1.40212430
C        0.10428924       1.31902179      -0.54774490
O        0.13225014       2.38232161      -0.97121786
