56
Properties=species:S:1:pos:R:3:forces:R:3 energy:=T -80.746591248041=T gnorm:=T 0.000459356702=T xtb:=T 6.7.1=T (edcfbbe)=T energy=-2197.226664584577 pbc="F F F"
Fe      -0.13076910      -0.22362851      -0.84386908       0.00171441      -0.00929718      -0.00048810
C        2.23922420      -2.08977418      -0.57323060      -0.00023937      -0.00032115       0.00034552
P        2.01738835      -0.39939505      -1.01482871       0.00121328       0.00086577       0.00033082
C        2.81576354      -0.16784868      -2.65523110      -0.00159419      -0.00235764       0.00042836
C        2.91435988      -1.23702511      -3.53691004       0.00159636       0.00143142      -0.00007349
C        3.44328616      -1.05410751      -4.80185514      -0.00224273      -0.00387557       0.00012396
C        3.86887487       0.20299747      -5.20001308       0.00175815       0.00154563      -0.00150901
C        3.75950735       1.27824435      -4.33144047      -0.00045090       0.00011548       0.00074175
C        3.23046127       1.09521373      -3.06740648       0.00148686       0.00207640      -0.00052154
C        3.22449922       0.52059307       0.00986782       0.00345404      -0.00171010       0.00158827
C        2.80775954       1.37467957       1.02208334       0.00385224      -0.00238384      -0.00264734
C        3.73631511       2.00434146       1.83229115      -0.00209627       0.00401112       0.00388381
C        5.08971792       1.77821535       1.64187134      -0.00027339       0.00087252       0.00082153
C        5.51265318       0.91800509       0.63989892      -0.00177136      -0.00375746      -0.00183761
C        4.58654624       0.29182245      -0.17319024      -0.00209319       0.00006060      -0.00247185
C        1.07454058      -2.79336616      -0.33807203       0.00068020       0.00064818      -0.00017697
C        1.01324933      -4.16977472       0.03850280      -0.00027536      -0.00002194       0.00014260
C       -0.18980445      -4.78865072       0.19270232       0.00066169       0.00021638       0.00019817
C       -1.38274204      -4.07518094      -0.02810738      -0.00021531       0.00049843      -0.00031067
C       -1.28317305      -2.74945404      -0.38498170      -0.00000306      -0.00011490       0.00013335
C       -2.46976325      -1.87242202      -0.70943503       0.00008160       0.00000658       0.00014403
N       -2.17459051      -0.50245029      -0.25208482      -0.00045562       0.00016530      -0.00043230
C       -2.38111823      -0.40461273       1.20727037       0.00046881       0.00054157       0.00067269
C       -3.83045457      -0.42991389       1.69568147      -0.00018126       0.00005900      -0.00080864
C       -2.87881384       0.55070272      -0.99624097      -0.00067806       0.00020700       0.00037817
C       -2.13206902       1.87933095      -0.83993752      -0.00005136      -0.00045432      -0.00031233
N       -0.10879926      -2.12665018      -0.51488146      -0.00060625      -0.00189884       0.00183496
H        3.22057822      -2.51649936      -0.41964887      -0.00027288       0.00053893       0.00017020
H        2.57186585      -2.21216824      -3.21354509      -0.00157987      -0.00314334       0.00060023
H        3.52266596      -1.89132445      -5.48211190       0.00015885      -0.00039548       0.00041094
H        4.28208279       0.34691492      -6.18872745       0.00039093       0.00013875      -0.00034256
H        4.08537079       2.26062611      -4.64551661       0.00160186       0.00306453      -0.00073231
H        3.13999473       1.93242780      -2.38484948       0.00019756       0.00102918       0.00030338
H        1.74814186       1.52932659       1.16792694      -0.00227114       0.00115575      -0.00019217
H        3.40676131       2.67369911       2.61548360       0.00191987      -0.00329145      -0.00325414
H        5.81629534       2.26945501       2.27422545       0.00010307      -0.00026276      -0.00005515
H        6.56903681       0.73726599       0.49401145       0.00173115      -0.00089358      -0.00019716
H        4.91439529      -0.37595228      -0.95989585      -0.00257914       0.00437189       0.00507064
H        1.94231595      -4.69877476       0.19046089       0.00016611       0.00029930       0.00022589
H       -0.23930698      -5.82979612       0.48030602       0.00018658       0.00018308       0.00017736
H       -2.34412298      -4.55157551       0.07586389       0.00006805       0.00014478      -0.00006984
H       -2.58604622      -1.85691660      -1.79857676       0.00009848       0.00005589      -0.00010314
H       -3.39177347      -2.26882238      -0.27120741      -0.00026048       0.00001450      -0.00034061
H       -1.90496504       0.51282170       1.55275515       0.00040708      -0.00013851      -0.00033132
H       -1.82950624      -1.23619082       1.64875546       0.00017451      -0.00035788       0.00005137
H       -3.82104576      -0.50737905       2.78016517       0.00049369      -0.00100738       0.00053796
H       -4.36477069       0.48050898       1.43444567       0.00046690       0.00089794       0.00094366
H       -4.38163412      -1.28248702       1.30704368      -0.00069124       0.00026266      -0.00086649
H       -3.92198134       0.65412869      -0.67557872      -0.00059154      -0.00049744       0.00026387
H       -2.87613093       0.26999390      -2.05299693      -0.00014076       0.00009098      -0.00042847
H       -2.48245046       2.59468472      -1.58076700      -0.00081010       0.00019730      -0.00007156
H       -2.28277343       2.30503805       0.14983309      -0.00063941      -0.00009266       0.00010533
H       -1.03831504       1.73230477      -0.99729410      -0.00033932       0.00031893      -0.00022082
C       -0.30206833      -0.49105060      -2.55642377      -0.00319301       0.01106272      -0.00167503
O       -0.33401444      -0.65292890      -3.70069400       0.00161602      -0.00417951       0.00067235
H        0.20206262       0.00368055       0.56295387      -0.00015184       0.00330443      -0.00083051
