56
Properties=species:S:1:pos:R:3 energy:=T -80.746591248041=T gnorm:=T 0.000459356702=T xtb:=T 6.7.1=T (edcfbbe)=T pbc="F F F"
Fe      -0.13076910      -0.22362851      -0.84386908
C        2.23922420      -2.08977418      -0.57323060
P        2.01738835      -0.39939505      -1.01482871
C        2.81576354      -0.16784868      -2.65523110
C        2.91435988      -1.23702511      -3.53691004
C        3.44328616      -1.05410751      -4.80185514
C        3.86887487       0.20299747      -5.20001308
C        3.75950735       1.27824435      -4.33144047
C        3.23046127       1.09521373      -3.06740648
C        3.22449922       0.52059307       0.00986782
C        2.80775954       1.37467957       1.02208334
C        3.73631511       2.00434146       1.83229115
C        5.08971792       1.77821535       1.64187134
C        5.51265318       0.91800509       0.63989892
C        4.58654624       0.29182245      -0.17319024
C        1.07454058      -2.79336616      -0.33807203
C        1.01324933      -4.16977472       0.03850280
C       -0.18980445      -4.78865072       0.19270232
C       -1.38274204      -4.07518094      -0.02810738
C       -1.28317305      -2.74945404      -0.38498170
C       -2.46976325      -1.87242202      -0.70943503
N       -2.17459051      -0.50245029      -0.25208482
C       -2.38111823      -0.40461273       1.20727037
C       -3.83045457      -0.42991389       1.69568147
C       -2.87881384       0.55070272      -0.99624097
C       -2.13206902       1.87933095      -0.83993752
N       -0.10879926      -2.12665018      -0.51488146
H        3.22057822      -2.51649936      -0.41964887
H        2.57186585      -2.21216824      -3.21354509
H        3.52266596      -1.89132445      -5.48211190
H        4.28208279       0.34691492      -6.18872745
H        4.08537079       2.26062611      -4.64551661
H        3.13999473       1.93242780      -2.38484948
H        1.74814186       1.52932659       1.16792694
H        3.40676131       2.67369911       2.61548360
H        5.81629534       2.26945501       2.27422545
H        6.56903681       0.73726599       0.49401145
H        4.91439529      -0.37595228      -0.95989585
H        1.94231595      -4.69877476       0.19046089
H       -0.23930698      -5.82979612       0.48030602
H       -2.34412298      -4.55157551       0.07586389
H       -2.58604622      -1.85691660      -1.79857676
H       -3.39177347      -2.26882238      -0.27120741
H       -1.90496504       0.51282170       1.55275515
H       -1.82950624      -1.23619082       1.64875546
H       -3.82104576      -0.50737905       2.78016517
H       -4.36477069       0.48050898       1.43444567
H       -4.38163412      -1.28248702       1.30704368
H       -3.92198134       0.65412869      -0.67557872
H       -2.87613093       0.26999390      -2.05299693
H       -2.48245046       2.59468472      -1.58076700
H       -2.28277343       2.30503805       0.14983309
H       -1.03831504       1.73230477      -0.99729410
C       -0.30206833      -0.49105060      -2.55642377
O       -0.33401444      -0.65292890      -3.70069400
H        0.20206262       0.00368055       0.56295387
