52
Properties=species:S:1:pos:R:3:forces:R:3 energy:=T -87.254001579961=T gnorm:=T 0.000052228683=T xtb:=T 6.7.1=T (edcfbbe)=T energy=-2374.30231914617 pbc="F F F"
Mn       0.08347408      -0.09308909      -0.23831895      -0.00076565      -0.00021631      -0.00101247
C        2.29912473      -2.20916346       0.27385781       0.00008618      -0.00006654      -0.00013457
P        2.14691807      -0.38241075       0.50853424       0.00002605      -0.00002858       0.00009312
C        3.70387513       0.20236652      -0.23286236       0.00002906       0.00010960      -0.00004302
C        4.92943105      -0.29159212       0.20813303       0.00006772       0.00029955      -0.00002343
C        6.09946224       0.14998589      -0.38024691      -0.00010889       0.00034196       0.00007915
C        6.05379872       1.08702075      -1.40221980      -0.00010209       0.00006770       0.00001602
C        4.83669631       1.58780923      -1.83424139      -0.00000369       0.00004231       0.00000584
C        3.66085565       1.14787958      -1.24995562      -0.00002597      -0.00007987       0.00011600
C        2.51566654      -0.16141460       2.27804574       0.00005254      -0.00009599       0.00007124
C        3.05204029       1.05890431       2.68432351      -0.00004608      -0.00015865      -0.00004747
C        3.27482934       1.30813161       4.02513052      -0.00018897      -0.00004681       0.00012193
C        2.95160268       0.34840304       4.97214768       0.00000069      -0.00000557      -0.00002115
C        2.39427253      -0.85602970       4.57557936       0.00012630      -0.00020141      -0.00006912
C        2.16823775      -1.11055591       3.23425235       0.00002151      -0.00004946      -0.00003739
C        0.92491200      -2.77227212       0.46850216      -0.00003850       0.00011825      -0.00002159
C        0.74541969      -4.06219143       0.93208068       0.00013104      -0.00009253      -0.00015271
C       -0.54412965      -4.56582222       1.07275448      -0.00002012      -0.00004974      -0.00005626
C       -1.60061294      -3.76314845       0.70039129       0.00003733      -0.00004702      -0.00002090
C       -1.35628722      -2.47001687       0.23197385      -0.00016869      -0.00005004      -0.00005282
C       -2.39781984      -1.58450136      -0.26369002       0.00001084       0.00000122       0.00000840
C       -3.74436921      -1.93558121      -0.33114832      -0.00012697      -0.00001174      -0.00009577
C       -4.64865818      -1.05801583      -0.90064153       0.00016205      -0.00025005      -0.00034565
C       -4.18598471       0.14250680      -1.40052919       0.00025225      -0.00007449      -0.00029475
C       -2.82590043       0.44577566      -1.28969143      -0.00022440       0.00006399       0.00031457
O       -2.41608951       1.60888534      -1.78711097       0.00010091      -0.00003567      -0.00016118
N       -1.94535540      -0.38637845      -0.71759642       0.00057177       0.00015607       0.00052376
N       -0.10284399      -1.96157085       0.16098147       0.00028925       0.00015977       0.00037775
H        3.04557951      -2.67707394       0.92107999      -0.00004458       0.00000200      -0.00010541
H        2.60352647      -2.34486995      -0.77375399       0.00003709       0.00003917       0.00009799
H        4.96218373      -1.01139571       1.01561195      -0.00000655      -0.00012455      -0.00011710
H        7.05102197      -0.23395989      -0.04116256       0.00000345       0.00000992      -0.00014759
H        6.97140990       1.42955344      -1.85820698      -0.00012162       0.00014288       0.00009934
H        4.80311473       2.32271933      -2.62534996      -0.00009396       0.00016838       0.00023299
H        2.69734711       1.53116736      -1.56470418      -0.00000418       0.00010944       0.00013706
H        3.28707995       1.80508541       1.93571925      -0.00010076      -0.00002860       0.00010051
H        3.69521349       2.25398147       4.33507814      -0.00008711      -0.00008417       0.00005249
H        3.12420903       0.54296928       6.02071293      -0.00005699      -0.00009852       0.00001926
H        2.12820299      -1.59876224       5.31467177       0.00000719      -0.00007263      -0.00002545
H        1.71491119      -2.04816748       2.93778421       0.00009440      -0.00003647      -0.00001513
H        1.60537813      -4.66642768       1.17936279       0.00004086      -0.00006290      -0.00020511
H       -0.70890655      -5.56317332       1.44960419       0.00005209       0.00000724      -0.00005117
H       -2.61038995      -4.13136291       0.77474955      -0.00002919       0.00006802       0.00020974
H       -4.08223710      -2.88278456       0.05399098       0.00008687       0.00009926       0.00005785
H       -5.69589465      -1.31044578      -0.96087597       0.00000894       0.00005749      -0.00000852
H       -4.83234866       0.86367904      -1.87152108       0.00011121      -0.00004835      -0.00015966
H       -1.45748511       1.72510521      -1.61064426       0.00000372      -0.00001791       0.00001573
C        0.65963671      -0.37441165      -1.90053829       0.00093407      -0.00001762       0.00084170
O        1.08733805      -0.58900073      -2.95527610      -0.00064950       0.00043199      -0.00069866
C       -0.40346376       0.36795839       1.41554601      -0.00014649      -0.00055605      -0.00016995
O       -0.69370917       0.62354001       2.50271742      -0.00011257       0.00015679       0.00032026
H        0.16290059       1.44939761      -0.50549199      -0.00007185       0.00005523       0.00038132
