60
Properties=species:S:1:pos:R:3:forces:R:3 energy:=T -70.709451813575=T gnorm:=T 0.000084915361=T xtb:=T 6.7.1=T (edcfbbe)=T energy=-1924.102188867808 pbc="F F F"
Fe       0.14235202      -0.33188464      -0.14537380       0.00118869       0.00002915      -0.00004054
N        0.17150342      -2.39861002       0.08948096      -0.00021510       0.00008593       0.00016232
C        0.77972142      -2.69247428       1.40711826      -0.00009230       0.00014274       0.00015446
C        2.17065007      -2.06141928       1.51113950      -0.00018906       0.00014817       0.00031624
P        2.18254331      -0.53971202       0.45635311       0.00028687      -0.00013551       0.00022829
C        3.69715946      -0.78340664      -0.59854959       0.00010662      -0.00025061      -0.00003747
C        3.98236250       0.46713363      -1.42395239       0.00031057      -0.00036466      -0.00005647
C        3.48725433      -1.97892233      -1.52538047      -0.00001213      -0.00035445       0.00021021
C        2.52850102       0.98765520       1.46037780      -0.00043026       0.00046715      -0.00020570
C        1.71100945       2.06903333       0.73381164       0.00030412       0.00003079      -0.00086911
C        2.10339876       0.84409744       2.91707770       0.00004746       0.00051106      -0.00037805
C       -1.16048822      -3.02225017      -0.07204856      -0.00002345      -0.00008262      -0.00021793
C       -2.23961973      -2.16422253       0.57777971       0.00003191      -0.00010452      -0.00024822
P       -2.00856324      -0.40288311       0.04523963      -0.00008752      -0.00054383       0.00017883
C       -2.89951858       0.47175040       1.43374965      -0.00013491      -0.00017676       0.00012830
C       -3.23552687       1.92414023       1.09887030      -0.00027074      -0.00022448       0.00064276
C       -2.08828747       0.43448815       2.72495565       0.00004725      -0.00049567       0.00009099
C       -3.18153131      -0.17885527      -1.39326764      -0.00005224       0.00038347       0.00002698
C       -3.18018116      -1.36593358      -2.35136092       0.00019391       0.00033815      -0.00005917
C       -2.77828894       1.08293902      -2.15943404       0.00001963       0.00046367       0.00036646
H        0.78336726      -2.83315275      -0.60886004       0.00002659       0.00006765       0.00010869
H        0.84578140      -3.77720473       1.54906223      -0.00005914       0.00014870       0.00015410
H        0.12536354      -2.28010978       2.17367799      -0.00020921       0.00002622      -0.00003435
H        2.39509803      -1.80782198       2.54828616      -0.00022964       0.00022140       0.00008348
H        2.94434427      -2.74913509       1.15838101      -0.00012131       0.00022219       0.00031966
H        4.53280758      -0.97915871       0.08800860      -0.00008405      -0.00018602       0.00033172
H        3.11063710       0.73131073      -2.02282017       0.00043517      -0.00043242      -0.00019555
H        4.81191731       0.28019131      -2.10453808       0.00025261      -0.00060744       0.00011611
H        4.25458359       1.31542679      -0.79995870       0.00028908      -0.00035786      -0.00021960
H        4.36828203      -2.12003877      -2.14956876       0.00005394      -0.00048086       0.00037962
H        2.63858300      -1.79857309      -2.18382177       0.00011564      -0.00044827       0.00011610
H        3.32302235      -2.90580887      -0.97909694      -0.00005389      -0.00033661       0.00034516
H        3.59608080       1.23997755       1.42036861      -0.00013602       0.00022357      -0.00045525
H        1.65666179       2.97960167       1.32893180      -0.00030827       0.00012588      -0.00063054
H        2.15092631       2.31829703      -0.23102465       0.00011371       0.00027399      -0.00077710
H        0.66858178       1.71947928       0.55708037      -0.00028387      -0.00006724      -0.00097668
H        1.10100746       0.43009154       2.98770217      -0.00017082       0.00090396      -0.00040577
H        2.79360441       0.20725484       3.46688482      -0.00029151       0.00036482      -0.00017007
H        2.10408550       1.82153956       3.39728595       0.00019701       0.00064258      -0.00059593
H       -1.15768212      -4.02788939       0.36367291      -0.00005364       0.00003007      -0.00016655
H       -1.35235746      -3.10896849      -1.14311509       0.00015510       0.00007935      -0.00014880
H       -2.15082714      -2.19785973       1.66584228      -0.00004389      -0.00004893      -0.00008448
H       -3.23736458      -2.52304907       0.31310626      -0.00001575      -0.00005817      -0.00022117
H       -3.83311381      -0.09538892       1.57128961       0.00005879      -0.00047311       0.00020308
H       -3.95697763       2.00276638       0.28895320      -0.00013264      -0.00031770       0.00045400
H       -3.67136151       2.40518744       1.97409828      -0.00034944      -0.00044093       0.00055085
H       -2.33362124       2.47522575       0.83067928      -0.00023116      -0.00016927       0.00064667
H       -1.73187534      -0.56357769       2.96457444      -0.00008947      -0.00056930       0.00017013
H       -2.70768819       0.77717999       3.55310081       0.00003654      -0.00048569       0.00027779
H       -1.22978899       1.09656928       2.64712010       0.00003955      -0.00052871       0.00022623
H       -4.18705301      -0.05730429      -0.96971159      -0.00000088       0.00016100       0.00006572
H       -3.57968579      -2.26830641      -1.89532578       0.00008777       0.00030302      -0.00036793
H       -2.17300516      -1.56087009      -2.71695411       0.00016799       0.00045691      -0.00012988
H       -3.80343440      -1.13009534      -3.21323505       0.00022886       0.00056031      -0.00011655
H       -1.88629825       0.89055984      -2.75122488       0.00012961       0.00054736       0.00039578
H       -3.57306252       1.38140162      -2.84152303       0.00008558       0.00042717       0.00025496
H       -2.56469174       1.91891656      -1.49709803      -0.00016031       0.00034064       0.00044967
C        0.30189185      -0.34966549      -1.88695181      -0.00050692      -0.00015119      -0.00044711
O        0.45723817      -0.32424332      -3.02469333       0.00033755      -0.00017915       0.00029535
H        0.04118946      -0.27379590       1.25397811      -0.00030863       0.00034490      -0.00019474
