50
Properties=species:S:1:pos:R:3:forces:R:3 energy:=T -76.473592065550=T gnorm:=T 0.000193057509=T xtb:=T 6.7.1=T (edcfbbe)=T energy=-2080.9524343258317 pbc="F F F"
Mn       0.07477544      -0.13804799       0.09009911       0.00270995      -0.00192874      -0.00262550
C        2.31158137      -2.31250796      -0.05725666       0.00000795       0.00057939      -0.00067448
P        2.23598751      -0.49993565      -0.41749417       0.00135692       0.00009663       0.00219183
C        3.62247350       0.11275235       0.67764901       0.00035874       0.00029697       0.00014400
C        5.01754136      -0.37742371       0.29990519      -0.00041372      -0.00020825      -0.00032430
C        3.58546250       1.63136257       0.83415567      -0.00053590       0.00024394      -0.00018094
C        2.92274295      -0.45167724      -2.15214109      -0.00015924       0.00027520      -0.00243325
C        2.09071080      -1.32754475      -3.08634398       0.00028502       0.00015579       0.00008552
C        2.93931649       0.99301464      -2.64405572      -0.00008476      -0.00083949       0.00179560
C        0.95352093      -2.86990961      -0.35568945      -0.00007413      -0.00215551      -0.00055930
C        0.79826616      -4.18849749      -0.74000099      -0.00046229       0.00055223       0.00041662
C       -0.47964130      -4.69113779      -0.96685305      -0.00075099      -0.00030332      -0.00029975
C       -1.55386550      -3.85680802      -0.74892192       0.00078536      -0.00143537      -0.00033229
C       -1.33473743      -2.53514997      -0.35207531       0.00004891      -0.00011278      -0.00021688
C       -2.40424517      -1.61611118      -0.00341306       0.00091573      -0.00019722      -0.00040421
C       -3.75807956      -1.94578445      -0.04281584      -0.00059119      -0.00019036      -0.00000675
C       -4.69435254      -1.02960863       0.39742216       0.00068247       0.00051930       0.00037940
C       -4.25879723       0.19066469       0.87727062      -0.00052286      -0.00105936      -0.00013233
C       -2.89087974       0.47154343       0.87255554      -0.00001202       0.00149958       0.00054430
O       -2.50516516       1.65743363       1.34129272      -0.00022168      -0.00043545      -0.00080044
N       -1.97665757      -0.39993897       0.42701460      -0.00179930      -0.00082068      -0.00010857
N       -0.08504390      -2.02922490      -0.20754675      -0.00032503       0.00423584       0.00090792
H        2.50290431      -2.41020867       1.01981456       0.00008069      -0.00008016      -0.00026676
H        3.10095816      -2.83510861      -0.60333025      -0.00016135       0.00010510      -0.00003949
H        3.34531153      -0.32151074       1.65150155      -0.00012121      -0.00028172      -0.00031975
H        5.03803698      -1.45462535       0.14488051       0.00036089      -0.00010594       0.00032383
H        5.37443642       0.11694185      -0.60071903      -0.00023740      -0.00018153      -0.00002668
H        5.71053651      -0.13985934       1.10588997      -0.00012032       0.00065159       0.00021459
H        4.16567542       1.93124092       1.70525979       0.00000137      -0.00010026      -0.00022678
H        2.55518180       1.96369607       0.96675935       0.00085449      -0.00013217       0.00013117
H        4.00050512       2.13152188      -0.03683768      -0.00046451      -0.00029877       0.00054598
H        3.94375587      -0.85143082      -2.11422324      -0.00002426      -0.00014957       0.00022084
H        2.11821207      -2.37639046      -2.79481172      -0.00040441       0.00006721      -0.00024074
H        1.05240756      -0.99973648      -3.09787231       0.00038383       0.00008367      -0.00037269
H        2.47523157      -1.25123147      -4.10297429      -0.00025859      -0.00030110       0.00032083
H        3.17306365       1.03250460      -3.70714348       0.00065146      -0.00018935      -0.00074472
H        3.67997410       1.58208852      -2.10976713      -0.00009959       0.00024121      -0.00010745
H        1.96119359       1.44941866      -2.48437131      -0.00026331       0.00030122      -0.00092448
H        1.66757833      -4.81764020      -0.85910503       0.00025629       0.00014806       0.00021712
H       -0.62329719      -5.71143529      -1.28672241       0.00017183       0.00000682       0.00022269
H       -2.55825328      -4.22209585      -0.88580349      -0.00040284       0.00082401      -0.00013581
H       -4.07543581      -2.90606967      -0.41293260      -0.00023450       0.00006808      -0.00009711
H       -5.74712171      -1.26455032       0.37389170      -0.00006120      -0.00037037      -0.00015088
H       -4.93334281       0.94261382       1.25031548       0.00012802       0.00011256      -0.00003988
H       -1.53376377       1.75248431       1.24188112       0.00042406      -0.00058993       0.00038520
C       -0.47775146       0.31633573      -1.54262524       0.00008636       0.00028189      -0.00032809
O       -0.99366902       0.62665831      -2.53069117      -0.00033472       0.00116100       0.00155107
C        0.47266381      -0.29056751       1.81857534      -0.00128948       0.00029329       0.00189525
O        0.73635975      -0.39268608       2.94194470       0.00082309       0.00032025      -0.00001815
H        0.18215636       1.40931919       0.28075003      -0.00094259      -0.00065343       0.00064467
