50
Properties=species:S:1:pos:R:3 energy:=T -76.473592065550=T gnorm:=T 0.000193057509=T xtb:=T 6.7.1=T (edcfbbe)=T pbc="F F F"
Mn       0.07477544      -0.13804799       0.09009911
C        2.31158137      -2.31250796      -0.05725666
P        2.23598751      -0.49993565      -0.41749417
C        3.62247350       0.11275235       0.67764901
C        5.01754136      -0.37742371       0.29990519
C        3.58546250       1.63136257       0.83415567
C        2.92274295      -0.45167724      -2.15214109
C        2.09071080      -1.32754475      -3.08634398
C        2.93931649       0.99301464      -2.64405572
C        0.95352093      -2.86990961      -0.35568945
C        0.79826616      -4.18849749      -0.74000099
C       -0.47964130      -4.69113779      -0.96685305
C       -1.55386550      -3.85680802      -0.74892192
C       -1.33473743      -2.53514997      -0.35207531
C       -2.40424517      -1.61611118      -0.00341306
C       -3.75807956      -1.94578445      -0.04281584
C       -4.69435254      -1.02960863       0.39742216
C       -4.25879723       0.19066469       0.87727062
C       -2.89087974       0.47154343       0.87255554
O       -2.50516516       1.65743363       1.34129272
N       -1.97665757      -0.39993897       0.42701460
N       -0.08504390      -2.02922490      -0.20754675
H        2.50290431      -2.41020867       1.01981456
H        3.10095816      -2.83510861      -0.60333025
H        3.34531153      -0.32151074       1.65150155
H        5.03803698      -1.45462535       0.14488051
H        5.37443642       0.11694185      -0.60071903
H        5.71053651      -0.13985934       1.10588997
H        4.16567542       1.93124092       1.70525979
H        2.55518180       1.96369607       0.96675935
H        4.00050512       2.13152188      -0.03683768
H        3.94375587      -0.85143082      -2.11422324
H        2.11821207      -2.37639046      -2.79481172
H        1.05240756      -0.99973648      -3.09787231
H        2.47523157      -1.25123147      -4.10297429
H        3.17306365       1.03250460      -3.70714348
H        3.67997410       1.58208852      -2.10976713
H        1.96119359       1.44941866      -2.48437131
H        1.66757833      -4.81764020      -0.85910503
H       -0.62329719      -5.71143529      -1.28672241
H       -2.55825328      -4.22209585      -0.88580349
H       -4.07543581      -2.90606967      -0.41293260
H       -5.74712171      -1.26455032       0.37389170
H       -4.93334281       0.94261382       1.25031548
H       -1.53376377       1.75248431       1.24188112
C       -0.47775146       0.31633573      -1.54262524
O       -0.99366902       0.62665831      -2.53069117
C        0.47266381      -0.29056751       1.81857534
O        0.73635975      -0.39268608       2.94194470
H        0.18215636       1.40931919       0.28075003
