59
 energy: -70.518726579523 gnorm: 0.000531770064 xtb: 6.7.1 (edcfbbe)
Fe           0.08469344639888       -0.24211564393635       -0.15862374307931
N            0.07375878318798       -2.05592777746037       -0.11325553485867
C            1.18854128335032       -2.92863604254278        0.24586738528388
C            2.31042300936783       -2.16818199946541        0.94902686019619
P            2.16018155608248       -0.41582759897083        0.37166764915753
C            2.95486666143660        0.56051953308962        1.74917428782795
C            3.03489648808550        2.01684713767642        1.29705923288207
C            2.09831735400511        0.45973941729185        3.00804393183718
C            3.42761171526094       -0.29445599256447       -1.00273687015264
C            3.04126353098853       -1.28258423884131       -2.10264897503009
C            4.88593967426393       -0.48198508260074       -0.59068862448518
C           -1.02269787087311       -2.91262570456777       -0.55848987728172
C           -2.12042084275255       -2.09930464560281       -1.23645619721781
P           -2.04079153185988       -0.46987367270218       -0.37721625935300
C           -3.02830835848905        0.65749125538109       -1.48734093985004
C           -2.92253375553311        2.08355853244339       -0.95215589615263
C           -4.47880900802023        0.26548249339576       -1.75138673779771
C           -3.09301399609609       -0.66751236537462        1.16846856373493
C           -2.17232252911363       -0.93801545764900        2.35768534955034
C           -4.19160805337229       -1.72757712528083        1.10236706218157
H            0.81868224887781       -3.73598687879919        0.90151990866369
H            1.57059588212270       -3.41706553899279       -0.66533011669594
H            2.13697785275419       -2.17321798643794        2.02824692623876
H            3.29058641566470       -2.60764490294273        0.75008143209008
H            3.95581804327905        0.15689219313226        1.94953404270562
H            3.36227149528871        2.65704937765686        2.11579267424120
H            3.72556288064096        2.14729955242667        0.46631229382820
H            2.04430248336908        2.33831686035437        0.97438645118371
H            2.12960555269359       -0.53613162646232        3.44603616824249
H            2.44608650129471        1.16766847187652        3.75957780161902
H            1.06592371424491        0.69949445719072        2.75404154300862
H            3.28922650969909        0.72035281005731       -1.40080057021443
H            1.96569417071135       -1.23822215448594       -2.27984777106695
H            3.31226389567943       -2.29901657937497       -1.82302811134838
H            3.55447791515311       -1.03977178450799       -3.03290037352911
H            5.51236552146523       -0.50480247552000       -1.48278359053291
H            5.03026085276636       -1.42056199105615       -0.05804180572750
H            5.23576875792349        0.33146657556562        0.04023536146970
H           -0.63023258718753       -3.67166128055303       -1.25650991269282
H           -1.43800979885664       -3.46304383827286        0.30280508718087
H           -3.08634100029598       -2.60496681523167       -1.21364794843711
H           -1.84218052305583       -1.89557341639473       -2.27678341574260
H           -2.46771544840130        0.60811614459275       -2.43361135735462
H           -3.53692798689091        2.21424454528082       -0.06276645982272
H           -3.25350494712690        2.80086633211320       -1.70221459743508
H           -1.88663319341594        2.29759183349116       -0.69013275895679
H           -5.08222365952590        0.38315082647761       -0.85391682114887
H           -4.89565709696738        0.91647613823558       -2.52001420643847
H           -4.55476302418703       -0.76149820078527       -2.10340865631493
H           -3.55160875103790        0.32065953976679        1.31182698546615
H           -1.73891795460815       -1.93485529367215        2.29076370543255
H           -2.72222177408666       -0.86417261464506        3.29575179143828
H           -1.35738567530261       -0.21467944044281        2.36367735089059
H           -4.81537742643438       -1.65281355702083        1.99366172333269
H           -3.76174651739002       -2.72762194445751        1.08284016493035
H           -4.83206331374118       -1.60836144879373        0.23284411390289
C            0.32108237078517        0.81256068435962       -1.51642454267252
O            0.47756694616440        1.40552364933781       -2.50799405522850
H           -0.12771806694279        0.87014175840812        0.78985359291495
