56
Properties=species:S:1:pos:R:3 energy:=T -71.031280002622=T gnorm:=T 0.000207550962=T xtb:=T 6.7.1=T (edcfbbe)=T pbc="F F F"
Fe       0.30060143      -0.14306059      -0.05802383
C        2.33170365      -2.36916314      -0.59909781
P        2.37202238      -0.65070800       0.12653905
C        3.71571029       0.12323189      -0.92535999
C        5.12120383      -0.43488776      -0.72356208
C        3.67722410       1.64356769      -0.79128140
C        3.17281579      -0.97978435       1.78378682
C        2.31595059      -1.95846301       2.58064911
C        3.28968016       0.34602193       2.52875537
C        0.97278605      -2.91207410      -0.28301503
C        0.69518621      -4.26503548      -0.29189881
C       -0.58811180      -4.71315526      -0.00426399
C       -1.55247113      -3.76495717       0.31056590
C       -1.20949977      -2.42812320       0.31849170
C       -2.14763295      -1.33948341       0.74253068
N       -1.92256964      -0.12799577      -0.06327171
C       -2.66431706       1.01136279       0.51302235
C       -2.26547356       1.40122721       1.92881119
C       -2.46499712      -0.39068445      -1.41202081
C       -2.35359286       0.78935587      -2.37096973
N        0.02846932      -1.98731678       0.00599258
H        3.12922165      -3.03305469      -0.25396709
H        2.42566761      -2.24741940      -1.68578371
H        3.38503457      -0.12269929      -1.94550676
H        5.12828786      -1.52198151      -0.78169616
H        5.78060766      -0.05007048      -1.50160289
H        5.52849382      -0.13068978       0.23827068
H        2.63888273       1.97402766      -0.76730025
H        4.16263443       1.97420912       0.12369193
H        4.18251101       2.11569086      -1.63351877
H        4.16368969      -1.42079741       1.61450108
H        2.27631376      -2.94065022       2.11166769
H        2.71885474      -2.07803220       3.58633396
H        1.30239408      -1.56889999       2.65796965
H        3.55005328       0.18189870       3.57424592
H        2.33070128       0.86053468       2.47804690
H        4.04898757       0.98605418       2.08520675
H        1.48177124      -4.96701238      -0.52768305
H       -0.82455158      -5.76539195      -0.01709878
H       -2.56006430      -4.06195082       0.55978176
H       -3.19778194      -1.66777898       0.68870416
H       -1.90044562      -1.09336170       1.77979759
H       -2.46425047       1.86950948      -0.12735181
H       -3.74308177       0.78485132       0.48018796
H       -2.63152489       0.70006741       2.67534868
H       -2.68052567       2.38064324       2.15576261
H       -1.18153355       1.45417426       1.98133947
H       -1.91619930      -1.24102613      -1.82622686
H       -3.52456229      -0.68579359      -1.32439476
H       -2.38463772       0.42971754      -3.39706829
H       -3.16682482       1.49856045      -2.23648900
H       -1.40687590       1.30053029      -2.21199830
C        0.56778889      -0.04769596      -1.77328405
O        0.87539033       0.02885616      -2.89163590
H        0.25366305      -0.01799468       1.39564128
H        0.41600965       1.31519992      -0.04585969
