58
 energy: -81.951293689113 gnorm: 0.000126365795 xtb: 6.7.1 (edcfbbe)
Ru           0.16360575219876       -0.09904185214551       -0.31073731025887
C            2.31818677279187       -2.32377678470022        0.26652823178590
P            2.30725237957053       -0.69211295558116       -0.63899275321483
C            2.85717786659775       -1.16438821552791       -2.31359620351059
C            2.47224803718941       -2.36851183646765       -2.89501771759285
C            2.82098335792199       -2.65201034162564       -4.20357524321742
C            3.54391441500646       -1.73238299846022       -4.94577822878273
C            3.90965361543132       -0.52067711163972       -4.38022202919826
C            3.56289887946609       -0.23464491699857       -3.07308149075748
C            3.82348633543253        0.06444709475274        0.03066876229135
C            3.70618720557331        1.26768894550515        0.71490760469665
C            4.83046434190941        1.86602276264552        1.25805082222374
C            6.07064063140762        1.26447620424894        1.11582812152118
C            6.19019542596169        0.06554396535143        0.42837435574398
C            5.07105795864439       -0.53631079426736       -0.11671847790519
C            0.94123171112066       -2.90851222012272        0.20425739251732
C            0.71190816288342       -4.26272449363848        0.38481542795334
C           -0.58778979748103       -4.75078901733410        0.37423299318302
C           -1.62464627618137       -3.85063966654147        0.17045755229045
C           -1.32789164856945       -2.51400159305038       -0.02968438650377
C           -2.38750003262473       -1.49657792140431       -0.36272144651100
N           -2.05864692397280       -0.16541369765293        0.17840169470309
C           -2.38432275119235       -0.17071035392036        1.62078895195618
C           -2.15045399336273        1.16723378965546        2.31061628104529
C           -2.81513931615427        0.88305472903096       -0.53856180714025
C           -4.34117930979908        0.81882329145629       -0.42951038099059
N           -0.06924987185970       -2.04358445557747       -0.01471706578544
H            3.08644539856173       -3.02114058519222       -0.08023544032366
H            2.53609090949180       -2.04699283273737        1.30786970012531
H            1.89151011633774       -3.08576569240228       -2.32731152192874
H            2.52301464453897       -3.59146901209855       -4.64821019214162
H            3.81320468917935       -1.95605999392936       -5.96795155983697
H            4.46070219670698        0.20361777172779       -4.96306954225779
H            3.83082985579927        0.71449790457052       -2.62575332704184
H            2.72050029069667        1.70753187427383        0.80507225180524
H            4.74088969489546        2.80188999279958        1.79066712584539
H            6.94927286522786        1.73048119743997        1.53841932382680
H            7.15993022406699       -0.39856915597792        0.31645703110529
H            5.16176661575568       -1.46559340091811       -0.66421415616687
H            1.54807628605890       -4.92761119470257        0.54110983557447
H           -0.78634568137012       -5.80040941389886        0.52130844606977
H           -2.65155856384999       -4.18267035151488        0.15377203539836
H           -3.36596546423418       -1.84751175229980       -0.00066915210636
H           -2.43853206614007       -1.41907142552968       -1.45897572283761
H           -3.43051026646273       -0.48240306909142        1.76221883535534
H           -1.74651260331619       -0.92612951566038        2.09334926011608
H           -1.18201655962943        1.56360487729364        2.00695707984309
H           -2.14426642937864        1.01862452545623        3.38789966157868
H           -2.92544199720858        1.89044542063525        2.07052667048637
H           -2.46078180731233        1.84870978761899       -0.17140301001899
H           -2.53857067041876        0.82418026854517       -1.59656234939827
H           -4.73526630747754       -0.12286928170400       -0.80531531382377
H           -4.75761220655022        1.61893536323626       -1.03703772772789
H           -4.68497214365684        0.96394572945425        0.59109442167802
C           -0.17209345819543       -0.16773496020491       -2.12210985949988
O           -0.29869040934324       -0.25560010627993       -3.27355411125204
H            0.51751019809576        0.03468906796104        1.22047428011240
H            0.27419041662448        1.47538472325486       -0.39250451550319
