75
Properties=species:S:1:pos:R:3 charge=0 unpaired=0 uhf=0 pbc="F F F"
Ru       0.07323341       0.00932050      -0.57370313
N        0.01448913      -1.87836739      -1.02265244
C        1.16008276      -2.75022344      -1.24943936
C        2.49156802      -2.07864416      -0.90736022
P        2.24410000      -0.28261389      -1.21971818
C        2.53450382      -0.25808930      -3.07596328
C        3.99797601      -0.33458287      -3.50301068
C        1.81493740       0.91292315      -3.74055032
C        3.74303946       0.52516971      -0.46146583
C        3.70645229       2.01963293      -0.77435209
C        3.71444373       0.32223791       1.05088848
C       -1.19096759      -2.68458150      -1.14976047
C       -2.45201585      -1.83048407      -1.28377475
P       -2.19178889      -0.26295742      -0.33708150
C       -3.00008860      -0.68137559       1.30299222
C       -2.86828581       0.48828116       2.27633470
C       -2.36431685      -1.93664906       1.89712011
C       -3.49016379       0.89006998      -1.05294411
C       -3.16195933       2.33623847      -0.67119603
C       -3.59581540       0.79213620      -2.57379485
H        1.16739237      -3.08734092      -2.30372312
H        1.04707503      -3.66034292      -0.63311337
H        2.69858189      -2.21503380       0.15564278
H        3.31563867      -2.50070697      -1.48926212
H        2.03238538      -1.17903126      -3.41084690
H        4.05295252      -0.52065810      -4.57546442
H        4.51833065       0.59810727      -3.29940384
H        4.52084712      -1.14343384      -2.99513552
H        0.75824064       0.90570899      -3.46189940
H        1.88595577       0.83555540      -4.82551633
H        2.23642956       1.86867182      -3.43661628
H        4.64830462       0.06770430      -0.87764719
H        4.50296483       2.53895904      -0.24281937
H        3.82674847       2.21530657      -1.83730674
H        2.74940654       2.43432682      -0.45354025
H        4.52238368       0.88218475       1.51983062
H        2.76494994       0.69180235       1.44209278
H        3.82650562      -0.72429160       1.32541925
H       -1.26856711      -3.36428193      -0.28417038
H       -1.10689314      -3.33259105      -2.04343053
H       -3.34949535      -2.36937366      -0.96718093
H       -2.56094070      -1.55002719      -2.33499459
H       -4.06361168      -0.87694534       1.10516283
H       -3.52544820       1.30928912       2.00101138
H       -1.83718316       0.84676240       2.28322127
H       -3.13349072       0.17330642       3.28501968
H       -2.68607429      -2.83342189       1.37225164
H       -2.65099026      -2.04659058       2.94269987
H       -1.27793239      -1.86928754       1.84541513
H       -4.45112158       0.60422291      -0.60480277
H       -4.05705410       2.95512651      -0.71929736
H       -2.73694273       2.40743353       0.32735834
H       -2.43025844       2.74499757      -1.36364481
H       -2.60117154       0.83846651      -3.02188669
H       -4.09247442      -0.12184126      -2.89302038
H       -4.17373780       1.63419261      -2.95285903
C        0.04997271       1.77564954      -1.07859383
O        0.06306500       2.85349575      -1.51998069
H        0.32046163       0.54665978       0.88115724
O        1.27093312      -2.12561300       2.06071973
C        1.34232186      -1.60772604       3.36795833
C        2.16982801      -2.50040510       4.25794344
C        2.03500084      -2.41541070       5.63886480
C        2.80639577      -3.20789087       6.46918083
C        3.71974716      -4.09928448       5.92940974
C        3.85625008      -4.19140034       4.55540832
C        3.08777755      -3.39398145       3.72486623
H        0.91983122      -1.43326334       1.46503254
H        1.79894747      -0.60487563       3.35879030
H        0.33227741      -1.50429647       3.79584951
H        1.32094107      -1.72285900       6.06282430
H        2.69312412      -3.13318281       7.54138574
H        4.32003045      -4.72054335       6.57851778
H        4.56509873      -4.88613998       4.12728803
H        3.18601555      -3.46886763       2.65252821
75
Properties=species:S:1:pos:R:3 charge=0 unpaired=0 uhf=0 pbc="F F F"
Ru       0.06007101       0.00123743      -0.57212442
N       -0.01077529      -1.87921663      -1.02781896
C        1.13085581      -2.74087962      -1.31776827
C        2.46999728      -2.09825818      -0.94918942
P        2.25007236      -0.28756629      -1.19355670
C        2.60103151      -0.20994484      -3.03762372
C        4.06905382      -0.37440263      -3.42249566
C        1.99711149       1.03004806      -3.69006858
C        3.74327999       0.47401431      -0.37045582
C        3.66912785       1.98916855      -0.55067756
C        3.75745501       0.13972050       1.11848379
C       -1.21571288      -2.69084945      -1.13173177
C       -2.50401885      -1.86438331      -1.15491185
P       -2.21033917      -0.25285225      -0.29007765
C       -3.02688701      -0.58525539       1.36754019
C       -2.92931754       0.63472184       2.28128108
C       -2.36669497      -1.78985499       2.02991050
C       -3.51506904       0.87363509      -1.03868848
C       -3.18234938       2.33506842      -0.72592457
C       -3.64957051       0.71015157      -2.55132277
H        1.12618717      -3.01300718      -2.38994697
H        1.02239848      -3.68545678      -0.75544605
H        2.67644586      -2.28066855       0.10645333
H        3.28809050      -2.51108398      -1.54493221
H        2.04539579      -1.08054740      -3.41982524
H        4.14505001      -0.49910395      -4.50246746
H        4.64827182       0.50337597      -3.14601357
H        4.51433644      -1.25011145      -2.95319952
H        0.93134218       1.08898746      -3.46669209
H        2.11886159       0.98294734      -4.77206729
H        2.46944331       1.94239643      -3.33317049
H        4.65068368       0.07675186      -0.83933275
H        4.45596065       2.48091312       0.02011462
H        3.77813744       2.27722380      -1.59373350
H        2.70271660       2.34917344      -0.19196432
H        4.56078948       0.68413304       1.61350548
H        2.81059152       0.44374335       1.56564625
H        3.91134593      -0.92127753       1.30116914
H       -1.23569390      -3.41589279      -0.29892666
H       -1.16782336      -3.28944225      -2.06156986
H       -3.34316975      -2.41459616      -0.72062467
H       -2.74334186      -1.63053724      -2.19407145
H       -4.08387524      -0.81389724       1.17112984
H       -3.60329576       1.42520846       1.96122820
H       -1.90686193       1.01656498       2.27973794
H       -3.19619244       0.36393093       3.30239609
H       -2.61335811      -2.72041210       1.52368937
H       -2.68961930      -1.87885502       3.06707582
H       -1.28713461      -1.65812908       2.01258690
H       -4.46827423       0.60941518      -0.56155193
H       -4.07786462       2.95102632      -0.79838311
H       -2.75205420       2.45330032       0.26575095
H       -2.45583321       2.71088880      -1.44130858
H       -2.66301246       0.72031780      -3.01881864
H       -4.16696172      -0.20842152      -2.82069485
H       -4.22305032       1.54281961      -2.95639285
C        0.00154285       1.73960844      -1.16416188
O       -0.03572708       2.77677055      -1.69298737
H        0.32670095       0.57983446       0.86869465
O        1.22552051      -2.38887609       1.85030330
C        1.20593437      -1.85857739       3.15241191
C        2.15389441      -2.57951342       4.07214272
C        2.02084042      -2.37527951       5.44067683
C        2.86929632      -3.00487201       6.32977114
C        3.86127505      -3.85068785       5.85886395
C        3.99666152      -4.06057905       4.49783247
C        3.14758033      -3.42614156       3.60580919
H        0.82677911      -1.73309387       1.24280163
H        1.47268692      -0.79036180       3.13540437
H        0.19343109      -1.93650632       3.57971909
H        1.24144121      -1.71816586       5.80122890
H        2.75339879      -2.83873459       7.39105968
H        4.52173963      -4.34784942       6.55417231
H        4.76729405      -4.72206259       4.12767453
H        3.24290602      -3.59646106       2.54371546
75
Properties=species:S:1:pos:R:3 charge=0 unpaired=0 uhf=0 pbc="F F F"
Ru       0.05121439       0.00224992      -0.56465293
N       -0.02553115      -1.87757322      -1.01480452
C        1.11261950      -2.71968831      -1.37637156
C        2.45565770      -2.10226045      -0.98072301
P        2.26078946      -0.28129602      -1.16833544
C        2.66879979      -0.16279583      -2.99967217
C        4.12830989      -0.43257665      -3.35896691
C        2.19876324       1.14207831      -3.63381361
C        3.74372189       0.43827018      -0.28422545
C        3.62808010       1.96098181      -0.33066294
C        3.79959031      -0.02439782       1.16959292
C       -1.23099135      -2.68602256      -1.14379919
C       -2.54024674      -1.89816894      -1.00858760
P       -2.21907334      -0.24353968      -0.23123099
C       -3.03785391      -0.49000235       1.44251986
C       -2.98748636       0.78102796       2.28737181
C       -2.33190111      -1.61538533       2.18649428
C       -3.53157181       0.85399094      -1.01286456
C       -3.20729619       2.32937769      -0.76090379
C       -3.68403489       0.63366742      -2.51666467
H        1.09453639      -2.91713283      -2.46387794
H        1.01449961      -3.70151814      -0.87954062
H        2.65661849      -2.32082936       0.06889872
H        3.27036988      -2.50901444      -1.58400708
H        2.05252301      -0.97108772      -3.42383662
H        4.21870545      -0.50783060      -4.44233238
H        4.76952227       0.38068409      -3.02756517
H        4.49308406      -1.36368606      -2.92958625
H        1.13809444       1.29370712      -3.44726576
H        2.35337842       1.10928116      -4.71198538
H        2.74222474       1.99749344      -3.23969995
H        4.65437901       0.11035663      -0.79768838
H        4.41689639       2.42349171       0.26140792
H        3.70287307       2.33863898      -1.34765736
H        2.66131049       2.26248718       0.07738296
H        4.58825894       0.51287998       1.69563084
H        2.85209897       0.19199966       1.66287606
H        4.00913771      -1.08803506       1.25639650
H       -1.19987041      -3.50163190      -0.39853959
H       -1.21917786      -3.17613793      -2.13578158
H       -3.28319972      -2.46260378      -0.43934530
H       -2.94384178      -1.71648752      -2.00475680
H       -4.08393219      -0.76966050       1.25371902
H       -3.68052920       1.53387977       1.92211229
H       -1.97584998       1.18993749       2.27551034
H       -3.25526758       0.55542865       3.31933910
H       -2.44672614      -2.57893331       1.69365913
H       -2.72169447      -1.70764398       3.20034252
H       -1.27528948      -1.36660862       2.24175864
H       -4.47821904       0.60388618      -0.51513046
H       -4.10994566       2.93310304      -0.84706111
H       -2.76575572       2.49218966       0.21914822
H       -2.49543845       2.68446132      -1.50013356
H       -2.70319648       0.61458548      -2.99528875
H       -4.21561567      -0.28759661      -2.74655855
H       -4.25446598       1.45602378      -2.94601142
C       -0.07186003       1.68425550      -1.28716826
O       -0.19096565       2.65642844      -1.91886264
H        0.32866828       0.67790663       0.83311641
O        1.17256356      -2.70161300       1.64826212
C        1.06038372      -2.18466826       2.94895871
C        2.12555347      -2.68054476       3.88712822
C        1.98738816      -2.33371562       5.22654268
C        2.89862395      -2.77448353       6.16330031
C        3.96114122      -3.57239712       5.76795656
C        4.10679474      -3.91600801       4.43571397
C        3.19225800      -3.47147749       3.49334310
H        0.70543089      -2.09091934       1.04179451
H        1.08996277      -1.08227585       2.92253467
H        0.09166952      -2.48176779       3.38204014
H        1.14744676      -1.72035462       5.52256875
H        2.77501838      -2.50102074       7.20088871
H        4.66851826      -3.92851737       6.50212137
H        4.93472301      -4.53874673       4.12779778
H        3.29377539      -3.75166305       2.45499320
75
Properties=species:S:1:pos:R:3 charge=0 unpaired=0 uhf=0 pbc="F F F"
Ru       0.09208120       0.02754341      -0.36668078
N        0.02771591      -1.97950198      -0.73828300
C        1.14254798      -2.72425926      -1.30990939
C        2.47781268      -2.10034891      -0.92064030
P        2.29865463      -0.26808888      -1.09212858
C        2.69880675      -0.13684871      -2.93292801
C        4.14096297      -0.48578099      -3.30080290
C        2.33514893       1.20417173      -3.56391148
C        3.78042991       0.42776380      -0.20752630
C        3.61718821       1.94643684      -0.18173137
C        3.86331106      -0.11149425       1.21648938
C       -1.20319315      -2.70132740      -1.05514598
C       -2.51186339      -1.91702407      -0.85353954
P       -2.20797251      -0.23525860      -0.11148582
C       -3.04647495      -0.45180708       1.54226057
C       -3.00583544       0.85090249       2.33418413
C       -2.31238120      -1.53045022       2.32422563
C       -3.50821750       0.83652295      -0.95976549
C       -3.20661023       2.32516345      -0.75494896
C       -3.67012067       0.57265409      -2.45748364
H        1.05166307      -2.76592679      -2.41069841
H        1.10384455      -3.76857184      -0.95226961
H        2.68044986      -2.31133370       0.13023012
H        3.28885372      -2.50612810      -1.52915388
H        2.03400078      -0.89498443      -3.37385940
H        4.22519235      -0.52585863      -4.38651320
H        4.82866528       0.27791237      -2.94585584
H        4.45554321      -1.45013410      -2.90906916
H        1.29228573       1.44485658      -3.39397839
H        2.49665534       1.15688387      -4.64059876
H        2.94614660       2.01121762      -3.16781704
H        4.68978064       0.15040090      -0.75274372
H        4.41078143       2.40685710       0.40412130
H        3.64009256       2.36876026      -1.18397406
H        2.65625197       2.19456761       0.27315315
H        4.61017518       0.44234840       1.78236759
H        2.90418147       0.00654255       1.71515959
H        4.13841425      -1.16439755       1.24029370
H       -1.22910870      -3.63627599      -0.47075940
H       -1.15664762      -3.00365379      -2.11746043
H       -3.21033904      -2.47586575      -0.22516855
H       -2.99059760      -1.77068341      -1.82255839
H       -4.08714288      -0.75485590       1.35436518
H       -3.68831852       1.59198738       1.92705168
H       -1.98817308       1.24606181       2.31813461
H       -3.28380476       0.66800568       3.37121739
H       -2.34806871      -2.50465150       1.83702381
H       -2.73332348      -1.63471114       3.32373840
H       -1.27977065      -1.20571916       2.41413618
H       -4.45433705       0.59384770      -0.45633439
H       -4.12324443       2.90701223      -0.84314381
H       -2.75261751       2.52427811       0.21272586
H       -2.51628281       2.67598030      -1.51574758
H       -2.69771425       0.54409213      -2.94926919
H       -4.20618647      -0.35190959      -2.66081188
H       -4.24825471       1.38396526      -2.89822134
C       -0.17975644       1.43266879      -1.48902006
O       -0.36182117       2.37726264      -2.14514245
H        0.27145525       1.22426303       0.57770364
O        1.01705465      -3.05963852       1.48034618
C        0.97071628      -2.69774242       2.70858909
C        2.04361101      -2.86169205       3.64966057
C        1.85338325      -2.40178074       4.96335216
C        2.80182852      -2.63607989       5.93546333
C        3.94822956      -3.35708205       5.62733726
C        4.15849491      -3.80470934       4.33010082
C        3.22973233      -3.54500133       3.34159542
H        0.51568262      -2.38034569       0.76175911
H        0.86402278      -0.64414170       2.19556421
H        0.01179034      -2.45660259       3.16070328
H        0.95635511      -1.84705919       5.19572780
H        2.64440592      -2.27325979       6.94124764
H        4.67154340      -3.57385030       6.39981498
H        5.04862088      -4.37233136       4.09928542
H        3.38276327      -3.90733112       2.33521342
75
Properties=species:S:1:pos:R:3 charge=0 unpaired=0 uhf=0 pbc="F F F"
Ru       0.08409885       0.15170701      -0.37940280
N       -0.00801001      -1.98995723      -0.77382689
C        1.14149563      -2.68554852      -1.35011998
C        2.43072786      -2.04374772      -0.85376853
P        2.30844603      -0.20324185      -1.05030646
C        2.73829130      -0.07905628      -2.87732655
C        4.14229755      -0.54292937      -3.26082693
C        2.50797139       1.31003957      -3.46514165
C        3.80619580       0.43539981      -0.14301730
C        3.62262205       1.94819772      -0.03504278
C        3.93257657      -0.18211090       1.24660289
C       -1.25435298      -2.65530691      -1.14647913
C       -2.52680295      -1.89135679      -0.74958202
P       -2.20148444      -0.18299886      -0.04805758
C       -3.02192047      -0.39584309       1.62109367
C       -3.02123618       0.93248682       2.37099015
C       -2.29443749      -1.45321040       2.44388631
C       -3.51504612       0.84890704      -0.91743991
C       -3.19976296       2.34100072      -0.77174722
C       -3.69892992       0.52692786      -2.40231877
H        1.07091725      -2.64385510      -2.44486904
H        1.12593621      -3.74424969      -1.04732796
H        2.52232645      -2.24661153       0.21478992
H        3.29935701      -2.45904995      -1.36934774
H        2.00427075      -0.75885080      -3.33621777
H        4.22611651      -0.53320083      -4.34690436
H        4.89435997       0.13761628      -2.86919903
H        4.36743850      -1.54976499      -2.91941971
H        1.53928082       1.70333971      -3.18330254
H        2.55220950       1.25658387      -4.55237638
H        3.26866557       2.00972965      -3.13020064
H        4.70644563       0.19971526      -0.72266600
H        4.42609681       2.40004574       0.54382240
H        3.59615557       2.41355429      -1.01796821
H        2.67030116       2.15038151       0.45867368
H        4.68311847       0.35460478       1.82530936
H        2.98248076      -0.10871776       1.77150411
H        4.22768429      -1.22907654       1.20153894
H       -1.27728074      -3.66291777      -0.70268815
H       -1.23294776      -2.77385118      -2.23647956
H       -3.10652834      -2.45715444      -0.01733143
H       -3.15282260      -1.77622610      -1.63291941
H       -4.05633040      -0.72344303       1.43472492
H       -3.72122512       1.63828892       1.93057681
H       -2.01615544       1.35708649       2.34425684
H       -3.30417945       0.78048509       3.41174663
H       -2.34905789      -2.44312216       1.99092358
H       -2.72275237      -1.51496320       3.44365973
H       -1.24969256      -1.17184026       2.53933276
H       -4.45630521       0.63057112      -0.39482294
H       -4.10629807       2.92846866      -0.91102831
H       -2.76992744       2.57521782       0.19895124
H       -2.48006603       2.64875974      -1.52429011
H       -2.73862981       0.47322852      -2.91196296
H       -4.24151843      -0.40161801      -2.56545231
H       -4.27913493       1.32348164      -2.86557584
C       -0.33849387       1.11572240      -1.85206916
O       -0.61780888       1.90173673      -2.66700796
H        0.21797385       1.52638492       0.31352330
O        1.04450862      -3.60609229       1.51871246
C        0.95722092      -3.31266510       2.68959740
C        2.06244163      -3.09824362       3.61927192
C        1.83314715      -2.45226932       4.83443607
C        2.80868905      -2.45523492       5.81142113
C        4.00313351      -3.12807497       5.59614174
C        4.26775927      -3.70281362       4.36206784
C        3.31279385      -3.66488542       3.36425169
H        0.11545347      -2.07440666       0.24020972
H        0.65971281      -0.66294935       1.55726680
H       -0.03629393      -3.27597810       3.18657675
H        0.88929367      -1.95125261       4.99645151
H        2.62713750      -1.96213759       6.75452249
H        4.72492596      -3.20990067       6.39540518
H        5.20988079      -4.20116806       4.18887874
H        3.49262583      -4.12334483       2.40197540
75
Properties=species:S:1:pos:R:3 charge=0 unpaired=0 uhf=0 pbc="F F F"
Ru       0.07117011       0.18466186      -0.42057852
N       -0.03472890      -1.96768162      -0.77147649
C        1.11679025      -2.67150974      -1.32764061
C        2.40666912      -2.04633040      -0.81369748
P        2.30265401      -0.19889990      -1.02221619
C        2.75668480      -0.05375621      -2.83865898
C        4.13486384      -0.57423723      -3.24065649
C        2.59553417       1.37453788      -3.35351667
C        3.80104986       0.41538043      -0.09502082
C        3.59411148       1.91816358       0.08325496
C        3.96623995      -0.25733388       1.26498510
C       -1.27949658      -2.60101483      -1.19606522
C       -2.53458277      -1.89819813      -0.66767978
P       -2.20418410      -0.16485009      -0.02685137
C       -3.01216445      -0.34149447       1.65490332
C       -3.03895431       1.00755345       2.36641048
C       -2.26659492      -1.35594008       2.51467801
C       -3.52252848       0.84696076      -0.90554437
C       -3.16875545       2.33344508      -0.81141365
C       -3.73497932       0.47708611      -2.37469061
H        1.06598079      -2.61324771      -2.42392014
H        1.08525309      -3.73932579      -1.04767787
H        2.48800806      -2.23757254       0.25873809
H        3.27838224      -2.47118870      -1.31687013
H        1.98842383      -0.67340525      -3.32591310
H        4.23016533      -0.50658784      -4.32373131
H        4.92262594       0.03585142      -2.80529950
H        4.29649787      -1.61078372      -2.95672734
H        1.68265779       1.82597428      -2.97595053
H        2.55749128       1.37270776      -4.44219373
H        3.43367896       1.99439471      -3.04602506
H        4.69609396       0.22297279      -0.69888149
H        4.40561934       2.36006596       0.65871494
H        3.52906693       2.42434653      -0.87753291
H        2.65274021       2.07865647       0.61107641
H        4.72024169       0.27018984       1.84766331
H        3.02787042      -0.21876994       1.81333103
H        4.28018316      -1.29582043       1.17263118
H       -1.28929220      -3.65228252      -0.86263522
H       -1.28568484      -2.59937554      -2.29351981
H       -2.97928156      -2.47562571       0.14438026
H       -3.27336708      -1.84286426      -1.46557704
H       -4.04040365      -0.69465943       1.47851440
H       -3.74921853       1.68955607       1.90518669
H       -2.04115171       1.44763457       2.33355482
H       -3.32389187       0.87844028       3.40995325
H       -2.30444524      -2.36446579       2.10538879
H       -2.69281014      -1.38650481       3.51691268
H       -1.22396027      -1.06176522       2.59436891
H       -4.45922593       0.66509804      -0.36141180
H       -4.05105018       2.94161214      -1.00660533
H       -2.76794038       2.59329284       0.16527732
H       -2.40883390       2.58518048      -1.54626351
H       -2.78607914       0.40402728      -2.90079030
H       -4.27855633      -0.45696038      -2.49672840
H       -4.32275235       1.25865070      -2.85347921
C       -0.36400912       0.95546557      -1.99746966
O       -0.64833389       1.60376820      -2.92215709
H        0.18318706       1.61989062       0.14660938
O        0.28539305      -3.08651069       1.83341313
C        0.99975640      -3.65839298       2.60965903
C        2.07198519      -3.18219067       3.50351787
C        1.80333301      -2.39840868       4.62068852
C        2.74815629      -2.30439188       5.63120997
C        3.96986245      -2.94563538       5.51220217
C        4.28728585      -3.61723036       4.34099755
C        3.33792110      -3.74850054       3.34800353
H        0.03255645      -2.04504240       0.24940789
H        0.66961627      -0.40434314       1.52134265
H        0.86921505      -4.75584954       2.73196503
H        0.84424255      -1.91059127       4.71567963
H        2.51528866      -1.75269288       6.53036875
H        4.67257858      -2.93315016       6.33204458
H        5.25646721      -4.07795976       4.21925527
H        3.56281335      -4.29779194       2.44404090
75
Properties=species:S:1:pos:R:3 charge=0 unpaired=0 uhf=0 pbc="F F F"
Ru       0.06227540       0.13552432      -0.41904527
N       -0.06878642      -2.00771461      -0.72130485
C        1.07699239      -2.67765249      -1.33029786
C        2.37635639      -2.08424243      -0.79940486
P        2.29573561      -0.23247704      -0.97865885
C        2.78124861      -0.02265094      -2.77744386
C        4.13065942      -0.60147339      -3.19632551
C        2.70213444       1.44741481      -3.18554222
C        3.77450324       0.36861283      -0.00991766
C        3.52405616       1.84686894       0.28230684
C        3.98067529      -0.39348059       1.29618576
C       -1.32917462      -2.54932737      -1.22173684
C       -2.53873748      -1.92784230      -0.52415829
P       -2.20969566      -0.16567465       0.02560854
C       -3.00346769      -0.25961521       1.71890252
C       -3.06793829       1.12630379       2.35397391
C       -2.23218867      -1.19646673       2.64016813
C       -3.51964168       0.82526118      -0.88581370
C       -3.11939544       2.30174419      -0.87801278
C       -3.76429822       0.38141956      -2.32807860
H        1.01314315      -2.54421860      -2.41927235
H        1.04638392      -3.76097303      -1.12163254
H        2.44747277      -2.29223339       0.27091037
H        3.24404460      -2.51596992      -1.30322129
H        1.98570542      -0.56310562      -3.31238091
H        4.26697506      -0.43431610      -4.26401421
H        4.94960956      -0.10545039      -2.68104782
H        4.20085083      -1.67105903      -3.01622239
H        1.82029515       1.92057575      -2.75490026
H        2.64627432       1.53117942      -4.27000619
H        3.58395320       1.98751943      -2.84940473
H        4.66919351       0.25511924      -0.63434718
H        4.34074288       2.27141282       0.86396195
H        3.41177621       2.41905127      -0.63604550
H        2.59633582       1.93763294       0.84842025
H        4.72732230       0.11576221       1.90396296
H        3.05106902      -0.42010958       1.85997537
H        4.32351655      -1.41274089       1.12611078
H       -1.35154796      -3.64162316      -1.06961830
H       -1.37005789      -2.35746965      -2.30143565
H       -2.78469176      -2.50860787       0.36625591
H       -3.40204029      -1.96003145      -1.18859962
H       -4.02096617      -0.65164457       1.56333612
H       -3.79317191       1.76573991       1.85665947
H       -2.08153496       1.58962202       2.30357293
H       -3.35419666       1.04299819       3.40182932
H       -2.22254388      -2.22606703       2.28927393
H       -2.67071554      -1.18959410       3.63723600
H       -1.20149377      -0.86186762       2.71427760
H       -4.45214145       0.69931950      -0.31922775
H       -3.96896419       2.92359089      -1.15736322
H       -2.75807390       2.61663631       0.09771671
H       -2.31366484       2.47219265      -1.58871068
H       -2.82840258       0.29940701      -2.87461493
H       -4.29253466      -0.56698702      -2.38964826
H       -4.37795082       1.12945145      -2.82807789
C       -0.34383022       0.73711695      -2.07497846
O       -0.57870316       1.20911440      -3.11148150
H        0.17281243       1.60566552       0.06829769
O        0.03269572      -3.28082913       2.04746555
C        1.11069533      -3.74324743       2.33838968
C        2.07346850      -3.27966055       3.33173079
C        1.73305226      -2.39813905       4.35946883
C        2.64812825      -2.13002151       5.36170930
C        3.91225957      -2.70054620       5.32707551
C        4.28550499      -3.50961416       4.26341764
C        3.36782041      -3.80595628       3.27774179
H       -0.03596073      -2.17298390       0.29125905
H        0.69398787      -0.49245253       1.52591133
H        1.45248129      -4.67148398       1.82889830
H        0.74722536      -1.95755930       4.37059080
H        2.37428928      -1.48607583       6.18457282
H        4.60969413      -2.52061525       6.13202016
H        5.28093061      -3.92593115       4.21701870
H        3.64131365      -4.45002324       2.45304155
75
Properties=species:S:1:pos:R:3 charge=0 unpaired=0 uhf=0 pbc="F F F"
Ru       0.05768708       0.10593143      -0.37543027
N       -0.09592947      -2.06778780      -0.68520284
C        1.03841875      -2.67921595      -1.37482726
C        2.34544899      -2.12731277      -0.81237059
P        2.25656386      -0.26369054      -0.90629640
C        2.81628193       0.00742354      -2.68391893
C        4.13827246      -0.62442440      -3.11596253
C        2.82147867       1.50300823      -2.99613925
C        3.73367204       0.30975309       0.09309312
C        3.45482301       1.75565545       0.50059493
C        3.97356367      -0.54302570       1.33567969
C       -1.38230747      -2.50023944      -1.22848054
C       -2.52364790      -1.94344517      -0.38248241
P       -2.18276036      -0.15752881       0.08376760
C       -2.97473441      -0.18290827       1.78638378
C       -3.10646063       1.23359667       2.34046258
C       -2.14692359      -1.01542146       2.75998580
C       -3.51634191       0.78905131      -0.85369866
C       -3.09811530       2.25775265      -0.93517225
C       -3.78719507       0.27162801      -2.26587489
H        0.95976229      -2.44788389      -2.44601753
H        1.01152559      -3.77716567      -1.26603227
H        2.41411052      -2.39465978       0.24536389
H        3.20857262      -2.54179896      -1.33629588
H        2.00850348      -0.45293889      -3.27304126
H        4.33705409      -0.34766119      -4.15107894
H        4.97042547      -0.26576031      -2.51483722
H        4.11356812      -1.71023526      -3.06502274
H        1.94218452       1.98415812      -2.56450660
H        2.80901002       1.66564365      -4.07367617
H        3.71290991       1.97796832      -2.59159056
H        4.62515328       0.27402130      -0.54382033
H        4.27433345       2.15409808       1.09722714
H        3.31537853       2.39276015      -0.37008686
H        2.53442871       1.78895347       1.08398313
H        4.71491457      -0.06130549       1.97201933
H        3.05063195      -0.63931133       1.90644184
H        4.34442096      -1.53431006       1.08184014
H       -1.43920701      -3.60231414      -1.23984593
H       -1.46125481      -2.14726103      -2.26486819
H       -2.58931974      -2.51982891       0.54308085
H       -3.47439178      -2.04359877      -0.90717932
H       -3.97039656      -0.63566893       1.66658185
H       -3.86214891       1.80889217       1.81116518
H       -2.14504426       1.74251906       2.25747973
H       -3.38737550       1.19855885       3.39261201
H       -2.02951908      -2.04930474       2.44172014
H       -2.61908028      -1.01858887       3.74195803
H       -1.15516202      -0.57506914       2.84833778
H       -4.44157808       0.70419437      -0.26762673
H       -3.92560164       2.87215863      -1.28942973
H       -2.76529418       2.63591861       0.02847249
H       -2.26482683       2.36598153      -1.62772751
H       -2.86384411       0.19198851      -2.83443850
H       -4.28512823      -0.69542333      -2.26990714
H       -4.43528688       0.97632352      -2.78665632
C       -0.32271645       0.56400634      -2.10619512
O       -0.50328956       0.89555549      -3.20790001
H        0.16249328       1.61685542       0.01339275
O        0.07659060      -3.48489619       1.87703593
C        1.18863674      -3.90268128       2.14898791
C        2.10164853      -3.37320956       3.14711839
C        1.69308437      -2.39870998       4.06476171
C        2.57228030      -1.94852998       5.02953069
C        3.86875438      -2.44229112       5.07655889
C        4.29306434      -3.38427270       4.14928428
C        3.41483052      -3.85458538       3.19548498
H       -0.07317442      -2.38586541       0.29355680
H        0.46510536      -0.21381831       1.12763010
H        1.59141094      -4.77771168       1.59716864
H        0.68248864      -2.02171302       4.00969284
H        2.25066591      -1.21252924       5.75148615
H        4.55113922      -2.09535054       5.83836860
H        5.30707439      -3.75504401       4.17878632
H        3.73483975      -4.59362732       2.47380377
75
Properties=species:S:1:pos:R:3 charge=0 unpaired=0 uhf=0 pbc="F F F"
Ru       0.04386599       0.09765019      -0.38911051
N       -0.12384372      -2.07504842      -0.67768252
C        0.99545545      -2.65757187      -1.41396570
C        2.30659785      -2.15089398      -0.81661848
P        2.24679028      -0.28436848      -0.86545288
C        2.86787057       0.03739385      -2.60907953
C        4.16292069      -0.65302185      -3.03090280
C        2.96129027       1.54802005      -2.81495837
C        3.69532724       0.26575365       0.19056060
C        3.35594194       1.65429599       0.73010568
C        3.98160322      -0.68261448       1.35012665
C       -1.43280802      -2.46866539      -1.19675506
C       -2.51286831      -1.94739325      -0.25448049
P       -2.18237745      -0.14235926       0.12861036
C       -2.93797670      -0.09774669       1.84831985
C       -3.12759948       1.33914162       2.32942162
C       -2.05610797      -0.84003665       2.84902789
C       -3.52949003       0.75688668      -0.83003917
C       -3.09659917       2.21341232      -0.99520863
C       -3.82010408       0.16543102      -2.20833450
H        0.91668627      -2.35819862      -2.46818657
H        0.95631655      -3.75970942      -1.37164054
H        2.34943045      -2.44909702       0.23428260
H        3.17075938      -2.56887618      -1.33505527
H        2.05720231      -0.33732972      -3.25006382
H        4.45463834      -0.28548770      -4.01432544
H        4.97775578      -0.44125784      -2.34230437
H        4.04166115      -1.73130978      -3.10616499
H        2.07990484       2.03500604      -2.39092588
H        3.01179150       1.78810144      -3.87646083
H        3.85010063       1.94882478      -2.33162949
H        4.58446801       0.33307939      -0.44737462
H        4.16463773       2.03274578       1.35413952
H        3.17712876       2.35982301      -0.07858220
H        2.44257348       1.59481896       1.32153064
H        4.71940854      -0.23612629       2.01579068
H        3.07200360      -0.85132579       1.92390178
H        4.37387774      -1.63830812       1.00728734
H       -1.50280159      -3.56672142      -1.27667461
H       -1.55830603      -2.04679045      -2.20219385
H       -2.44936074      -2.50604116       0.68311024
H       -3.51021921      -2.09790074      -0.66948684
H       -3.91370249      -0.60102182       1.77312272
H       -3.90524513       1.85498779       1.77154304
H       -2.18844588       1.88291042       2.22040189
H       -3.40943846       1.34564039       3.38214650
H       -1.87225855      -1.87438515       2.55916322
H       -2.52664284      -0.84268080       3.83231358
H       -1.09665459      -0.32968490       2.92231395
H       -4.44667080       0.70826795      -0.22776071
H       -3.90478261       2.80969309      -1.41682930
H       -2.79196773       2.65238473      -0.04866808
H       -2.23812324       2.26592551      -1.66409476
H       -2.90849799       0.08806934      -2.79664003
H       -4.28537288      -0.81644097      -2.15292000
H       -4.50302440       0.82466599      -2.74468808
C       -0.31445567       0.43842079      -2.15251774
O       -0.47855517       0.61077931      -3.29341726
H        0.15464141       1.62300457      -0.05663437
O        0.11944562      -3.74941776       1.69231160
C        1.25044721      -4.09456682       1.99494888
C        2.11711913      -3.44619438       2.96353457
C        1.64714021      -2.38737300       3.75076000
C        2.48895063      -1.77015807       4.65435020
C        3.80647225      -2.19068513       4.77732790
C        4.28415801      -3.23493147       3.99569554
C        3.44667099      -3.86467094       3.09753486
H       -0.07797317      -2.44599708       0.28152854
H        0.43464818      -0.19029277       1.11703563
H        1.71033030      -4.96883732       1.49013985
H        0.62239871      -2.06728461       3.63330383
H        2.12287191      -0.95529810       5.26163122
H        4.46366165      -1.70275787       5.48259832
H        5.31199516      -3.55495844       4.08957849
H        3.81246357      -4.67886535       2.48559059
