49
Properties=species:S:1:pos:R:3:forces:R:3 energy:=T -80.974008057311=T gnorm:=T 0.000142566581=T xtb:=T 6.7.1=T (edcfbbe)=T energy=-2203.4149911742434 pbc="F F F"
Co      -0.23510254      -0.38108928       0.45238190       0.00069352       0.00219747       0.00051566
C        1.71473445      -2.15210559       2.05580811      -0.00014268      -0.00045536       0.00050233
P        1.67857639      -0.39185723       1.48844677      -0.00034365      -0.00040109      -0.00018806
C        2.93219204      -0.40607983       0.17827983       0.00004917       0.00026100       0.00029801
C        4.28814411      -0.55293193       0.45611221      -0.00018035       0.00060116       0.00024193
C        5.19522634      -0.60902759      -0.58654879       0.00005765       0.00022273      -0.00010502
C        4.75569644      -0.51979178      -1.89924303       0.00000278      -0.00038958       0.00000637
C        3.40594520      -0.36790552      -2.17772311      -0.00011456      -0.00079933      -0.00000748
C        2.49433905      -0.30868451      -1.13944911       0.00016531       0.00005727       0.00000333
C        2.39895909       0.62317058       2.79944094       0.00075333      -0.00068186      -0.00005273
C        2.89489665       1.87447868       2.43173303      -0.00234156       0.00136654      -0.00031397
C        3.42875441       2.71457305       3.38976261      -0.00069014       0.00011391      -0.00015622
C        3.46195762       2.31725113       4.71854267       0.00177118      -0.00088527      -0.00009626
C        2.95679018       1.08112262       5.08822825      -0.00097591       0.00045569      -0.00020196
C        2.41807245       0.23356884       4.13540005       0.00159251      -0.00041602       0.00013441
C        1.05718799      -2.87983957       0.92872459      -0.00012231       0.00052675      -0.00003425
C        1.42429935      -4.15827179       0.53246714       0.00031874      -0.00015423      -0.00044936
C        0.77851657      -4.74204264      -0.54656569      -0.00009216      -0.00005116       0.00046468
C       -0.23090061      -4.04458456      -1.18956465      -0.00062392       0.00017032       0.00001407
C       -0.56366576      -2.77283590      -0.73647290      -0.00022640       0.00016531       0.00019866
C       -1.66552662      -1.95788357      -1.24677594       0.00033112       0.00083071       0.00071128
C       -2.48879305      -2.30784675      -2.30203998      -0.00012284       0.00030161      -0.00080258
C       -3.57111784      -1.48821483      -2.61140878      -0.00031535      -0.00096202       0.00045686
C       -3.82469087      -0.38500859      -1.82983892       0.00012537       0.00042192       0.00117406
C       -2.95229446      -0.08768000      -0.77194247      -0.00035601       0.00075812      -0.00062439
O       -3.23756371       0.94247359       0.00771521       0.00054305      -0.00013775      -0.00006318
N       -1.86897315      -0.82596361      -0.52594762      -0.00168875      -0.00074491      -0.00087007
N        0.09102770      -2.20520138       0.29461106       0.00040624      -0.00234616       0.00022770
H        1.09979686      -2.24055566       2.95804899      -0.00014450      -0.00003738       0.00007500
H        2.72373771      -2.51616669       2.26715295      -0.00011318      -0.00027570       0.00016741
H        4.62624923      -0.61265798       1.48184600       0.00020306      -0.00053367      -0.00005814
H        6.24852678      -0.72104651      -0.37688129       0.00003081       0.00015463       0.00003075
H        5.46938814      -0.56344237      -2.70821453       0.00008256       0.00078559       0.00009762
H        3.06950355      -0.29096500      -3.20089708      -0.00008595       0.00046855       0.00013566
H        1.42807070      -0.17325327      -1.33786075      -0.00002273      -0.00029479       0.00010646
H        2.86367950       2.17667154       1.39274185       0.00107927      -0.00082895       0.00014904
H        3.81795220       3.68006890       3.10329973       0.00012657       0.00009166      -0.00005132
H        3.87942995       2.97411364       5.46677643      -0.00059628       0.00026981      -0.00027894
H        2.98002289       0.77637056       6.12396807       0.00041505       0.00009940      -0.00008902
H        2.02089659      -0.72453725       4.43666215      -0.00046922      -0.00008731       0.00018961
H        2.20428987      -4.68269583       1.06142806       0.00014769       0.00002596      -0.00030425
H        1.05569404      -5.73043383      -0.87872780      -0.00011845       0.00005451      -0.00034187
H       -0.74864497      -4.48380258      -2.02577070      -0.00014903      -0.00021710       0.00022349
H       -2.29940376      -3.19538442      -2.88165505       0.00044758       0.00037804      -0.00014541
H       -4.21897273      -1.73192553      -3.43873362       0.00027225       0.00057524      -0.00021978
H       -4.67261460       0.25960763      -1.99127398      -0.00032581      -0.00040069      -0.00017590
H       -2.62326468       0.99461050       0.76134197      -0.00000548       0.00033026      -0.00018488
C       -0.31242200       1.35900619       0.52284805       0.00058708      -0.00218955       0.00024198
O       -0.16141834       2.49186090       0.57730624       0.00016533       0.00160575      -0.00055133
