49
Properties=species:S:1:pos:R:3 energy:=T -80.974008057311=T gnorm:=T 0.000142566581=T xtb:=T 6.7.1=T (edcfbbe)=T pbc="F F F"
Co      -0.23510254      -0.38108928       0.45238190
C        1.71473445      -2.15210559       2.05580811
P        1.67857639      -0.39185723       1.48844677
C        2.93219204      -0.40607983       0.17827983
C        4.28814411      -0.55293193       0.45611221
C        5.19522634      -0.60902759      -0.58654879
C        4.75569644      -0.51979178      -1.89924303
C        3.40594520      -0.36790552      -2.17772311
C        2.49433905      -0.30868451      -1.13944911
C        2.39895909       0.62317058       2.79944094
C        2.89489665       1.87447868       2.43173303
C        3.42875441       2.71457305       3.38976261
C        3.46195762       2.31725113       4.71854267
C        2.95679018       1.08112262       5.08822825
C        2.41807245       0.23356884       4.13540005
C        1.05718799      -2.87983957       0.92872459
C        1.42429935      -4.15827179       0.53246714
C        0.77851657      -4.74204264      -0.54656569
C       -0.23090061      -4.04458456      -1.18956465
C       -0.56366576      -2.77283590      -0.73647290
C       -1.66552662      -1.95788357      -1.24677594
C       -2.48879305      -2.30784675      -2.30203998
C       -3.57111784      -1.48821483      -2.61140878
C       -3.82469087      -0.38500859      -1.82983892
C       -2.95229446      -0.08768000      -0.77194247
O       -3.23756371       0.94247359       0.00771521
N       -1.86897315      -0.82596361      -0.52594762
N        0.09102770      -2.20520138       0.29461106
H        1.09979686      -2.24055566       2.95804899
H        2.72373771      -2.51616669       2.26715295
H        4.62624923      -0.61265798       1.48184600
H        6.24852678      -0.72104651      -0.37688129
H        5.46938814      -0.56344237      -2.70821453
H        3.06950355      -0.29096500      -3.20089708
H        1.42807070      -0.17325327      -1.33786075
H        2.86367950       2.17667154       1.39274185
H        3.81795220       3.68006890       3.10329973
H        3.87942995       2.97411364       5.46677643
H        2.98002289       0.77637056       6.12396807
H        2.02089659      -0.72453725       4.43666215
H        2.20428987      -4.68269583       1.06142806
H        1.05569404      -5.73043383      -0.87872780
H       -0.74864497      -4.48380258      -2.02577070
H       -2.29940376      -3.19538442      -2.88165505
H       -4.21897273      -1.73192553      -3.43873362
H       -4.67261460       0.25960763      -1.99127398
H       -2.62326468       0.99461050       0.76134197
C       -0.31242200       1.35900619       0.52284805
O       -0.16141834       2.49186090       0.57730624
