48
Properties=species:S:1:pos:R:3:forces:R:3 energy:=T -70.313638556790=T gnorm:=T 0.000242343665=T xtb:=T 6.7.1=T (edcfbbe)=T energy=-1913.3315615449308 pbc="F F F"
Ru       0.12202891      -0.26396853      -1.17795945       0.00338919      -0.00240026      -0.00337605
C        2.35691345      -2.50764860      -1.20654060      -0.00179430       0.00117970      -0.00100682
P        2.35470689      -0.65897828      -1.27724333       0.00257574       0.00118324      -0.00060909
C        2.74213283      -0.06833325       0.44862725      -0.00072569      -0.00066889      -0.00027527
C        1.37443037       0.14346632       1.13915203      -0.00123380       0.00028248      -0.00146004
C        3.64763308      -0.95770969       1.29777365       0.00206911      -0.00013276      -0.00046414
C        3.71073720      -0.20762367      -2.44770089       0.00009856       0.00078424       0.00094348
C        5.10963499      -0.55664718      -1.94850285      -0.00136037       0.00134502      -0.00020583
C        3.56679563       1.27689652      -2.77905244      -0.00076187       0.00033757      -0.00140943
C        1.15967771      -2.94782903      -0.42261054      -0.00057667      -0.00039215      -0.00032158
C        1.14898514      -4.14311756       0.28089351      -0.00040329      -0.00005548      -0.00005698
C        0.01585894      -4.49688519       0.99718054       0.00004023       0.00112223      -0.00026352
C       -1.07760439      -3.64913417       0.99224213       0.00035193       0.00003217      -0.00034791
C       -1.01786615      -2.46238081       0.26512161       0.00022754      -0.00055981      -0.00089650
C       -2.12748329      -1.50826859       0.17157121       0.00092060      -0.00012350      -0.00041129
C       -3.38007911      -1.75403063       0.71050069      -0.00109768       0.00162950       0.00006689
C       -4.39612894      -0.82015738       0.53415222       0.00126097      -0.00174888      -0.00032388
C       -4.14060197       0.32290311      -0.18390762      -0.00150110       0.00213508       0.00025545
C       -2.85514303       0.52216101      -0.71161829       0.00113912       0.00087245      -0.00032070
O       -2.63366506       1.61557541      -1.40892688       0.00047133      -0.00059798       0.00001749
N       -1.87127685      -0.36368170      -0.51738525       0.00121393       0.00242320      -0.00056705
N        0.09557194      -2.13055194      -0.42040541      -0.00118904      -0.00080727       0.00290206
H        3.28125960      -2.93144895      -0.80501025       0.00023936       0.00030405       0.00040769
H        2.24870639      -2.83988303      -2.24954717       0.00048417      -0.00016683       0.00103370
H        3.21612400       0.91440406       0.30983728       0.00037957       0.00105304      -0.00124033
H        1.46280967       0.89893203       1.92297140      -0.00021564       0.00117038       0.00154161
H        0.58359026       0.54728060       0.41844418       0.00050784       0.00055410      -0.00049786
H        1.03273733      -0.77865676       1.62228611      -0.00050680      -0.00209677       0.00078348
H        4.60600565      -1.12766347       0.81425736      -0.00065597       0.00023096       0.00139000
H        3.83502978      -0.47400801       2.25555201      -0.00017779      -0.00005628       0.00119464
H        3.17968965      -1.92147827       1.49510817      -0.00001201      -0.00102081      -0.00028399
H        3.48017997      -0.79462663      -3.35051809      -0.00033701      -0.00085090      -0.00082666
H        5.19158250      -1.60725436      -1.67734447       0.00050041      -0.00242865      -0.00009806
H        5.82982147      -0.35914416      -2.74036546       0.00020383       0.00060431      -0.00163777
H        5.38052885       0.05901760      -1.09358065       0.00021031       0.00012849       0.00189148
H        2.54327703       1.49685133      -3.08666262       0.00026053       0.00042310       0.00067383
H        3.81050188       1.89529298      -1.91684579      -0.00023156      -0.00011170       0.00016903
H        4.24040531       1.54680937      -3.58925969      -0.00075268      -0.00002032       0.00011472
H        2.01699181      -4.78328821       0.26456039      -0.00007181       0.00016050       0.00016903
H       -0.01274433      -5.41991106       1.55456097      -0.00016191      -0.00143964       0.00043159
H       -1.95905938      -3.90627539       1.55424280       0.00014844      -0.00029991      -0.00001838
H       -3.57965486      -2.66101213       1.25443692      -0.00091555      -0.00127090       0.00054742
H       -5.37519690      -0.99956250       0.94948350      -0.00154528      -0.00027582       0.00070492
H       -4.88708419       1.07741293      -0.36816321       0.00128133      -0.00125350      -0.00035802
H       -1.70783736       1.66630432      -1.73162311       0.00064830       0.00019723       0.00000700
C       -0.28272228      -0.74601758      -2.90599389      -0.00067688      -0.00091532       0.00083015
O       -0.51514913      -1.03306497      -3.98989284      -0.00002608       0.00096993      -0.00003127
H        0.15915133       1.22392606      -1.59888420      -0.00169154       0.00057135       0.00123276
