48
Properties=species:S:1:pos:R:3 energy:=T -70.313638556790=T gnorm:=T 0.000242343665=T xtb:=T 6.7.1=T (edcfbbe)=T pbc="F F F"
Ru       0.12202891      -0.26396853      -1.17795945
C        2.35691345      -2.50764860      -1.20654060
P        2.35470689      -0.65897828      -1.27724333
C        2.74213283      -0.06833325       0.44862725
C        1.37443037       0.14346632       1.13915203
C        3.64763308      -0.95770969       1.29777365
C        3.71073720      -0.20762367      -2.44770089
C        5.10963499      -0.55664718      -1.94850285
C        3.56679563       1.27689652      -2.77905244
C        1.15967771      -2.94782903      -0.42261054
C        1.14898514      -4.14311756       0.28089351
C        0.01585894      -4.49688519       0.99718054
C       -1.07760439      -3.64913417       0.99224213
C       -1.01786615      -2.46238081       0.26512161
C       -2.12748329      -1.50826859       0.17157121
C       -3.38007911      -1.75403063       0.71050069
C       -4.39612894      -0.82015738       0.53415222
C       -4.14060197       0.32290311      -0.18390762
C       -2.85514303       0.52216101      -0.71161829
O       -2.63366506       1.61557541      -1.40892688
N       -1.87127685      -0.36368170      -0.51738525
N        0.09557194      -2.13055194      -0.42040541
H        3.28125960      -2.93144895      -0.80501025
H        2.24870639      -2.83988303      -2.24954717
H        3.21612400       0.91440406       0.30983728
H        1.46280967       0.89893203       1.92297140
H        0.58359026       0.54728060       0.41844418
H        1.03273733      -0.77865676       1.62228611
H        4.60600565      -1.12766347       0.81425736
H        3.83502978      -0.47400801       2.25555201
H        3.17968965      -1.92147827       1.49510817
H        3.48017997      -0.79462663      -3.35051809
H        5.19158250      -1.60725436      -1.67734447
H        5.82982147      -0.35914416      -2.74036546
H        5.38052885       0.05901760      -1.09358065
H        2.54327703       1.49685133      -3.08666262
H        3.81050188       1.89529298      -1.91684579
H        4.24040531       1.54680937      -3.58925969
H        2.01699181      -4.78328821       0.26456039
H       -0.01274433      -5.41991106       1.55456097
H       -1.95905938      -3.90627539       1.55424280
H       -3.57965486      -2.66101213       1.25443692
H       -5.37519690      -0.99956250       0.94948350
H       -4.88708419       1.07741293      -0.36816321
H       -1.70783736       1.66630432      -1.73162311
C       -0.28272228      -0.74601758      -2.90599389
O       -0.51514913      -1.03306497      -3.98989284
H        0.15915133       1.22392606      -1.59888420
