48
Properties=species:S:1:pos:R:3 energy:=T -71.032400395678=T gnorm:=T 0.000454425226=T xtb:=T 6.7.1=T (edcfbbe)=T pbc="F F F"
Co       0.03514082      -0.24279568       0.33270536
C        2.39140805      -2.05104446       0.57645448
P        2.21390611      -0.41208826      -0.27345204
C        2.80496850      -0.70780928      -2.02890380
C        1.75359754      -1.55727997      -2.74445721
C        4.19596041      -1.30661876      -2.21245273
C        3.50864967       0.63038977       0.58104269
C        3.77880886       1.88679603      -0.24478241
C        4.80418188      -0.05819587       1.00544884
C        1.14669456      -2.80811856       0.24606253
C        1.13810009      -4.17699638       0.08185010
C       -0.04554483      -4.81734368      -0.28731608
C       -1.16139951      -4.04654403      -0.51790765
C       -1.09470131      -2.66117503      -0.34083193
C       -2.17458941      -1.75197480      -0.64980758
C       -3.49515411      -2.13593523      -0.88433248
C       -4.42718489      -1.17507761      -1.22043185
C       -4.02413895       0.14807931      -1.32133707
C       -2.69873474       0.46462131      -1.04413251
O       -2.31240729       1.74359472      -1.15464947
N       -1.78599189      -0.45163998      -0.70737654
N        0.04362457      -2.05319249       0.07706349
H        3.29651284      -2.60795549       0.32649453
H        2.39327958      -1.80974188       1.64669146
H        2.78737159       0.29533234      -2.47829066
H        0.75174483      -1.16437330      -2.56317248
H        1.78699698      -2.59023447      -2.39914072
H        1.92954604      -1.55248926      -3.81938228
H        4.30653867      -2.23891108      -1.66312215
H        4.35281470      -1.52298786      -3.26912600
H        4.97335171      -0.61587436      -1.89865491
H        2.97638650       0.93547412       1.49542454
H        4.32807412       2.61652246       0.34807836
H        4.36687857       1.65678536      -1.13097794
H        2.83935174       2.34340552      -0.55758570
H        5.37809758      -0.41171438       0.15470494
H        5.41856553       0.65905653       1.54893986
H        4.61003885      -0.89736190       1.66863092
H        2.04482625      -4.74240894       0.23425725
H       -0.07311054      -5.88846924      -0.41324397
H       -2.07994988      -4.49951938      -0.85333198
H       -3.78581772      -3.16884694      -0.78746380
H       -5.45519992      -1.44479982      -1.40698469
H       -4.69927748       0.93795985      -1.60438963
H       -1.37315747       1.80980973      -0.90743771
C        0.11175801       1.44130727       0.67816196
O        0.26939692       2.55243242       0.98085461
H       -0.21480958      -0.43869077       1.79509929
