58
Properties=species:S:1:pos:R:3:forces:R:3 energy:=T -86.371749347598=T gnorm:=T 0.000339847341=T xtb:=T 6.7.1=T (edcfbbe)=T energy=-2350.295013063201 pbc="F F F"
Mn      -0.10104875      -0.05369823      -0.49516061      -0.00123932       0.00175122      -0.00012701
C        2.23034755      -2.11162712      -0.32544757       0.00019871       0.00157870       0.00017008
P        2.07537602      -0.33118277      -0.86622309      -0.00129596       0.00110143       0.00052235
C        2.79664449      -0.37661387      -2.53297406      -0.00081905      -0.00209272       0.00030018
C        2.46669307      -1.41933203      -3.39708568      -0.00195156      -0.00086448       0.00162633
C        2.96079135      -1.42646054      -4.68795805       0.00270063       0.00319852      -0.00340968
C        3.77205955      -0.39091042      -5.12717575      -0.00721793      -0.00359412       0.00088016
C        4.08342131       0.65787205      -4.27654761       0.00199479       0.00222447       0.00161660
C        3.59232722       0.67309423      -2.98313678       0.00589206       0.00160296       0.00002496
C        3.34429474       0.52693005       0.09969096       0.00002385      -0.00102568      -0.00053470
C        3.00552761       1.75519515       0.65822122       0.00005423      -0.00009726      -0.00005398
C        3.94134045       2.46451847       1.38913808       0.00063575       0.00107313      -0.00124722
C        5.21533605       1.94572659       1.55997891      -0.00023809       0.00095808      -0.00124208
C        5.55759430       0.72564661       0.99485984      -0.00014346      -0.00039420       0.00073439
C        4.62826336       0.01343582       0.25896892      -0.00039180      -0.00038251       0.00056714
C        0.91934669      -2.80326325      -0.55927195       0.00061061      -0.00104880      -0.00030968
C        0.80198616      -4.17918245      -0.69056214       0.00051458       0.00033839       0.00035532
C       -0.45194434      -4.74048607      -0.87560460      -0.00116067       0.00007966      -0.00045178
C       -1.56286097      -3.91029511      -0.93496887       0.00025781      -0.00076582       0.00033256
C       -1.38458181      -2.54376423      -0.81855848      -0.00011951       0.00084729       0.00024656
C       -2.49757557      -1.53379246      -0.93791623      -0.00053792       0.00011622      -0.00047785
N       -2.16289329      -0.35522704      -0.11328494       0.00223992       0.00089023      -0.00090407
C       -2.52787133      -0.62044720       1.30135106      -0.00040135      -0.00056508       0.00112769
C       -4.01774411      -0.74774505       1.62001973       0.00086897       0.00010691      -0.00047333
C       -2.72335561       0.92422681      -0.59117153      -0.00024974      -0.00042344       0.00031467
C       -1.79475275       2.06888050      -0.16456594       0.00101231      -0.00022794       0.00032471
N       -0.16304069      -2.00958513      -0.63072937      -0.00055541       0.00171257      -0.00039831
H        3.05608787      -2.62514859      -0.82718709       0.00065516      -0.00015596      -0.00033867
H        2.44037773      -2.08362091       0.75262407       0.00019057      -0.00044787       0.00001371
H        1.81988084      -2.21984711      -3.05897447       0.00113220       0.00043211      -0.00143004
H        2.71022344      -2.23747147      -5.35610433       0.00106346       0.00212498       0.00107238
H        4.15525811      -0.39831251      -6.13670462       0.00231086      -0.00131003      -0.00069367
H        4.70723604       1.46860656      -4.62344352      -0.00142053      -0.00251150       0.00167818
H        3.82829239       1.49343656      -2.31854744      -0.00385316      -0.00200924      -0.00094812
H        1.99933946       2.14155847       0.50834472       0.00038417       0.00005733      -0.00019184
H        3.68186064       3.41803181       1.82500951      -0.00024536      -0.00093859       0.00009274
H        5.94697564       2.49551448       2.13324736       0.00010388      -0.00004837       0.00035486
H        6.55412830       0.33115063       1.12816405      -0.00048909       0.00042354      -0.00024017
H        4.89508000      -0.93138002      -0.19345351       0.00011486       0.00059271       0.00000547
H        1.68356274      -4.79916618      -0.64268543       0.00019974       0.00026035       0.00068792
H       -0.56268721      -5.80897426      -0.97289985      -0.00020218      -0.00064351       0.00061960
H       -2.55141307      -4.31678475      -1.07945548      -0.00055718       0.00004024      -0.00019781
H       -2.56333193      -1.23013620      -1.99002720      -0.00009473       0.00030924      -0.00037555
H       -3.45810743      -1.97777544      -0.65996271      -0.00008841       0.00026925      -0.00024243
H       -2.11987786       0.18911650       1.91114788       0.00038131      -0.00021679       0.00019469
H       -2.02541665      -1.54807111       1.59169065       0.00038463      -0.00060093      -0.00040489
H       -4.11100220      -1.01223026       2.67081362       0.00051900       0.00016754      -0.00057038
H       -4.55458847       0.18551460       1.47110334       0.00018737      -0.00024569      -0.00015492
H       -4.50759990      -1.52691339       1.04212794       0.00038576       0.00003953       0.00032991
H       -3.73226125       1.09844958      -0.20567534      -0.00032797      -0.00029273      -0.00065815
H       -2.78349957       0.89719221      -1.68364121       0.00083443       0.00018988      -0.00118593
H       -2.08607498       2.98624810      -0.67415217      -0.00065920       0.00063118       0.00124083
H       -1.85357353       2.24850429       0.90929879       0.00012825      -0.00042716       0.00125415
H       -0.71174101       1.88268973      -0.44998963      -0.00150996       0.00092098      -0.00012351
C       -0.25736018       0.10334181      -2.28089140      -0.00259066      -0.00211983       0.00297707
O       -0.20073156       0.19031700      -3.42081212       0.00156602      -0.00002906      -0.00192876
C        0.40564323      -0.11016686       1.21830532       0.00069529      -0.00130194      -0.00285522
O        0.85792899      -0.17385247       2.26950214       0.00011900       0.00074260       0.00250455
