60
 energy: -70.830247652320 gnorm: 0.000134720439 xtb: 6.7.1 (edcfbbe)
Ru           0.08143401973424       -0.45735641067628       -0.44130261262833
N            0.19569814144382       -2.41668043201605        0.53335687236111
C            1.53293182464950       -3.05036039076009        0.54463248752604
C            2.64984627465836       -2.02534024277224        0.72985519676056
P            2.36700527006127       -0.59258686285262       -0.43232826521545
C            3.56874581490494       -0.79465486327327       -1.82552460972259
C            3.19360483866128        0.19316015512845       -2.93094492219030
C            3.47444018976344       -2.22346664782289       -2.36374038697601
C            2.86894104117445        0.80448989202950        0.68652215701021
C            1.67121968132436        0.91851459957669        1.65026022628914
C            3.07752907536240        2.11190892782339       -0.07031448991964
C           -0.44182522240609       -2.25244912276013        1.85109713126161
C           -1.92143448785407       -1.91246147947891        1.64643533543132
P           -2.10053869285862       -0.57338472741720        0.34539655054134
C           -3.38158196124079       -1.31742393660118       -0.78085662742670
C           -3.49620596598942       -0.52888547581984       -2.08639444650804
C           -4.74107932628054       -1.52933487259218       -0.11931739148379
C           -2.92768548522370        0.80121756848058        1.28703710018846
C           -1.93707936871834        1.37850383241615        2.29856142881296
C           -3.38462964715606        1.89860027814218        0.32847150697828
H           -0.41125242292716       -3.05959650641549        0.01462034270716
H            1.66366546793309       -3.54751123272223       -0.42068784062588
H            1.58382570593710       -3.81151802697682        1.33364182912398
H            3.62379891188860       -2.48341400702630        0.54384534864924
H            2.65648297013788       -1.64987334248580        1.75750610302278
H            4.57898879203931       -0.59298493075575       -1.44489510382682
H            3.79197110188019        0.00047627487314       -3.81925268881609
H            3.35418683481894        1.22491255914877       -2.63433662306099
H            2.13952775710995        0.07516415000905       -3.19064962563746
H            4.08499861508222       -2.31506017389798       -3.26003089997057
H            3.82822250364504       -2.96268054638757       -1.64813421786689
H            2.44318670557424       -2.45073300978131       -2.63989226149798
H            3.78347873718389        0.54832208379458        1.23822557209740
H            0.70740886889482        0.70229290868038        1.09637885853364
H            1.58606032094476        1.93340006791515        2.03910855559857
H            1.76189557937686        0.24907387745058        2.50632380920652
H            3.20113333312572        2.93418674786871        0.63334828450828
H            3.97354215179968        2.06584705402744       -0.68455748023790
H            2.21485563292942        2.32276416364273       -0.70430546320359
H           -0.35484749801087       -3.17621398127025        2.44108325151994
H            0.06761784709086       -1.45272966503214        2.40444818179197
H           -2.44927348142157       -2.80418900082655        1.29192750781051
H           -2.37769705053275       -1.60226418702323        2.58954833959447
H           -2.94522830333625       -2.30111777034189       -1.02540067764792
H           -2.52031413930878       -0.14833391952721       -2.39652895446399
H           -4.17195579327276        0.31492928173353       -1.98344108633654
H           -3.88352012623202       -1.17046910848562       -2.87537907866880
H           -5.37557088570633       -2.11461750978198       -0.78272766050796
H           -5.23999184843514       -0.58080742129633        0.06340784338687
H           -4.65699356392087       -2.06432098301760        0.82540478522687
H           -3.78573976360413        0.36591443608078        1.81633748146499
H           -1.15324250119310        1.92370990075524        1.77115527024552
H           -1.48687477346772        0.60690595338043        2.92482358671865
H           -2.44678424322394        2.08164338421317        2.95513185329247
H           -3.62240320420592        2.80246503112823        0.88698840486452
H           -4.27316647501933        1.60774582194026       -0.22439776599551
H           -2.59030060528604        2.13182839320452       -0.38254623137045
C           -0.17676679385095       -1.17857676306317       -2.10536110534908
O           -0.29368334048747       -1.61158506807155       -3.16366597357272
H           -0.02852437342411        0.95244697502265       -1.05239809190349
