59
Properties=species:S:1:pos:R:3:forces:R:3 energy:=T -87.238266622222=T gnorm:=T 0.000272549900=T xtb:=T 6.7.1=T (edcfbbe)=T energy=-2373.8741491416827 pbc="F F F"
Mn       0.10653556      -0.08110284      -0.23956891       0.00387630       0.00589101       0.00144833
C        2.38646820      -2.18644258      -0.64886849       0.00008149       0.00009190       0.00042954
P        2.22636534      -0.34021886      -0.78215695      -0.00008952      -0.00048190      -0.00053491
C        2.86741091      -0.02302852      -2.46198601       0.00169747       0.00085444       0.00052360
C        2.63236576      -0.89869419      -3.51766212       0.00009369      -0.00018296      -0.00024202
C        3.07728469      -0.58819754      -4.79025546       0.00017392      -0.00079135       0.00009061
C        3.74748810       0.60156433      -5.02237229       0.00060531      -0.00070626       0.00005812
C        3.96129268       1.49004991      -3.98009389      -0.00110484       0.00013999      -0.00045814
C        3.51700342       1.18443111      -2.70740888       0.00000787      -0.00044824       0.00060330
C        3.67257719       0.21100976       0.18625855      -0.00074886       0.00115878       0.00049565
C        3.51526651       1.26901592       1.07340880      -0.00031853      -0.00039846      -0.00047792
C        4.59306187       1.71485186       1.81916411       0.00020654      -0.00022084      -0.00010539
C        5.83033729       1.10787432       1.67746530      -0.00082643       0.00056085       0.00009894
C        5.99399514       0.06136561       0.78215723      -0.00019394       0.00024996       0.00011085
C        4.92139045      -0.38559171       0.03291052       0.00000268       0.00015858       0.00065612
C        1.01330652      -2.78318450      -0.72790976      -0.00003157       0.00040072       0.00007082
C        0.83014735      -4.10463895      -1.10247423       0.00007306      -0.00004585      -0.00043939
C       -0.43550936      -4.66850185      -1.03489856       0.00021596       0.00012173      -0.00067567
C       -1.45943935      -3.89787905      -0.50456793      -0.00025318       0.00039366      -0.00055750
C       -1.20401302      -2.58408962      -0.14989529      -0.00057969      -0.00054785      -0.00009161
C       -2.22303193      -1.75129062       0.57879668       0.00035797       0.00001690      -0.00037701
N       -2.21752875      -0.35524509       0.11790582       0.00073129       0.00020119      -0.00008786
C       -2.74783392       0.53861372       1.17200876       0.00012143      -0.00002819       0.00019884
C       -4.19124640       0.28633236       1.61623108       0.00003295      -0.00000212       0.00008731
C       -3.04587548      -0.28706288      -1.10534097      -0.00043543      -0.00019409       0.00011323
C       -3.19588859       1.11307063      -1.68770276      -0.00019259       0.00041923       0.00049292
N       -0.00781590      -1.99990412      -0.33526594       0.00024611      -0.00158096       0.00047098
H        3.07804166      -2.62323816      -1.37353404       0.00008541       0.00008036       0.00001450
H        2.77779177      -2.37305730       0.36203522      -0.00003526      -0.00005064      -0.00010284
H        2.08920266      -1.82106791      -3.35212734      -0.00008378      -0.00031043       0.00048675
H        2.89371825      -1.27404541      -5.60563290       0.00043050      -0.00064996       0.00016280
H        4.09348154       0.84049285      -6.01768559       0.00009068      -0.00041082      -0.00018340
H        4.47018611       2.42569703      -4.16275318       0.00049551      -0.00029287      -0.00021926
H        3.66479339       1.87845432      -1.89014737       0.00027650       0.00024249      -0.00020243
H        2.53767095       1.72972970       1.15990600       0.00035277       0.00051442       0.00038182
H        4.46828596       2.53560659       2.51076531      -0.00013973       0.00034283      -0.00016520
H        6.67185525       1.45241141       2.26123372      -0.00020525       0.00044456      -0.00029287
H        6.96255616      -0.40448015       0.66691800      -0.00052254       0.00017999       0.00020161
H        5.05277445      -1.19181652      -0.67670536      -0.00048187       0.00008750       0.00051467
H        1.67702766      -4.68590386      -1.43569410       0.00012483      -0.00009347      -0.00012390
H       -0.60860039      -5.68622037      -1.34777997       0.00013953      -0.00000682      -0.00062246
H       -2.44648771      -4.31053148      -0.36022899      -0.00001752      -0.00016084      -0.00081307
H       -3.21947235      -2.20915073       0.48558558       0.00019687      -0.00000767      -0.00008222
H       -1.94067147      -1.76372526       1.64175384       0.00038631      -0.00027369      -0.00024532
H       -2.65040850       1.56307717       0.81053630       0.00064554      -0.00001718       0.00041006
H       -2.09099659       0.44304233       2.04203736      -0.00010896      -0.00069537       0.00033701
H       -4.42518411       0.98212387       2.41856076       0.00042384      -0.00054766       0.00083463
H       -4.90262406       0.45659433       0.81233778       0.00018339       0.00110144       0.00013107
H       -4.32744473      -0.72251924       2.00009852      -0.00035606      -0.00049686      -0.00084886
H       -4.04511730      -0.70033049      -0.89783676      -0.00002845       0.00007610       0.00010054
H       -2.58024812      -0.93695883      -1.85427147      -0.00014828       0.00050953      -0.00011433
H       -3.55961377       1.03812451      -2.71015197      -0.00050486       0.00076013       0.00076336
H       -3.90240013       1.71156852      -1.11842703       0.00040389       0.00030418       0.00074980
H       -2.23267983       1.62089982      -1.69832714      -0.00004540       0.00018358       0.00025121
C       -0.13162023       0.06198206      -1.99549725      -0.00147108      -0.00212668      -0.00139043
O       -0.19326997       0.10890595      -3.15110563       0.00049342       0.00023504       0.00033616
C        0.50895321      -0.11632109       1.49062283      -0.00604802      -0.00684955       0.00115499
O        0.84126432      -0.19210282       2.60003787       0.00249000       0.00250662      -0.00202045
H       -0.02858907       1.47138667      -0.14174407      -0.00077143       0.00039188      -0.00130569
