59
Properties=species:S:1:pos:R:3 energy:=T -87.238266622222=T gnorm:=T 0.000272549900=T xtb:=T 6.7.1=T (edcfbbe)=T pbc="F F F"
Mn       0.10653556      -0.08110284      -0.23956891
C        2.38646820      -2.18644258      -0.64886849
P        2.22636534      -0.34021886      -0.78215695
C        2.86741091      -0.02302852      -2.46198601
C        2.63236576      -0.89869419      -3.51766212
C        3.07728469      -0.58819754      -4.79025546
C        3.74748810       0.60156433      -5.02237229
C        3.96129268       1.49004991      -3.98009389
C        3.51700342       1.18443111      -2.70740888
C        3.67257719       0.21100976       0.18625855
C        3.51526651       1.26901592       1.07340880
C        4.59306187       1.71485186       1.81916411
C        5.83033729       1.10787432       1.67746530
C        5.99399514       0.06136561       0.78215723
C        4.92139045      -0.38559171       0.03291052
C        1.01330652      -2.78318450      -0.72790976
C        0.83014735      -4.10463895      -1.10247423
C       -0.43550936      -4.66850185      -1.03489856
C       -1.45943935      -3.89787905      -0.50456793
C       -1.20401302      -2.58408962      -0.14989529
C       -2.22303193      -1.75129062       0.57879668
N       -2.21752875      -0.35524509       0.11790582
C       -2.74783392       0.53861372       1.17200876
C       -4.19124640       0.28633236       1.61623108
C       -3.04587548      -0.28706288      -1.10534097
C       -3.19588859       1.11307063      -1.68770276
N       -0.00781590      -1.99990412      -0.33526594
H        3.07804166      -2.62323816      -1.37353404
H        2.77779177      -2.37305730       0.36203522
H        2.08920266      -1.82106791      -3.35212734
H        2.89371825      -1.27404541      -5.60563290
H        4.09348154       0.84049285      -6.01768559
H        4.47018611       2.42569703      -4.16275318
H        3.66479339       1.87845432      -1.89014737
H        2.53767095       1.72972970       1.15990600
H        4.46828596       2.53560659       2.51076531
H        6.67185525       1.45241141       2.26123372
H        6.96255616      -0.40448015       0.66691800
H        5.05277445      -1.19181652      -0.67670536
H        1.67702766      -4.68590386      -1.43569410
H       -0.60860039      -5.68622037      -1.34777997
H       -2.44648771      -4.31053148      -0.36022899
H       -3.21947235      -2.20915073       0.48558558
H       -1.94067147      -1.76372526       1.64175384
H       -2.65040850       1.56307717       0.81053630
H       -2.09099659       0.44304233       2.04203736
H       -4.42518411       0.98212387       2.41856076
H       -4.90262406       0.45659433       0.81233778
H       -4.32744473      -0.72251924       2.00009852
H       -4.04511730      -0.70033049      -0.89783676
H       -2.58024812      -0.93695883      -1.85427147
H       -3.55961377       1.03812451      -2.71015197
H       -3.90240013       1.71156852      -1.11842703
H       -2.23267983       1.62089982      -1.69832714
C       -0.13162023       0.06198206      -1.99549725
O       -0.19326997       0.10890595      -3.15110563
C        0.50895321      -0.11632109       1.49062283
O        0.84126432      -0.19210282       2.60003787
H       -0.02858907       1.47138667      -0.14174407
