58
Properties=species:S:1:pos:R:3:forces:R:3 energy:=T -81.807551862097=T gnorm:=T 0.000070857502=T xtb:=T 6.7.1=T (edcfbbe)=T energy=-2226.096873422196 pbc="F F F"
Fe       0.07057542      -0.22126113      -0.44970457      -0.00066031      -0.00000053       0.00053091
C        2.41357958      -2.24165118      -0.76276971       0.00006232       0.00015092       0.00009123
P        2.15257139      -0.39568310      -0.86779636      -0.00076270       0.00014176      -0.00023896
C        2.84193374      -0.00229626      -2.51489641       0.00017344       0.00001631      -0.00001557
C        2.63445083      -0.84302354      -3.60454652       0.00009750      -0.00047049      -0.00025963
C        3.08596555      -0.48193806      -4.86095711       0.00010317      -0.00028892      -0.00018274
C        3.73533772       0.72797111      -5.04554036       0.00058052      -0.00027654      -0.00030115
C        3.92022475       1.58349347      -3.97093891       0.00022208      -0.00014110      -0.00020349
C        3.46975790       1.22448868      -2.71395405       0.00017354      -0.00010236      -0.00007819
C        3.51275041       0.21871526       0.18461663      -0.00037597      -0.00018110      -0.00021195
C        3.20858455       1.11019998       1.20441263      -0.00049467      -0.00004887      -0.00013996
C        4.21517058       1.59425450       2.02282537      -0.00010536       0.00032170       0.00000586
C        5.52472678       1.18764480       1.82353449       0.00000399       0.00033672      -0.00009889
C        5.83132581       0.29952368       0.80293719       0.00009587       0.00017296       0.00039897
C        4.83023919      -0.18417419      -0.01914238      -0.00007900      -0.00053936       0.00023637
C        1.05894750      -2.88455223      -0.76814974      -0.00057221       0.00045363      -0.00024185
C        0.88249525      -4.22876707      -1.03597271      -0.00016337      -0.00016038      -0.00004212
C       -0.37428362      -4.80371141      -0.89500064       0.00031224       0.00008841      -0.00016929
C       -1.39694586      -4.01206468      -0.38791851      -0.00012783       0.00043610      -0.00051988
C       -1.15489404      -2.67657485      -0.13534498      -0.00036549      -0.00049219       0.00003908
C       -2.12670429      -1.78401312       0.58212228       0.00037880      -0.00003223      -0.00033075
N       -2.07608017      -0.40655794       0.06424500       0.00075438       0.00032820      -0.00000439
C       -2.45550928       0.55990441       1.11493298      -0.00028832       0.00003180      -0.00001783
C       -3.87283464       0.42819181       1.67492846       0.00034513       0.00011840       0.00014148
C       -2.97956248      -0.32369833      -1.10001761       0.00010484      -0.00027689       0.00017156
C       -3.06805251       1.06774508      -1.71314814      -0.00011770      -0.00001466       0.00029358
N        0.02729851      -2.08630792      -0.41208430       0.00059214      -0.00022168      -0.00023963
H        3.08024218      -2.64410231      -1.53004429       0.00020352      -0.00015062      -0.00075990
H        2.86838410      -2.42551105       0.22072615       0.00050389      -0.00017913       0.00017187
H        2.10527005      -1.77886293      -3.47359734      -0.00028492       0.00040154      -0.00027192
H        2.92476387      -1.14243825      -5.70189775      -0.00019960       0.00019631       0.00007008
H        4.08691932       1.00824402      -6.02837001       0.00012333      -0.00014226      -0.00002168
H        4.41247178       2.53498209      -4.11631065       0.00055756       0.00001037       0.00000110
H        3.59885731       1.89413583      -1.87321576       0.00038674       0.00009003       0.00005020
H        2.17423555       1.39721933       1.33166632      -0.00011620       0.00016903      -0.00030249
H        3.98112748       2.28943395       2.81682162      -0.00029464       0.00005503       0.00000012
H        6.31177994       1.56408362       2.46194155      -0.00031579      -0.00011201       0.00039505
H        6.85484308      -0.01315201       0.64862725      -0.00012485      -0.00000459       0.00038840
H        5.06687860      -0.86812651      -0.82421388      -0.00002648       0.00020037       0.00005196
H        1.72842098      -4.82546344      -1.34402499      -0.00003587      -0.00001329      -0.00012840
H       -0.53849806      -5.84368239      -1.12881428      -0.00006156       0.00011361      -0.00043004
H       -2.36974533      -4.43141113      -0.18001514       0.00004061       0.00005520      -0.00039626
H       -3.14318361      -2.19999541       0.54188290      -0.00019048      -0.00021291       0.00049103
H       -1.79846418      -1.75593813       1.62895253       0.00054685       0.00006949       0.00022698
H       -2.30672197       1.55794976       0.70413606       0.00026551      -0.00000834       0.00038197
H       -1.73073107       0.44242359       1.92217728      -0.00030546      -0.00035947       0.00023162
H       -3.99329855       1.15452160       2.47538502       0.00001851       0.00038749       0.00041705
H       -4.63053471       0.63522162       0.92317669       0.00039311       0.00006723      -0.00000674
H       -4.05201352      -0.56062356       2.09133452       0.00002681      -0.00020354       0.00016953
H       -3.98706953      -0.66184270      -0.81386908      -0.00006682      -0.00003913       0.00036798
H       -2.60076209      -1.02469594      -1.85018115      -0.00015763       0.00001623      -0.00005503
H       -3.46444376       0.99590703      -2.72357275       0.00009003       0.00001859       0.00009299
H       -3.71862741       1.72125878      -1.13732120      -0.00044191      -0.00002601       0.00034897
H       -2.07526243       1.51023885      -1.75924513      -0.00004133       0.00016603       0.00053490
C       -0.19415108      -0.09604720      -2.16536899      -0.00010671      -0.00031674      -0.00042385
O       -0.28844311       0.00091009      -3.31660426      -0.00020227       0.00047936       0.00019337
H        0.38512569      -0.15708996       0.98908846      -0.00008600       0.00004525      -0.00029497
H        0.06785119       1.24832910      -0.40526441       0.00001503      -0.00012273      -0.00010669
