55
 energy: -70.326482815450 gnorm: 0.000370959888 xtb: 6.7.1 (edcfbbe)
Ru           0.08968590756848       -0.07419003790678       -0.21131851605585
C            2.17749001422678       -2.30696018511278        0.64044286647170
P            2.34821814764622       -0.57955365054675       -0.03752939113602
C            3.51172627010276        0.25271589541888        1.15529887075014
C            4.64641037766506       -0.64251925703467        1.65007609724154
C            2.71513394676165        0.83588878188669        2.32181653064961
C            3.39552738311463       -0.82648201937703       -1.54979475830798
C            3.50065203910946        0.50964967628547       -2.28444629921137
C            2.81652166523709       -1.91886996693958       -2.44761464103928
C            0.91000142908472       -2.93101770269957        0.14756232346651
C            0.72657689842176       -4.30334645066932        0.06992022177334
C           -0.51542831646723       -4.80259584063764       -0.29054543088522
C           -1.55538203711343       -3.91917549869098       -0.54040506149506
C           -1.30283253811045       -2.55982374086799       -0.47197769560321
C           -2.34135212106105       -1.51157405334403       -0.75037416178710
N           -2.04626778203392       -0.24984313170890       -0.03877127269485
C           -2.16788055151655       -0.43593016408548        1.43268453440030
C           -0.78625814312653       -0.46441769486179        2.10470282467603
C           -2.98773027566811        0.81028145440595       -0.47515478138311
C           -2.79131063626905        1.29962933770477       -1.90023029504118
N           -0.08899698019299       -2.09036749444138       -0.16022582809293
H            3.05158892442425       -2.92268554392857        0.41367733432744
H            2.11182153409804       -2.21147135638017        1.73393596296744
H            3.93299402703258        1.08727464858684        0.58038475291851
H            5.17455182664860       -1.12458308466768        0.83064617002074
H            4.28158300579244       -1.40873001407980        2.33080031075356
H            5.36657282655269       -0.03403834400973        2.19440984955483
H            2.25056733036443        0.04822433290752        2.91645412901400
H            3.37595760848269        1.39918023906899        2.97804978891647
H            1.94696286676547        1.51661353583532        1.94972578456130
H            4.39492162555619       -1.13456758615136       -1.21431940001303
H            2.50837794045724        0.90242731976310       -2.50688628016616
H            4.02922965277586        1.24908525695976       -1.68630870145546
H            4.04273439027640        0.38296027774054       -3.21945244766732
H            3.37196817339505       -1.95352589356852       -3.38310024884079
H            1.77276636100751       -1.71759903438975       -2.68663577912475
H            2.88356306161203       -2.90141259927555       -1.98440952416219
H            1.54448399049309       -4.96809833007879        0.29915953191332
H           -0.67673833560415       -5.86698186470211       -0.35803525007885
H           -2.54106941599592       -4.27541461537897       -0.79399317909372
H           -2.33730950777747       -1.30689730829542       -1.82852924462728
H           -3.34063185521647       -1.88192686636706       -0.48127426012782
H           -2.73707740390546        0.40318338522978        1.84159618845300
H           -2.72626260888192       -1.35164872704964        1.66079194189415
H           -0.04783285341411        0.19818242237980        1.54507639245009
H           -0.41153817756274       -1.48386684477324        2.24580463160892
H           -0.85745405575867       -0.01699248527546        3.09886672758781
H           -2.82858215547440        1.66714432203193        0.18400543341237
H           -4.01417761663151        0.44303124404447       -0.34281529042908
H           -1.79110524230669        1.71509212874576       -2.02026377859211
H           -2.95569089423322        0.52633642144112       -2.64634207942046
H           -3.50980261078947        2.09434169893222       -2.08771947896577
C            0.10401461197484        0.03999267208613       -2.03706399016542
O            0.02426572488493        0.11916723645818       -3.18060316261040
H            0.17283425802933        1.47101876232748       -0.17429684817213
