61
Properties=species:S:1:pos:R:3:forces:R:3 energy:=T -76.093673448993=T gnorm:=T 0.000022942860=T xtb:=T 6.7.1=T (edcfbbe)=T energy=-2070.614322189835 pbc="F F F"
Mn      -0.06641934      -0.18680732      -0.32573645       0.00036378       0.00011618       0.00019098
N       -0.21896089      -2.36268139      -0.24196207      -0.00002803       0.00011537      -0.00010069
C        1.07751571      -3.03789803      -0.45868438      -0.00000132      -0.00003307      -0.00005544
C        2.19005936      -2.25024933       0.23708395       0.00002164      -0.00000280       0.00011415
P        2.15416600      -0.52396572      -0.45395230       0.00008238      -0.00003935      -0.00018782
C        2.99853979      -0.72920808      -2.10736403       0.00005307       0.00002370       0.00003024
C        4.30899294      -1.51328670      -2.05989080       0.00006836       0.00004753       0.00005300
C        3.19563210       0.64667365      -2.74556501       0.00002845       0.00002111       0.00004177
C        3.36946078       0.49689780       0.52121739      -0.00006808       0.00006195       0.00010613
C        2.83080493       1.93087635       0.53062514       0.00004729      -0.00002902      -0.00006238
C        3.61657409      -0.01834290       1.93608285       0.00000699       0.00000107       0.00006028
C       -1.27937083      -2.86426643      -1.14620514       0.00005555      -0.00010143      -0.00008076
C       -2.58075267      -2.03368790      -1.07308851       0.00006586      -0.00001272       0.00009367
P       -2.26745303      -0.42525808      -0.19136367      -0.00036370      -0.00018226      -0.00019325
C       -3.30626591      -0.66648508       1.33696725       0.00001632      -0.00001490      -0.00002404
C       -3.39197560       0.59659059       2.19040110      -0.00003138      -0.00005005       0.00000781
C       -2.76700409      -1.82684234       2.17284602      -0.00003596      -0.00006832      -0.00002944
C       -3.11298954       1.00874031      -1.02810992       0.00004586       0.00000926       0.00002685
C       -2.15723878       2.18408100      -0.75479248       0.00004822       0.00005706      -0.00013162
C       -3.38598298       0.81510846      -2.51632088       0.00001225      -0.00001439       0.00003723
H       -0.51361019      -2.58477970       0.71766424       0.00007028      -0.00003164      -0.00004568
H        1.26707418      -3.06998088      -1.53656082      -0.00001320       0.00000548       0.00000454
H        1.04208142      -4.06677269      -0.08107239       0.00003127       0.00001162      -0.00004078
H        1.98098191      -2.18428530       1.31007413       0.00004404      -0.00003029       0.00000936
H        3.16198125      -2.72610183       0.09686526      -0.00004752       0.00000863       0.00001381
H        2.28256815      -1.28769807      -2.72623048       0.00006235       0.00001543       0.00003882
H        4.81804970      -1.40830474      -3.01666668       0.00005769       0.00006103       0.00008441
H        4.97952958      -1.14244673      -1.28727173       0.00001250       0.00005296       0.00006065
H        4.13762062      -2.57411940      -1.89498780       0.00006614       0.00006209       0.00002639
H        2.28569615       1.24568079      -2.67365545      -0.00000587       0.00002831       0.00006925
H        3.44143964       0.53795836      -3.80064495       0.00000528       0.00005650       0.00005623
H        4.00850304       1.19026077      -2.26795966       0.00001541       0.00003208       0.00005167
H        4.32159214       0.48466911      -0.02335344      -0.00007830       0.00003784       0.00007886
H        3.50917321       2.59065867       1.06923482      -0.00016514      -0.00002273       0.00018968
H        2.71736232       2.31557745      -0.48298490       0.00010168       0.00008021       0.00007373
H        1.85599294       1.97622655       1.02260768      -0.00018937      -0.00001807      -0.00009811
H        4.29768576       0.65962719       2.44881813      -0.00010034       0.00000533       0.00007675
H        2.69700858      -0.06105257       2.51483825      -0.00006279      -0.00000236       0.00001426
H        4.07397719      -1.00519795       1.92331593      -0.00005689       0.00002432       0.00006703
H       -1.49291702      -3.91424473      -0.91390955      -0.00003890       0.00003722       0.00010489
H       -0.87686885      -2.82014816      -2.16219739       0.00007443      -0.00012386       0.00000000
H       -3.38121420      -2.58023963      -0.56799547      -0.00006631       0.00003005      -0.00016117
H       -2.92130268      -1.80577033      -2.08514493       0.00017824       0.00009193      -0.00003722
H       -4.30992168      -0.91815779       0.96017891       0.00004964       0.00000332      -0.00008785
H       -3.88373825       1.41429853       1.66836415      -0.00001549      -0.00002019      -0.00003862
H       -2.40259048       0.92548344       2.50248298      -0.00001507      -0.00003850      -0.00000813
H       -3.97037948       0.38842772       3.08935448      -0.00004263      -0.00003724      -0.00002863
H       -2.73438898      -2.75834012       1.61035806      -0.00002061      -0.00001753      -0.00009341
H       -3.41322959      -1.98643075       3.03449677      -0.00004656      -0.00006754      -0.00007041
H       -1.77054747      -1.59455966       2.54819291      -0.00003413      -0.00004063      -0.00003385
H       -4.07202320       1.19858719      -0.52990058       0.00002689      -0.00002892      -0.00004144
H       -2.39689623       3.04091160      -1.38268791       0.00007399       0.00003010       0.00002206
H       -2.21755975       2.49872757       0.28751514       0.00005155      -0.00004207      -0.00000355
H       -1.09571838       1.90087156      -0.96343090      -0.00000188       0.00011083      -0.00007243
H       -2.48602801       0.56039210      -3.06948380       0.00005436       0.00003010      -0.00007195
H       -4.13158911       0.03846449      -2.67601927       0.00000565      -0.00000674      -0.00004559
H       -3.78116739       1.74107862      -2.93219483      -0.00001251       0.00003825       0.00000476
C       -0.13114342      -0.17504082      -2.10362299       0.00011068      -0.00007529       0.00040011
O       -0.09660274      -0.09074749      -3.24758221      -0.00004372      -0.00001429      -0.00032923
C        0.09276970       0.12266946       1.42004800      -0.00055975      -0.00038783      -0.00031133
O        0.17153762       0.43861667       2.52137626       0.00013739       0.00024720       0.00027545
