61
Properties=species:S:1:pos:R:3 energy:=T -76.093657400992=T gnorm:=T 0.000142827362=T xtb:=T 6.7.1=T (edcfbbe)=T pbc="F F F"
Mn      -0.07045892      -0.19030624      -0.33193364
N       -0.22177064      -2.36544445      -0.23783792
C        1.07501336      -3.03727359      -0.46267934
C        2.18928404      -2.25009305       0.23057186
P        2.15123903      -0.52049284      -0.45227709
C        2.99656113      -0.71406635      -2.10636899
C        4.31314855      -1.48803058      -2.06435079
C        3.17994717       0.66649848      -2.73863803
C        3.37073770       0.49159088       0.52767711
C        2.83156439       1.92490661       0.56406252
C        3.63795691      -0.04020498       1.93244109
C       -1.28821956      -2.87560524      -1.13072957
C       -2.58623772      -2.03809200      -1.06833131
P       -2.27001229      -0.42753338      -0.19247340
C       -3.30783479      -0.66005747       1.33749097
C       -3.38802169       0.60593842       2.18702677
C       -2.77090294      -1.81961137       2.17587151
C       -3.11003650       1.00687298      -1.03389309
C       -2.14798226       2.17830692      -0.76500622
C       -3.38477443       0.80952576      -2.52126450
H       -0.50739964      -2.58373601       0.72535676
H        1.25971639      -3.06500863      -1.54157455
H        1.04339319      -4.06758180      -0.08854196
H        1.98571286      -2.18890538       1.30492490
H        3.16112748      -2.72420125       0.08371246
H        2.28477103      -1.27645749      -2.72646839
H        4.81919442      -1.37584528      -3.02185678
H        4.98313172      -1.11560162      -1.29215823
H        4.14990445      -2.55064994      -1.90291662
H        2.26104876       1.25244649      -2.67148634
H        3.43475694       0.56486807      -3.79226782
H        3.98105459       1.22036021      -2.25304401
H        4.31547856       0.48931987      -0.02983707
H        3.56294299       2.59718256       1.00991431
H        2.60607166       2.28609998      -0.44045020
H        1.91918276       1.98119829       1.15980480
H        4.31811214       0.63766126       2.44658684
H        2.72477700      -0.09862230       2.52020359
H        4.10389434      -1.02265120       1.90218500
H       -1.50576101      -3.92062445      -0.88082628
H       -0.88887170      -2.85005168      -2.14853554
H       -3.39282888      -2.57881328      -0.56673165
H       -2.91897100      -1.81141383      -2.08334763
H       -4.31277287      -0.90952056       0.96263202
H       -3.87429195       1.42489189       1.66180641
H       -2.39726581       0.93010352       2.49973210
H       -3.96904030       0.40364177       3.08561447
H       -2.74090562      -2.75246093       1.61552374
H       -3.41675681      -1.97537343       3.03849789
H       -1.77351666      -1.58873575       2.54964618
H       -4.06782726       1.20329028      -0.53583132
H       -2.38380802       3.03443618      -1.39531991
H       -2.20577851       2.49644521       0.27640012
H       -1.08753593       1.88932209      -0.97382924
H       -2.48605056       0.54989213      -3.07415600
H       -4.13315125       0.03493217      -2.67796550
H       -3.77689372       1.73559418      -2.93984876
C       -0.13657952      -0.19740545      -2.10951748
O       -0.10544588      -0.13052316      -3.25478624
C        0.09442551       0.12631605       1.41182438
O        0.18324813       0.43938337       2.51310191
