43
Properties=species:S:1:pos:R:3:forces:R:3 energy:=T -59.200019313707=T gnorm:=T 0.000045912473=T xtb:=T 6.7.1=T (edcfbbe)=T energy=-1610.9145781927195 pbc="F F F"
O        0.14483832      -2.21290949      -0.64590664      -0.00061243       0.00016647      -0.00012629
C        0.30587957      -0.82044357      -0.47125691       0.00005271       0.00008687      -0.00011130
N       -0.38971090      -0.36485804       0.70252584      -0.00007217       0.00059147      -0.00045985
C       -1.72548676      -0.01769919       0.70536640       0.00021427      -0.00015057       0.00010035
C       -2.62282372      -0.50690054      -0.24519443      -0.00009222      -0.00002316      -0.00022264
C       -3.95945831      -0.15936424      -0.18167495       0.00003342      -0.00018654       0.00007023
C       -4.42991669       0.66507164       0.82633688       0.00010278      -0.00005322      -0.00005038
C       -3.54482286       1.14352204       1.78062519      -0.00025798      -0.00006482       0.00008538
C       -2.20697539       0.81153146       1.72249480       0.00018216      -0.00029254       0.00003723
C        1.76063867      -0.39368446      -0.38325740      -0.00002752      -0.00004513      -0.00015162
C        2.79788824      -1.31423566      -0.39547707       0.00004739      -0.00000849      -0.00019554
C        4.11171663      -0.88907258      -0.28299928      -0.00007145      -0.00001828      -0.00001989
C        4.39936963       0.45894125      -0.15996617       0.00002124       0.00001514      -0.00001959
C        3.36728159       1.38484442      -0.16222573       0.00002433      -0.00001464      -0.00011534
C        2.05513129       0.96181766      -0.27614678       0.00007947       0.00008084      -0.00013911
H        0.28497376      -2.63849567       0.20926731       0.00051004       0.00003674      -0.00013788
H       -0.13318026      -0.38383338      -1.38430571       0.00012732      -0.00002012      -0.00012326
H        0.17182311       0.10508739       1.40475491      -0.00019673       0.00033992       0.00005130
H       -2.27563945      -1.16980271      -1.02342307      -0.00007196      -0.00004883      -0.00025650
H       -4.64236727      -0.54363895      -0.92690159       0.00000904      -0.00010195      -0.00019728
H       -5.47626825       0.93012660       0.87085862      -0.00010937      -0.00008015       0.00012236
H       -3.90167741       1.78696497       2.57302979      -0.00014684      -0.00019750       0.00020635
H       -1.51290023       1.19120735       2.45870340       0.00011796      -0.00015436       0.00005693
H        2.57840925      -2.36604290      -0.50554249      -0.00001246       0.00001179      -0.00014106
H        4.91145388      -1.61527338      -0.29071658      -0.00001438       0.00007054      -0.00010129
H        5.42386213       0.78982090      -0.06951062       0.00001542      -0.00010237      -0.00013104
H        3.58669364       2.43993381      -0.07900875       0.00002021       0.00001386      -0.00024849
H        1.24966245       1.68275777      -0.28062280       0.00005039      -0.00001192      -0.00022957
C        0.44292796      -0.50272445       4.44048379      -0.00000252       0.00029780       0.00022817
C        1.71996603       0.05441630       3.80961782      -0.00002401       0.00012508       0.00001956
C        2.55529095       0.80261023       4.85421420       0.00013045      -0.00021334       0.00005495
C        2.54665009      -1.07465470       3.18367282      -0.00012694      -0.00009731       0.00018621
O        1.29667482       0.96506686       2.79445366      -0.00039069       0.00036396       0.00063921
H        0.68930894      -1.21384367       5.22351505      -0.00010255       0.00033475       0.00032975
H       -0.16150227      -0.99869856       3.68488568      -0.00005255       0.00028629       0.00042970
H       -0.14166630       0.30793200       4.86826693       0.00007769       0.00037525       0.00021847
H        3.47010965       1.18776939       4.40532395       0.00013537      -0.00024053       0.00006421
H        1.98644006       1.63898241       5.25498561       0.00036059      -0.00004681       0.00008752
H        2.82333062       0.13814976       5.67084669       0.00013374      -0.00013397       0.00010233
H        3.43147506      -0.67394910       2.69038809      -0.00016508      -0.00023127      -0.00007463
H        1.95446334      -1.60485351       2.44155816      -0.00037459      -0.00000444       0.00041926
H        2.86210100      -1.77804756       3.94924241      -0.00007460      -0.00012991       0.00014909
H        2.07801444       1.36393587       2.39260295       0.00055304      -0.00052460      -0.00040600
43
Properties=species:S:1:pos:R:3:forces:R:3 energy:=T -59.200019313707=T gnorm:=T 0.000045912473=T xtb:=T 6.7.1=T (edcfbbe)=T energy=-1610.8923781030023 pbc="F F F"
O        0.12334648      -2.24047561      -0.33647833      -0.01003489       0.00288867      -0.00202527
C        0.30511238      -0.83903022      -0.45448756      -0.00427644      -0.00183219      -0.00135254
N       -0.41408754      -0.10864796       0.54165727      -0.00040382       0.00463278      -0.00184299
C       -1.77146250       0.10585910       0.59521620      -0.00015265       0.00490818      -0.00274486
C       -2.64873136      -0.20478998      -0.44470838       0.00205815       0.00031232      -0.00225283
C       -3.99361906       0.09897353      -0.33384427       0.00152050      -0.00475408      -0.00342484
C       -4.49641809       0.70104418       0.80671458      -0.00056789      -0.00304941      -0.00426356
C       -3.63322022       0.99721641       1.85103538      -0.00119933       0.00148334      -0.00334541
C       -2.28993963       0.70528069       1.74970579       0.00022561       0.00607426      -0.00266587
C        1.76880182      -0.43034855      -0.39470029      -0.00387241      -0.00223278      -0.00107786
C        2.78623135      -1.37355506      -0.39210868      -0.00295201      -0.00169284       0.00066192
C        4.11124725      -0.97544934      -0.31856378      -0.00304689       0.00005964       0.00144825
C        4.43103491       0.36934511      -0.25289685      -0.00443005       0.00021779       0.00169566
C        3.41934721       1.31719795      -0.27104392      -0.00513612      -0.00145925       0.00466831
C        2.09538197       0.92089737      -0.34181329      -0.00434370      -0.00223228       0.00302647
H        0.32957795      -2.49589875       0.57166778      -0.00688140      -0.00357614      -0.00335890
H       -0.08754761      -0.60243968      -1.45373993      -0.00416907       0.00090211      -0.00193976
H        0.07929095       0.07680715       1.40824481       0.00124105       0.00899328      -0.00404916
H       -2.28561306      -0.69074819      -1.33762093       0.00530176      -0.00181819      -0.00000690
H       -4.65843523      -0.14067708      -1.15244270       0.00175804      -0.01199413      -0.00189382
H       -5.54835866       0.93418902       0.88437358      -0.00104294      -0.00587348      -0.00396716
H       -4.01267079       1.46147544       2.75097840      -0.00315306      -0.00106182      -0.00188873
H       -1.61419619       0.94146398       2.55938616       0.00004366       0.00795596      -0.00298239
H        2.54083989      -2.42353734      -0.45896138      -0.00243855      -0.00284536      -0.00103978
H        4.89419237      -1.71979989      -0.31336899      -0.00275397       0.00003733       0.00050742
H        5.46434860       0.67957340      -0.19412385      -0.00513345       0.00000913      -0.00148871
H        3.66454584       2.36924003      -0.23398755      -0.00584862      -0.00214686       0.00686870
H        1.30436720       1.65654264      -0.35711407      -0.00403542      -0.00217669       0.00364215
C        0.56908427      -0.70290257       4.55854462       0.00215997       0.00043281      -0.00274704
C        1.72701375       0.01696425       3.86487392       0.00383164      -0.00005612       0.00064432
C        2.45097047       0.93962608       4.85085185       0.00681516      -0.00217217       0.00211460
C        2.70765494      -0.99280888       3.25844171       0.00441797      -0.00173199       0.00213419
O        1.14348131       0.80130602       2.82582497       0.00690707       0.00347468      -0.00012071
H        0.94303762      -1.32459905       5.36682206      -0.00191663      -0.00092269      -0.00354247
H        0.03353159      -1.32814256       3.84789837       0.00237637       0.00257196      -0.00548077
H       -0.12827049       0.02550338       4.96490406       0.00188552       0.00159463      -0.00524990
H        3.27273826       1.45474780       4.35540170       0.00915931      -0.00383510       0.00407043
H        1.75689234       1.68440846       5.23470892       0.00808713      -0.00075730       0.00282582
H        2.84953309       0.36860032       5.68442670       0.00563091      -0.00513070       0.00217558
H        3.51078485      -0.47742385       2.73284702       0.00445363      -0.00250834       0.00278961
H        2.19452675      -1.63412942       2.54481438       0.00408533      -0.00326787       0.00347130
H        3.14129942      -1.61345320       4.03733552       0.00383218      -0.00106481       0.00431900
H        1.84633468       1.26005860       2.34921295       0.00199833       0.02364372       0.01768848
43
Properties=species:S:1:pos:R:3:forces:R:3 energy:=T -59.200019313707=T gnorm:=T 0.000045912473=T xtb:=T 6.7.1=T (edcfbbe)=T energy=-1610.8076339245995 pbc="F F F"
O        0.06662378      -2.16006413      -0.05238090      -0.00677205      -0.01191722      -0.01286882
C        0.27315705      -0.81314957      -0.44159670      -0.00677347      -0.00217978       0.00020233
N       -0.45070069       0.10941410       0.38807592      -0.00069397      -0.01076457       0.01755222
C       -1.83070783       0.22434609       0.46575971      -0.00016112       0.00403434       0.00361946
C       -2.68765869       0.12254757      -0.62877703       0.00690132       0.00036790      -0.00438732
C       -4.03989073       0.37464372      -0.47572206       0.00464811      -0.00601777      -0.00856648
C       -4.56665543       0.72009356       0.75745540      -0.00048488      -0.00384285      -0.01247432
C       -3.72335956       0.80461999       1.85415940      -0.00711176       0.00771149      -0.00951777
C       -2.37455256       0.55895367       1.71088978      -0.00631526       0.01338218       0.00052842
C        1.74943175      -0.43809156      -0.41222171      -0.01022928       0.00166194      -0.00471309
C        2.73566793      -1.41641348      -0.39694052      -0.01131623       0.00293290      -0.00280945
C        4.07465237      -1.06365723      -0.34904669      -0.01274886       0.00172908       0.00071563
C        4.44246761       0.27058805      -0.31934464      -0.01026386       0.00006790       0.00234548
C        3.46407293       1.25195662      -0.34564674      -0.01091084      -0.00048904       0.00268349
C        2.12542264       0.90103750      -0.39117582      -0.01190930       0.00216180      -0.00276643
H        0.34604232      -2.24607792       0.86880468      -0.03719769      -0.02135262      -0.00667482
H       -0.09539008      -0.76534763      -1.47413848      -0.02415799       0.00357555       0.00847716
H       -0.04273407       0.18178140       1.31467636      -0.00080306      -0.01919063       0.01587825
H       -2.30051394      -0.14546056      -1.60058425       0.01389669       0.00055435      -0.00104651
H       -4.69224056       0.30776422      -1.33545434       0.01119708      -0.02271788      -0.01026143
H       -5.62236755       0.92217055       0.86577523      -0.00109039      -0.01805376      -0.01846081
H       -4.11930761       1.06142239       2.82703818      -0.01245688       0.00362550      -0.01139931
H       -1.71449022       0.62927489       2.56464731      -0.00336841       0.01697369      -0.00221408
H        2.45413383      -2.45920544      -0.43074081      -0.01774057       0.00693864      -0.00447474
H        4.83218180      -1.83404305      -0.33678125      -0.01603070       0.00084931       0.00391644
H        5.48677311       0.54513453      -0.28114186      -0.01052250      -0.00024722      -0.00109586
H        3.74469202       2.29536327      -0.33342092      -0.00591677      -0.00050845       0.00762220
H        1.35958771       1.66192041      -0.41027420      -0.00402246       0.01091778      -0.00603774
C        0.76204907      -0.88944032       4.73570020       0.00972194      -0.00885101      -0.00122418
C        1.76702003      -0.05315088       3.94189217       0.00971228      -0.00934455      -0.00071963
C        2.31453918       1.08575683       4.81065702       0.00738807      -0.00347867      -0.00520554
C        2.91714924      -0.91028476       3.40675294       0.01034464      -0.01914079       0.01173112
O        1.05140680       0.48926134       2.83193839       0.00504041      -0.01742950       0.00102904
H        1.24859492      -1.36271256       5.58322140       0.00680635      -0.00284471       0.00189700
H        0.32567587      -1.65698505       4.10055575       0.01598062      -0.01190702      -0.00209283
H       -0.04026585      -0.25127663       5.09871400       0.00685417      -0.00678723      -0.01217690
H        3.00115258       1.70550576       4.23683055       0.00923354      -0.00403572      -0.00456462
H        1.49780586       1.71221876       5.16214506      -0.00021109      -0.00601791      -0.01606176
H        2.84172093       0.68081209       5.66995380       0.00429824       0.00471291       0.00154007
H        3.59946048      -0.29153887       2.82283404       0.02180033      -0.03202100       0.01209231
H        2.53387696      -1.69669956       2.75885408       0.00508490      -0.02215075       0.01893142
H        3.47222821      -1.36552711       4.22109125      -0.00053521      -0.01711818       0.02376153
H        1.69522749       0.77000274       2.17085029       0.08083590       0.19621158       0.02729086
43
Properties=species:S:1:pos:R:3:forces:R:3 energy:=T -59.200019313707=T gnorm:=T 0.000045912473=T xtb:=T 6.7.1=T (edcfbbe)=T energy=-1610.5733230687226 pbc="F F F"
O        0.01351804      -2.07354384       0.01604889      -0.02896716      -0.00301511      -0.00681876
C        0.27757057      -0.76049677      -0.45810678      -0.01446932       0.02606213       0.00367603
N       -0.44445072       0.24857987       0.26989758      -0.00108946       0.01486615      -0.01579983
C       -1.82753976       0.29809488       0.41743904       0.00030196       0.02267233      -0.02009133
C       -2.69031290       0.25259702      -0.67579701       0.00153371       0.00339678      -0.01087865
C       -4.04280876       0.47995118      -0.50339173       0.00175466      -0.01454378      -0.01551113
C       -4.56652267       0.72458265       0.75566965       0.00091980      -0.00702606      -0.01203334
C       -3.72113495       0.73100177       1.85263422       0.00009692       0.01773524      -0.00861459
C       -2.36593794       0.52308086       1.68779439       0.00650448       0.02929816      -0.02298744
C        1.76131634      -0.42883550      -0.42072420      -0.01515746       0.01586240      -0.00774628
C        2.72414980      -1.43120221      -0.39916914      -0.02275278       0.01165594      -0.01269697
C        4.07067469      -1.10703160      -0.35806138      -0.01975396      -0.00070620      -0.00239821
C        4.46737368       0.21891640      -0.33546182      -0.00838774      -0.00226497       0.00835690
C        3.51148107       1.22138676      -0.35664994      -0.00532422       0.00442541      -0.00521058
C        2.16715282       0.90012256      -0.40001086      -0.00462163       0.01323004      -0.01915704
H        0.39137642      -2.17563199       0.89851004      -0.01062347      -0.01808957      -0.00782835
H       -0.07102817      -0.78789965      -1.49949470      -0.02869181       0.00377777       0.01406694
H        0.02535696       0.55025485       1.11121795       0.00847562       0.04777513      -0.01543361
H       -2.29084872       0.07289176      -1.66211817      -0.00516538      -0.00706512      -0.02518657
H       -4.69320421       0.49021022      -1.36640166      -0.01273478      -0.05471021      -0.01001252
H       -5.62214960       0.91661081       0.88085953      -0.00205993      -0.02675657      -0.00997686
H       -4.11955454       0.90827423       2.84213162       0.00510266      -0.00125633      -0.00559895
H       -1.70952141       0.55321938       2.54727580       0.02059006       0.03572788      -0.02909510
H        2.42361836      -2.46982848      -0.42487332      -0.02758317       0.02008737      -0.01403940
H        4.81196270      -1.89336490      -0.34601916      -0.02273401      -0.00117438       0.00823767
H        5.51743901       0.47039144      -0.30429519       0.00300849      -0.00392428       0.00678956
H        3.81128020       2.25894945      -0.34076586       0.01311311      -0.00125504       0.00426071
H        1.41894652       1.67700179      -0.41664773       0.02118889       0.03555571      -0.02666207
C        0.90086211      -0.95502072       4.85094087       0.02579300      -0.01368122       0.02408941
C        1.79234807      -0.06452709       3.97690405       0.01009156      -0.00687089       0.01549343
C        2.23290189       1.17684302       4.74833842       0.00233279       0.00390722      -0.00030919
C        3.00757556      -0.82622733       3.43551648       0.01115655      -0.00998474       0.02697628
O        1.01633940       0.38172153       2.86915979       0.00277174      -0.01928672       0.01150638
H        1.44329048      -1.32583134       5.71453091       0.03343814      -0.00695253       0.02321187
H        0.52826802      -1.80537523       4.27917702       0.04411049      -0.02447606       0.02163370
H        0.04417154      -0.37672695       5.19356372       0.01572987      -0.02988597       0.02234281
H        2.83654547       1.81484393       4.10821329      -0.00188545      -0.00034770      -0.00473040
H        1.36061603       1.73962576       5.07123922       0.00326469       0.00119981      -0.00414362
H        2.81418145       0.88739717       5.61887575       0.00611030       0.01167968       0.00239412
H        3.57688788      -0.17138728       2.77767893       0.01251611      -0.02519024       0.01339688
H        2.69387347      -1.69379925       2.85453745      -0.00142623      -0.01871758       0.04406297
H        3.64818891      -1.16239929       4.24464908       0.00933101      -0.00228597       0.02978986
H        0.75772595      -0.41995614       2.39906896      -0.02580866      -0.01944791       0.03267525
43
Properties=species:S:1:pos:R:3:forces:R:3 energy:=T -59.200019313707=T gnorm:=T 0.000045912473=T xtb:=T 6.7.1=T (edcfbbe)=T energy=-1610.5905664064858 pbc="F F F"
O        0.03331673      -2.06433618       0.16595067      -0.03615355       0.06073244      -0.04996689
C        0.29866237      -0.77015766      -0.37617578      -0.12489907      -0.12512644       0.00727280
N       -0.37482083       0.27176100       0.34542396       0.05500071       0.09027472       0.05615133
C       -1.76733546       0.36675806       0.43920524       0.01326153      -0.03800260      -0.00043100
C       -2.55278930       0.64618413      -0.67668170      -0.01119236      -0.01261352      -0.02468505
C       -3.91177487       0.85759752      -0.53670010      -0.02982945       0.00006021      -0.00031781
C       -4.51971332       0.76968326       0.70498035       0.00594020       0.00034876       0.02494324
C       -3.74635458       0.48878912       1.81845752       0.00805466       0.03110504       0.01936393
C       -2.38471933       0.29808344       1.68949816       0.00001809       0.03627059      -0.00605263
C        1.78684568      -0.47184658      -0.39927131      -0.11083478      -0.02378850      -0.01488024
C        2.71459002      -1.50457552      -0.38866627      -0.03786651       0.02601060       0.00235528
C        4.06882522      -1.22080407      -0.38611098      -0.00305469      -0.04504533      -0.01164774
C        4.50560309       0.09166986      -0.40229805       0.02161812      -0.03925386      -0.02150504
C        3.58104330       1.12190239      -0.41955112       0.02931539       0.01005859      -0.01739256
C        2.22743473       0.84442515      -0.41390274      -0.01962680      -0.01209679       0.00097263
H        0.43843681      -2.11550457       1.03996961       0.04360563      -0.02470839      -0.01183371
H       -0.09801247      -0.84182219      -1.39465973      -0.03524782       0.06707999      -0.08071630
H        0.05394907       0.38514748       1.25959398      -0.03498680       0.14040966      -0.03828259
H       -2.08856934       0.73095256      -1.64717042       0.03089993      -0.03192819      -0.03885253
H       -4.50516774       1.12129035      -1.39990014      -0.00076162      -0.06431967      -0.06722858
H       -5.58328464       0.93073291       0.80983304       0.01753217       0.00414749      -0.03269786
H       -4.20211034       0.42881833       2.79731373      -0.01814606      -0.00776818      -0.01343684
H       -1.78325349       0.11447334       2.56798027      -0.00910969       0.02428930       0.00228686
H        2.37165233      -2.53037347      -0.38560999       0.01835737       0.01612922      -0.01952001
H        4.78056530      -2.03127787      -0.37502825       0.05973543      -0.03420152       0.00222439
H        5.56320573       0.30785273      -0.40954708       0.02439226       0.01831070       0.01699815
H        3.91679924       2.14582830      -0.44252453       0.02953536       0.09184194       0.02170819
H        1.50050059       1.64052019      -0.41160709      -0.00959501       0.03357588      -0.02997489
C        1.15179909      -1.04957505       5.04191430       0.04279468      -0.01014367       0.01789271
C        1.68280478      -0.09308565       3.96950149       0.00644545      -0.01335337       0.01161118
C        1.93603211       1.28980859       4.56653622      -0.00594795       0.01479574       0.00537436
C        2.95345037      -0.61182277       3.28565389       0.00491007      -0.02524546       0.02583428
O        0.65895630       0.03857455       2.98416892       0.01598960       0.01096355       0.03395157
H        1.84263780      -1.14257236       5.87335266       0.04882601      -0.00156280       0.00728211
H        0.97586215      -2.03922162       4.61900439       0.04995716      -0.01412819       0.02802855
H        0.20327002      -0.66178179       5.41346013       0.04604467      -0.04137827       0.04507212
H        2.33281573       1.96211155       3.81083252      -0.02412807      -0.00690156      -0.03494930
H        1.00991391       1.71119202       4.94771560      -0.03373667      -0.01814339       0.00367718
H        2.65132126       1.21057583       5.38001541       0.01447842       0.01392719      -0.00059512
H        3.31414567       0.13552369       2.58050425       0.00490532      -0.04744423       0.00691739
H        2.75047761      -1.52401222       2.72573871       0.00267984      -0.04425071       0.05433978
H        3.73107196      -0.81495325       4.01532233       0.00666509       0.00589137       0.02973656
H        0.36389586      -0.85506978       2.76736194      -0.05584631      -0.01481835       0.09097206
43
Properties=species:S:1:pos:R:3:forces:R:3 energy:=T -59.200019313707=T gnorm:=T 0.000045912473=T xtb:=T 6.7.1=T (edcfbbe)=T energy=-1606.3457763423885 pbc="F F F"
O        0.27975924      -3.28644027       1.43116781       0.16630131       1.13589848       0.50253574
C        0.30635563      -0.38490996      -0.41889110       0.04192799       0.02287049       0.14130670
N       -0.40289214       0.50521289       0.14657878      -0.01146169       0.04623857       0.00231474
C       -1.78122867       0.50346083       0.26049885      -0.02016580       0.01282275       0.02488409
C       -2.59697275       0.96170589      -0.77489877      -0.00543052       0.00106821       0.03378261
C       -3.95511255       1.11525325      -0.56327301      -0.00709583      -0.00931775       0.01115537
C       -4.51937072       0.80161585       0.66307888      -0.02215935       0.00569698      -0.01336166
C       -3.71555010       0.32407051       1.68446899      -0.02713120       0.01859727      -0.01049708
C       -2.35726551       0.18622959       1.49057894      -0.01347135       0.00683363       0.01367650
C        1.75147543      -0.22037043      -0.45706543       0.05663169      -0.02942873       0.04082456
C        2.55972507      -1.35832546      -0.43616543       0.03153654      -0.01851847      -0.00105715
C        3.93451051      -1.22953998      -0.40575750       0.03909500      -0.00296625      -0.01569925
C        4.51955126       0.02882710      -0.43726524      -0.00592936      -0.00332582       0.00092318
C        3.72376677       1.16692178      -0.46462633      -0.02114091      -0.03096945      -0.00384859
C        2.34636432       1.04804540      -0.45488832      -0.01774615      -0.04860018      -0.02170428
H        0.20111786      -2.40343688       1.01915502      -0.09927215      -0.34285668      -0.01967978
H       -0.09589538      -1.33806851      -0.78316616      -0.01126567       0.18717562      -0.19201656
H        0.75054485       0.35320085       2.25973358      -0.42208061       0.07542873      -0.71999968
H       -2.15862215       1.20887010      -1.73315240       0.01317119      -0.02427625       0.06497103
H       -4.57994117       1.48581299      -1.36454904       0.02164857      -0.02645416       0.00610809
H       -5.57906326       0.92677700       0.82536835      -0.02779893       0.00103049      -0.03437349
H       -4.13807457       0.06292481       2.64425337      -0.04725218       0.00774186      -0.03352949
H       -1.73866843      -0.19284883       2.28849465      -0.02955297      -0.00078506       0.02159070
H        2.08820856      -2.33037203      -0.38642314       0.07161343      -0.01808744      -0.03398300
H        4.55176214      -2.11412386      -0.35670411       0.01959816      -0.00150486      -0.03504006
H        5.59589232       0.11969912      -0.44051207      -0.01171385       0.01114676       0.01096051
H        4.18429858       2.14534061      -0.49429563      -0.03942226      -0.04308197       0.01684516
H        1.71285502       1.92385974      -0.47029753       0.00076035      -0.04336739       0.00140240
C        1.24293870      -1.06549278       5.05471640       0.07560691      -0.05681179       0.02277427
C        1.64709448      -0.12425347       3.94374186      -0.03362054       0.04884643      -0.05834888
C        1.74082608       1.32026558       4.44731961       0.01669803      -0.01447959       0.04172189
C        2.91315351      -0.47999990       3.18733923       0.05394693      -0.09741647       0.03220976
O        0.51244792      -0.30266730       2.93942855       0.12280085       0.01685398       0.08974040
H        1.96333698      -1.03850574       5.86325663       0.03114694      -0.07876137       0.05190934
H        1.17349730      -2.07607075       4.66201436      -0.00240006      -0.12151815       0.09843594
H        0.26990595      -0.75997203       5.43621115       0.05194122      -0.08917968       0.04586937
H        2.07749451       2.04020109       3.70130979      -0.18912436      -0.22475329      -0.18363719
H        0.83734431       1.70144559       4.91704297      -0.15070302      -0.22517932      -0.16681306
H        2.50977632       1.31798078       5.22001792      -0.02657386      -0.03968514      -0.00609808
H        3.18037960       0.30665009       2.47903133      -0.02994905      -0.09815461       0.02906981
H        2.77168559      -1.40836100       2.63864420       0.10301454      -0.11664596       0.00658452
H        3.74040465      -0.60763144       3.87567529       0.06802692      -0.04799010       0.03743599
H        0.41416305      -1.26551710       2.51668867       0.28699508       0.25586567       0.20065460
43
Properties=species:S:1:pos:R:3:forces:R:3 energy:=T -59.200019313707=T gnorm:=T 0.000045912473=T xtb:=T 6.7.1=T (edcfbbe)=T energy=-1610.0174906869986 pbc="F F F"
O        0.18126105      -2.98408875       1.59104247       0.02213437      -0.04156652       0.02306521
C        0.30132093      -0.40443501      -0.41173196       0.00070407       0.00983558      -0.00197626
N       -0.40366311       0.49327015       0.12476716       0.00452589       0.01370780       0.00255621
C       -1.77746229       0.50921082       0.25892690       0.00249702       0.00878387      -0.00090806
C       -2.58912921       1.01190991      -0.75685365       0.00123597       0.00027926      -0.00321874
C       -3.94785643       1.15850292      -0.54756917       0.00040724      -0.00382298      -0.00509690
C       -4.51530109       0.79870668       0.66319549      -0.00123252      -0.00219053      -0.00533067
C       -3.71089202       0.29208017       1.67188414       0.00011628       0.00128908      -0.00453535
C       -2.35052067       0.15323810       1.48128497       0.00071032       0.00624715      -0.00272848
C        1.75650039      -0.27080633      -0.43961500       0.00002197       0.00692881      -0.00741500
C        2.58100345      -1.39576409      -0.42719326      -0.00295125       0.00399814      -0.02011814
C        3.95621634      -1.24693840      -0.40917682      -0.00275363       0.00076259      -0.01516394
C        4.52210689       0.01773560      -0.44338243       0.00123739      -0.00007549       0.00233248
C        3.70855408       1.14069417      -0.47050552       0.00444248       0.00234068       0.00826971
C        2.33469857       0.99916452      -0.45099567       0.00419718       0.00561212       0.00229229
H        0.43023030      -2.23157041       1.04742128      -0.01104915       0.03184152       0.04955930
H       -0.11799595      -1.32039082      -0.85239099      -0.00644315       0.01147223       0.00807959
H        0.73417063       0.60740633       2.26335185      -0.02594989       0.01092597       0.01765582
H       -2.14153290       1.29560881      -1.69904555      -0.00189945      -0.00424859      -0.00556596
H       -4.56742506       1.55749218      -1.33824511       0.00048125      -0.00979660      -0.00863384
H       -5.57719862       0.91590803       0.82192011      -0.00279559      -0.00422249      -0.00635741
H       -4.14610578       0.00739954       2.61937077      -0.00035112      -0.00126216      -0.00586008
H       -1.71526705      -0.22532449       2.26744005       0.00007374       0.00596687      -0.00265238
H        2.14836615      -2.38649702      -0.40738815      -0.00585710       0.00536142      -0.03104581
H        4.58948325      -2.12102447      -0.37118377      -0.00385357      -0.00113494      -0.02337359
H        5.59630591       0.12880228      -0.45063035       0.00212358      -0.00381683       0.00927630
H        4.14790353       2.12694342      -0.50545336       0.00750962       0.00100856       0.01805867
H        1.68529631       1.86186188      -0.46184321       0.00751028       0.00792349       0.00574460
C        1.25041812      -1.02297838       4.98636686       0.01096353      -0.00674293      -0.00545058
C        1.62985112      -0.01279704       3.90020956       0.00704371      -0.00836738      -0.00285143
C        1.79703692       1.38062946       4.52062150      -0.01068561      -0.00432638      -0.01635004
C        2.92284420      -0.42389033       3.18532116       0.00360634      -0.00917651       0.00399110
O        0.55251154      -0.02655250       2.96942450      -0.00459338      -0.02295360      -0.01184982
H        1.96920993      -0.99645450       5.79971516       0.01587813      -0.01544720      -0.00738955
H        1.21849129      -2.02850597       4.57410133       0.01060927      -0.00541123      -0.01025152
H        0.26469109      -0.77755107       5.37542300       0.01402660      -0.00695759       0.00501749
H        2.09558537       2.10553922       3.76504914      -0.02448126      -0.00440824      -0.02038890
H        0.86060932       1.70894396       4.96638727      -0.01139335      -0.01467317      -0.01138306
H        2.56110380       1.35323632       5.29358825      -0.00572364       0.01026407      -0.01996892
H        3.20712663       0.33459765       2.45680821       0.00968877      -0.02054151      -0.00677022
H        2.77289890      -1.36368066       2.65782295       0.01436130      -0.01994756       0.01891563
H        3.73386788      -0.54564826       3.89739551      -0.00216892       0.00410863       0.01533661
H       -0.06733459      -2.60651987       2.43824832      -0.02192374       0.06243259       0.07248362
43
Properties=species:S:1:pos:R:3:forces:R:3 energy:=T -59.200019313707=T gnorm:=T 0.000045912473=T xtb:=T 6.7.1=T (edcfbbe)=T energy=-1610.1797214492954 pbc="F F F"
O        0.36995149      -2.89882459       1.77950210       0.02016329       0.04496793       0.01972677
C        0.30296711      -0.39549702      -0.30189755       0.00017778       0.00279092       0.01069206
N       -0.40258674       0.61128264      -0.00409848      -0.00128313       0.01230007      -0.01284206
C       -1.77106390       0.60479313       0.17626376      -0.00131426       0.00774720      -0.00868308
C       -2.57275287       1.34073660      -0.69702946      -0.00562666       0.00910758      -0.00656382
C       -3.93255422       1.43431577      -0.47856421      -0.00554133       0.00436292      -0.00322983
C       -4.50996931       0.82256876       0.62299038      -0.00215268      -0.00075336      -0.00185117
C       -3.71526002       0.10514585       1.50173315       0.00176749      -0.00268213      -0.00455438
C       -2.35595662      -0.01498706       1.28188573       0.00165667       0.00027145      -0.00879452
C        1.75306818      -0.28920704      -0.39008151      -0.00069473       0.00168217       0.00317688
C        2.53988348      -1.44069669      -0.36248768      -0.00206092       0.00039472      -0.00270952
C        3.91849006      -1.33983468      -0.40613632      -0.00167818      -0.00127638      -0.00566807
C        4.52418607      -0.09660484      -0.50095798       0.00005605      -0.00162070      -0.00064810
C        3.74793759       1.05267632      -0.54135657       0.00130058      -0.00049532       0.00330968
C        2.37150310       0.95980328      -0.47784986       0.00120003       0.00108310       0.00302589
H        0.53581340      -1.95016244       1.87539432      -0.00235888       0.06263447       0.12987957
H       -0.12317588      -1.38687430      -0.49675040      -0.00047423      -0.00408385       0.03845476
H        0.59072241       0.53271623       2.27243029      -0.01519113       0.00400955       0.00344254
H       -2.11334315       1.81573356      -1.55154260      -0.01082419       0.01141136      -0.00988195
H       -4.54590250       1.99385346      -1.17030706      -0.00735498       0.00526380      -0.00278863
H       -5.57263884       0.90850345       0.79625914      -0.00251418      -0.00368708       0.00091457
H       -4.15888381      -0.36975872       2.36556166       0.00503089      -0.00746872      -0.00395183
H       -1.73163971      -0.56179453       1.97270222       0.00343478      -0.00395397      -0.01169394
H        2.06449373      -2.40727201      -0.27740686      -0.00396239       0.00138084      -0.00289284
H        4.52455585      -2.23320782      -0.36683768      -0.00201824      -0.00172031      -0.01035110
H        5.60099169      -0.02201556      -0.54350758       0.00038435      -0.00289305       0.00010263
H        4.22067840       2.02105241      -0.62105814       0.00261752      -0.00077382       0.00811979
H        1.75093729       1.84316050      -0.50431986       0.00280605       0.00245246       0.00448217
C        1.39091169      -1.07065905       4.94538256       0.00518658      -0.00746160      -0.00992902
C        1.61593420      -0.02480244       3.85140565       0.00473810      -0.00583738      -0.00917147
C        1.59192415       1.38085099       4.46137647      -0.00721560      -0.00312750      -0.01470077
C        2.94598533      -0.26331398       3.12820555       0.01150075      -0.00507156       0.00188689
O        0.54446105      -0.18289106       2.91933660       0.00717470      -0.01294042      -0.01221840
H        2.13708747      -0.96242603       5.72704576       0.00523000      -0.01313045      -0.00921695
H        1.45826752      -2.07249478       4.52940660       0.00491043      -0.00579223      -0.01458404
H        0.40227178      -0.93812190       5.37894984       0.00481352      -0.00848399      -0.00986535
H        1.75687381       2.13554442       3.69399853      -0.01440960      -0.00325633      -0.01766903
H        0.63114196       1.57037168       4.93535663      -0.01038726      -0.01006578      -0.01610693
H        2.37435913       1.47335720       5.21031613      -0.00766788       0.00775907      -0.01451807
H        3.10871951       0.50642084       2.37517393       0.01736401      -0.01150267      -0.00366826
H        2.92888776      -1.22920144       2.62752251       0.02007868      -0.01062816       0.01104686
H        3.77255664      -0.24562201       3.83232309       0.00498583       0.00353866       0.01079524
H       -0.08785518      -3.14915335       2.58555119      -0.02184760      -0.05445151      -0.02030318
43
Properties=species:S:1:pos:R:3:forces:R:3 energy:=T -59.176013967346=T gnorm:=T 0.000034870276=T xtb:=T 6.7.1=T (edcfbbe)=T energy=-1610.2608308954088 pbc="F F F"
O        0.49170436      -2.95768874       2.00021899       0.00002502       0.00062733      -0.00001774
C        0.30489109      -0.35203054      -0.20624530      -0.00020970      -0.00003550       0.00028942
N       -0.38956592       0.70457566      -0.08531986      -0.00172247       0.00030993       0.00014451
C       -1.75591173       0.69291147       0.11613594       0.00028698      -0.00007183      -0.00005684
C       -2.53679955       1.61505138      -0.58452975       0.00079610       0.00047046       0.00020131
C       -3.89856989       1.67734982      -0.36797429      -0.00105285      -0.00174562      -0.00063733
C       -4.49828286       0.84633289       0.56646375      -0.00050860       0.00048783      -0.00001822
C       -3.72541796      -0.05372921       1.28189760      -0.00065563      -0.00102760       0.00005287
C       -2.36453643      -0.14012722       1.05850230       0.00027613       0.00090674       0.00164104
C        1.75046366      -0.29719699      -0.33796636       0.00134187       0.00018165      -0.00100830
C        2.49393620      -1.47711476      -0.28601011      -0.00054589       0.00065997      -0.00071705
C        3.87142592      -1.43522102      -0.39588221       0.00148122       0.00131002      -0.00038067
C        4.52041437      -0.22220356      -0.56689805      -0.00045853      -0.00077313      -0.00045876
C        3.78855897       0.95549523      -0.62198111       0.00092742      -0.00021348       0.00127949
C        2.41309864       0.92158570      -0.50587498      -0.00077644       0.00033486       0.00030025
H        0.55201013      -2.04446906       2.33541162       0.00074815       0.00044870      -0.00017501
H       -0.13859904      -1.35501217      -0.22288444      -0.00002894      -0.00000142       0.00015120
H        0.47763439       0.33667706       2.28170256       0.00064483      -0.00045691       0.00000297
H       -2.05956761       2.25606183      -1.31089555       0.00021541      -0.00050152       0.00021636
H       -4.49760382       2.38337625      -0.92541927       0.00013886       0.00024051       0.00029429
H       -5.56276537       0.90545170       0.74063489       0.00024825       0.00054425      -0.00034763
H       -4.18725779      -0.69669522       2.01800028      -0.00026693       0.00048060      -0.00020462
H       -1.75644307      -0.82722465       1.62908130      -0.00000541      -0.00044769      -0.00082155
H        1.98467615      -2.41734685      -0.13223163       0.00038107      -0.00028862      -0.00017957
H        4.44278938      -2.35094662      -0.34853762      -0.00005325      -0.00018791       0.00046817
H        5.59659763      -0.19321726      -0.65668985      -0.00041261      -0.00117633       0.00063383
H        4.29651690       1.89993932      -0.75490245      -0.00059602       0.00041867       0.00020887
H        1.82652876       1.82719562      -0.54740540      -0.00063380      -0.00058181      -0.00032946
C        1.58424010      -1.07578156       4.95391369      -0.00011262      -0.00017886       0.00009225
C        1.60618107      -0.01704579       3.85017985       0.00008102       0.00139888       0.00190599
C        1.38812117       1.38055020       4.43743655      -0.00028602      -0.00037352       0.00020137
C        2.92995258      -0.07185913       3.08119179      -0.00052862      -0.00014379      -0.00006746
O        0.52190948      -0.33585498       2.97307909       0.00021900      -0.00150599      -0.00154195
H        2.34982438      -0.86279634       5.69386425      -0.00018975       0.00031341       0.00032523
H        1.76875257      -2.05972963       4.52963450       0.00029062      -0.00022980       0.00023489
H        0.61146443      -1.08151697       5.43970024       0.00007944       0.00066686      -0.00002563
H        1.38970266       2.12803856       3.64531919      -0.00061065       0.00058722      -0.00005157
H        0.43011576       1.42311664       4.95140532       0.00039733      -0.00057887       0.00009018
H        2.17758950       1.62109151       5.14389104       0.00042242       0.00029671      -0.00037337
H        2.95225186       0.68758126       2.30143144       0.00038198       0.00000540       0.00004887
H        3.04950227      -1.04557690       2.61062912       0.00029620      -0.00004764      -0.00074171
H        3.76358467       0.09707705       3.75698837      -0.00001298       0.00002512      -0.00029947
H       -0.08113892      -3.42161020       2.61481853      -0.00001164      -0.00014727      -0.00032944
