43
Properties=species:S:1:pos:R:3 pbc="F F F"
O       -0.21836389      -5.52817627      -0.91455142
C        0.40622103      -0.31370617       0.34210896
N       -0.49803459       0.46969781      -0.07642111
C       -1.82751828       0.35202015       0.26765606
C       -2.79057077       0.53975196      -0.72735763
C       -4.13333083       0.49049457      -0.41256715
C       -4.53968955       0.28297447       0.89736992
C       -3.59080689       0.11953694       1.89326854
C       -2.24390129       0.14520160       1.58570285
C        1.80643132      -0.10761815       0.01705704
C        2.76748608      -1.01502555       0.46544134
C        4.10282570      -0.82469192       0.16348058
C        4.49549078       0.27141951      -0.58870023
C        3.54759874       1.17915408      -1.03930524
C        2.21268723       0.99396586      -0.74019828
H       -0.11378771      -6.10191665      -0.15094998
H        0.18181013      -1.20283273       0.95015493
H        1.79076763       1.20225190       2.26816876
H       -2.46271600       0.70016412      -1.74359868
H       -4.87096566       0.62276183      -1.19127066
H       -5.59158142       0.25624371       1.14141529
H       -3.90216457      -0.03248598       2.91731004
H       -1.50098758       0.03727715       2.36431702
H        2.46140753      -1.87058282       1.05195790
H        4.84077104      -1.53169205       0.51434683
H        5.53972454       0.41818201      -0.82363517
H        3.85585922       2.03285159      -1.62542086
H        1.46071360       1.68862825      -1.08140168
C        0.41575044      -0.60737665       4.53749633
C        1.61036619      -0.01347105       3.78931262
C        2.46769362       0.83371213       4.73879625
C        2.46101887      -1.13000419       3.16940561
O        1.06276338       0.80859124       2.76276506
H        0.75455632      -1.25261959       5.34279539
H       -0.19784212      -1.18336058       3.84963084
H       -0.19289116       0.19293440       4.95033901
H        3.32053107       1.25674459       4.20928614
H        1.87387705       1.64951526       5.14537006
H        2.83690407       0.22471563       5.55942214
H        3.31457818      -0.71038467       2.63835485
H        1.86276746      -1.70294797       2.46422137
H        2.82892381      -1.79866362       3.94279891
H       -0.05688632      -4.63194346      -0.60813090
