43
Properties=species:S:1:pos:R:3:forces:R:3 energy:=T -59.200019313707=T gnorm:=T 0.000045912473=T xtb:=T 6.7.1=T (edcfbbe)=T energy=-1610.9145781927195 pbc="F F F"
O        0.14483832      -2.21290949      -0.64590664      -0.00061243       0.00016647      -0.00012629
C        0.30587957      -0.82044357      -0.47125691       0.00005271       0.00008687      -0.00011130
N       -0.38971090      -0.36485804       0.70252584      -0.00007217       0.00059147      -0.00045985
C       -1.72548676      -0.01769919       0.70536640       0.00021427      -0.00015057       0.00010035
C       -2.62282372      -0.50690054      -0.24519443      -0.00009222      -0.00002316      -0.00022264
C       -3.95945831      -0.15936424      -0.18167495       0.00003342      -0.00018654       0.00007023
C       -4.42991669       0.66507164       0.82633688       0.00010278      -0.00005322      -0.00005038
C       -3.54482286       1.14352204       1.78062519      -0.00025798      -0.00006482       0.00008538
C       -2.20697539       0.81153146       1.72249480       0.00018216      -0.00029254       0.00003723
C        1.76063867      -0.39368446      -0.38325740      -0.00002752      -0.00004513      -0.00015162
C        2.79788824      -1.31423566      -0.39547707       0.00004739      -0.00000849      -0.00019554
C        4.11171663      -0.88907258      -0.28299928      -0.00007145      -0.00001828      -0.00001989
C        4.39936963       0.45894125      -0.15996617       0.00002124       0.00001514      -0.00001959
C        3.36728159       1.38484442      -0.16222573       0.00002433      -0.00001464      -0.00011534
C        2.05513129       0.96181766      -0.27614678       0.00007947       0.00008084      -0.00013911
H        0.28497376      -2.63849567       0.20926731       0.00051004       0.00003674      -0.00013788
H       -0.13318026      -0.38383338      -1.38430571       0.00012732      -0.00002012      -0.00012326
H        0.17182311       0.10508739       1.40475491      -0.00019673       0.00033992       0.00005130
H       -2.27563945      -1.16980271      -1.02342307      -0.00007196      -0.00004883      -0.00025650
H       -4.64236727      -0.54363895      -0.92690159       0.00000904      -0.00010195      -0.00019728
H       -5.47626825       0.93012660       0.87085862      -0.00010937      -0.00008015       0.00012236
H       -3.90167741       1.78696497       2.57302979      -0.00014684      -0.00019750       0.00020635
H       -1.51290023       1.19120735       2.45870340       0.00011796      -0.00015436       0.00005693
H        2.57840925      -2.36604290      -0.50554249      -0.00001246       0.00001179      -0.00014106
H        4.91145388      -1.61527338      -0.29071658      -0.00001438       0.00007054      -0.00010129
H        5.42386213       0.78982090      -0.06951062       0.00001542      -0.00010237      -0.00013104
H        3.58669364       2.43993381      -0.07900875       0.00002021       0.00001386      -0.00024849
H        1.24966245       1.68275777      -0.28062280       0.00005039      -0.00001192      -0.00022957
C        0.44292796      -0.50272445       4.44048379      -0.00000252       0.00029780       0.00022817
C        1.71996603       0.05441630       3.80961782      -0.00002401       0.00012508       0.00001956
C        2.55529095       0.80261023       4.85421420       0.00013045      -0.00021334       0.00005495
C        2.54665009      -1.07465470       3.18367282      -0.00012694      -0.00009731       0.00018621
O        1.29667482       0.96506686       2.79445366      -0.00039069       0.00036396       0.00063921
H        0.68930894      -1.21384367       5.22351505      -0.00010255       0.00033475       0.00032975
H       -0.16150227      -0.99869856       3.68488568      -0.00005255       0.00028629       0.00042970
H       -0.14166630       0.30793200       4.86826693       0.00007769       0.00037525       0.00021847
H        3.47010965       1.18776939       4.40532395       0.00013537      -0.00024053       0.00006421
H        1.98644006       1.63898241       5.25498561       0.00036059      -0.00004681       0.00008752
H        2.82333062       0.13814976       5.67084669       0.00013374      -0.00013397       0.00010233
H        3.43147506      -0.67394910       2.69038809      -0.00016508      -0.00023127      -0.00007463
H        1.95446334      -1.60485351       2.44155816      -0.00037459      -0.00000444       0.00041926
H        2.86210100      -1.77804756       3.94924241      -0.00007460      -0.00012991       0.00014909
H        2.07801444       1.36393587       2.39260295       0.00055304      -0.00052460      -0.00040600
