43
Properties=species:S:1:pos:R:3:forces:R:3 energy:=T -59.200019313707=T gnorm:=T 0.000045912473=T xtb:=T 6.7.1=T (edcfbbe)=T energy=-1610.9145781927195 pbc="F F F"
O        0.14483832      -2.21290949      -0.64590664      -0.00061243       0.00016647      -0.00012629
C        0.30587957      -0.82044357      -0.47125691       0.00005271       0.00008687      -0.00011130
N       -0.38971090      -0.36485804       0.70252584      -0.00007217       0.00059147      -0.00045985
C       -1.72548676      -0.01769919       0.70536640       0.00021427      -0.00015057       0.00010035
C       -2.62282372      -0.50690054      -0.24519443      -0.00009222      -0.00002316      -0.00022264
C       -3.95945831      -0.15936424      -0.18167495       0.00003342      -0.00018654       0.00007023
C       -4.42991669       0.66507164       0.82633688       0.00010278      -0.00005322      -0.00005038
C       -3.54482286       1.14352204       1.78062519      -0.00025798      -0.00006482       0.00008538
C       -2.20697539       0.81153146       1.72249480       0.00018216      -0.00029254       0.00003723
C        1.76063867      -0.39368446      -0.38325740      -0.00002752      -0.00004513      -0.00015162
C        2.79788824      -1.31423566      -0.39547707       0.00004739      -0.00000849      -0.00019554
C        4.11171663      -0.88907258      -0.28299928      -0.00007145      -0.00001828      -0.00001989
C        4.39936963       0.45894125      -0.15996617       0.00002124       0.00001514      -0.00001959
C        3.36728159       1.38484442      -0.16222573       0.00002433      -0.00001464      -0.00011534
C        2.05513129       0.96181766      -0.27614678       0.00007947       0.00008084      -0.00013911
H        0.28497376      -2.63849567       0.20926731       0.00051004       0.00003674      -0.00013788
H       -0.13318026      -0.38383338      -1.38430571       0.00012732      -0.00002012      -0.00012326
H        0.17182311       0.10508739       1.40475491      -0.00019673       0.00033992       0.00005130
H       -2.27563945      -1.16980271      -1.02342307      -0.00007196      -0.00004883      -0.00025650
H       -4.64236727      -0.54363895      -0.92690159       0.00000904      -0.00010195      -0.00019728
H       -5.47626825       0.93012660       0.87085862      -0.00010937      -0.00008015       0.00012236
H       -3.90167741       1.78696497       2.57302979      -0.00014684      -0.00019750       0.00020635
H       -1.51290023       1.19120735       2.45870340       0.00011796      -0.00015436       0.00005693
H        2.57840925      -2.36604290      -0.50554249      -0.00001246       0.00001179      -0.00014106
H        4.91145388      -1.61527338      -0.29071658      -0.00001438       0.00007054      -0.00010129
H        5.42386213       0.78982090      -0.06951062       0.00001542      -0.00010237      -0.00013104
H        3.58669364       2.43993381      -0.07900875       0.00002021       0.00001386      -0.00024849
H        1.24966245       1.68275777      -0.28062280       0.00005039      -0.00001192      -0.00022957
C        0.44292796      -0.50272445       4.44048379      -0.00000252       0.00029780       0.00022817
C        1.71996603       0.05441630       3.80961782      -0.00002401       0.00012508       0.00001956
C        2.55529095       0.80261023       4.85421420       0.00013045      -0.00021334       0.00005495
C        2.54665009      -1.07465470       3.18367282      -0.00012694      -0.00009731       0.00018621
O        1.29667482       0.96506686       2.79445366      -0.00039069       0.00036396       0.00063921
H        0.68930894      -1.21384367       5.22351505      -0.00010255       0.00033475       0.00032975
H       -0.16150227      -0.99869856       3.68488568      -0.00005255       0.00028629       0.00042970
H       -0.14166630       0.30793200       4.86826693       0.00007769       0.00037525       0.00021847
H        3.47010965       1.18776939       4.40532395       0.00013537      -0.00024053       0.00006421
H        1.98644006       1.63898241       5.25498561       0.00036059      -0.00004681       0.00008752
H        2.82333062       0.13814976       5.67084669       0.00013374      -0.00013397       0.00010233
H        3.43147506      -0.67394910       2.69038809      -0.00016508      -0.00023127      -0.00007463
H        1.95446334      -1.60485351       2.44155816      -0.00037459      -0.00000444       0.00041926
H        2.86210100      -1.77804756       3.94924241      -0.00007460      -0.00012991       0.00014909
H        2.07801444       1.36393587       2.39260295       0.00055304      -0.00052460      -0.00040600
43
Properties=species:S:1:pos:R:3 energy:=T -59.200019313707=T gnorm:=T 0.000045912473=T xtb:=T 6.7.1=T (edcfbbe)=T pbc="F F F"
O        0.15844864      -2.42601363      -0.33004576
C        0.35684293      -0.79146275      -0.42369357
N       -0.44030580      -0.18038842       0.52923046
C       -1.75842762       0.09661590       0.58217007
C       -2.66904327      -0.19060128      -0.40472101
C       -4.00111648       0.10671384      -0.30516182
C       -4.52259398       0.70501321       0.81670677
C       -3.60403952       0.97546523       1.80363055
C       -2.27108267       0.69257746       1.71628031
C        1.78989038      -0.36814273      -0.41490261
C        2.77597261      -1.33677688      -0.40030906
C        4.10184893      -0.96061162      -0.32279834
C        4.43818581       0.37708136      -0.24540634
C        3.44858321       1.34765545      -0.27777875
C        2.11284657       0.98382498      -0.40648783
H        0.32153031      -2.61466539       0.60194269
H       -0.04764537      -0.54871586      -1.41063177
H        0.15010148       0.06090383       1.52731037
H       -2.34534948      -0.71295045      -1.28438024
H       -4.69769364      -0.12544192      -1.09495698
H       -5.57382133       0.93317195       0.89072934
H       -3.99089173       1.44600202       2.69263452
H       -1.60248961       0.94930961       2.51736903
H        2.52781592      -2.38466459      -0.47268196
H        4.86640308      -1.72332505      -0.32281402
H        5.47682334       0.66503085      -0.17662025
H        3.71346879       2.39419425      -0.20424175
H        1.32534812       1.72796278      -0.39525591
C        0.55540852      -0.68506232       4.56663374
C        1.72352031      -0.00809472       3.86139366
C        2.41652908       0.93820013       4.85605464
C        2.68980991      -1.01125363       3.21171833
O        1.03137428       0.83845261       2.92693773
H        0.95305285      -1.29688401       5.36921167
H        0.04627647      -1.29547323       3.82857295
H       -0.12586332       0.04575001       4.99438812
H        3.25162714       1.43025966       4.36032885
H        1.72797948       1.68301571       5.25099342
H        2.81035989       0.35451867       5.68098516
H        3.53672089      -0.55868376       2.69511243
H        2.16890709      -1.63962456       2.49623525
H        3.11003822      -1.60559166       4.01770885
H        1.94662868       1.28017271       2.25249304
43
Properties=species:S:1:pos:R:3 energy:=T -59.200019313707=T gnorm:=T 0.000045912473=T xtb:=T 6.7.1=T (edcfbbe)=T pbc="F F F"
O        0.16303066      -2.57681100      -0.02219490
C        0.36837872      -0.73626295      -0.41118908
N       -0.52055603       0.06297597       0.24728255
C       -1.84542026       0.18605711       0.46697028
C       -2.71993292       0.12447174      -0.56726497
C       -4.04551144       0.37872984      -0.40911748
C       -4.59271746       0.73273730       0.79648404
C       -3.68917555       0.80526494       1.81815273
C       -2.36569784       0.54838083       1.69740887
C        1.80604565      -0.35041438      -0.53507042
C        2.75134089      -1.36079648      -0.41868593
C        4.08952305      -1.03006965      -0.35466153
C        4.46922943       0.29769858      -0.31173007
C        3.52097895       1.30837487      -0.33887539
C        2.17036174       1.00706350      -0.50293276
H        0.34213835      -2.59376675       0.92400192
H       -0.02540955      -0.83210875      -1.42163479
H       -0.09930435       0.34660026       1.49267690
H       -2.37169447      -0.15496628      -1.54001340
H       -4.73404775       0.30547893      -1.23339809
H       -5.64549211       0.93114393       0.90203465
H       -4.08333051       1.08557318       2.77998540
H       -1.77934162       0.64532033       2.59653470
H        2.47200251      -2.40182502      -0.44686217
H        4.82236776      -1.82304307      -0.34833338
H        5.51865374       0.54670911      -0.26561733
H        3.81938473       2.34609873      -0.28473754
H        1.41796480       1.79040386      -0.46709653
C        0.69916242      -0.82724826       4.68736879
C        1.76465380      -0.05564162       3.96259519
C        2.29080872       1.08344914       4.84271898
C        2.94127170      -0.97306413       3.30136544
O        0.79710380       0.77849588       3.07106452
H        1.21168459      -1.32602964       5.50345776
H        0.27711435      -1.55581196       4.00767352
H       -0.07814938      -0.18801522       5.09714294
H        3.00008389       1.66342292       4.25722909
H        1.49650333       1.71331440       5.23758594
H        2.79327395       0.59515166       5.66951508
H        3.70919890      -0.39885324       2.76137830
H        2.61064399      -1.77766884       2.64200149
H        3.40111498      -1.40174447       4.17227072
H        1.75374092       0.64868845       2.09839999
43
Properties=species:S:1:pos:R:3 energy:=T -59.200019313707=T gnorm:=T 0.000045912473=T xtb:=T 6.7.1=T (edcfbbe)=T pbc="F F F"
O        0.15442224      -2.65528310       0.01300671
C        0.35985330      -0.61389889      -0.49225068
N       -0.53021373       0.23423776       0.12034518
C       -1.84839759       0.20366099       0.42989128
C       -2.73257376       0.22087869      -0.60773597
C       -4.05821777       0.45742318      -0.43344639
C       -4.60311230       0.74212601       0.79191993
C       -3.69475399       0.75501432       1.81592299
C       -2.36922355       0.49383976       1.67547433
C        1.81983624      -0.32034041      -0.53040416
C        2.74363862      -1.35788120      -0.43088708
C        4.08401262      -1.04731848      -0.35810625
C        4.47383730       0.27616232      -0.32132574
C        3.53814741       1.29327996      -0.31854452
C        2.19473324       1.00810389      -0.38603779
H        0.28788828      -2.79022981       0.95160183
H       -0.03426586      -0.93875051      -1.43748332
H        0.01612274       1.11074249       1.41013043
H       -2.39132361       0.03332761      -1.60650006
H       -4.74285262       0.42999945      -1.26398746
H       -5.65696267       0.93254836       0.90367202
H       -4.09233885       0.98200856       2.79063720
H       -1.75956716       0.50161634       2.55936020
H        2.45964990      -2.39910908      -0.45759072
H        4.80830345      -1.84871754      -0.35705838
H        5.52691511       0.51235137      -0.28897192
H        3.84829780       2.32779850      -0.30021903
H        1.47990697       1.81497158      -0.43988216
C        0.76260171      -0.84889260       4.77802551
C        1.80893931       0.00369536       3.98109486
C        2.25916935       1.14388334       4.83131472
C        3.09361857      -0.86957602       3.31217577
O        0.92842440       0.78735053       2.93904259
H        1.31549793      -1.31051482       5.58588751
H        0.29473680      -1.70609347       4.27957933
H       -0.04976353      -0.22461084       5.13762947
H        2.91618106       1.72998250       4.19675566
H        1.42647965       1.72430689       5.21747942
H        2.78634679       0.67888252       5.65792567
H        3.57967923      -0.14290129       2.66504228
H        3.02075735      -1.80575476       2.71083618
H        3.50939071      -1.26731609       4.22130699
H        0.94815800      -0.68353964       2.20825757
43
Properties=species:S:1:pos:R:3 energy:=T -59.200019313707=T gnorm:=T 0.000045912473=T xtb:=T 6.7.1=T (edcfbbe)=T pbc="F F F"
O        0.16003011      -2.79404174       0.09647281
C        0.37894764      -0.51085763      -0.42380055
N       -0.44751536       0.40128810       0.11377743
C       -1.78670576       0.33466822       0.34634789
C       -2.69223888       0.51557451      -0.66558327
C       -4.02661168       0.70228260      -0.47982101
C       -4.60793622       0.75475802       0.76411653
C       -3.70003578       0.58413956       1.77490563
C       -2.36946984       0.38096577       1.59368088
C        1.82046278      -0.30657333      -0.42802241
C        2.70670668      -1.36458645      -0.39218463
C        4.05995294      -1.10813542      -0.37384750
C        4.49505255       0.20169349      -0.37249589
C        3.59630635       1.25160770      -0.37862342
C        2.24461948       1.01032345      -0.39676491
H        0.30239883      -3.11110886       0.98268334
H       -0.09382595      -1.07628782      -1.21665438
H        0.28383762       0.96067618       1.63206184
H       -2.29756849       0.52010555      -1.66367076
H       -4.71212718       0.82716268      -1.30017457
H       -5.66468179       0.91855286       0.89415262
H       -4.11802384       0.62582421       2.76571412
H       -1.75952645       0.25902887       2.46314049
H        2.40368127      -2.39744670      -0.42193280
H        4.75764018      -1.93284236      -0.36357614
H        5.55534252       0.40328139      -0.35531118
H        3.93789712       2.27615814      -0.38060063
H        1.55136389       1.83683797      -0.45329021
C        0.93686473      -0.89653672       4.91084547
C        1.75139264       0.00420234       3.91954210
C        2.10327206       1.22657936       4.76091309
C        2.99625256      -0.64985041       3.22443065
O        0.86451925       0.53456198       2.91540695
H        1.59017316      -1.20807647       5.72256359
H        0.61144820      -1.90588004       4.62237108
H        0.02973254      -0.39055672       5.23985001
H        2.65505410       1.88720572       4.10019520
H        1.22401553       1.71886450       5.16935545
H        2.72952287       0.88957908       5.58133652
H        3.40434571       0.10326222       2.55435695
H        3.00502061      -1.55309866       2.59889556
H        3.59014450      -0.98285446       4.07255216
H        0.41224790      -1.37298694       2.40056989
43
Properties=species:S:1:pos:R:3 energy:=T -59.200019313707=T gnorm:=T 0.000045912473=T xtb:=T 6.7.1=T (edcfbbe)=T pbc="F F F"
O        0.26121616      -3.28122719       0.22695303
C        0.37220911      -0.46935963      -0.34373818
N       -0.40247009       0.49922594       0.10456197
C       -1.74773086       0.43865759       0.28412198
C       -2.64531738       0.83707326      -0.68286878
C       -3.98862461       0.98033416      -0.49304634
C       -4.60431729       0.76989606       0.72193302
C       -3.71164325       0.38949886       1.68959977
C       -2.37773651       0.22816576       1.48490796
C        1.80929253      -0.30058842      -0.38805821
C        2.66776954      -1.37618506      -0.36919342
C        4.02999983      -1.18045069      -0.38358822
C        4.51204488       0.11185449      -0.42142519
C        3.65108462       1.19415333      -0.44087852
C        2.29027615       1.00100140      -0.42279556
H        0.26085400      -2.61466397       0.87671650
H       -0.15094008      -1.17179202      -0.99064996
H        0.42996307       0.65435725       1.77420621
H       -2.19668192       1.01359595      -1.64345321
H       -4.66729010       1.27806023      -1.27408856
H       -5.66408055       0.90235400       0.86731195
H       -4.15013383       0.22219861       2.65814671
H       -1.76556335      -0.05215471       2.30992720
H        2.33866852      -2.39772303      -0.38715203
H        4.69597196      -2.03048648      -0.36174019
H        5.57910538       0.27289212      -0.42522445
H        4.03104373       2.20466320      -0.46708614
H        1.61796822       1.84589313      -0.45690612
C        1.13987175      -0.93538067       5.01733680
C        1.71901697      -0.00574730       3.92624115
C        1.92353114       1.31172709       4.69040773
C        2.94990723      -0.48789613       3.16670103
O        0.73039341       0.28187236       2.98360464
H        1.85561016      -1.05872182       5.83347353
H        1.07862129      -2.00535212       4.79714261
H        0.16303861      -0.57919075       5.35122334
H        2.33850290       2.01819258       3.98003223
H        0.99744918       1.68741384       5.12076992
H        2.63548973       1.12887674       5.49028257
H        3.27812317       0.28756589       2.47922361
H        2.90266834      -1.38447889       2.55349548
H        3.66630899      -0.71221853       3.95402339
H        0.02850836      -1.94844268       2.76343276
43
Properties=species:S:1:pos:R:3 energy:=T -59.200019313707=T gnorm:=T 0.000045912473=T xtb:=T 6.7.1=T (edcfbbe)=T pbc="F F F"
O        0.32028220      -3.10817783       0.96977393
C        0.35438405      -0.37628965      -0.37185727
N       -0.38482344       0.60244516       0.07218056
C       -1.73666487       0.52452700       0.24120877
C       -2.61455330       1.09506948      -0.66096536
C       -3.96223832       1.20883776      -0.46844958
C       -4.58951859       0.78668510       0.68576237
C       -3.71194514       0.23535759       1.58809891
C       -2.37099804       0.09242809       1.38302032
C        1.80656201      -0.28386287      -0.40470061
C        2.63546899      -1.39551598      -0.38393092
C        4.00303180      -1.24788564      -0.39227695
C        4.52475174       0.02747077      -0.46320737
C        3.70037764       1.13826717      -0.49313959
C        2.33380185       0.99916316      -0.44818946
H        0.50113696      -2.19572996       1.22091833
H       -0.18053512      -1.21653433      -0.82200482
H        0.48171388       0.44411384       1.91457136
H       -2.14324543       1.42255990      -1.57109461
H       -4.62683424       1.64537977      -1.19536382
H       -5.65167228       0.89599347       0.83818717
H       -4.16788919      -0.09677147       2.50553488
H       -1.75210750      -0.36216206       2.12593392
H        2.26439512      -2.40797800      -0.38428619
H        4.63860094      -2.12031455      -0.36101655
H        5.59620794       0.15102561      -0.48851117
H        4.11386706       2.13419002      -0.54452583
H        1.68050766       1.85842316      -0.47251873
C        1.26743828      -0.97171485       4.99758201
C        1.67056085      -0.00426813       3.88577669
C        1.75505238       1.34389704       4.60924819
C        2.92551393      -0.37814186       3.12222356
O        0.60545616      -0.03071083       2.99480196
H        1.99673988      -0.99375232       5.81128581
H        1.39990276      -1.98906915       4.64726971
H        0.27127261      -0.75126426       5.37291664
H        2.04511846       2.07471808       3.86267195
H        0.80632056       1.62017623       5.06422910
H        2.51195395       1.29102196       5.38816773
H        3.17067219       0.40593695       2.41234672
H        2.84026013      -1.29869277       2.55471029
H        3.70607926      -0.48500031       3.86988768
H       -0.15242669      -2.71638671       2.94161427
43
Properties=species:S:1:pos:R:3 energy:=T -59.200019313707=T gnorm:=T 0.000045912473=T xtb:=T 6.7.1=T (edcfbbe)=T pbc="F F F"
O        0.44166859      -2.92047621       1.51206259
C        0.33257566      -0.36098620      -0.29609958
N       -0.37974694       0.66697466       0.00828516
C       -1.73831240       0.60762335       0.18355393
C       -2.58363601       1.36194595      -0.61246514
C       -3.93539426       1.44670440      -0.41110481
C       -4.55981878       0.80254402       0.63809408
C       -3.71759475       0.06988118       1.44321488
C       -2.37052639      -0.04191710       1.22697714
C        1.78020714      -0.28197343      -0.38333433
C        2.57078303      -1.42601310      -0.35492011
C        3.94513496      -1.32619040      -0.40443290
C        4.52491351      -0.07593774      -0.51770948
C        3.74174219       1.06616113      -0.55687342
C        2.36987178       0.97528245      -0.47820797
H        0.62929423      -2.00872505       1.80277926
H       -0.16850525      -1.30995156      -0.50703293
H        0.48035572       0.40908727       2.09879757
H       -2.10058619       1.85858528      -1.43683639
H       -4.57687536       2.02783544      -1.05386521
H       -5.62331796       0.88385810       0.80042439
H       -4.18165086      -0.43441084       2.27533208
H       -1.75313681      -0.62813764       1.87883970
H        2.12495795      -2.40637121      -0.28456405
H        4.55167567      -2.21897470      -0.36652649
H        5.59979900       0.00536443      -0.57354732
H        4.19829669       2.04100959      -0.64333856
H        1.74543239       1.85547535      -0.50443414
C        1.41053704      -1.04962879       4.94480410
C        1.62610621      -0.00873771       3.84944060
C        1.56527827       1.35740074       4.52881989
C        2.93059162      -0.22374437       3.09615447
O        0.53897062      -0.21605458       2.97934756
H        2.17075953      -0.97566793       5.71791724
H        1.55165263      -2.02688655       4.49818542
H        0.42556812      -0.94391683       5.39008729
H        1.71129302       2.11018576       3.75932513
H        0.60459002       1.50929854       5.01539102
H        2.34880591       1.44305230       5.27694334
H        3.06467705       0.55713065       2.35299272
H        2.94537762      -1.17853541       2.57981752
H        3.74350888      -0.19810523       3.81507112
H       -0.10334402      -3.22659425       2.86651863
43
Properties=species:S:1:pos:R:3:forces:R:3 energy:=T -59.176013967346=T gnorm:=T 0.000034870276=T xtb:=T 6.7.1=T (edcfbbe)=T energy=-1610.2613594474935 pbc="F F F"
O        0.51344914      -2.96334749       1.97205905       0.00031385       0.00056247      -0.00031110
C        0.30493978      -0.33772830      -0.20864868       0.00019054      -0.00036462      -0.00008739
N       -0.39705083       0.71255056      -0.07661209      -0.00042986       0.00011369       0.00021029
C       -1.76302690       0.68894804       0.12630091       0.00006612      -0.00000035      -0.00009893
C       -2.55147492       1.61215203      -0.56442647      -0.00031709      -0.00019881      -0.00008355
C       -3.91339617       1.66239281      -0.34569787       0.00019654      -0.00017363      -0.00008980
C       -4.50588828       0.81794662       0.58127731      -0.00020969       0.00026159       0.00012256
C       -3.72560573      -0.08338378       1.28699692      -0.00005741      -0.00001402       0.00004130
C       -2.36440601      -0.15766212       1.06119461      -0.00008340      -0.00019038      -0.00017074
C        1.74991145      -0.27106134      -0.34150060      -0.00012767      -0.00013424       0.00010333
C        2.50202733      -1.44597079      -0.30192420      -0.00010392      -0.00005360      -0.00011604
C        3.87903914      -1.39295277      -0.41297576       0.00006141      -0.00019018       0.00002835
C        4.51895874      -0.17361980      -0.57289392      -0.00001666       0.00010202       0.00004951
C        3.77847201       0.99918612      -0.61563209       0.00004168      -0.00009934       0.00018982
C        2.40343899       0.95410575      -0.49827121      -0.00013307       0.00006454       0.00032006
H        0.56750891      -2.05302423       2.31607966       0.00022297       0.00003102      -0.00003005
H       -0.13124842      -1.34371078      -0.23456402       0.00006200      -0.00010584       0.00018350
H        0.47571422       0.32792603       2.28570161       0.00024587      -0.00004887      -0.00015612
H       -2.07982010       2.26368252      -1.28505241      -0.00001171      -0.00034029       0.00008747
H       -4.51824423       2.36943018      -0.89553134       0.00002449      -0.00016733      -0.00002396
H       -5.57055869       0.86759159       0.75724865       0.00003633       0.00007338      -0.00005515
H       -4.18184265      -0.73685228       2.01732238      -0.00014502       0.00017247      -0.00010005
H       -1.75062060      -0.84583386       1.62433575      -0.00020086       0.00015407       0.00004475
H        1.99982294      -2.39135048      -0.15674157       0.00005269      -0.00002802       0.00034943
H        4.45711942      -2.30490109      -0.37523289      -0.00006097      -0.00003263       0.00019346
H        5.59479106      -0.13590368      -0.66364354      -0.00011042      -0.00003620      -0.00002518
H        4.27936923       1.94856460      -0.73991597      -0.00013098      -0.00006687      -0.00004919
H        1.81023358       1.85577143      -0.53028133      -0.00000523      -0.00005181       0.00004468
C        1.59586622      -1.10240960       4.94271635       0.00003368      -0.00006475       0.00014393
C        1.60873447      -0.03282827       3.84934477       0.00005377       0.00003864       0.00016672
C        1.38121534       1.35734504       4.45046732       0.00002650       0.00023591      -0.00002760
C        2.93192491      -0.07047441       3.07832728      -0.00006136      -0.00011307      -0.00014738
O        0.52573895      -0.35097540       2.97042893       0.00013149       0.00003856      -0.00023657
H        2.36078600      -0.89106752       5.68382437      -0.00000196       0.00012348       0.00016201
H        1.78702411      -2.08079999       4.50863987       0.00009232      -0.00005238       0.00009454
H        0.62375554      -1.11998353       5.42954890      -0.00006903       0.00008749       0.00002683
H        1.37637590       2.11251444       3.66568262      -0.00007440       0.00005264      -0.00023878
H        0.42355707       1.38790236       4.96593512       0.00014435       0.00013307       0.00004929
H        2.16977653       1.59674219       5.15832223       0.00015221       0.00034409      -0.00015077
H        2.94773075       0.69667687       2.30599170       0.00021092      -0.00002163      -0.00020676
H        3.05799038      -1.03865813       2.59814457       0.00023222      -0.00019488       0.00005350
H        3.76513290       0.09794430       3.75477573      -0.00019066       0.00009036      -0.00004006
H       -0.05524239      -3.43741013       2.58276332      -0.00005060       0.00006426      -0.00022016
