49
 energy: -71.046753268723 gnorm: 0.000143083746 xtb: 6.7.1 (edcfbbe)
Fe           0.09130916649640       -0.23088691109835       -0.10620049079169
C            2.31728805565809       -2.36860630877433       -0.21954942031308
P            2.18980219189238       -0.53653245830432       -0.50025894202523
C            3.49821036932863        0.08282230257847        0.67970304816401
C            4.93232793182104       -0.30368901957655        0.32950567140589
C            3.34924301145332        1.58240859458857        0.91635786807076
C            2.94457929897696       -0.40657389308200       -2.20897837690735
C            2.14597273543870       -1.25838272960515       -3.19230271779312
C            2.94671489737190        1.05424836610710       -2.64730520266653
C            0.96010302005413       -2.93908699641695       -0.48979392602857
C            0.77426877826553       -4.25794148369216       -0.84435176047430
C           -0.51850195524149       -4.76020676236177       -0.99312645958965
C           -1.57843143454283       -3.92745235300391       -0.70855891796028
C           -1.33543699181531       -2.60287135018379       -0.34546796719985
C           -2.34533866435929       -1.65957725629538        0.08155347019014
C           -3.70234832151081       -1.94033287448754        0.22907749452584
C           -4.54138004732161       -0.96792709832912        0.74020305858523
C           -4.00883210315471        0.25278109076301        1.11704173482110
C           -2.64395751944510        0.47793333629562        0.93867998123117
O           -2.12235165858658        1.64022829977262        1.31578733840889
N           -1.83238713563066       -0.44187357332847        0.40200025175930
N           -0.07423346478101       -2.08786105389138       -0.30934455462601
H            2.52595750640079       -2.49786573864266        0.85017401297057
H            3.10386522379608       -2.86244219646579       -0.79573137899057
H            3.20411457856259       -0.42028677930459        1.61286011798278
H            5.01769357967912       -1.36811387040118        0.11752476906977
H            5.28910894910116        0.25729624044861       -0.53178820344809
H            5.58525468698709       -0.07245388362879        1.17055092188165
H            3.90159528079731        1.88150070037224        1.80630583671716
H            2.29562822905364        1.81639764103795        1.05834079075134
H            3.72279942642941        2.16151665390414        0.07502341193457
H            3.97185192090433       -0.78792046554623       -2.16142572120747
H            2.19264848746624       -2.31764145970119       -2.94570181223015
H            1.10054665801031       -0.95565959593050       -3.19452038373923
H            2.53667597412355       -1.12885617251713       -4.20152833690578
H            3.22725528496780        1.14175051405423       -3.69690648471549
H            3.64703275400148        1.64203264129913       -2.05844401633059
H            1.95127066847818        1.47953957400244       -2.51717718766369
H            1.63095786837687       -4.89752219925466       -0.99564208162809
H           -0.67951806487996       -5.78358258184475       -1.29401383723103
H           -2.59126488634758       -4.29197775369775       -0.76547251156800
H           -4.09055712642650       -2.90643064066481       -0.04757718585752
H           -5.59673164841851       -1.16008153649496        0.85841934950007
H           -4.61024741083820        1.03809727214852        1.54346815766431
H           -1.15585053415552        1.60402651607486        1.12176897453284
C           -0.44294187025703        0.25481209151068       -1.69358377132971
O           -0.93792671145995        0.65857300377614       -2.65708604449434
H            0.46540403054986       -0.31397776851218        1.31781272927182
H            0.21317872822105        1.22578992830172        0.08396908903848
