58

O       0.212655874884550     -1.486730857061030     -1.325092405676850
C       0.410127282031630     -0.251217633801450     -0.676483827160500
N      -0.291868662654230     -0.150568505371040      0.578401421667520
C      -1.644266632705500     -0.373973537496970      0.714697428116140
C      -2.525369231074830     -0.377600480932040     -0.370068915551830
C      -3.879073082850320     -0.571809414001090     -0.168700138108900
C      -4.388284503193810     -0.767415221585150      1.103875026925630
C      -3.520284427838070     -0.769942260982470      2.185038797608170
C      -2.167494609930220     -0.579223299454420      1.996971806413210
C       1.875679524437340      0.040512588308590     -0.421261867470960
C       2.692546526658690     -0.922868477401730      0.159981259789880
C       4.030290592985120     -0.653085714393000      0.394732473173280
C       4.564108791827370      0.579419580548390      0.056734895094010
C       3.753148422839960      1.544037920348720     -0.517085510778560
C       2.416162962860040      1.274730846890780     -0.755839010018180
H       0.472727872317840     -2.205573321256290     -0.717721739008810
H       0.007624205865470      0.494625314948860     -1.378490035131260
H       0.258687934885460     -0.334547011512830      1.410317569044450
H      -2.149479181107730     -0.247099564304600     -1.372698481672810
H      -4.544059025767370     -0.574404780374480     -1.021583777115320
H      -5.447281845358870     -0.921183625278350      1.251641455886460
H      -3.902475808730660     -0.927872518915350      3.184201067784100
H      -1.492283042643770     -0.591525512228910      2.839724259552430
H       2.289011348146500     -1.891305835223510      0.418791862322060
H       4.660076033076330     -1.410917141850420      0.839886477169800
H       5.608715012962230      0.787277126737300      0.238487550453920
H       4.163271318228000      2.507588201290430     -0.782341867742060
H       1.785682473163350      2.028056074236150     -1.206516217741710
C       0.072419488519530     -3.698163743682460      2.318959068274200
C      -0.095388392900510     -4.398248955562310      0.971141385234060
C       0.152744604473380     -5.903418014386200      1.115421838372220
C      -1.492802423358570     -4.143910502697270      0.396985005814110
O       0.895687186176610     -3.835566291117670      0.101730421240460
H      -0.666402686643570     -4.065847564976100      3.024521062761560
H      -0.056335799615380     -2.625984884291020      2.205749480774060
H       1.067239833657180     -3.888859929919370      2.714727275302450
H       0.021015998051570     -6.406995283214650      0.158339342497430
H       1.166859443933880     -6.083873009572320      1.466730069348580
H      -0.545742231494670     -6.331659437216950      1.828740751161930
H      -1.599024294760040     -4.621203762129200     -0.576300603485650
H      -1.669527004823250     -3.077681283044950      0.276887274836220
H      -2.250912209899110     -4.544183556076930      1.064288730211020
H       0.901875540801860     -4.341887761207300     -0.719554487599770
C       0.344362321133620      1.349096826201470      4.151946554030360
C       1.667649122508830      0.651013126122940      3.836615159348860
C       2.572116528225120      1.575214141020510      3.014918647751570
C       2.374404626167520      0.229472886892980      5.130233287388320
O       1.339037122408530     -0.510783332188270      3.074594147676540
H       0.524593616208490      2.248592879322890      4.733365696931560
H      -0.300372842307780      0.684158531598040      4.721484038667700
H      -0.162267096899090      1.617738210047370      3.228165163094950
H       3.514008034919340      1.081981043877970      2.779198972917460
H       2.083927298419520      1.840370936920770      2.079664603129360
H       2.785344754762870      2.483573559222490      3.571420171957770
H       3.321537864915670     -0.259268914910790      4.905418119373620
H       1.748462805229410     -0.465862980040000      5.685603906261690
H       2.572123018809540      1.097676794608220      5.752569449930440
H       2.157417432043070     -0.968831132487130      2.847785077030880
