48
Properties=species:S:1:pos:R:3 energy:=T -75.422584135712=T gnorm:=T 0.000268678654=T xtb:=T 6.7.1=T (edcfbbe)=T pbc="F F F"
Mn       0.00885670      -0.29689646       0.09236820
C        2.32480590      -2.41817567      -0.23784896
P        2.16462549      -0.56227186      -0.44797437
C        3.51381676       0.04195439       0.69126197
C        4.94073157      -0.28858108       0.26687681
C        3.31525019       1.53323641       0.95992256
C        2.83365642      -0.38003241      -2.17837703
C        1.97730276      -1.18749974      -3.15164957
C        2.86385808       1.09353530      -2.57309303
C        0.98021119      -3.05935875      -0.44682107
C        0.83459374      -4.40267559      -0.75474812
C       -0.43940607      -4.95762541      -0.82386661
C       -1.53398381      -4.16161117      -0.54258633
C       -1.33681507      -2.81640331      -0.24968247
C       -2.36159059      -1.84196691       0.11730986
C       -3.74246284      -1.93298937       0.28146740
C       -4.41695655      -0.77648450       0.67195273
C       -3.77198455       0.43097933       0.88540465
C       -2.37439399       0.47103386       0.69711698
O       -1.52112221       1.42520362       0.78785718
N       -1.77164291      -0.67192018       0.34190081
N       -0.08564298      -2.26667852      -0.24949033
H        2.61223418      -2.58284586       0.80898255
H        3.09308481      -2.85390524      -0.88092942
H        3.28474101      -0.49486127       1.62534975
H        5.04992246      -1.34797490       0.04412287
H        5.23420087       0.28934603      -0.60588190
H        5.62384968      -0.03925376       1.07728959
H        3.82297580       1.82810538       1.87638360
H        2.24623854       1.74921224       1.06735358
H        3.70450539       2.14010896       0.14648931
H        3.85182447      -0.78888990      -2.17768660
H        2.01919449      -2.25370641      -2.93934244
H        0.93657046      -0.87060499      -3.09824325
H        2.32734708      -1.02961497      -4.17065236
H        3.09543474       1.19945849      -3.63190310
H        3.61318016       1.63959277      -2.00578125
H        1.89270106       1.55185378      -2.38499752
H        1.70809560      -5.01254955      -0.92578899
H       -0.56753123      -6.00012135      -1.07046349
H       -2.53506274      -4.56259779      -0.54591482
H       -4.27399271      -2.85591933       0.11683494
H       -5.48852294      -0.82272350       0.80960001
H       -4.31335694       1.31681262       1.17820685
C       -0.48125564       0.40616421      -1.47921606
O       -0.96390163       0.97876403      -2.35323079
C        0.41342903      -0.36632745       1.82810560
O        0.60345175      -0.27046482       2.96116394
