59
Properties=species:S:1:pos:R:3:forces:R:3 energy:=T -70.653961149734=T gnorm:=T 0.000273035787=T xtb:=T 6.7.1=T (edcfbbe)=T energy=-1922.592210983051 pbc="F F F"
Ru       0.02499742      -0.10073513       0.09633605      -0.00087883       0.00028695      -0.00178701
N        0.25718071      -2.28056929       0.20138359      -0.00017257      -0.00100505      -0.00088118
C        0.49537155      -1.82621933       1.40950828      -0.00057013       0.00012152      -0.00064402
C        1.94777274      -1.52048238       1.75576241      -0.00059803      -0.00004829      -0.00047420
P        2.30764529      -0.20607497       0.50361310      -0.00015582      -0.00043663      -0.00091023
C        3.60685797      -1.01638817      -0.57281748       0.00084671       0.00057608       0.00060606
C        4.10981896      -0.04604442      -1.63908796       0.00085661       0.00071496       0.00070372
C        3.08198197      -2.28480130      -1.23778620       0.00144607       0.00040220       0.00026244
C        3.33239676       1.12935750       1.33074488      -0.00108801       0.00016592       0.00066316
C        2.97558572       2.43782264       0.62522700      -0.00108601       0.00017506       0.00074988
C        3.06539583       1.25925787       2.82618199      -0.00159188      -0.00012052       0.00058912
C       -0.94973197      -3.03968158      -0.04792929      -0.00047167      -0.00044219      -0.00030488
C       -2.25371329      -2.41597059       0.47620012      -0.00039662      -0.00010297      -0.00004062
P       -2.23074564      -0.58664634       0.13673227       0.00034332      -0.00027157      -0.00105487
C       -3.46320745      -0.02520423       1.43611843       0.00119634       0.00049149       0.00051383
C       -3.85717281       1.43296217       1.21298305       0.00173650       0.00066349       0.00042662
C       -2.89801724      -0.17678362       2.84583586       0.00203273       0.00041056       0.00008575
C       -3.28205427      -0.40939118      -1.41015590      -0.00079582       0.00030167       0.00029285
C       -3.05427792      -1.52023650      -2.43309525      -0.00164976      -0.00004693       0.00032195
C       -2.97245656       0.93783591      -2.06356706      -0.00063939      -0.00003396      -0.00005361
H       -0.14154207      -2.11323341       2.26270611      -0.00064204       0.00040684      -0.00078559
H       -0.05060588       0.45468106       1.55516283       0.00154087       0.00037258      -0.00256819
H        2.00971877      -1.11631885       2.76694849      -0.00081702      -0.00026856      -0.00049210
H        2.58372912      -2.40967857       1.68124071      -0.00042326      -0.00020931      -0.00027782
H        4.43020152      -1.28059279       0.10817839       0.00055146       0.00080899       0.00081725
H        3.26802445       0.34743414      -2.21000650       0.00078032       0.00052210       0.00052263
H        4.77647834      -0.56223050      -2.32947086       0.00120365       0.00108283       0.00095966
H        4.65615594       0.78789681      -1.20405816       0.00032332       0.00099126       0.00098948
H        3.89503016      -2.79650730      -1.75287163       0.00183853       0.00066836       0.00054475
H        2.31884076      -2.03842573      -1.97234142       0.00165643       0.00007890       0.00001013
H        2.64181666      -2.97170317      -0.51838215       0.00147838       0.00022400       0.00008871
H        4.39228375       0.89285221       1.17115648      -0.00084172       0.00053328       0.00104416
H        1.92131711       2.65835503       0.79611032      -0.00112890      -0.00008630       0.00041216
H        3.57896381       3.26098934       1.00557765      -0.00137525       0.00030632       0.00103703
H        3.12544269       2.36300376      -0.45073865      -0.00069451       0.00033334       0.00079020
H        1.99321570       1.32460208       3.00957866      -0.00171518      -0.00043829       0.00014157
H        3.47926513       0.42058558       3.38331784      -0.00165602      -0.00016795       0.00060540
H        3.52877722       2.17102237       3.20105287      -0.00197315      -0.00012197       0.00089683
H       -0.81515141      -4.03644250       0.40097839      -0.00069866      -0.00043505      -0.00007436
H       -1.01639519      -3.17851364      -1.13307461      -0.00065580      -0.00080208      -0.00027826
H       -2.32005777      -2.55065197       1.55863239      -0.00019652      -0.00001197      -0.00024968
H       -3.12418678      -2.89982378       0.02844578      -0.00042671       0.00009913      -0.00008598
H       -4.34658791      -0.67196082       1.32644975       0.00089917       0.00085463       0.00093882
H       -4.45971403       1.55600533       0.31656115       0.00120079       0.00083150       0.00083937
H       -4.44008676       1.79629301       2.05879510       0.00226392       0.00096005       0.00085184
H       -2.95789414       2.04350294       1.12739813       0.00182882       0.00035499      -0.00002417
H       -2.69410599      -1.21433737       3.10366681       0.00176290       0.00036502       0.00011855
H       -3.61026708       0.20931989       3.57408162       0.00249804       0.00078270       0.00045509
H       -1.97317292       0.39172757       2.93197944       0.00224798       0.00013372      -0.00044919
H       -4.33249489      -0.43261195      -1.08934660      -0.00053395       0.00063131       0.00089434
H       -3.40117247      -2.48889650      -2.08026410      -0.00192075       0.00017272       0.00052420
H       -1.99853442      -1.59597980      -2.68696163      -0.00188001      -0.00055507      -0.00021746
H       -3.59882018      -1.28581562      -3.34756527      -0.00200101       0.00007938       0.00048063
H       -1.96957461       0.91945998      -2.48865435      -0.00054002      -0.00041824      -0.00025075
H       -3.68299735       1.14589503      -2.86307187      -0.00068870       0.00000498       0.00010300
H       -3.00206745       1.75341611      -1.34542055      -0.00014479       0.00011654      -0.00017964
C        0.21462064      -0.35933125      -1.71980958       0.00077522      -0.00425767      -0.00073331
O        0.41071159      -0.46862541      -2.85466800      -0.00093761      -0.00464641      -0.00275511
H       -0.14417962       1.40227551      -0.24649875       0.00067801      -0.00109840      -0.00370896
