59
Properties=species:S:1:pos:R:3 energy:=T -70.653961149734=T gnorm:=T 0.000273035787=T xtb:=T 6.7.1=T (edcfbbe)=T pbc="F F F"
Ru       0.02499742      -0.10073513       0.09633605
N        0.25718071      -2.28056929       0.20138359
C        0.49537155      -1.82621933       1.40950828
C        1.94777274      -1.52048238       1.75576241
P        2.30764529      -0.20607497       0.50361310
C        3.60685797      -1.01638817      -0.57281748
C        4.10981896      -0.04604442      -1.63908796
C        3.08198197      -2.28480130      -1.23778620
C        3.33239676       1.12935750       1.33074488
C        2.97558572       2.43782264       0.62522700
C        3.06539583       1.25925787       2.82618199
C       -0.94973197      -3.03968158      -0.04792929
C       -2.25371329      -2.41597059       0.47620012
P       -2.23074564      -0.58664634       0.13673227
C       -3.46320745      -0.02520423       1.43611843
C       -3.85717281       1.43296217       1.21298305
C       -2.89801724      -0.17678362       2.84583586
C       -3.28205427      -0.40939118      -1.41015590
C       -3.05427792      -1.52023650      -2.43309525
C       -2.97245656       0.93783591      -2.06356706
H       -0.14154207      -2.11323341       2.26270611
H       -0.05060588       0.45468106       1.55516283
H        2.00971877      -1.11631885       2.76694849
H        2.58372912      -2.40967857       1.68124071
H        4.43020152      -1.28059279       0.10817839
H        3.26802445       0.34743414      -2.21000650
H        4.77647834      -0.56223050      -2.32947086
H        4.65615594       0.78789681      -1.20405816
H        3.89503016      -2.79650730      -1.75287163
H        2.31884076      -2.03842573      -1.97234142
H        2.64181666      -2.97170317      -0.51838215
H        4.39228375       0.89285221       1.17115648
H        1.92131711       2.65835503       0.79611032
H        3.57896381       3.26098934       1.00557765
H        3.12544269       2.36300376      -0.45073865
H        1.99321570       1.32460208       3.00957866
H        3.47926513       0.42058558       3.38331784
H        3.52877722       2.17102237       3.20105287
H       -0.81515141      -4.03644250       0.40097839
H       -1.01639519      -3.17851364      -1.13307461
H       -2.32005777      -2.55065197       1.55863239
H       -3.12418678      -2.89982378       0.02844578
H       -4.34658791      -0.67196082       1.32644975
H       -4.45971403       1.55600533       0.31656115
H       -4.44008676       1.79629301       2.05879510
H       -2.95789414       2.04350294       1.12739813
H       -2.69410599      -1.21433737       3.10366681
H       -3.61026708       0.20931989       3.57408162
H       -1.97317292       0.39172757       2.93197944
H       -4.33249489      -0.43261195      -1.08934660
H       -3.40117247      -2.48889650      -2.08026410
H       -1.99853442      -1.59597980      -2.68696163
H       -3.59882018      -1.28581562      -3.34756527
H       -1.96957461       0.91945998      -2.48865435
H       -3.68299735       1.14589503      -2.86307187
H       -3.00206745       1.75341611      -1.34542055
C        0.21462064      -0.35933125      -1.71980958
O        0.41071159      -0.46862541      -2.85466800
H       -0.14417962       1.40227551      -0.24649875
