14
Properties=species:S:1:pos:R:3:forces:R:3 energy:=T -17.456097802924=T gnorm:=T 0.000021963320=T xtb:=T 6.7.1=T (edcfbbe)=T energy=-475.0046157935215 pbc="F F F"
C       -1.22974165      -0.76491357      -0.13947086       0.00015129      -0.00003242       0.00028676
C        0.00491980       0.15250440      -0.50714071      -0.00007448      -0.00004296       0.00006925
C       -0.05561615       1.36077949       0.51160019       0.00007726      -0.00026070       0.00034231
C        1.28252726      -0.68089927      -0.08965685      -0.00010662      -0.00002087       0.00033455
O        0.01731764       0.53422027      -1.77578142       0.00003763       0.00005057       0.00018346
H       -1.21174807      -1.65533020      -0.76625654      -0.00004475      -0.00007753      -0.00012763
H       -1.21299929      -1.06198514       0.90969179      -0.00020543       0.00000399      -0.00051401
H       -2.15124438      -0.22232562      -0.34548808      -0.00013403       0.00002246      -0.00008464
H       -0.95364417       1.94583854       0.31851676      -0.00005846       0.00012203       0.00004532
H        0.80939040       2.00358246       0.35468191       0.00007563       0.00006645       0.00017165
H       -0.06550360       1.01572315       1.54606219      -0.00009283       0.00023015      -0.00030574
H        1.34927135      -1.56949780      -0.71572533       0.00006076      -0.00007584      -0.00003466
H        2.17315845      -0.07756800      -0.25934536       0.00016706       0.00000597       0.00004177
H        1.24391243      -0.98012871       0.95831229       0.00014696       0.00000869      -0.00040839
