14
Properties=species:S:1:pos:R:3 energy:=T -17.456097802924=T gnorm:=T 0.000021963320=T xtb:=T 6.7.1=T (edcfbbe)=T pbc="F F F"
C       -1.22974165      -0.76491357      -0.13947086
C        0.00491980       0.15250440      -0.50714071
C       -0.05561615       1.36077949       0.51160019
C        1.28252726      -0.68089927      -0.08965685
O        0.01731764       0.53422027      -1.77578142
H       -1.21174807      -1.65533020      -0.76625654
H       -1.21299929      -1.06198514       0.90969179
H       -2.15124438      -0.22232562      -0.34548808
H       -0.95364417       1.94583854       0.31851676
H        0.80939040       2.00358246       0.35468191
H       -0.06550360       1.01572315       1.54606219
H        1.34927135      -1.56949780      -0.71572533
H        2.17315845      -0.07756800      -0.25934536
H        1.24391243      -0.98012871       0.95831229
