25
Properties=species:S:1:pos:R:3 energy:=T -36.340180423316=T gnorm:=T 0.000032055791=T xtb:=T 6.7.1=T (edcfbbe)=T pbc="F F F"
C        4.53545670      -0.23772250      -0.59655375
C        4.13533797       0.84633143       0.16905332
C        2.79458996       1.04645926       0.43902135
C        1.83546446       0.16145245      -0.05585655
C        0.42882808       0.38158695       0.22986142
N       -0.46702498      -0.41937879      -0.17321256
C       -1.81649712      -0.21005648       0.01353093
C       -2.61252241      -1.29709326       0.38428738
C       -3.97703978      -1.14370827       0.52245141
C       -4.57468046       0.08180188       0.26734827
C       -3.79516636       1.15813068      -0.12352035
C       -2.42540178       1.02138126      -0.24374769
C        2.24920635      -0.92789318      -0.82664223
C        3.58957754      -1.12338560      -1.09298071
H        5.58392953      -0.39228937      -0.80624786
H        4.87173765       1.53601915       0.55579093
H        2.48278467       1.89211757       1.03677003
H        0.19688912       1.26968027       0.83659099
H       -2.13645898      -2.24617366       0.58069688
H       -4.58278213      -1.98663805       0.82332432
H       -5.64439170       0.19481064       0.36581686
H       -4.25721859       2.11272413      -0.33322168
H       -1.81694212       1.85490090      -0.56752284
H        1.49868059      -1.60538200      -1.20368323
H        3.90364379      -1.96767542      -1.68954804
