16
Properties=species:S:1:pos:R:3:forces:R:3 energy:=T -23.115617568018=T gnorm:=T 0.000019382210=T xtb:=T 6.7.1=T (edcfbbe)=T energy=-629.0079928338673 pbc="F F F"
O        2.75553525       0.02186972       0.65314726      -0.00000918      -0.00014608       0.00047863
C        1.99441733       0.01158584      -0.54380491      -0.00003081      -0.00012539      -0.00026566
C        0.51059729       0.03804171      -0.27131360       0.00004276       0.00013756       0.00005317
C       -0.15666930       1.24465697      -0.10158556      -0.00001341      -0.00021944       0.00001752
C       -1.50783950       1.26253258       0.19783722      -0.00003072      -0.00001507       0.00001914
C       -2.20543203       0.07372685       0.33427605      -0.00002314       0.00009403       0.00000972
C       -1.54677885      -1.13345558       0.17223124       0.00022189      -0.00011612      -0.00018051
C       -0.19516951      -1.15059574      -0.12630108      -0.00025839       0.00008078      -0.00007377
H        2.45432968      -0.70699033       1.20881240       0.00006385       0.00037119      -0.00026013
H        2.25229313      -0.87415479      -1.14369370      -0.00000545       0.00005803       0.00018906
H        2.30473915       0.90641671      -1.08871705       0.00000532      -0.00005086       0.00021392
H        0.38899507       2.17157818      -0.20445089      -0.00001394       0.00005597      -0.00001374
H       -2.01776987       2.20653338       0.32476253      -0.00000605      -0.00001669      -0.00010621
H       -3.26036493       0.08791654       0.56644798      -0.00004773      -0.00006749      -0.00009167
H       -2.08592658      -2.06379183       0.27801381      -0.00001566      -0.00002243      -0.00002217
H        0.31504366      -2.09587021      -0.25566171       0.00012065      -0.00001797       0.00003269
