16
Properties=species:S:1:pos:R:3 energy:=T -23.115617568018=T gnorm:=T 0.000019382210=T xtb:=T 6.7.1=T (edcfbbe)=T pbc="F F F"
O        2.75553525       0.02186972       0.65314726
C        1.99441733       0.01158584      -0.54380491
C        0.51059729       0.03804171      -0.27131360
C       -0.15666930       1.24465697      -0.10158556
C       -1.50783950       1.26253258       0.19783722
C       -2.20543203       0.07372685       0.33427605
C       -1.54677885      -1.13345558       0.17223124
C       -0.19516951      -1.15059574      -0.12630108
H        2.45432968      -0.70699033       1.20881240
H        2.25229313      -0.87415479      -1.14369370
H        2.30473915       0.90641671      -1.08871705
H        0.38899507       2.17157818      -0.20445089
H       -2.01776987       2.20653338       0.32476253
H       -3.26036493       0.08791654       0.56644798
H       -2.08592658      -2.06379183       0.27801381
H        0.31504366      -2.09587021      -0.25566171
