48
Properties=species:S:1:pos:R:3:forces:R:3 energy:=T -70.193404548681=T gnorm:=T 0.000200190241=T xtb:=T 6.7.1=T (edcfbbe)=T energy=-1910.059827531333 pbc="F F F"
Fe       0.05348554      -0.45943857      -0.82526774      -0.00248899      -0.00311546       0.00191982
C        2.20919782      -2.57392759      -1.32796216      -0.00023037       0.00041926      -0.00017144
P        2.16416671      -0.72477239      -1.12491501       0.00162611       0.00084529      -0.00038099
C        3.34107702      -0.45008250       0.28236146      -0.00056669      -0.00049357      -0.00052419
C        3.34403185       1.03801735       0.62106684       0.00009901       0.00026324      -0.00058426
C        2.90502079      -1.27080857       1.49252907       0.00004173      -0.00052479       0.00049864
C        2.97184323      -0.11700407      -2.69132158      -0.00041865      -0.00000774      -0.00076351
C        4.47952241      -0.32494001      -2.76384146      -0.00020918       0.00040582       0.00132605
C        2.56550856       1.34077317      -2.91199121       0.00008438      -0.00041836       0.00033812
C        1.04724103      -3.13373292      -0.56762159      -0.00049031       0.00012916      -0.00021764
C        0.99611313      -4.43898012      -0.11449117      -0.00072138      -0.00056757       0.00033632
C       -0.13933910      -4.89855557       0.54190486       0.00061412      -0.00006579       0.00022521
C       -1.20379941      -4.03784700       0.72888549       0.00009136       0.00027163      -0.00021104
C       -1.10440491      -2.73199188       0.26765370      -0.00077859      -0.00024817       0.00040422
C       -2.09769538      -1.68856225       0.40000530      -0.00056231      -0.00058892       0.00045480
C       -3.35294790      -1.68510883       1.00012609       0.00039174      -0.00008567       0.00039927
C       -4.07002377      -0.50012198       1.02563008      -0.00007319       0.00046120       0.00022261
C       -3.54790192       0.67243541       0.47739637       0.00035148      -0.00001970      -0.00003950
C       -2.30252343       0.59453388      -0.10827988      -0.00094502      -0.00001711      -0.00017589
O       -1.55211189       1.54870714      -0.69589438       0.00151397       0.00013751       0.00073149
N       -1.63111753      -0.55400899      -0.15347796       0.00330834       0.00031982      -0.00263122
N        0.01622980      -2.28944249      -0.37319976       0.00071415       0.00121582      -0.00054075
H        3.15719022      -3.02107922      -1.01469925      -0.00003993       0.00004894       0.00041105
H        2.06488533      -2.78765107      -2.39531134       0.00053691      -0.00022167       0.00010215
H        4.33823919      -0.77541186      -0.04324489       0.00024708       0.00020220      -0.00021628
H        3.92625995       1.21994513       1.52299659      -0.00030037       0.00018654       0.00009097
H        3.77499461       1.63219243      -0.18194609      -0.00058923      -0.00003562       0.00072265
H        2.32159789       1.37135454       0.79717878       0.00004967      -0.00035279       0.00027414
H        2.98107747      -2.34100859       1.31245591       0.00026143      -0.00046712      -0.00007744
H        3.53905188      -1.02794584       2.34374243       0.00000937      -0.00017004       0.00065646
H        1.87694782      -1.03209958       1.75603297      -0.00049061      -0.00042632       0.00001238
H        2.48862392      -0.72243131      -3.47339850       0.00004617      -0.00010963      -0.00020998
H        4.74281085      -1.36207920      -2.56416660       0.00016367       0.00083824       0.00090108
H        4.83593309      -0.07207608      -3.76145764       0.00017539      -0.00057580      -0.00030874
H        4.99954291       0.31403556      -2.05375959      -0.00018757       0.00062520      -0.00070642
H        1.49990374       1.47165540      -2.69384978      -0.00063981      -0.00047329       0.00007614
H        3.13143667       2.01131288      -2.26982363      -0.00012633       0.00034483      -0.00003683
H        2.74784972       1.63403211      -3.94464043      -0.00052983      -0.00050701      -0.00048877
H        1.83824625      -5.09357018      -0.27855979       0.00020614       0.00011345      -0.00004974
H       -0.18635635      -5.91541060       0.89902160      -0.00020159      -0.00015686      -0.00005324
H       -2.10088331      -4.36097443       1.23154721      -0.00000402       0.00000532      -0.00019369
H       -3.75440678      -2.58120796       1.44328457       0.00029525       0.00056399       0.00017021
H       -5.04416210      -0.47456460       1.48878159       0.00042008       0.00033003       0.00016538
H       -4.09609311       1.60061732       0.52022986       0.00021668       0.00056266      -0.00046828
H       -1.93922421       2.43263447      -0.61596261      -0.00028386       0.00004490      -0.00070774
C       -0.34139221      -0.83381526      -2.49668489       0.00079711       0.00358440      -0.00348821
O       -0.64950967      -1.14845042      -3.55018473      -0.00093846      -0.00176327       0.00293834
H        0.44006592      -0.12615291       0.49053382      -0.00044503      -0.00050717      -0.00013169
