75
Properties=species:S:1:pos:R:3 charge=0 unpaired=0 uhf=0 pbc="F F F"
Ru       0.07323341       0.00932050      -0.57370313
N        0.01448913      -1.87836739      -1.02265244
C        1.16008276      -2.75022344      -1.24943936
C        2.49156802      -2.07864416      -0.90736022
P        2.24410000      -0.28261389      -1.21971818
C        2.53450382      -0.25808930      -3.07596328
C        3.99797601      -0.33458287      -3.50301068
C        1.81493740       0.91292315      -3.74055032
C        3.74303946       0.52516971      -0.46146583
C        3.70645229       2.01963293      -0.77435209
C        3.71444373       0.32223791       1.05088848
C       -1.19096759      -2.68458150      -1.14976047
C       -2.45201585      -1.83048407      -1.28377475
P       -2.19178889      -0.26295742      -0.33708150
C       -3.00008860      -0.68137559       1.30299222
C       -2.86828581       0.48828116       2.27633470
C       -2.36431685      -1.93664906       1.89712011
C       -3.49016379       0.89006998      -1.05294411
C       -3.16195933       2.33623847      -0.67119603
C       -3.59581540       0.79213620      -2.57379485
H        1.16739237      -3.08734092      -2.30372312
H        1.04707503      -3.66034292      -0.63311337
H        2.69858189      -2.21503380       0.15564278
H        3.31563867      -2.50070697      -1.48926212
H        2.03238538      -1.17903126      -3.41084690
H        4.05295252      -0.52065810      -4.57546442
H        4.51833065       0.59810727      -3.29940384
H        4.52084712      -1.14343384      -2.99513552
H        0.75824064       0.90570899      -3.46189940
H        1.88595577       0.83555540      -4.82551633
H        2.23642956       1.86867182      -3.43661628
H        4.64830462       0.06770430      -0.87764719
H        4.50296483       2.53895904      -0.24281937
H        3.82674847       2.21530657      -1.83730674
H        2.74940654       2.43432682      -0.45354025
H        4.52238368       0.88218475       1.51983062
H        2.76494994       0.69180235       1.44209278
H        3.82650562      -0.72429160       1.32541925
H       -1.26856711      -3.36428193      -0.28417038
H       -1.10689314      -3.33259105      -2.04343053
H       -3.34949535      -2.36937366      -0.96718093
H       -2.56094070      -1.55002719      -2.33499459
H       -4.06361168      -0.87694534       1.10516283
H       -3.52544820       1.30928912       2.00101138
H       -1.83718316       0.84676240       2.28322127
H       -3.13349072       0.17330642       3.28501968
H       -2.68607429      -2.83342189       1.37225164
H       -2.65099026      -2.04659058       2.94269987
H       -1.27793239      -1.86928754       1.84541513
H       -4.45112158       0.60422291      -0.60480277
H       -4.05705410       2.95512651      -0.71929736
H       -2.73694273       2.40743353       0.32735834
H       -2.43025844       2.74499757      -1.36364481
H       -2.60117154       0.83846651      -3.02188669
H       -4.09247442      -0.12184126      -2.89302038
H       -4.17373780       1.63419261      -2.95285903
C        0.04997271       1.77564954      -1.07859383
O        0.06306500       2.85349575      -1.51998069
H        0.32046163       0.54665978       0.88115724
O        1.27093312      -2.12561300       2.06071973
C        1.34232186      -1.60772604       3.36795833
C        2.16982801      -2.50040510       4.25794344
C        2.03500084      -2.41541070       5.63886480
C        2.80639577      -3.20789087       6.46918083
C        3.71974716      -4.09928448       5.92940974
C        3.85625008      -4.19140034       4.55540832
C        3.08777755      -3.39398145       3.72486623
H        0.91983122      -1.43326334       1.46503254
H        1.79894747      -0.60487563       3.35879030
H        0.33227741      -1.50429647       3.79584951
H        1.32094107      -1.72285900       6.06282430
H        2.69312412      -3.13318281       7.54138574
H        4.32003045      -4.72054335       6.57851778
H        4.56509873      -4.88613998       4.12728803
H        3.18601555      -3.46886763       2.65252821
75
Properties=species:S:1:pos:R:3 charge=0 unpaired=0 uhf=0 pbc="F F F"
Ru       0.28997985      -0.53881272      -0.62506798
N        0.77228670      -2.50253452       0.23735969
C        2.20516941      -2.77856485       0.30370512
C        2.92020761      -1.57459122       0.91399386
P        2.47438727      -0.08733330      -0.12480825
C        3.76296092      -0.21574362      -1.48610039
C        5.21909107      -0.38606499      -1.05930817
C        3.60221505       0.98589810      -2.41487155
C        3.07712305       1.38447717       0.86857556
C        2.21989292       2.58203260       0.46196069
C        2.97874590       1.16730350       2.37497811
C       -0.00350186      -3.58300891      -0.36955279
C       -1.48795406      -3.26272679      -0.22835614
P       -1.79462222      -1.49500954      -0.77235818
C       -3.26817001      -1.13286720       0.33582138
C       -3.98105790       0.14673099      -0.09667579
C       -2.83085767      -0.98520666       1.79102645
C       -2.68251385      -1.69713736      -2.41938919
C       -2.56225342      -0.37885132      -3.18335038
C       -2.13823655      -2.82806303      -3.29070511
H        2.57498947      -2.96502378      -0.71405344
H        2.39880822      -3.68371664       0.90487733
H        2.52124923      -1.40389774       1.91740552
H        3.99548529      -1.74285354       0.98819495
H        3.46450149      -1.11309841      -2.04630179
H        5.85451106      -0.33100513      -1.94306752
H        5.53490590       0.39737026      -0.37428602
H        5.39375795      -1.35135263      -0.58929600
H        2.54168591       1.16771018      -2.60566406
H        4.09835807       0.80348742      -3.36759932
H        4.03636835       1.87865232      -1.96934334
H        4.12205078       1.58004842       0.60045950
H        2.52391452       3.47526791       1.00635144
H        2.29626519       2.77865096      -0.60545132
H        1.17482647       2.36491762       0.68157898
H        3.18748755       2.10166711       2.89479145
H        1.96989398       0.85551705       2.63917373
H        3.69002526       0.42183243       2.72620354
H        0.22131355      -4.54436603       0.12298677
H        0.27575452      -3.67067164      -1.42750932
H       -1.75666426      -3.33951312       0.82849004
H       -2.10306282      -3.97069207      -0.78481420
H       -3.94817327      -1.99266883       0.24112668
H       -4.49047054       0.02547372      -1.04901553
H       -3.25290487       0.95449329      -0.18025404
H       -4.72479899       0.42887886       0.64855064
H       -2.30401440      -1.86518572       2.16167517
H       -3.69962236      -0.81774943       2.42770149
H       -2.16489378      -0.12732313       1.87566064
H       -3.73837928      -1.90306942      -2.19805478
H       -3.18078086      -0.39569511      -4.07954594
H       -2.85391613       0.46931387      -2.57015690
H       -1.52522252      -0.22037189      -3.47765082
H       -1.06548878      -2.72283951      -3.43658057
H       -2.33996100      -3.81246744      -2.87340976
H       -2.60999876      -2.78276656      -4.27299606
C        0.75199112      -1.07938913      -2.31293105
O        1.11853042      -1.43927008      -3.35839363
H       -0.11653548       0.88590157      -1.12934773
O        0.22163411      -2.87637087       3.07216154
C        1.11548690      -2.56026483       3.84143505
C        1.24332931      -1.29035435       4.53479537
C        0.23063835      -0.32567909       4.45780160
C        0.37588567       0.88344222       5.10869417
C        1.53065272       1.15011007       5.83244467
C        2.54400172       0.20251267       5.90835958
C        2.40278691      -1.01264511       5.26985085
H        0.43605594      -2.42471898       1.20725780
H       -0.03309976      -0.03833766       0.84115719
H        1.94310781      -3.27080671       4.04216399
H       -0.65510297      -0.54699649       3.88160660
H       -0.40771377       1.62437550       5.04932240
H        1.64265487       2.09871230       6.33702493
H        3.44407120       0.41637908       6.46699725
H        3.18847078      -1.75535977       5.32509993
