58
 energy: -86.370431056484 gnorm: 0.000252254977 xtb: 6.7.1 (edcfbbe)
Mn           0.01808705011307       -0.00012617633488        0.54513829281146
C            2.25075178502291       -2.13089567777480        0.08422521966562
P            2.18649174748986       -0.41058974187099        0.80683652085137
C            3.45871852826510        0.49569613372424       -0.10860704793594
C            3.14643301887157        1.78160986570957       -0.53766577952162
C            4.08614517379274        2.52853315724634       -1.22479516674385
C            5.33770350577232        1.98965508934576       -1.47953158566972
C            5.65386050736722        0.71128676395035       -1.04238649079374
C            4.72029778225285       -0.03973521653646       -0.35196307206623
C            2.95604376035993       -0.65487876598693        2.43388844838062
C            2.61204040501427       -1.76764967021581        3.19941040741691
C            3.14307255018013       -1.92267590487706        4.46619336644011
C            4.00535642347841       -0.96597904066919        4.98005115910171
C            4.33168544887622        0.15214444411130        4.22896493549516
C            3.80348726523083        0.31573648264334        2.96088306493763
C            0.91222881078651       -2.78259539594033        0.27545113403432
C            0.72639320192441       -4.15671208097701        0.24317283809557
C           -0.54905512680864       -4.67547324166456        0.40578001573894
C           -1.61203760354689       -3.80733067837064        0.61473357117027
C           -1.36516175058176       -2.44736337736529        0.65775336826178
C           -2.40729793158902       -1.40269525494694        0.96142762567018
N           -2.08340432484796       -0.15578637476338        0.22952659033596
C           -2.59405569462854        1.06716520836081        0.88774837807408
C           -1.62079142758396        2.24000386150925        0.68202859304044
C           -2.65110071200640       -0.31729010536270       -1.13291424644342
C           -2.47824416723828        0.86455642701197       -2.07534211253897
N           -0.12546176853631       -1.95330211440917        0.48164201679197
H            3.05873352918512       -2.72861928720155        0.51747680261456
H            2.44886073151529       -2.00659274001995       -0.98909412067965
H            2.15695005447478        2.18184679187283       -0.32222241393241
H            3.84700683453094        3.52617794059341       -1.56230788520911
H            6.07242612778121        2.56894724637102       -2.01877245095779
H            6.63332129189523        0.30143524026927       -1.24025260156759
H            4.96617716639098       -1.03139315240652        0.00141023744058
H            1.92577549814552       -2.50714892050612        2.80479208789273
H            2.88119326042770       -2.78782362049465        5.05757152669812
H            4.41763084487229       -1.08912217586098        5.97051788031675
H            4.99566924004568        0.90128452905582        4.63444757602776
H            4.04936129294168        1.19109297705049        2.37477782973764
H            1.57222808845982       -4.80788959631268        0.08686921305046
H           -0.71261133551852       -5.74113657535981        0.37374913700769
H           -2.61469191030807       -4.18032076614524        0.75173059280733
H           -3.41273876713724       -1.76683142785299        0.71714038307130
H           -2.37254531928854       -1.20986321417247        2.04099539450830
H           -2.68543735231752        0.87411210369378        1.96088541492149
H           -3.58877688496884        1.32954382147195        0.51085767566396
H           -1.76919860624267        2.97886802741590        1.46863550137491
H           -0.53080936224525        1.92598891904593        0.74042110037258
H           -1.77291661230407        2.73335515183307       -0.27518386151310
H           -3.72652322713967       -0.52321915444410       -1.03670949931123
H           -2.17387441637352       -1.19809079105458       -1.57340620986979
H           -2.75946473317106        0.54554091131783       -3.07677355872175
H           -3.12131361851867        1.69823993885322       -1.80479363294730
H           -1.44567583048022        1.20478387772367       -2.11381490285083
C            0.48586911720088        0.04969358937017       -1.17892813447353
O            0.95753430757184       -0.01827211686278       -2.22228161720156
C           -0.06303095694456       -0.02217478318399        2.34293356800098
O            0.04412897655041       -0.05981749230568        3.48189520116510
