57
 energy: -86.156880304078 gnorm: 0.000516534624 xtb: 6.7.1 (edcfbbe)
Mn          -0.01192435577724       -0.07002198517102        0.61046270654602
C            2.14855511789142       -2.25713640852013        0.52828125005834
P            2.15560463928974       -0.53223221813851        0.89211142872555
C            3.41873326507210        0.28402176301728       -0.14939300492522
C            3.17460447655196        1.56776524885973       -0.62451047903447
C            4.11787336655152        2.22052604453524       -1.39696532273272
C            5.31492512349036        1.59053251327480       -1.69780569053085
C            5.56720195043660        0.31339297391401       -1.22138631721399
C            4.62492171893632       -0.33840871238401       -0.44622416069148
C            2.99934410365214       -0.34265911032922        2.51075043952735
C            2.84735078508516       -1.35188385622821        3.45637884487333
C            3.42426446724153       -1.23078705026935        4.70687820616008
C            4.15496914012429       -0.09687372298084        5.02518626357009
C            4.30217548352353        0.91667697457863        4.09094362929723
C            3.72375854663765        0.79920989674162        2.84009730309840
C            0.89707947352215       -2.85341330234634        0.45155624561095
C            0.66660593272916       -4.25107939483658        0.27468183894823
C           -0.60528541455201       -4.74195299336975        0.25567349561205
C           -1.70218117009864       -3.87801386778614        0.42677957847028
C           -1.44155304323882       -2.53435588658394        0.58327868983975
C           -2.50247543945939       -1.48829535504422        0.85723320201563
N           -2.14982467364343       -0.22872938390572        0.16248399159661
C           -2.69500999249178        0.97863089976683        0.81022377189472
C           -1.72789105684696        2.16659110285844        0.66468537293839
C           -2.64361617853125       -0.37411083232383       -1.22299779452966
C           -2.39403705894992        0.80461970566696       -2.15467609257303
N           -0.20127610569036       -2.04119596225467        0.56360866922304
H            3.05725279095890       -2.84157679952412        0.51772022567054
H            2.22860337132620        2.04600610566479       -0.37652404151082
H            3.92321396454854        3.21786519481560       -1.76667030363541
H            6.05273866818390        2.09563124540445       -2.30494665950318
H            6.50342197313906       -0.17376342777061       -1.45587366590534
H            4.81876303083322       -1.33232491410213       -0.06829699328017
H            2.26926201823966       -2.23009052145326        3.19435134604286
H            3.30270316932605       -2.01924146756994        5.43719275621981
H            4.60725316121378       -0.00105951378266        6.00222115417017
H            4.86835960838171        1.80359262754044        4.34109762639031
H            3.83423984410892        1.59408863402385        2.11356065579648
H            1.52113496195265       -4.90144641492760        0.16409973151836
H           -0.78080003088210       -5.79990043676438        0.12046127486088
H           -2.71184583268698       -4.25471361037095        0.44223548401070
H           -3.49864565514708       -1.84767991787894        0.56477232722830
H           -2.50807185151046       -1.31150415693424        1.93980607671824
H           -2.82278804742005        0.77100119361122        1.87751740246016
H           -3.67985413674643        1.24008150138748        0.40049025409100
H           -1.89905954234160        2.88296128654637        1.46721266802318
H           -0.64888376346222        1.84191929220948        0.74090315323954
H           -1.85415406964705        2.68350334244630       -0.28376411686847
H           -3.72881842969885       -0.56387330418468       -1.19136784244363
H           -2.15870268182616       -1.26215870856629       -1.64001472595791
H           -2.62311679096140        0.49434683528156       -3.17209543688309
H           -3.03116159941620        1.65298346919658       -1.91540347524558
H           -1.35209168867197        1.11640825668680       -2.12800389558341
C            0.53538591734204       -0.11147003699206       -1.08071200403765
O            1.02523305855086       -0.23458774159880       -2.11956333134588
C           -0.12007295619743       -0.09371653416159        2.38785509942373
O           -0.04504424942864       -0.15312474376266        3.54029181660787
