63
 energy: -92.200845042681 gnorm: 0.000274005650 xtb: 6.7.1 (edcfbbe)
Ru          -0.00610072893920       -0.61458179823789        0.48649592469227
N            0.01904077153023       -2.21771281051763       -0.59865310534837
C            1.21699985236844       -2.93297680793574       -1.01576727902096
C            2.41971985735092       -2.58847913691855       -0.13780467397943
P            2.24066863766775       -0.81868683821979        0.32729024042572
C            3.48587808841254       -0.64027782591572        1.64579767934398
C            3.05907250555863       -0.32660722778231        2.93004686430028
C            3.98235277662589       -0.19638182445791        3.95326641124200
C            5.33131887971221       -0.37827767417709        3.69479919308008
C            5.76012095754286       -0.68712111042015        2.41235355935532
C            4.84223802055325       -0.81595634975013        1.38654324264309
C            3.06297368641294        0.14077385539734       -0.99096553396018
C            3.22771165225715        1.49990938632176       -0.72076705449781
C            3.82289398400206        2.33182383688222       -1.64818623444992
C            4.25526538474033        1.81692168062656       -2.86176942134304
C            4.08560341104981        0.47177375987756       -3.14104649322789
C            3.49089940930416       -0.36683494691773       -2.21230266077723
C           -1.14831515326299       -2.84428016993638       -1.20337957384744
C           -2.44539953465346       -2.41697553539230       -0.51689945723492
P           -2.21735069314562       -0.67190196372329        0.01796627018901
C           -3.62413371091465       -0.44353775236329        1.15401196742739
C           -4.93745853034645       -0.52071024982182        0.69879238335168
C           -5.98364307742212       -0.36382760713581        1.58885512314259
C           -5.72554426050391       -0.12486857692354        2.93056060834975
C           -4.41912290596750       -0.04115124098472        3.38429820516290
C           -3.36804281648654       -0.19973401298857        2.49737106928267
C           -2.77926801688406        0.36874894855032       -1.37233019193410
C           -3.00579426014410       -0.07750492702162       -2.66925135666290
C           -3.39963212755987        0.81701901809575       -3.65100045320674
C           -3.56617397940226        2.15780764933748       -3.34943858809556
C           -3.33271214848440        2.61152723967003       -2.05932896813622
C           -2.93815286955000        1.72360899023777       -1.07829358948775
H            1.03808287801761       -4.02330287728096       -0.96578016408334
H            1.43808874407819       -2.70178189855336       -2.07361833096965
H            2.34811539513096       -3.13601529830893        0.81085662310345
H            3.37412183874767       -2.82928434207276       -0.61409593673576
H            1.99690038259901       -0.18780107807880        3.10090387902043
H            3.65068321457375        0.04912567822527        4.95183218437568
H            6.05295188292135       -0.27584132320969        4.49246198484387
H            6.81350420780949       -0.82465067336608        2.21352407618274
H            5.17417693356625       -1.04514599889474        0.38213509834037
H            2.87923684806712        1.88878960230508        0.22924410318139
H            3.94984123715841        3.38226227192550       -1.42891609035125
H            4.72182493458545        2.46514150741928       -3.58938596101499
H            4.42001367982744        0.07019967529873       -4.08756692808202
H            3.36861767376174       -1.41444306641719       -2.44903438214082
H           -1.18589452676792       -2.59685874855483       -2.27974504905834
H           -1.05707573228482       -3.94472960627382       -1.14047739099269
H           -2.56660875294380       -2.98139914782475        0.41661148219632
H           -3.32766396082016       -2.57569315204578       -1.14321031243316
H           -5.13482747539966       -0.69540946264832       -0.35105608776584
H           -7.00390722122278       -0.42471938569734        1.23745017176130
H           -6.54676475664516       -0.00048619060985        3.62167599609940
H           -4.22010609073839        0.14942250244357        4.42906059336663
H           -2.33506454431483       -0.13723439537060        2.82242752948704
H           -2.88063313741448       -1.12064850585173       -2.92372631468936
H           -3.57825834390260        0.46316323628881       -4.65691487142937
H           -3.87508970270203        2.85029826248444       -4.11905957820669
H           -3.45730158312479        3.65837348834666       -1.82224688429202
H           -2.74535687478628        2.06466890526976       -0.06758331802847
C            0.03225612526441        1.20925428575486        0.73765990724253
O            0.06090329526083        2.37302953989073        0.75706356704579
H           -0.11897265390128       -0.87567993562665        2.02768447667824
