58
 energy: -86.365963139931 gnorm: 0.000191254805 xtb: 6.7.1 (edcfbbe)
Mn           0.08032705044995       -0.35433324564384        0.03491741817948
C            2.13017960509795       -2.69852571752003       -0.39184618539080
P            2.16453468289823       -0.84372799110947       -0.59984661513340
C            2.76817853821056       -0.65940658587671       -2.30559188707169
C            2.31399708960128       -1.51221250449295       -3.30985814075255
C            2.74124123663724       -1.33239885091281       -4.61231296003954
C            3.61096348038872       -0.29840699744532       -4.92306332912227
C            4.04775404550213        0.56403543837362       -3.93004653444548
C            3.62370753305126        0.39191559512173       -2.62469108862864
C            3.61679424525427       -0.33202250683807        0.36029932973591
C            3.52483320761451        0.85044625868585        1.08719438169987
C            4.61106610824805        1.30450822135016        1.81315586947028
C            5.79080342627527        0.57706808740656        1.81050293650442
C            5.88893876337936       -0.59517470628557        1.07512379561620
C            4.80808501036236       -1.05179356796162        0.34306367827472
C            0.71650870400034       -3.19876383649777       -0.30379334192069
C            0.38411413571252       -4.53585586213945       -0.46690392724264
C           -0.91352474305857       -4.94996122767694       -0.20975733514552
C           -1.83106281094878       -4.02909429386215        0.27809640802196
C           -1.44525736037511       -2.70811864821381        0.41525394429761
C           -2.29508044676351       -1.64402544644931        1.06489122850299
N           -2.02220107169082       -0.33799575994975        0.43569760880120
C           -2.09699737260051        0.82510873010247        1.34126545041419
C           -1.24297736827480        1.96186020193634        0.76374319458257
C           -2.91565481542118       -0.17157018749721       -0.73851737027800
C           -4.39651238490399        0.06723954302934       -0.43932477842667
N           -0.21315285123274       -2.29858237820742        0.05656122889511
H            2.70581666127216       -3.20842311587464       -1.16959432371084
H            2.60904790177168       -2.89955027575722        0.57784790346927
H            1.61966785043174       -2.30906213355120       -3.07485901654207
H            2.39200594924886       -1.99687072707934       -5.38900317676666
H            3.94306136705176       -0.16125088463150       -5.94141623737638
H            4.71806416874867        1.37499031798716       -4.17411454412629
H            3.95850823641558        1.06780591817170       -1.84926378784650
H            2.59100410111486        1.40700086094812        1.07165635390039
H            4.54101540613634        2.22119394536536        2.37996274866449
H            6.63923067830901        0.92618195038450        2.38010010315869
H            6.81417994019303       -1.15233302763508        1.07134337880629
H            4.88838037245499       -1.95668832843765       -0.24292870715947
H            1.13785472569520       -5.24200062912538       -0.77835935929742
H           -1.19603781349903       -5.98141912901726       -0.35021864283384
H           -2.82801591805813       -4.33414885582916        0.55424048684180
H           -2.00030669271159       -1.60327285342828        2.12142284542396
H           -3.35450591362740       -1.91309017785707        1.02300024522664
H           -3.12686682185648        1.16416435617090        1.48895308985476
H           -1.69679541699218        0.53300560440686        2.31736990057118
H           -0.21822620234981        1.61074114099485        0.42364039291369
H           -1.07390593168504        2.71982664189491        1.52694408143413
H           -1.73772060053224        2.44028187829650       -0.08125974399535
H           -2.55406291884752        0.67039679741978       -1.33334118638335
H           -2.81383066836901       -1.07822102258502       -1.34169595390783
H           -4.80349892975138       -0.64712508669407        0.27176244888688
H           -4.94964217842462       -0.04043489929225       -1.36943065100566
H           -4.58126373499336        1.07160521960641       -0.06657363283760
C           -0.19813343758464       -0.19254439423873       -1.72813954735552
O           -0.26468857889501       -0.10892548162943       -2.86715903621532
C            0.67405608621674       -0.55980823321990        1.71523108033901
O            1.16507337113119       -0.82282082109403        2.71700161619831
