49
 energy: -80.898964172741 gnorm: 0.000159892525 xtb: 6.7.1 (edcfbbe)
Ru          -0.00487809960912       -0.28293859490764        0.16835918372101
C            2.30368253781436       -2.26239941403407       -0.65898892265684
P            2.13117007568676       -0.38902314587552       -0.62945452494823
C            2.48117823235474        0.01229857053529       -2.37283955491761
C            3.28089010050542        1.09616186596772       -2.71923464575448
C            3.45838651673518        1.42820232420513       -4.05101436568635
C            2.83208655375192        0.69011425309699       -5.04209931255237
C            2.01794738213154       -0.37909356453038       -4.70099935439279
C            1.83775753231219       -0.71437410459938       -3.37218623694934
C            3.66043141367603        0.11471836814314        0.20933639896162
C            4.91878170826691       -0.35404930765473       -0.15968125880492
C            6.03799909138541        0.09064008099877        0.51967040835202
C            5.90787829833353        1.00286219467223        1.55713831155078
C            4.65695987175369        1.47670564793230        1.91951053075657
C            3.53246138273298        1.03324233455871        1.24520717455765
C            0.96457122716862       -2.95290025349814       -0.65001322517476
C            0.81749887582880       -4.29628104994401       -0.96416244273243
C           -0.42426752209208       -4.90441071166961       -0.81140602348585
C           -1.48403387486565       -4.16855415163229       -0.30997743899767
C           -1.30083413155149       -2.81983570311456       -0.02107008637709
C           -2.29601807202282       -1.90488543712184        0.54834404494930
C           -3.63084070409910       -2.07435439396719        0.91406577226227
C           -4.29483546333599       -0.96443935121690        1.43975480982909
C           -3.69188772137022        0.27341091123933        1.59433114343464
C           -2.34164056107634        0.40360917801240        1.20223902458703
O           -1.53939912671015        1.39980668701601        1.18146297463215
N           -1.75243632405224       -0.70582479339140        0.73015835336505
N           -0.08759518384037       -2.23022085168933       -0.24269706803790
H            2.93173981261268       -2.60847155486839       -1.48528194412608
H            2.80502672890553       -2.50969142886144        0.28701843933184
H            3.75968623473061        1.67734225938588       -1.94240237303903
H            4.08280037875733        2.26917575963125       -4.31564840295989
H            2.97003679828875        0.95283615604129       -6.08061831064793
H            1.51916672415884       -0.94767888234729       -5.47265236282740
H            1.18641963480103       -1.53809124534113       -3.10102367446442
H            5.01530610489674       -1.05425385342591       -0.97805775964635
H            7.01670161817616       -0.27111934559150        0.23966183892441
H            6.78667073376039        1.34662720764732        2.08301449844601
H            4.55915825953605        2.18931848114870        2.72552956750036
H            2.53642147744898        1.37926483328954        1.50877355483672
H            1.66852222243722       -4.86258873910220       -1.30906227306346
H           -0.55166325469815       -5.94675609890349       -1.05775105987493
H           -2.44737457445906       -4.62146177207798       -0.13852380326842
H           -4.13761763944914       -3.01795119733358        0.79858985199270
H           -5.32910795583634       -1.07510309317227        1.73339554099515
H           -4.23319403953184        1.11710306604724        1.99167128093552
C           -0.61702826378954        0.39550296247676       -1.44903540307571
O           -0.98716624664021        0.90796202736105       -2.40790281213027
H            0.51900367603702       -0.63110846104109        1.59836678449962
