49
 energy: -75.586421783958 gnorm: 0.000550556769 xtb: 6.7.1 (edcfbbe)
Mn          -0.01119844634544       -0.17580636068904       -0.07935490624101
C            2.29281781933057       -2.25667341388263        0.35807990412712
P            2.22593143223628       -0.49243767130541       -0.24411692783583
C            3.45547406894517        0.52027737155006        0.72516008787269
C            4.47834656328745       -0.29522882163351        1.51044276742052
C            2.68312269444936        1.47768185222851        1.63404970436448
C            2.98878950438154       -0.63086816794219       -1.94138811574260
C            4.48284789015471       -0.95199042394961       -1.94807215182131
C            2.22371003769611       -1.66462046637284       -2.76940980787586
C            1.02553396141981       -2.94328128247878       -0.06767012041482
C            0.92552451729011       -4.31555178662134       -0.23245819092240
C           -0.30742835539114       -4.88301793236188       -0.53483952983336
C           -1.42399659302888       -4.07112490369734       -0.62215708123505
C           -1.27382529638249       -2.69860955704256       -0.45491637833566
C           -2.34024893747863       -1.70613811566869       -0.43302709307884
C           -3.71500012295323       -1.86785269664765       -0.58963258611367
C           -4.53267316835629       -0.75505442445377       -0.47195017126893
C           -3.99539549540176        0.50389875949620       -0.20435329045673
C           -2.62306320921627        0.58589885468550       -0.06903843623834
O           -1.85061880245981        1.67398500568951        0.17098533428576
N           -1.84246683128051       -0.48130447457717       -0.18097385371042
N           -0.04793877190051       -2.14780491799997       -0.22960057533825
H            2.30046014630636       -2.21119304980057        1.45471372619495
H            3.18579090540705       -2.79048278321328        0.02581221872700
H            3.96609521367504        1.12200023731525       -0.03927094328766
H            4.00214109804200       -0.82942959635242        2.32926758453608
H            5.21919860623389        0.37723918251485        1.93959392641713
H            4.99711933428577       -1.01036798126632        0.87804935460981
H            2.33096633345958        0.96379687633662        2.52617996670742
H            3.31998479948470        2.30130540455833        1.95005484015292
H            1.81669938331796        1.89302276453190        1.10021164761330
H            2.83936896861602        0.36561111735441       -2.38218650633849
H            4.68708828209286       -1.91107395650543       -1.47847642103028
H            5.07176879193815       -0.18402139978858       -1.45458554974718
H            4.82133933870098       -1.01292244905946       -2.98113045219070
H            1.14397263481774       -1.55700909643955       -2.64847359868557
H            2.50327059504017       -2.67500050739586       -2.47835070793122
H            2.45960812802311       -1.54156581758473       -3.82470736656574
H            1.79949791090382       -4.93700840416548       -0.11424050331271
H           -0.39527082484115       -5.94890480708511       -0.67516734038359
H           -2.39946164905246       -4.48811551071213       -0.81304878096107
H           -4.13593770884280       -2.83744206496286       -0.79710859795328
H           -5.60010873225777       -0.85793614906552       -0.58796341249555
H           -4.62499240740003        1.37479084604491       -0.11053685920634
H           -2.35823896628833        2.49128993124474        0.26501488937202
C           -0.07847939625037        0.43055498605212       -1.77435129250956
O           -0.24134780681568        1.00344700928234       -2.74868559899801
C           -0.01502098507644       -0.22201467265010        1.71188913038922
O           -0.16739116920627       -0.15656004623370        2.84282601112266
