54
 energy: -70.203857435876 gnorm: 0.000120228929 xtb: 6.7.1 (edcfbbe)
Co          -0.00186771023043       -0.28359006141318       -0.08436638936743
C            2.30312982098790       -2.25985943746796        0.58952616278382
P            2.09974664117830       -0.42319971299589        0.54929475048040
C            2.29691581456392        0.03190814202442        2.34881102473718
C            3.69964728451933       -0.13431347708175        2.92488090664940
C            1.76495971104170        1.44195821269397        2.60288656584410
C            3.52956588574771        0.14722103961951       -0.50366076447146
C            3.69181678896873        1.66448290667235       -0.43852536548498
C            4.86783851089838       -0.55032958023845       -0.26135404100139
C            0.94173092212367       -2.86118953888664        0.71078499212133
C            0.75068063868869       -4.13827845030897        1.21823618716537
C           -0.52128560474308       -4.68747345913132        1.21561447187418
C           -1.55946429310130       -3.95373158011236        0.66663443229511
C           -1.30011510282887       -2.67951619744399        0.18366487476205
C           -2.34433670308608       -1.86943607627257       -0.51665403621483
N           -2.04172769505965       -0.42944278614259       -0.45856337047607
C           -2.48154050437070        0.23247212217353       -1.70887122187994
C           -3.96560074861834        0.09455137492281       -2.04779988221731
C           -2.69776564683916        0.18234118649784        0.71586968364708
C           -2.04101895742873       -0.23758499677215        2.02529884802433
N           -0.08031969819615       -2.13087859878593        0.24101336494017
H            2.97333518542667       -2.60303397605043        1.38059643189447
H            2.71848988248498       -2.57035341779519       -0.37658279138281
H            1.62627080667587       -0.68459123054904        2.84954293400521
H            4.36398048294576        0.64607376192276        2.56304108276938
H            3.65169718981574       -0.04753911684387        4.00953362457359
H            4.13086594271049       -1.10425099467299        2.68719885522007
H            0.77428372372111        1.56963351304741        2.16644092717683
H            2.42402448119541        2.19296249917264        2.17497221074692
H            1.69645726488119        1.62537871107840        3.67366097106267
H            3.18207851367014       -0.11671872767252       -1.51493394169418
H            2.73880637102230        2.17189323578502       -0.56828742453720
H            4.12406025488597        1.96948468596753        0.51154124869065
H            4.36170762228200        1.99740299969583       -1.22948247938264
H            4.78372954410444       -1.63377111647445       -0.28179871021627
H            5.31089489718038       -0.25256291340067        0.68358729178297
H            5.55688660841542       -0.25932276530591       -1.05317353002501
H            1.59131655962431       -4.69432597800825        1.60220079899629
H           -0.69527464922834       -5.67425462909428        1.61545718010072
H           -2.55757645259164       -4.35853237806059        0.61093619086851
H           -3.34067319531576       -2.08675238089515       -0.11470464974355
H           -2.32969602512116       -2.18908507903329       -1.56532597331900
H           -2.24706135710572        1.29521258557127       -1.62866709104007
H           -1.88208451733589       -0.18014283068451       -2.52524097458358
H           -4.27038540309489       -0.94248640439071       -2.16153591185315
H           -4.59396664938593        0.56668000667469       -1.29733921737981
H           -4.14799346991914        0.59859206200478       -2.99388425898442
H           -2.61975936184685        1.26670821753357        0.61111039850850
H           -3.76049195365798       -0.08586541270685        0.74029261433844
H           -0.95376362526056       -0.08436595990527        1.96462849270235
H           -2.24183630956002       -1.28068271358556        2.26101390010644
H           -2.42762514931538        0.37326263747337        2.83761018614657
C            0.07845899266434        1.39659336912957       -0.51035036060912
O            0.15446938871298        2.49043577895047       -0.84022723798817
