58
 energy: -70.503173322284 gnorm: 0.000392349453 xtb: 6.7.1 (edcfbbe)
Co           0.06648835909098       -0.26869589207715       -0.14766974740413
N            0.09809112602367       -2.09165807091353        0.09215901698597
C            1.20468879241999       -2.98735370651563       -0.17545799111557
C            2.42594719096186       -2.27078498222756       -0.74745837887979
P            2.22048222060602       -0.48094595040850       -0.38539596171249
C            3.45261468509491        0.35698560262398       -1.53837073511965
C            3.69703085699430       -0.40268649785862       -2.84015732015424
C            2.95999688097790        1.76503043613288       -1.86798911247520
C            3.09109174631039       -0.26023543539474        1.25366696154431
C            3.23254665649494        1.22024643007486        1.60012390524466
C            2.27749594501032       -0.96042351652984        2.33684345128543
C           -1.00867828067477       -2.89630097518420        0.56922770342390
C           -2.07932472604061       -2.04481769288386        1.24005852364998
P           -2.05558475452350       -0.44716410316677        0.34164933750373
C           -2.98883916917361        0.67275013586337        1.51711665111514
C           -4.35342780931270        0.16049454357264        1.97233511874575
C           -3.11814850766914        2.08854648619865        0.96136133903570
C           -3.16544420914565       -0.64572629639761       -1.15436254452717
C           -4.24610106157186       -1.71891888105389       -1.04911283785137
C           -2.27042810596133       -0.91421363171462       -2.36450588515051
H            1.48881114775595       -3.52018472567419        0.75452619443955
H            0.88436108743054       -3.78144271101870       -0.88085276005058
H            2.42242513804631       -2.37868645297211       -1.83250083267119
H            3.36436921150380       -2.66888767637208       -0.35292562715453
H            4.40160997583429        0.42424826799053       -0.99151726898458
H            4.21847349666380       -1.34149968019399       -2.66782374947739
H            4.31480858123406        0.20518495260623       -3.50080260923990
H            2.75594167414776       -0.60193363593663       -3.35130415868158
H            2.05161963568120        1.70690755250663       -2.46584620274437
H            2.73178429515906        2.33351021901330       -0.97016321094258
H            3.71310552109079        2.30922225392633       -2.43741448763493
H            4.08683609617229       -0.71898567578843        1.17431670520394
H            3.62402138475313        1.33205548402471        2.61092653350885
H            3.90923766604111        1.73367609206154        0.92135561489815
H            2.25643308208563        1.70362404652873        1.55713847991760
H            1.23654630379571       -0.62726649265328        2.27159857168931
H            2.66435557781083       -0.72118962804385        3.32689201105505
H            2.29881312699136       -2.03954011873331        2.21257054213975
H           -0.64362192271860       -3.65249290338650        1.29171662710418
H           -1.45992332430759       -3.47084387173155       -0.26546390561181
H           -1.77759243964471       -1.81633929447364        2.26743357215783
H           -3.04891008421411       -2.54365002926233        1.25402207718431
H           -2.31938654111079        0.71022323549574        2.39004486113555
H           -4.29837773928752       -0.85956227704716        2.34448080074669
H           -4.72460991043520        0.79252839881452        2.77879109291043
H           -5.07294989720885        0.20624357025426        1.15823622331430
H           -3.80642791164913        2.11755340067404        0.11866151455805
H           -2.15533624506035        2.46774361838093        0.63099847832166
H           -3.50166352899047        2.75792524225424        1.73050131369243
H           -3.64125574057249        0.33420653181095       -1.28945308576358
H           -4.88333795883096       -1.67626726577392       -1.93243203976081
H           -4.87480153875177       -1.58620676136260       -0.17281253351782
H           -3.79825760633918       -2.70989505984485       -1.00919150373254
H           -2.83600396292308       -0.83381234847676       -3.29231581321499
H           -1.84542267231981       -1.91451332311057       -2.30446268736686
H           -1.44353526578471       -0.19831401814579       -2.38859921184496
C            0.04430244885499        1.43130282042553       -0.38611227923829
O            0.03013478346383        2.58717381849432       -0.55088402703186
