62
 energy: -92.068912756884 gnorm: 0.000355816826 xtb: 6.7.1 (edcfbbe)
Co           0.01632232975436       -0.36826193397297       -0.40928107124515
N            0.30222079121036       -2.08640681908414        0.19897511774983
C            1.47335314441362       -2.89874606240819       -0.07173646063555
C            2.35456711497664       -2.27029341658755       -1.14759206817593
P            2.11681303445361       -0.47659066595174       -0.87350526383367
C            3.11773622899612       -0.16784092441450        0.61536378160535
C            2.44684098530955        0.16450765138094        1.78571575022976
C            3.15270903122807        0.37873542751755        2.95574504372480
C            4.53391169264662        0.26361690679183        2.95644231216695
C            5.20744070101902       -0.06292405606049        1.78886667084496
C            4.50422064474468       -0.27800935803721        0.61727687749075
C            3.11733864469220        0.37354181287750       -2.13342385570722
C            3.31046530692360        1.74234676984888       -1.95342100954278
C            4.03976746880509        2.47322359763123       -2.87076209727613
C            4.57813987727125        1.84504351540513       -3.98406802438600
C            4.37894236827579        0.48824485995039       -4.17604703270957
C            3.64790361200726       -0.24751769524119       -3.25821581175899
C           -0.60872046610309       -2.85799880487930        1.02336097749244
C           -1.74722444755429       -1.99441319702921        1.55870532308725
P           -2.00341955059392       -0.78201982546739        0.21216355153998
C           -3.34596825595790        0.31860737762249        0.75698549592695
C           -3.80684075229646        0.40002770309324        2.06585757836798
C           -4.82027464820351        1.28690578255256        2.38946023272963
C           -5.37242892713002        2.10240148323418        1.41599341890860
C           -4.90729981363637        2.03559082497601        0.11096106911402
C           -3.89717561721142        1.15193588773335       -0.21516898471103
C           -2.86856504927512       -1.76933177862362       -1.04933852171860
C           -2.19288000589472       -2.03797756478157       -2.23318615919145
C           -2.78691345859138       -2.81210857764096       -3.21350164423109
C           -4.06158749032259       -3.31761389278535       -3.01209407149805
C           -4.74145592090367       -3.04668450971143       -1.83399710362282
C           -4.15008324204145       -2.27253106276348       -0.85197073578036
H            1.16741774869850       -3.91496206254395       -0.38440965799699
H            2.07221001259537       -3.02106137869130        0.85348165830774
H            1.96337831954832       -2.51190049463591       -2.14036329380853
H            3.39876904747695       -2.58512681368783       -1.07273712180625
H            1.36118879206456        0.24715103617506        1.75052827951896
H            2.63079681716409        0.63729117964254        3.86624791878447
H            5.08921001101874        0.43073387151262        3.86833222499889
H            6.28489830455258       -0.14868504967770        1.79407665667809
H            5.02715618864026       -0.52478153790421       -0.29771909273016
H            2.88021505154770        2.22201901701846       -1.08286199462968
H            4.18887438967319        3.53313220779693       -2.72216487996138
H            5.14932367080289        2.41463678258873       -4.70275881812331
H            4.79480622867370       -0.00063505272752       -5.04577593209475
H            3.49625433609554       -1.30512896714268       -3.41995748275967
H           -1.04086993965425       -3.69144779100758        0.43305151216964
H           -0.06016643121892       -3.32099060384521        1.86520353283987
H           -2.64189258458148       -2.57693949578104        1.79379286116957
H           -1.41709154754116       -1.44524348480242        2.44552017499705
H           -3.38123237292479       -0.22935899598277        2.83428753153578
H           -5.17990425864106        1.34219076415258        3.40729231334944
H           -6.16232599986441        2.79299837832556        1.67356406590226
H           -5.33212736875103        2.67586246221364       -0.64882767342310
H           -3.52055011823463        1.09394805004780       -1.22901779462298
H           -1.19250212736928       -1.62566982978483       -2.35947889519523
H           -2.26116544050365       -3.02092548234981       -4.13450628992328
H           -4.52939168476937       -3.92268372744117       -3.77556857180762
H           -5.73648549398546       -3.44094134781154       -1.68302839591188
H           -4.68108077655948       -2.05216136170410        0.06513056583131
C           -0.25048108249868        1.23915894706294       -0.96416243436104
O           -0.42945201173895        2.32698279265122       -1.33528780141820
