57
 energy: -86.156921393960 gnorm: 0.000145033582 xtb: 6.7.1 (edcfbbe)
Mn           0.04052385915130       -0.32470408576570       -0.07306095136743
C            1.84317888488046       -2.68362628278747       -0.89211852724231
P            2.08255362289248       -0.94442289168583       -0.76703648319168
C            2.82380105213599       -0.43018768156379       -2.36120693002470
C            2.56850156041855       -1.18250754926219       -3.50285971316146
C            3.08572459468574       -0.79520964529739       -4.72557279671353
C            3.85840994037625        0.35067867047670       -4.82070776371883
C            4.10971479550554        1.11010839245238       -3.68869005607812
C            3.59336251579987        0.72520665374061       -2.46510450037769
C            3.54057577599739       -0.60329151830112        0.29817416921871
C            3.60607442114460        0.60091714752223        0.99103365821028
C            4.69382854075126        0.89040969981331        1.79375083035683
C            5.72505386102132       -0.02775499171564        1.91250354310153
C            5.66517915602633       -1.23036698684762        1.22662399487023
C            4.57790047592268       -1.51840498828254        0.42064488832268
C            0.62405060093503       -3.17906644664953       -0.45120491825698
C            0.27065354175947       -4.56192968397787       -0.43900572884946
C           -0.93860430996433       -4.95931706882333        0.04840435243228
C           -1.83519561082464       -4.00996535215967        0.56999302414713
C           -1.46202920047202       -2.68425568218741        0.53723151629407
C           -2.28195313585644       -1.57526710420480        1.16763759094258
N           -2.06812178459976       -0.31610006722956        0.42720403010186
C           -2.13423847473631        0.90471300658597        1.24578155987075
C           -1.29406368640434        2.00778752069716        0.58691232894605
C           -2.99344502175903       -0.26385788153108       -0.72496955420323
C           -4.47647006312351       -0.04112028833425       -0.41025507962065
N           -0.30394095588984       -2.28068956403771        0.00682727502311
H            2.61184874617597       -3.33495033178799       -1.28335129285135
H            1.95574631714410       -2.07057361075768       -3.41938472064743
H            2.88351900436155       -1.38594942490853       -5.60831650231819
H            4.26245302500308        0.65408947173192       -5.77619647403166
H            4.70906395883995        2.00709818174356       -3.76235393856418
H            3.78896526579898        1.32124319996701       -1.58349121927725
H            2.78518629156583        1.30680733744927        0.89404332419899
H            4.73876167203485        1.82741913570466        2.33178247356319
H            6.57417281444289        0.19283638991973        2.54382180285809
H            6.46961227147349       -1.94630780876046        1.32322497735971
H            4.52483821261234       -2.45713115341857       -0.11235949312614
H            0.98513978170631       -5.27646925883534       -0.81886331281836
H           -1.21030355766341       -6.00545096423858        0.05423082613493
H           -2.77918187523984       -4.31031102514691        0.99501319177405
H           -1.92160032240319       -1.45117062047540        2.19628633127175
H           -3.33934816980695       -1.85708940098466        1.21622920221989
H           -3.16376852495041        1.25301576326796        1.39200383527403
H           -1.71355400246191        0.68422937110786        2.23272676476703
H           -0.26302626366798        1.63961071228250        0.30675557694924
H           -1.15430022607997        2.83408975788069        1.28245264683311
H           -1.78146551531904        2.39614957545229       -0.30764695104287
H           -2.66842971000964        0.53322839019434       -1.39898303125836
H           -2.88068381903782       -1.21226816515923       -1.25820782363977
H           -4.84412131237459       -0.72061627571315        0.35459154507399
H           -5.04658030774826       -0.22223527776844       -1.31832719120453
H           -4.67697790783530        0.98007422514090       -0.09441052840178
C           -0.20513870568545       -0.21414573202807       -1.83092526791473
O           -0.24435536493444       -0.15463665531503       -2.98452389790094
C            0.68536448527441       -0.53142358204596        1.57256293473285
O            1.20642734709233       -0.80071993748548        2.56836312664481
