60
 energy: -75.943939743818 gnorm: 0.000235606483 xtb: 6.7.1 (edcfbbe)
Mn           0.00111510729604       -0.17538208880839       -0.33562618591461
N           -0.09174516283854       -2.00217934746408       -0.59537092264194
C            0.98707817301721       -2.95125762710554       -0.37202294607978
C            2.13693488681814       -2.29827486848230        0.38694938692268
P            2.19982697482325       -0.61776631295808       -0.34150575507521
C            2.95314318541451       -0.95172071252082       -2.02583672376299
C            4.12256870892481       -1.93645966098292       -2.02784731570385
C            3.35324768978933        0.35035911673143       -2.71842691494034
C            3.55413877560611        0.27045497351187        0.58725285271518
C            3.35101001661684        1.77877343324706        0.44066610571693
C            3.54754272680696       -0.10689504158082        2.06667076357890
C           -1.22787140129931       -2.75936781131770       -1.09291881086394
C           -2.43157098240929       -1.87043569405417       -1.39935662077707
P           -2.22753031503322       -0.36289235663783       -0.36844019352395
C           -3.13359243536383       -0.83960478810217        1.20184854226026
C           -3.43915577614803        0.36222091478996        2.09366791239038
C           -2.30767196560382       -1.85411858963777        1.99009655327781
C           -3.43928526896089        0.86119120148301       -1.10080987052856
C           -3.01396247492823        2.27266250824478       -0.68732310884641
C           -3.51706975394526        0.78591506724667       -2.62372275815932
H            1.35218578925898       -3.35416973967609       -1.33599648770136
H            0.60746117336112       -3.81986796908539        0.19969066664725
H            1.85315030899479       -2.17953248166728        1.43817056516230
H            3.06960262265342       -2.86177484624196        0.32456669233203
H            2.11826302339126       -1.38605561191448       -2.59648866581015
H            4.56948470681400       -1.95713626156866       -3.02150977236541
H            4.89557122930359       -1.63996915022765       -1.32095543122993
H            3.80316847642386       -2.94873929443052       -1.78981273567437
H            2.55093768044934        1.08387539127509       -2.65463331321802
H            3.55734674533522        0.16279753043789       -3.77249327886161
H            4.25288339269081        0.76810689346723       -2.27097400345436
H            4.51574898916884       -0.01427502692137        0.14212688979563
H            4.16761818390656        2.31798494420053        0.91922455598220
H            3.30058206490837        2.08135788507429       -0.60191845129234
H            2.41547880470738        2.07276046927614        0.91461421953117
H            4.23815350075997        0.53448324269866        2.61272480556425
H            2.55089321439128        0.03992425226132        2.48444043955435
H            3.85145091579128       -1.14015423300025        2.22189902044198
H           -1.51121935792233       -3.54028276022852       -0.36345926676368
H           -0.92788905450348       -3.30563753810867       -2.00898700698862
H           -3.38329151241030       -2.38034400828645       -1.22572039794004
H           -2.38030468125360       -1.54462124537169       -2.44151026209749
H           -4.08039631878810       -1.30083458712525        0.88146978916248
H           -4.13066897273877        1.05438212955652        1.62073911763139
H           -2.52124474168416        0.89232179432624        2.34307216688937
H           -3.89469104796481        0.01953600856007        3.02280732098497
H           -2.25620910051293       -2.81391225914025        1.48206034645854
H           -2.74822625532974       -2.02042577783371        2.97289899257763
H           -1.29216421103607       -1.47339380876460        2.12884096776180
H           -4.42651647350113        0.63047698902990       -0.67869389908355
H           -3.82367120330020        2.98064899888064       -0.85873863388230
H           -2.72180763789900        2.31877056624739        0.35960023623223
H           -2.15353384788529        2.58396741660825       -1.27595632532294
H           -2.51572824904065        0.82107871434950       -3.05424198725698
H           -4.02419700008089       -0.11558668753099       -2.96178875562397
H           -4.07281844329624        1.64393271548449       -2.99993599700419
C            0.08987043001869        1.13251732201135       -1.51959858155478
O            0.13020261729813        1.96474944930039       -2.33818755368027
C            0.03267114355045        0.86630897843395        1.08993282238179
O            0.05931194351228        1.52229619183867        2.05765014946417
