62
 energy: -92.068924618306 gnorm: 0.000467967955 xtb: 6.7.1 (edcfbbe)
Co           0.20168677194958       -0.29753544685045       -0.64290243932338
N           -0.17053672335611       -2.05058405931294       -0.20423240832082
C            0.62572667827747       -2.89501468671721        0.66579703352861
C            1.70237714382749       -2.09258578268079        1.39072906507896
P            2.13170998203398       -0.79583994702769        0.17253484872569
C            3.13450590549009       -1.71390869502469       -1.03829896558127
C            4.38217344339336       -2.24070020853466       -0.72138092295044
C            5.08310374457405       -2.96272625835210       -1.67035426137950
C            4.54579181030924       -3.15935380264335       -2.93369939944438
C            3.30531539418617       -2.63055826198713       -3.25357049362564
C            2.60220399727125       -1.90751399279358       -2.30676198217890
C            3.40900165507245        0.23989430220889        0.95126302108235
C            4.10216566130188        1.11038238883984        0.11150200595197
C            5.07436253728496        1.94878933661237        0.62097011199386
C            5.35863748581508        1.93322790089891        1.97862108108938
C            4.66367475270393        1.08156115711000        2.82082233202782
C            3.68838303951921        0.23957895759448        2.31310809762626
C           -1.31031998952899       -2.81743437094820       -0.66989877774363
C           -2.05355398652904       -2.09008799073789       -1.78661718250140
P           -1.83692609413229       -0.32928023464869       -1.33691197564766
C           -2.99867147413657       -0.13321630662083        0.05113903748821
C           -2.46548459681222        0.08744773185891        1.31485867898359
C           -3.30039071083029        0.20779822232582        2.41115886255672
C           -4.67286587185970        0.11116451758884        2.24453849333701
C           -5.20908761127354       -0.10280775871808        0.98353762260160
C           -4.37670883575442       -0.22423805207097       -0.11447797087646
C           -2.68416168358033        0.63958765597207       -2.62293084645722
C           -3.07775112369363        0.12557384859478       -3.85304490473994
C           -3.69723862431899        0.94624295257279       -4.78084447840907
C           -3.92016554207939        2.28228184571538       -4.49306944036024
C           -3.51679843048764        2.80448806383917       -3.27301856707753
C           -2.89902711107309        1.98870373614161       -2.34545263242389
H           -0.02499852529440       -3.40252214905468        1.40283522144654
H            1.11452045502608       -3.69546597031531        0.07407738048050
H            2.55663139912154       -2.70649946160471        1.68799410386747
H            1.27501521786520       -1.59960351844171        2.26886894563734
H            4.80202393595958       -2.07833082243239        0.26295787181617
H            6.05256291359270       -3.37392813453413       -1.42668216917683
H            5.09829060731089       -3.72458015278983       -3.67067407462952
H            2.89080780429977       -2.78206711920247       -4.24024822026795
H            1.62542110480122       -1.47894953827968       -2.52605415349418
H            3.86651210202906        1.11716362536388       -0.94570649351095
H            5.61016072982525        2.61845830764145       -0.03697700407570
H            6.11833797616394        2.58868489833196        2.37928731556108
H            4.88122303230029        1.07335093661180        3.87946531849218
H            3.15008195867535       -0.41846472505941        2.97980680600769
H           -2.01397083751994       -2.99832055681353        0.16790793772986
H           -0.98064995587408       -3.81261392096369       -1.02350381031733
H           -1.54864851802819       -2.25616605946412       -2.74293096986312
H           -3.10127612167048       -2.39289744289740       -1.86168759719483
H           -1.38309005835941        0.15913307956708        1.41157343500710
H           -2.88553137293522        0.37891845186670        3.39446677919277
H           -5.32843871730803        0.20540073837215        3.09845355716772
H           -6.28028763853945       -0.17430319022609        0.85820476135617
H           -4.79203604515713       -0.38361252787943       -1.10124224484656
H           -2.90629485693542       -0.91489014051034       -4.08914682056195
H           -4.00729126135479        0.54019879524752       -5.73340935093888
H           -4.40401228709471        2.91842714806949       -5.22000405300855
H           -3.68381551818078        3.84835199143680       -3.04895914991742
H           -2.57436770146554        2.38538440374936       -1.39130525992153
C            0.54891356709777        1.33908594878632       -1.04755273174760
O            0.78409402614366        2.44514133468070       -1.31998102435478
