55
 energy: -70.314710529434 gnorm: 0.000505021649 xtb: 6.7.1 (edcfbbe)
Ru           0.09656017282863        0.02839843902146       -0.61234771266353
C            1.95815657717648       -2.07041501083250       -2.14475573827735
P            2.10599265891237       -0.29527835803959       -1.60585913520810
C            3.15595145377225       -0.33158105475864       -0.06910511499455
C            2.14787363896990       -0.68084692737402        1.04283786562231
C            3.74875387506707        1.05170592013728        0.19412910978566
C            2.94919630028341        0.47349052601692       -3.06331123480011
C            4.36481137677337       -0.05150803923130       -3.28846438585226
C            2.87040937884010        1.99691876192303       -2.98779683951716
C            0.82690376404738       -2.75035740143380       -1.43470712467604
C            0.63112485779278       -4.12166533292937       -1.51629644996874
C           -0.40978426753327       -4.70403996893631       -0.81157686694236
C           -1.18932339293086       -3.90989584476977        0.01735712725709
C           -0.93063199091724       -2.55167498983854        0.07220938161795
C           -1.58614576764863       -1.63709501066146        1.06977639789061
N           -1.72594463719802       -0.25079516096468        0.57646686846847
C           -1.75316830334093        0.69774744593536        1.71845559375068
C           -2.88414767214110        0.50368314094091        2.72587041826900
C           -2.96809737254558       -0.17567481214951       -0.23271840653131
C           -3.28493277026407        1.22049715133606       -0.75170052929205
N            0.02251324008645       -1.98707041059241       -0.68150136703946
H            2.89069683611484       -2.62579719529229       -1.99283426092390
H            1.74947326090794       -2.05369695472215       -3.22285808589557
H            3.94964272958268       -1.08785824116274       -0.11904365694190
H            1.89796990581321       -1.74589152859538        1.04144999621339
H            1.21697223149087       -0.03302640761101        0.92754588689374
H            2.56835220596924       -0.44353719986016        2.02243742372495
H            4.53431134857010        1.28957951518973       -0.51742768742349
H            2.96650804978085        1.81031570007175        0.12595805115052
H            4.18455404820130        1.08935018720804        1.19192517422951
H            2.30353137498934        0.15094152207313       -3.89767191088795
H            4.37697992743999       -1.13420431977609       -3.39856148853607
H            5.02381879572573        0.22215511393817       -2.46819080028261
H            4.76819488715882        0.38387063291226       -4.20094940273463
H            3.61530685829560        2.40615733131937       -2.31203206946870
H            3.04096395283022        2.42415562736157       -3.97378899321503
H            1.87957811487804        2.30022126851242       -2.64396764887025
H            1.28716446740030       -4.71884763618392       -2.12985298867650
H           -0.59471801689941       -5.76411659244874       -0.88512662128757
H           -1.97611791965736       -4.33684432336535        0.61850082271430
H           -2.55823430964591       -2.04818141592628        1.36857520353365
H           -0.94221523750271       -1.62670903177030        1.96354310691433
H           -1.80704899453743        1.70427706135795        1.29965612369705
H           -0.79176460476816        0.60669321628661        2.24347813099601
H           -2.85922496826148       -0.47915195615528        3.19089670838441
H           -3.85975598497000        0.65554925615060        2.27286617533133
H           -2.76850328217338        1.24560045914677        3.51253689122398
H           -2.83914230443379       -0.86119299720704       -1.07860662132362
H           -3.81370864131436       -0.53808402086872        0.36498728837316
H           -4.01273259595831        1.14136065382214       -1.55532142559283
H           -3.71095018792659        1.85025601032035        0.02484357633962
H           -2.38861437579305        1.70284025035019       -1.14492272429404
C           -0.69333814027769        0.25409370118332       -2.24948329560095
O           -1.07076238482604        0.37285837158291       -3.32744137515217
H            0.15379459530383        1.55748358858072       -0.41636066636349
