60
 energy: -75.880243535985 gnorm: 0.000647791195 xtb: 6.7.1 (edcfbbe)
Mn          -0.04399151728416        0.28053093016416        0.18866764469024
N            0.36123003170599       -1.74620322409018        0.55219216897115
C            0.81207673187299       -2.01568452404254        1.90102746027495
C            2.05779015937457       -1.13780676563788        2.10860383905476
P            2.09626628845664       -0.18440739845812        0.52891147555134
C            3.23286826166079       -1.19888059139484       -0.56064578856988
C            3.17085935563416       -0.68678053959568       -1.99731809400604
C            2.99604311631495       -2.70389348263957       -0.54427266585043
C            3.28407247705755        1.24812636729865        0.84662022515787
C            2.46639957419356        2.50583803726892        1.13251185732544
C            4.33021438490472        1.00888788936381        1.93099707723782
C           -0.61872180637108       -2.67931811068213        0.03489700630021
C           -2.04710426623513       -2.24481236344202        0.40839815789494
P           -2.17919175573306       -0.41559174066089        0.06491181705284
C           -3.60230582054357       -0.05815016383511        1.24137066087213
C           -4.32884728867892        1.25588966245675        0.96693065645668
C           -3.13708250784237       -0.07314341114305        2.69715740799946
C           -3.12296822610049       -0.38626857405061       -1.55835247934236
C           -2.56360463088665       -1.36960734361960       -2.58266756168897
C           -3.09400751064241        1.02614293200181       -2.15053994908870
H            1.06303633049895       -3.08135207703061        2.00057203101125
H            0.04249154350801       -1.78364616556362        2.66092205526501
H            1.93216350397469       -0.43971868883225        2.93934281242331
H            2.97180414529024       -1.71252151894932        2.27049063172307
H            4.23452517433283       -0.99806488091990       -0.15261067514579
H            2.22899377684349       -0.98623626034467       -2.45356997256159
H            3.98441117810560       -1.10576496709944       -2.58897801760608
H            3.24157068776903        0.40031894726240       -2.04403286882647
H            3.74501507104090       -3.18956925818632       -1.17034793447952
H            2.01139475799657       -2.93736238087972       -0.93752117176654
H            3.07606943369653       -3.11320633171205        0.45849842450155
H            3.80282922141089        1.40042686360405       -0.11108914441627
H            2.09002915510404        2.49854546160264        2.15460611809997
H            3.06371472424569        3.40773801977974        0.99836757809247
H            1.60383151156409        2.56099868154434        0.44785811378663
H            3.86561214907859        0.95755869052292        2.91329675083818
H            4.87511437549284        0.08250289789296        1.75836300711297
H            5.04854327401798        1.82888460194901        1.94027706954587
H           -0.42373912638537       -3.68968877941648        0.42037274927528
H           -0.52718303845272       -2.70491285419751       -1.05704916148422
H           -2.20190001299675       -2.39622938495751        1.47857193082731
H           -2.81105290325242       -2.80338673347293       -0.13594853655506
H           -4.30079401732906       -0.89297017003650        1.08233586444698
H           -4.85842359515497        1.24062717223797        0.01794976059115
H           -5.05905989956320        1.43886054656548        1.75503221952498
H           -3.62221178797009        2.08623578201285        0.96680427513937
H           -2.37726138215531       -0.83187557348008        2.87667962804758
H           -3.98066687466113       -0.26702970652136        3.35848633645072
H           -2.71484786885946        0.89124155029458        2.96777902070846
H           -4.15805976505195       -0.66675122381546       -1.32195704310549
H           -2.74215534132890       -2.40386878405982       -2.30048117615203
H           -1.49038280997278       -1.21974942953268       -2.69904972323848
H           -3.03649794614316       -1.19768840205370       -3.54929455983729
H           -2.17541399809396        1.17806152375426       -2.71239515131917
H           -3.92953882194048        1.17482644921628       -2.83374179826133
H           -3.13702370422349        1.79217867397755       -1.37820683139938
C            0.18741788150368        0.52055116073349       -1.56565938529263
O            0.36178817562308        1.09334821935691       -2.55953705901537
C           -0.24174987576665        0.97185696071176        1.80176521623818
O           -0.32377613992986        1.64160765224440        2.75069980397679
