60
 energy: -75.882777181805 gnorm: 0.000068014114 xtb: 6.7.1 (edcfbbe)
Mn           0.09283650607149       -0.04036219200233       -0.01955079227037
N            0.14542652081255       -2.10844734955475        0.43191632746347
C            0.71842986075066       -2.34971731945060        1.73948173877632
C            2.12887933247882       -1.73990961941919        1.81859726967787
P            2.21568391498999       -0.42050109767210        0.52165982927906
C            3.33187357102553        0.88136085518571        1.26835752995530
C            3.65231837198556        1.91277472113793        0.18681680240957
C            2.64782873269025        1.57709563771143        2.44095146897545
C            3.35576757989192       -1.18008618617811       -0.75830063024110
C            4.78253205532853       -1.45380979535605       -0.28117734634818
C            2.72914977996576       -2.45857384333585       -1.31184097717123
C           -1.08627338970224       -2.84399428512574        0.21678219896289
C           -2.32149580747031       -1.98453759955570        0.56227406592290
P           -2.07485898144306       -0.41451347918462       -0.38659924012308
C           -2.60240671774344       -0.91646161060640       -2.11692233752850
C           -3.86389211664625       -1.77403973839597       -2.19873508496655
C           -2.72774033878309        0.31655949164696       -3.01129877845231
C           -3.48292080192326        0.70642025779402        0.14096664823215
C           -3.00861727095241        2.15301703862623       -0.00637359233267
C           -3.96729862715392        0.44831846797053        1.56475488342386
H            0.77627643867224       -3.43425574237732        1.91861080835664
H            0.08793862766178       -1.91834949172574        2.54380324781873
H            2.32136264534269       -1.31447357060561        2.80521267617945
H            2.88752554247313       -2.49782642421956        1.61595652700367
H            4.24760525074930        0.39849917399254        1.62846609784273
H            4.29031508666136        1.50445052592358       -0.59404618801694
H            4.15459367753095        2.77880142175442        0.61754014257692
H            2.72229010645538        2.25633028143106       -0.27734947140235
H            1.79200363518648        2.15362158225537        2.08917312285815
H            2.29608610926644        0.86606030906579        3.18652100355078
H            3.33948624955969        2.26524853924500        2.92685305308088
H            3.38964185370836       -0.44274726812357       -1.57269007540680
H            4.78959813839162       -2.03232336566764        0.64054771337347
H            5.30668574350861       -2.03217790192868       -1.04161560571687
H            5.34524808016923       -0.53771651921409       -0.11852884613476
H            2.78279479087173       -3.26319059392979       -0.58266517920067
H            3.25434072252546       -2.77354385974491       -2.21312465760030
H            1.67882773333090       -2.29555753268796       -1.54976480986624
H           -1.14069165446073       -3.13247240978910       -0.84147067018809
H           -1.09852206096414       -3.76209686519019        0.81918110792703
H           -3.26355177535300       -2.48561073096565        0.33642828557034
H           -2.28784067997567       -1.72893314305525        1.62458350037892
H           -1.74849168410793       -1.50742617804426       -2.47767177965924
H           -4.68959541604050       -1.32939883760906       -1.64634162016971
H           -4.16901868092496       -1.86489527778179       -3.24070268539170
H           -3.68626772676463       -2.77577135778743       -1.81669685937109
H           -3.62529087874505        0.88577501426107       -2.77594380290687
H           -1.86209847573120        0.96902350254917       -2.89462857190237
H           -2.78257953507303        0.01861104386904       -4.05806109234741
H           -4.31926481117054        0.53711416934559       -0.54802019641630
H           -2.19006388858987        2.35091014515442        0.68687710807437
H           -3.81629787908946        2.85038958535454        0.21537990995969
H           -2.65203624596943        2.35129276313166       -1.01671785911201
H           -3.14775334651699        0.53669510465351        2.27478869182189
H           -4.72346258117114        1.18670200021901        1.83161981798478
H           -4.41030373811236       -0.54033260739212        1.65942408791048
C            0.50089292267031        0.04045576919972       -1.75401825435150
O            0.79664719922970        0.37710911166033       -2.82207263187812
C           -0.32395288023669        0.56707296784287        1.58466506647970
O           -0.63398948845084        1.12772502804494        2.55899320170157
