48
 energy: -70.177812206599 gnorm: 0.000175291904 xtb: 6.7.1 (edcfbbe)
Fe           0.14161245663278       -0.28641962567252       -0.37737349409128
C            2.36430875757065       -2.35640571959140        0.03780237461293
P            2.26869319691716       -0.59051775986558       -0.51250024819977
C            3.11458693212280       -0.59656857511550       -2.18069444080416
C            2.49603282898134       -1.72254260444083       -3.01242429503016
C            4.63488784083554       -0.71922058119258       -2.15766786531154
C            3.23412520344289        0.35374477550010        0.76376392697005
C            3.04538926444270        1.83095038363732        0.41756361434982
C            4.68637599971593       -0.02329503597846        1.03295677074132
C            1.05250758441376       -3.00302851443872       -0.27581541095610
C            0.88415366636028       -4.37315990267323       -0.37384615637927
C           -0.38969047794758       -4.90014435867161       -0.54300738207344
C           -1.47859240293425       -4.04751500479618       -0.54198031133700
C           -1.26081865963031       -2.68013726029617       -0.44310391222880
C           -2.26909045650661       -1.64785472428075       -0.31013468749308
C           -3.65509495386974       -1.74471015170386       -0.31034737650526
C           -4.40289031705719       -0.59516161452432       -0.10818827853452
C           -3.78024934484081        0.62725010098639        0.12955375622263
C           -2.39975847919238        0.65245539713390        0.13038646727653
O           -1.63205619464151        1.74954243782838        0.32564602629084
N           -1.68451832371888       -0.44373167175752       -0.12332512989243
N            0.00131476647728       -2.17003301986371       -0.38866461065110
H            3.21326356650802       -2.90992403542779       -0.37189526730908
H            2.45950027795945       -2.32212978551557        1.13175777379247
H            2.83679861960785        0.36620297696442       -2.63165260476498
H            1.41662593127746       -1.78414294813058       -2.86859539456734
H            2.93190679581331       -2.68424002587697       -2.75045273424708
H            2.68420162361770       -1.54770114468821       -4.07015537759945
H            4.96129546288358       -1.53433295337201       -1.51609432191727
H            4.99092531925526       -0.92233170106183       -3.16693941240413
H            5.10243912087834        0.20298937910385       -1.82546904035090
H            2.64862954596127        0.13316118408768        1.66921165998085
H            3.38677113270208        2.46674493715163        1.23241290986849
H            3.60649298143627        2.09569974173257       -0.47795826132149
H            1.98158358959733        2.03595289783589        0.23499549336370
H            5.35848659453377        0.38361487339517        0.28419831303969
H            4.98397553939033        0.38691588919053        1.99723039019380
H            4.81579793355607       -1.10283971070336        1.07390224194830
H            1.74277439317450       -5.02275595639794       -0.30295685148061
H           -0.52952329032716       -5.96570325457726       -0.63710766378159
H           -2.48465292128023       -4.42850565488291       -0.60745665339314
H           -4.13827063623172       -2.69467509441748       -0.46858154499486
H           -5.48049087671481       -0.64727336025081       -0.11711981315278
H           -4.34036045698120        1.52972124184159        0.31031550484181
H           -0.92685075971979        1.55464603901961        0.97508325552163
C           -0.19126140293747       -0.09410621474314       -2.09446730715636
O           -0.58179901502221        0.05767711295754       -3.15500831101607
H            0.41591458215095       -0.37280380997859        1.01769290175461
