55
 energy: -70.302708997104 gnorm: 0.000197734057 xtb: 6.7.1 (edcfbbe)
Ru           0.06006631856379       -0.10008267891093       -0.71813121661090
C            2.10664118548140       -2.45706772460117       -0.86677703946633
P            2.29278319546407       -0.60657548013750       -0.68421882557862
C            3.17921887481201       -0.44698521592246        0.93920297658526
C            3.40976688438492        1.03763246941087        1.21491865517806
C            4.47497609101133       -1.24651301321835        1.05028307122541
C            3.49639784384831       -0.01910092994779       -1.97925515519696
C            2.99709362945014        1.36538435964268       -2.40220962110411
C            3.62603836268393       -0.95088470955478       -3.17861343025694
C            0.87032566253651       -2.86282653666573       -0.12083575156193
C            0.67341490160956       -4.11413167244130        0.44348722340660
C           -0.53008620917418       -4.39376708774393        1.07418787872248
C           -1.50404567115809       -3.40654731411141        1.15572233282404
C           -1.25016813632751       -2.16454275607593        0.60132887433070
C           -2.16190074412873       -0.96967964006029        0.75358830871841
N           -2.03641493024786       -0.07785764768708       -0.41715287765107
C           -2.18107936406305        1.37349775557710       -0.17679053956304
C           -1.15469842200450        2.11582713654572       -1.05421120982711
C           -2.90282387408705       -0.54641426510838       -1.52135636114260
C           -4.40376416184337       -0.56525340452272       -1.23131535549341
N           -0.08963753005652       -1.92797515713553       -0.04055550047092
H            1.94401652544652       -2.64935518040985       -1.93561391034351
H            2.98268446843240       -3.02426595194672       -0.54577045493821
H            2.45008733904760       -0.83028651052324        1.66866370926652
H            4.17720297691578        1.44317880988185        0.55816040186162
H            2.48289541625317        1.59331615235876        1.06614041326118
H            3.73396846343767        1.18351485331561        2.24341808226863
H            4.96360946165741       -0.99471880760055        1.99005136099147
H            5.16736046670023       -1.01071923761719        0.24489202976614
H            4.29314373472641       -2.31832488285497        1.05320369075094
H            4.47664149626362        0.08689479425360       -1.50074886161639
H            2.87538571868765        2.01584896780637       -1.53439260741607
H            2.03124846604027        1.27905481994409       -2.90753029378039
H            3.70056295893980        1.83373635415201       -3.08805263075826
H            4.05127946398823       -1.91050911080021       -2.89286863677871
H            4.28751675324095       -0.49753627256351       -3.91542565621338
H            2.66176355111519       -1.11360869659854       -3.65694370447588
H            1.45182479009044       -4.85838900419120        0.38344754999020
H           -0.70424900206819       -5.36593122189933        1.50732278332910
H           -2.43980368141432       -3.59295520447084        1.65860010020410
H           -1.81853052328464       -0.42331983717394        1.64210112023460
H           -3.19561629672961       -1.28436061738697        0.92451254458184
H           -3.19186692420490        1.72749789657017       -0.40484503317105
H           -1.97113630099132        1.58160743771097        0.87655604594118
H           -1.10021259545535        3.15998180356308       -0.74018415579679
H           -1.44363997367393        2.10042260474574       -2.11040150835282
H           -0.07061063501585        1.71504842496888       -0.93082922124629
H           -2.58303363754523       -1.55984019068475       -1.78772822253058
H           -2.72061145900810        0.10475525110016       -2.38093739168477
H           -4.68287694762984       -1.37307367440311       -0.55997014214063
H           -4.92961536521856       -0.72548791336709       -2.16942483740738
H           -4.75344608834369        0.37403056295645       -0.81047509322803
C           -0.06129681098967       -0.61773885035450       -2.50218102775265
O           -0.08272612431425       -0.97617978799250       -3.59145292777229
H            0.22635081319656        0.33556176567124        0.75394348215782
