49
 energy: -80.971372525574 gnorm: 0.000184924845 xtb: 6.7.1 (edcfbbe)
Co           0.15856566683498       -0.47484185680320       -0.23344096044717
C            2.33371370331984       -2.41172350190346        0.79081531807518
P            2.13362182411123       -0.57278731346785        0.65001336729740
C            3.57363796165849       -0.07222906914383       -0.32624906355421
C            4.85729035256322        0.01749545607547        0.20389491055265
C            5.91195272079533        0.35715870348463       -0.62465534170185
C            5.69133260962881        0.60158256597483       -1.97202638812637
C            4.41387507816913        0.50215898253898       -2.50231655398055
C            3.35399614884034        0.16459719402132       -1.68055935444363
C            2.41046978799732        0.06681737077982        2.32188654080650
C            2.03234369137194       -0.66125465518379        3.44708667114487
C            2.19083957802817       -0.11296337341219        4.70749844588564
C            2.70910968336065        1.16429115409912        4.85146902357204
C            3.05901563609113        1.90306679808312        3.73133143166330
C            2.90244115624106        1.36300764106504        2.46832571925225
C            0.95034555616985       -2.96591546995808        0.89326343540738
C            0.66873560612827       -4.16376281509112        1.53914281314432
C           -0.63860160594918       -4.62158432641554        1.57906864744771
C           -1.62958004381899       -3.88496826190156        0.94957642621229
C           -1.28335241457627       -2.70008891449691        0.31127800423055
C           -2.19594522655963       -1.85737436149508       -0.45915430232824
C           -3.52490236972282       -2.14910480881851       -0.72436224676417
C           -4.24280148658782       -1.29892081471140       -1.55618890896560
C           -3.61035208576186       -0.20599953646935       -2.11344585531103
C           -2.26917959343050        0.03137374323080       -1.79762249246543
O           -1.57098026915154        1.04807400558157       -2.30469557866387
N           -1.59118051366360       -0.76100314155271       -0.96776724622425
N           -0.01407128806087       -2.24423334619427        0.30936457901231
H            2.78672603041619       -2.74553542575714       -0.15099144786461
H            2.98361754304625       -2.72016715223106        1.61369055486513
H            5.02569130595205       -0.17056752669302        1.25521225438231
H            6.90997232873629        0.43251223087200       -0.21906381430848
H            6.51955038998180        0.86999435467140       -2.61079253522697
H            4.24787117820411        0.69032339417518       -3.55249249417583
H            2.34224291336698        0.08164201028226       -2.06985948960657
H            1.61174261524686       -1.65216973871915        3.34284897222953
H            1.90616952018281       -0.68176855214909        5.58035851246083
H            2.83321689827155        1.58765403033766        5.83689838246419
H            3.45125467460341        2.90283411728673        3.84361597604549
H            3.16572457979634        1.93840242767272        1.59077713972188
H            1.46595657696219       -4.72472573949126        2.00155473191782
H           -0.88072594543346       -5.54225987726544        2.08677765464558
H           -2.65183530793947       -4.22447738144334        0.96281230674030
H           -3.99737254730014       -3.01890536292081       -0.30040017560004
H           -5.27981317026925       -1.49867728102273       -1.77631083018657
H           -4.13326923012666        0.45917922619113       -2.78396933117315
H           -2.10671563351576        1.61253183404761       -2.88132698357168
C            0.28040443028094        1.24864937400207       -0.47704370173126
O            0.43730676688006        2.37881865247305       -0.48538501525304
