61
 energy: -71.684865724650 gnorm: 0.000188338671 xtb: 6.7.1 (edcfbbe)
Ru           0.05126066241476       -0.05087917823729       -0.30398671135975
N            0.19768350291038       -2.29398376068015       -0.45734906441489
C            1.30868079695931       -2.77323718810975        0.36961225956068
C            2.59445922516709       -2.08344191148266       -0.08480435468850
P            2.31693779630812       -0.22676088680345       -0.08125873480336
C            3.55752707264537        0.40709404130730       -1.35282529963934
C            3.72480006209161       -0.50035598176281       -2.56888842781498
C            3.07401122415784        1.78145202172106       -1.81890585245400
C            3.26283175619453        0.23424966753223        1.47602013497242
C            3.17439491529744        1.74314012402754        1.69062313084062
C            2.74322665630906       -0.49054391167016        2.71337842120495
C           -1.06900830071690       -3.01753052252418       -0.26651837249775
C           -2.00221644597295       -2.28325156268167        0.69298299453168
P           -2.16031147294515       -0.51139459616610        0.11917661446867
C           -2.94070664959908        0.26351484356791        1.63083869930314
C           -4.28276612768589       -0.30583166333790        2.08204058128393
C           -3.02181099379697        1.77308786746864        1.41536373165325
C           -3.61681994239076       -0.51416678732432       -1.09005422618105
C           -4.48833058765460       -1.76740590185938       -1.11009907331107
C           -3.11307550901359       -0.20039128904849       -2.49552103086224
H            0.49027141009339       -2.44145082213405       -1.42558460841263
H            1.09038677968292       -2.53539711825599        1.41459177855224
H            1.42042155245583       -3.86702592385607        0.27234745389157
H            2.81125030549300       -2.40301269370725       -1.10770357325268
H            3.43990293985116       -2.36337548089839        0.54760661505321
H            4.52876330130253        0.51565604462149       -0.85353756440793
H            4.28126376386941       -1.40525358908788       -2.33209646905451
H            4.27407128462014        0.03238037262421       -3.34473573955338
H            2.75170545398592       -0.76953191406015       -2.98106005759645
H            2.20631123894287        1.66730809917922       -2.46608954620921
H            2.76697759976009        2.40353502413378       -0.98078700037451
H            3.85588231078916        2.29654749182190       -2.37643302307521
H            4.30911692227529       -0.06121652297640        1.30753474051748
H            3.53358688485462        2.00942610189179        2.68409389477601
H            3.77137526144591        2.28588417493300        0.96123786103880
H            2.13264411945083        2.05585823048035        1.60032223250734
H            1.68426522281660       -0.27775728979256        2.84660368574627
H            3.27610754904193       -0.13786590405453        3.59589050691284
H            2.88530263714051       -1.56746879660087        2.64687915165741
H           -0.87375333060513       -4.03759841773885        0.09754678612240
H           -1.56605674980645       -3.09708305031864       -1.24053382414701
H           -1.55274786396577       -2.23333776128775        1.68980326016846
H           -2.95610743606301       -2.80698035949995        0.76195913114965
H           -2.19464309712606        0.07911353208035        2.41513705438775
H           -4.22653291401921       -1.37887219922055        2.25223044758475
H           -4.57107431432652        0.16697970947206        3.02064512822552
H           -5.06608956056652       -0.10122087587661        1.35570969198684
H           -3.77862277200471        2.02815988349251        0.67443895591500
H           -2.05523030589888        2.13697094760607        1.06205414687891
H           -3.27231969804984        2.28049358184311        2.34578859384064
H           -4.23330327852027        0.33544924272303       -0.77084469778642
H           -5.32700154238990       -1.60528799221396       -1.78755321587300
H           -4.89402478899483       -1.99907218024460       -0.12888768825563
H           -3.93190586670462       -2.62895001425986       -1.47515255677507
H           -3.94858488501173       -0.05157193678728       -3.17937016532444
H           -2.49912709695233       -1.01372673793777       -2.88300262828711
H           -2.51009905463924        0.70764607296416       -2.48311001347892
C            0.05986033440984        0.11865618004315       -2.12858639321091
O            0.11563288295659        0.16718393715283       -3.29310516118097
H            0.05745885648344       -0.16147899510839        1.26642943784055
H           -0.02724654958271        1.50236197357152       -0.13829042816671
