56
 energy: -71.023639205361 gnorm: 0.000188010706 xtb: 6.7.1 (edcfbbe)
Fe           0.03180442145399       -0.03917705856685       -0.36190351067327
C            2.38905797496798       -1.97801091433515       -0.15605668158468
P            2.12087349032397       -0.25823607940784       -0.80983922473283
C            2.61880629530018       -0.41238186129606       -2.61767473566751
C            2.43363170176781        0.95460397009746       -3.27640649347690
C            3.99655409163329       -0.97811678134279       -2.94659544636338
C            3.53600437536110        0.72711053526280       -0.07171321088435
C            4.74658443994436       -0.09392740604231        0.37507662333332
C            3.01207350595144        1.57512910515184        1.08246344145333
C            1.08402180019087       -2.69235190456659       -0.27618121649330
C            0.99444557250358       -4.07113801738170       -0.28862909980355
C           -0.25101124844455       -4.68599274497211       -0.30631765417629
C           -1.37648753836051       -3.87264091266003       -0.29828769712318
C           -1.21838265067986       -2.50162684949164       -0.30878895204248
C           -2.37029035773322       -1.54549804125395       -0.37634195611308
N           -2.06218971509644       -0.29942746061729        0.35560776464716
C           -3.07508568932939        0.69951625460267       -0.04318103465971
C           -2.76994939295318        2.14306441372566        0.33640470209341
C           -2.16098056061276       -0.62876826586873        1.79383425014362
C           -1.71730560626898        0.46724421335412        2.75300599864924
N           -0.01110640764625       -1.90066681341583       -0.31855123197502
H            2.58718262377940       -1.82966626291507        0.91251416004999
H            3.21563280964091       -2.53739598333501       -0.59722134597689
H            1.85209318600626       -1.09532466243997       -3.01656317705906
H            3.29321957295184        1.59626767535948       -3.08875925489900
H            2.31852174292399        0.85322602470195       -4.35516823807533
H            1.54805084526821        1.44694798987907       -2.87541608950225
H            4.14999679012826       -1.96206467300126       -2.50898097953579
H            4.09269968656950       -1.07821663796842       -4.02819930865913
H            4.78290798079961       -0.30944083164971       -2.60407327940725
H            3.84259969368711        1.40631713138557       -0.87865606877192
H            4.51980769757377       -0.65711043590817        1.27785608107516
H            5.57138902196009        0.58072916985225        0.60557805611440
H            5.08119058104133       -0.78809092740958       -0.39085496948003
H            2.11572085490480        2.10513899386111        0.76996505070263
H            3.76721307303038        2.29031420847019        1.40778177171778
H            2.73941806550295        0.94400241976969        1.92492136779409
H            1.89767901788397       -4.66311919564865       -0.27186804305676
H           -0.34078693782762       -5.76080864293309       -0.31418885890413
H           -2.36885472302026       -4.29811427620673       -0.29339750489941
H           -2.52395927509782       -1.29572125060161       -1.43307649777765
H           -3.29507627040489       -2.00978405888390        0.00072527937729
H           -4.05556916480805        0.40013366397662        0.36052508698313
H           -3.13619529543926        0.66462200000630       -1.13434222012014
H           -3.31340620970404        2.80894438332098       -0.33087163403646
H           -1.70335857604844        2.31450022998705        0.21141486889817
H           -3.05605985897221        2.38007160911226        1.35477371202173
H           -3.19832583933555       -0.92535982156125        2.02282912344142
H           -1.51884476891439       -1.49905370101142        1.95440697523471
H           -0.86060877374651        0.98198420384777        2.32760818707275
H           -1.42100380432924        0.01605823361857        3.69768663314123
H           -2.50962013016992        1.18029965479110        2.95669820848394
C           -0.52462296790825        0.19084828297663       -1.99173500029256
O           -0.90940046956305        0.39044132953753       -3.06986469919119
H            0.54064223944227       -0.02602137931456        1.00985596253397
H            0.09620295221375        1.41541114573385       -0.28771946856735
