55
 energy: -80.771755558784 gnorm: 0.000161217618 xtb: 6.7.1 (edcfbbe)
Co           0.18900296036772       -0.27081493813971       -0.00553550246408
C            2.10426125992996       -2.21438229405483        1.36581804944526
P            2.17458043343941       -0.53725879594497        0.84532045962381
C            3.62583489941102       -0.38883109246688       -0.24809582935199
C            3.40697062443450       -0.43024436890619       -1.62126446738004
C            4.47465516990341       -0.42987760331272       -2.49919422683753
C            5.77097160944035       -0.39726178246042       -2.00836703725688
C            5.99531772100168       -0.37278424402450       -0.64045644253935
C            4.92869400119972       -0.37313023050516        0.24024667137055
C            2.65337010205165        0.49763945535473        2.26483694626101
C            2.37370062525236        0.06886410488373        3.55760428925612
C            2.68770741210421        0.87044321074287        4.64055102551080
C            3.27513819410527        2.10890859807485        4.43810088182234
C            3.54209513095739        2.54827736154027        3.14989666465943
C            3.22837323422172        1.75017926940442        2.06589420066512
C            0.98697091116376       -2.86861344849160        0.88057515274129
C            0.74796806907905       -4.26689992900364        1.03983223817030
C           -0.38286718552763       -4.83393274170043        0.53719969227180
C           -1.31916577861683       -4.03596909795442       -0.14524956252233
C           -1.05116983091352       -2.69194586165583       -0.26924930987221
C           -1.95886646956912       -1.74073570416801       -0.99991991651212
N           -1.88307769379626       -0.41092957211423       -0.36626760218572
C           -2.51876905296419       -0.48916557985500        0.97070544744855
C           -1.78999635331511        0.33534973498779        2.02766504578772
C           -2.59505114648920        0.53628680229658       -1.24377651257661
C           -2.71060325739921        1.95991444583835       -0.71741094379427
N            0.04024496928746       -2.11121896639420        0.23295372595307
H            2.94670245212011       -2.72950954586565        1.80231981131597
H            2.38301909130609       -0.45244950386389       -1.98191737670763
H            4.30098493884385       -0.45234579574886       -3.56592783858255
H            6.60776229309776       -0.39280687824384       -2.69219651343560
H            7.00722768315992       -0.35356980880309       -0.26021397634988
H            5.10111966246443       -0.35353480374381        1.30844271361816
H            1.91381195945403       -0.90062986396900        3.69949468661878
H            2.47527679947024        0.53054659429882        5.64449667498044
H            3.52315790556518        2.73461787324643        5.28353072098655
H            3.99462264300470        3.51737635319781        2.99308206388201
H            3.42943903396253        2.08909382355049        1.05799360437960
H            1.48994431296670       -4.85406044569680        1.56035728069121
H           -0.56803044424075       -5.89301551460163        0.65293923737135
H           -2.21482953210204       -4.46333816414446       -0.56698612640501
H           -1.61235037390149       -1.65436693574638       -2.03654718198480
H           -2.99428879132683       -2.11318558063719       -1.01847475198505
H           -2.49789115727841       -1.53272843487782        1.29667369306865
H           -3.57010014843221       -0.18517445856047        0.90252989364547
H           -2.20460634856982        0.11718946072573        3.00985300068147
H           -0.72374679433837        0.06361915008407        2.03373358688215
H           -1.87303246008831        1.40214264337427        1.84564272998454
H           -3.60957879026715        0.15055791190033       -1.43493205276243
H           -2.05887254693480        0.56279253710285       -2.19663184799871
H           -3.12399946157002        2.58924137741107       -1.50271787828523
H           -3.36949849867166        2.02196201560029        0.14422524791578
H           -1.73405800183517        2.34952789539901       -0.44515942052104
C            0.54933641251465        1.35926057082591       -0.45036153013660
O            0.98353491645004        2.36989461080442       -0.80977296249709
