60
 energy: -70.827902861488 gnorm: 0.000261036447 xtb: 6.7.1 (edcfbbe)
Ru           0.11586914786116       -0.27902755690779       -0.48422275343917
N            0.32049350963063       -2.42842049113255        0.02347862040678
C            1.51897426557073       -2.70436939342964        0.83848540364190
C            2.75401584001478       -2.08473405949322        0.17980674793144
P            2.40389344856668       -0.34084562122162       -0.37311422526035
C            3.77399263726030        0.11418892413931       -1.53992134524614
C            4.16498415981273       -1.05722601976187       -2.43981390312163
C            3.26419034341489        1.27555182002377       -2.39651428808443
C            2.63338918937931        0.62457737731935        1.20529966002222
C            2.90511229117928        2.10432755266011        0.94378789101679
C            1.29459845832104        0.46417112657415        1.95632137196063
C           -0.91371586252653       -3.04531266476052        0.55789016893237
C           -1.74140039405903       -2.03825312964110        1.35405504604674
P           -2.07241136150527       -0.55501370848388        0.27418093888733
C           -2.68562302131549        0.70327118782800        1.50685406423003
C           -3.96483804093516        0.30865689440210        2.24033894899572
C           -2.84060489060403        2.05003274799402        0.79961006831870
C           -3.56304526043360       -0.95450196414528       -0.78027941919600
C           -4.39589968727748       -2.14351424376551       -0.30519337577166
C           -3.11554417490601       -1.14020067345177       -2.22938363134536
H            0.50451670652917       -2.86828271396681       -0.88349832036049
H            1.36220346750378       -2.31374949004125        1.84735590899157
H            1.67093520382653       -3.78924470630967        0.92852876703439
H            2.99512555198995       -2.66204485554062       -0.71787385442583
H            3.61691171199571       -2.11531131896803        0.85100969772507
H            4.63864644668629        0.42718691971801       -0.94002181974326
H            4.69931106517651       -1.83244646822121       -1.89481734367811
H            4.82292960777164       -0.69640881483801       -3.22833662829994
H            3.28207704236077       -1.48520086293943       -2.91695332509989
H            2.40980999845054        0.94827853916255       -2.99016466583130
H            2.94412260312088        2.12054211675163       -1.79269131793779
H            4.04664595324031        1.61442756293993       -3.07249349260496
H            3.45799325768049        0.20431806840301        1.79727197571551
H            2.97314328001753        2.63866308296277        1.89070291103231
H            3.84366709791280        2.24963923093890        0.41431179200510
H            2.09250118266516        2.53898611911508        0.36048900669144
H            0.43010775020992        0.41190624278490        1.22269261211603
H            1.10653890633746        1.33922652762736        2.58140115410494
H            1.29058156191363       -0.40679344530748        2.61209066671949
H           -0.66477828188194       -3.91021276806791        1.18458345823198
H           -1.51036843155110       -3.40020996663153       -0.28724243493068
H           -1.18310030720073       -1.68468052919773        2.23169211265301
H           -2.66173035752686       -2.50550863710990        1.70737229126206
H           -1.87240450922143        0.79316798535877        2.24552877671311
H           -3.85673500741293       -0.63999512089971        2.76225799343293
H           -4.19850416063834        1.07177723619901        2.98130085202467
H           -4.80789617666718        0.24563365861657        1.55650731802494
H           -3.67650848271674        2.03339259808811        0.10285429909348
H           -1.93642825685409        2.29754883878714        0.24078824304832
H           -3.02721818490170        2.83727994966322        1.52740848524576
H           -4.18082766878084       -0.04820267049468       -0.73528525615621
H           -5.28827693172950       -2.21398067762822       -0.92526934782491
H           -4.72043178980727       -2.03177380706978        0.72650557425562
H           -3.85144394154446       -3.07985652156378       -0.40771282097939
H           -3.98018044846099       -1.29857214097395       -2.87116086720084
H           -2.45631256388278       -2.00271618761689       -2.33206178488223
H           -2.58801379153513       -0.25147812051552       -2.57759287324390
C           -0.01872343003814       -0.55811747710447       -2.29197696979974
O            0.00209343048850       -0.66306684249144       -3.43644556168612
H            0.00244544617178        1.22095881036325       -0.80050958025027
