61
 energy: -76.087751865932 gnorm: 0.000154268088 xtb: 6.7.1 (edcfbbe)
Mn          -0.12245017421102       -0.20635271992739        0.04369513834620
N            0.04462931139809       -2.37860429744736        0.09648746140726
C            1.44944689729591       -2.82392896127102        0.04225865014094
C            2.29641064791690       -1.95729779657183        0.97202595699543
P            2.12642447857989       -0.18273937983055        0.43219568175945
C            2.69395922328245        0.74850031828856        1.94072067737799
C            4.13463606771735        0.49785659378265        2.37423874467032
C            2.41840840263109        2.23451849444585        1.70315418202549
C            3.51453268846326        0.15676032724059       -0.78775107764966
C            2.96128881004363        0.43634568811356       -2.18234551980875
C            4.59474993233936       -0.92004263364272       -0.84901125552567
C           -0.78004438925286       -3.00714283016609       -0.96073812660413
C           -2.21132447465261       -2.43344998102077       -1.02081172903993
P           -2.25159935720454       -0.79029842982075       -0.15472933761821
C           -3.00269812710195        0.55123371318717       -1.21208362028680
C           -2.35462650091536        1.83305351667067       -0.65852855930165
C           -4.51592968871912        0.71490052326060       -1.29599325107133
C           -3.43813737975108       -1.10589588714611        1.24735511166034
C           -2.76382693246844       -1.94397737994780        2.33460772104001
C           -4.74052712930913       -1.78643125693732        0.80304234077329
H           -0.33534710093329       -2.68422035042351        1.00207047466277
H            1.52972575798621       -3.88232360623971        0.31925138069081
H            1.79848799759765       -2.70195773123247       -0.98888655411568
H            1.90579491145723       -2.01104195796347        1.99563282796544
H            3.33370669229458       -2.29214167637420        0.97422131161097
H            2.03178260253134        0.39435501807828        2.74364182905931
H            4.32185507231875        1.03045711711708        3.30567966601401
H            4.31546767859295       -0.55996032906111        2.55183148001602
H            4.84817764859473        0.86231939214108        1.63942790802728
H            1.41479332548580        2.37831130410828        1.28711870660864
H            2.48342357478585        2.79185493326159        2.63578236555858
H            3.13674074210040        2.66294154900828        1.00577253012437
H            3.96621226525005        1.08894126729325       -0.42370651770645
H            2.19477079073880        1.21118320174095       -2.14404480712811
H            2.53957463725647       -0.46398460569425       -2.62510709890543
H            3.75907436164057        0.78804993259752       -2.83482053184608
H            5.38250432363264       -0.58516420825623       -1.52259407367530
H            4.19983490372807       -1.85478485812491       -1.24114757437695
H            5.04845042785669       -1.10011534185668        0.12226049102941
H           -0.27063124805507       -2.82942459511763       -1.91188908135760
H           -0.82099945162714       -4.09098165695670       -0.79878743475685
H           -2.92353289671435       -3.10911496213667       -0.54289911033111
H           -2.52094839779426       -2.29502222156586       -2.06025611373262
H           -2.61666992581323        0.36102452170692       -2.22377148541851
H           -2.76066337228274        2.06875393595325        0.32673287506429
H           -2.54733865153238        2.67992206471665       -1.31586394369370
H           -1.24269622034778        1.73304767976858       -0.56337373817277
H           -4.96345342216460        0.83950065350900       -0.31287519238923
H           -4.73899827705228        1.60703478111619       -1.88068533835282
H           -4.98121541139139       -0.12932060568772       -1.79949916284399
H           -3.65262207447604       -0.10813837244887        1.65405236381537
H           -2.53583497335398       -2.94389583831296        1.96578616475024
H           -3.44038404593040       -2.04914906530674        3.18113552709640
H           -1.84741464086079       -1.48247093313374        2.69765359291051
H           -5.57612140175735       -1.40787462554357        1.38752868373458
H           -4.68758321238063       -2.86005981489162        0.97071571659000
H           -4.96114239691997       -1.62292742682851       -0.24781538221166
C           -0.04628665896985       -0.19810664149289       -1.73595398491367
O           -0.13280046014262       -0.08901483898954       -2.87560819206216
C           -0.39055232679901        0.26209853805159        1.74458815448020
O           -0.64732775697671        0.83717176359645        2.70409650348429
