65
 energy: -93.118597007280 gnorm: 0.000071216339 xtb: 6.7.1 (edcfbbe)
Fe           0.16863309459727       -0.64010315559926       -0.69419216464929
N           -0.10305157403111       -2.70797619086054       -0.20770619636768
C            0.96075357178023       -3.18416812657589        0.68515945350579
C            2.32493383347010       -2.82727617244189        0.10795917189037
P            2.24265757210343       -1.01140581951233       -0.36459146914228
C            3.46462627285046       -0.92923268239072       -1.72589218985647
C            3.35768626661662       -1.80587973565814       -2.80269093319953
C            4.20766626721335       -1.69893479179130       -3.88697862992893
C            5.16534823246584       -0.69798008463344       -3.92172822399550
C            5.25395231579279        0.20387776611639       -2.87438256749471
C            4.40517467916760        0.09520741982345       -1.78705599604070
C            3.19920166239228       -0.23324187418113        0.98318998345976
C            4.46325372022845       -0.68908904603673        1.35176820334867
C            5.15018809619470       -0.06416002097371        2.37608912537351
C            4.58727830431118        1.02086812476046        3.03183371195300
C            3.33729685154344        1.48614742626721        2.65718073820231
C            2.64482025513429        0.86061177046500        1.63471166883949
C           -1.44060093019178       -2.96389853752653        0.34079744276794
C           -2.49342801509593       -2.32585519670444       -0.55682370323712
P           -1.95999994630012       -0.54453819779336       -0.75052098575104
C           -2.98148763742575        0.32313660601316        0.49780314561077
C           -2.34280638429329        1.18620219740053        1.37861881187704
C           -3.07416075890676        1.87995528601717        2.32680437268522
C           -4.44824908319765        1.71760185249551        2.39515242031194
C           -5.09198461631106        0.87004139521422        1.50611685262180
C           -4.36515623761688        0.17878707201570        0.55436741907255
C           -2.86715128622653       -0.00325476602917       -2.24316576347320
C           -3.95007629140120       -0.65152985517382       -2.82538965378997
C           -4.54948348788745       -0.11716794022397       -3.95389102186670
C           -4.07926541396640        1.06313062613251       -4.50452326465691
C           -2.99955601221020        1.71436166538036       -3.92749576874963
C           -2.39726596116109        1.18167146864844       -2.80411681948021
H           -0.02626469317541       -3.22694688333603       -1.08496814373938
H            0.83234109881056       -2.67365052308904        1.64424880311524
H            0.87629616114363       -4.26945777145505        0.84696824751972
H            2.52754568817907       -3.42335500433822       -0.78704648903404
H            3.11387618080409       -3.01685834867801        0.83914897328544
H            2.59137944102933       -2.57079272074226       -2.80384250480450
H            4.11871658297868       -2.39118449404293       -4.71304523658773
H            5.82971513358841       -0.61341094347449       -4.76998149978655
H            5.98510279701303        0.99968183495142       -2.90752794783650
H            4.46979720298269        0.81216082993504       -0.97966502394666
H            4.91538590647208       -1.51979973779297        0.82441902654105
H            6.13039028245864       -0.41952549629604        2.66300071736502
H            5.12963324832596        1.50615761604569        3.83127819959983
H            2.90477293586593        2.33827431904825        3.16256691831233
H            1.66785890817449        1.19694067193002        1.31737878380720
H           -1.48462828143691       -2.49599546980827        1.32967744699506
H           -1.61574395297342       -4.04468530059020        0.45159602922941
H           -2.47335400679361       -2.79135498498631       -1.54952779953750
H           -3.49066867442463       -2.43204192753289       -0.12369689963693
H           -1.26978671327291        1.28908161412523        1.30059589535284
H           -2.57457693707177        2.54914026589559        3.01326300566201
H           -5.02223251500806        2.25567280467400        3.13662223042430
H           -6.16598848318809        0.75287418105243        1.55357247734421
H           -4.87612523803768       -0.46450975937537       -0.14951456092756
H           -4.33116128053989       -1.57532045855368       -2.41253643035292
H           -5.38881245345343       -0.62674418898097       -4.40735867559924
H           -4.55122403541961        1.47281379187035       -5.38652822951920
H           -2.62705822779136        2.63259055386264       -4.35976420293339
H           -1.53753351622407        1.65608282450753       -2.34599953713423
C            0.27346385883984       -0.76041878380103       -2.41964301856548
O            0.33351067688033       -0.78649827741295       -3.57850560862864
H            0.08335193307138       -0.42455001637097        0.75913725290178
H            0.35511603580552        0.81282412912443       -0.83105922888680
