49
 energy: -75.575560075000 gnorm: 0.000268614191 xtb: 6.7.1 (edcfbbe)
Mn           0.14481054485578       -0.19013997087547       -0.15953072112502
C            2.40160146758110       -2.36980697569321        0.14853789886730
P            2.33991547946975       -0.58996624309481       -0.38451112267598
C            3.07018546819357       -0.62376860827080       -2.09911385782040
C            2.32162962385955       -1.69333481661686       -2.90132394332937
C            4.57719952530813       -0.85462217928020       -2.17900657764963
C            3.41719097061800        0.32668990760396        0.81709342577114
C            3.19615404656033        1.80703630151071        0.50238863585307
C            4.88663558735397       -0.05325740026009        0.95182740132821
C            1.07033816320422       -2.99786538915563       -0.16103101580351
C            0.90417718351778       -4.36605011938595       -0.30453438981029
C           -0.36827445674377       -4.88292566139505       -0.51218342014288
C           -1.45196026113180       -4.02335459751767       -0.53555380528163
C           -1.23634217829366       -2.65553469307458       -0.39264369756900
C           -2.28386567544238       -1.63736571318079       -0.33595239205238
C           -3.64813566570182       -1.87030914166605       -0.44440309602909
C           -4.52802893220149       -0.80216372041639       -0.33084222752101
C           -4.03747322205023        0.47073946197329       -0.10985826556023
C           -2.65700061386718        0.63599345503932       -0.01600684586838
O           -2.14423034533499        1.85746502653233        0.18221654063703
N           -1.80948911688624       -0.38301366736754       -0.12804702123580
N            0.01898737549036       -2.15920154845103       -0.24834927402385
H            3.22964233467120       -2.92451021692990       -0.30014918705728
H            2.53669603366174       -2.36383981554033        1.23889128822498
H            2.83530144917918        0.36479549257835       -2.51788849297096
H            1.25010386434038       -1.68589078154518       -2.68586674256077
H            2.70940122717619       -2.68480653051780       -2.67816838292860
H            2.45203317531787       -1.51390160726670       -3.96671155406470
H            4.89332935808758       -1.68183532447124       -1.54833265796641
H            4.84131144077668       -1.09641690011253       -3.20734089627147
H            5.13195179690169        0.03599993145418       -1.90059173628756
H            2.92225054249849        0.09754662542345        1.77458241983186
H            3.57204426272669        2.43968138738858        1.30356423365785
H            3.70001167940697        2.08651296443168       -0.42171168178088
H            2.11614701344048        2.00117119468225        0.38164259162375
H            5.48894393118289        0.36515108771683        0.15254548032810
H            5.26736247237638        0.34410279961029        1.89147504098239
H            5.01616668484886       -1.13302370735777        0.96671333678232
H            1.75985936165517       -5.02049889493690       -0.24527849526407
H           -0.51186590677651       -5.94499174448602       -0.63438880896799
H           -2.45063273907297       -4.40755777693247       -0.66119500891844
H           -4.02378709962695       -2.86476766953220       -0.61561926966632
H           -5.59128939732455       -0.96340682973141       -0.41251812979301
H           -4.67613345122996        1.33253839823538       -0.01174602015256
H           -1.17062002476593        1.83866164263726        0.29366183721566
C           -0.02106404413202        0.31127785716285       -1.88461831436766
O           -0.19747434242982        0.82191240267218       -2.89023217951051
C            0.27365550377563       -0.16127019674640        1.62783428865792
O            0.29803244364630       -0.04451990136890        2.76576403408221
