47
 energy: -70.117240322095 gnorm: 0.000509260056 xtb: 6.7.1 (edcfbbe)
Ru           0.01452201908359       -0.15930729233907       -0.21334621672779
C            2.39610335177954       -2.19029656047674        0.07635220233890
P            2.31694726133160       -0.34938368480425       -0.29939225963458
C            3.21105564851935       -0.30184362839416       -1.94678741378877
C            2.97342528277608        1.04655588401039       -2.62507212096708
C            2.71778056667642       -1.42261147577921       -2.86266799962589
C            3.63265144421758        0.22388368359007        0.90065111443122
C            4.13312165867227        1.62179929618831        0.54419827539584
C            3.05698499950863        0.24336785055666        2.31366064188214
C            1.11435164853926       -2.90292917113150       -0.25464238666467
C            1.03056746093769       -4.27986960757006       -0.40201993820436
C           -0.21629784162107       -4.87885519209123       -0.54920223977130
C           -1.35682741465509       -4.09585351423889       -0.49874916796837
C           -1.23033364307844       -2.71644968448887       -0.36769980323158
C           -2.32192389354400       -1.74261665270501       -0.26482417074125
C           -3.71150082179859       -1.86632592359631       -0.29599399713089
C           -4.45826886855569       -0.69346643169093       -0.17823986266441
C           -3.88332462107917        0.56247941186016       -0.05204078698122
C           -2.47473189748513        0.64204518582704       -0.03699024541581
O           -1.65885927017594        1.62759892899665        0.00809840185066
N           -1.81869410790446       -0.52368191298791       -0.11602097394747
N            0.01016059888523       -2.14640777357626       -0.30128898539877
H            3.26726184835169       -2.67108696214139       -0.37431550637928
H            2.50618851329116       -2.25098544731493        1.16633244044772
H            4.28241285000732       -0.43190602889059       -1.74855515617794
H            3.56067528495846        1.11891641688234       -3.54004360008391
H            3.23464050463081        1.88196728134354       -1.98052615296946
H            1.92129983614822        1.15040858839082       -2.88728969043713
H            1.62680505517155       -1.47218631553070       -2.84755315197740
H            3.11099798315367       -2.39462322019912       -2.57746354282155
H            3.02894078398196       -1.22445829881982       -3.88709973863812
H            4.46306977315245       -0.49372006107493        0.84306408359607
H            4.76200709189122        2.00529544571784        1.34643573682686
H            3.28572330923587        2.29899257333869        0.42636520156130
H            4.72258616448156        1.61904389653655       -0.36937217371620
H            2.70315021181122       -0.73556204250711        2.63017125126948
H            3.81281123477671        0.57751100727473        3.02259534983228
H            2.21225370014925        0.93057746955277        2.35239396498446
H            1.92791041289200       -4.87837678432192       -0.38461169189474
H           -0.29400436472515       -5.94764365014117       -0.67212315528636
H           -2.33974531261491       -4.53495291318373       -0.55932643420455
H           -4.19592544884724       -2.82189908736519       -0.40948662255982
H           -5.53653272945679       -0.76635791123622       -0.19674684912407
H           -4.48812018898878        1.45257673762139        0.01646831675002
C           -0.27895671747176        0.17011861265194       -2.01582509075152
O           -0.71203140374635        0.41320666617214       -3.05301139245356
H            0.07480447010165       -0.23768813368153        1.33806069892484
