59
 energy: -87.241031438499 gnorm: 0.000146655397 xtb: 6.7.1 (edcfbbe)
Mn           0.16304400434106        0.09472482950474        0.26226674169556
C            2.22905143665863       -2.16438932351666       -0.18777097472866
P            2.25821698437748       -0.47591133035378        0.58432437088022
C            3.74729666509177        0.23033645324499       -0.19548568602372
C            4.96436318617003       -0.44619507696584       -0.17021065714337
C            6.07238911807818        0.10948257106107       -0.78196359190162
C            5.97436174477139        1.34069737404586       -1.41334568754957
C            4.76851422879945        2.02256476107287       -1.42632455820037
C            3.65515265971366        1.47010259013666       -0.81618444030143
C            2.91138684033686       -0.82390157306557        2.25137289376452
C            3.63696713507236        0.17689343574555        2.89411460813126
C            4.08435343336579       -0.00949358223482        4.18823281384476
C            3.79932835446722       -1.18959541451850        4.85784308420211
C            3.05409088489864       -2.17655398579017        4.23409072713445
C            2.60353315803311       -1.99387673282602        2.93858539818431
C            0.85405117382452       -2.71344378655347        0.03504877470601
C            0.62172242354041       -4.07962394868834        0.04213200740609
C           -0.66740341172907       -4.55674568041668        0.22592007445260
C           -1.68344009833898       -3.62933520506292        0.40080971613557
C           -1.37768839516359       -2.27909630520941        0.40173683789582
C           -2.43376163365828       -1.23784588421922        0.64257839503749
N           -2.16129907955038       -0.02879101714164       -0.15205872178182
C           -2.35180189167543       -0.32104150577884       -1.59580455241463
C           -3.77523311735372       -0.62791823097264       -2.07549618650031
C           -3.09678098755214        1.04754398874092        0.23185107662931
C           -2.85874550209600        1.67302586973614        1.59983177545533
N           -0.12873699491965       -1.81334119467517        0.22501827154308
H            3.01060930331388       -2.83571502182652        0.17858425680007
H            2.39019415621047       -1.99365781653299       -1.26123853407246
H            5.04206272124304       -1.39967333238965        0.33592712593804
H            7.01680943242895       -0.41603996591780       -0.76612367326468
H            6.84341881776985        1.77003493666416       -1.89086834026289
H            4.69606838322960        2.98526395053060       -1.91152596865266
H            2.70079869833421        1.98466044950353       -0.80378559077669
H            3.84001278890805        1.09994224454847        2.36560942421164
H            4.65113162522443        0.76801465534369        4.68018794640098
H            4.14790848162770       -1.33570967639352        5.87005480010920
H            2.81745456464200       -3.09058705416332        4.76109187626242
H            2.00617048219177       -2.76458334954086        2.46728228531112
H            1.44816410812773       -4.75953764773507       -0.10284137414181
H           -0.87320104544028       -5.61563039660310        0.22940506451727
H           -2.70508971547694       -3.94713974181754        0.54523647686415
H           -3.43346670486881       -1.64810807085490        0.43704848998534
H           -2.40021808883514       -0.96307922491220        1.70457082852671
H           -1.72110629162702       -1.17792627842992       -1.85441729411059
H           -1.98195876039330        0.54656538492600       -2.15058396361315
H           -4.42744055290793        0.23717443820601       -1.99387761112784
H           -4.22229059675016       -1.46158038278449       -1.53871569729461
H           -3.72006273186120       -0.90493343794291       -3.12605016450284
H           -2.99670998041885        1.83558286490941       -0.51886459011921
H           -4.12528947889811        0.65936649230672        0.20521262582210
H           -3.54577426825683        2.50717237591698        1.72517271235017
H           -1.83924051977871        2.04836756707840        1.66645998369281
H           -3.03263996808189        0.97232647473445        2.41362095600931
C            0.61865535518167        0.18575381576259       -1.44961236431129
O            1.03075547716736        0.22878216002253       -2.53490153026655
C            0.00101172715884        0.18766477348186        2.03252547777964
O            0.02505473481990        0.20881291105232        3.19106008958167
H            0.15094069650268        1.65187678645399        0.23148965251245
