47
 energy: -70.006129228985 gnorm: 0.000205603597 xtb: 6.7.1 (edcfbbe)
Fe           0.06549844014009       -0.32952476295038       -0.43524737100713
C            2.35768745364580       -2.35447821916617       -0.07342337766222
P            2.21035276952131       -0.55053544363273       -0.55124565294664
C            3.20715619826653       -0.54953538745854       -2.13500777684458
C            2.59098816332155       -1.52367179325743       -3.13597072042052
C            3.22535960712274        0.86190502383519       -2.71397179376103
C            3.28108857812100        0.26980231841739        0.73809631097660
C            4.78481926867346        0.05220815538675        0.60968959077044
C            2.89868918997078        1.74784503035680        0.80425423919091
C            1.04110006164581       -3.04327479302353       -0.30107018027937
C            0.91483990117478       -4.42300983538186       -0.32917374816131
C           -0.35134508611019       -4.99578511765278       -0.38517835709593
C           -1.46286663385446       -4.17396728465733       -0.34685464896191
C           -1.28478872479469       -2.79542109230509       -0.32909782346577
C           -2.31545872740711       -1.77134201521820       -0.20557502646825
C           -3.70091642856484       -1.82509793249450       -0.08287308548086
C           -4.37650040562596       -0.61237885037812        0.06450356156041
C           -3.72850549576523        0.60986190542906        0.08368705149560
C           -2.32177626728516        0.62344380048408       -0.05566420948422
O           -1.46836397321886        1.56336875020173       -0.11016928723583
N           -1.72264465539631       -0.57944391503212       -0.18066975153732
N           -0.03519552262151       -2.24699060371833       -0.37882429954142
H            2.53419856267663       -2.36376773830386        1.00950886319947
H            3.18794395669142       -2.87288000166095       -0.56011736994505
H            4.22821539096852       -0.87441661626535       -1.90107042351210
H            3.14281982994198       -1.48897138827014       -4.07473199243038
H            2.60625794022426       -2.54917036307270       -2.77294659780987
H            1.55812655879748       -1.25321671612288       -3.34266464866554
H            3.79581302417761        1.54255179466792       -2.08606900130590
H            3.67216246967759        0.86337625865005       -3.70772668460635
H            2.20646911297293        1.24324874816046       -2.79429697927758
H            2.92503054147919       -0.19771860203253        1.66745724319903
H            5.02201298127513       -1.00708004604892        0.52483071023589
H            5.28553603128072        0.44280998226312        1.49476522331398
H            5.18575141006865        0.57361828610112       -0.25668774172023
H            1.80881879838831        1.83930714709607        0.78590837520234
H            3.30483153999936        2.30602161476988       -0.03663876709509
H            3.27203906761715        2.19927446053611        1.72239958569029
H            1.79659224490448       -5.04409901443682       -0.28958956975366
H           -0.46251540200071       -6.06857698886747       -0.42084397044370
H           -2.46118585995542       -4.58108078404169       -0.32579979220184
H           -4.23605053420435       -2.76035657508260       -0.09685915469126
H           -5.45321857191439       -0.63073042453897        0.16633807465708
H           -4.27553238655415        1.53309031917967        0.19519671604015
C           -0.29167733120674       -0.12184268603538       -2.13561230189901
O           -0.71027689437577        0.04400944010838       -3.19515786202673
H            0.29417776883406       -0.38715245634538        1.01987721670254
