58
 energy: -86.365943427519 gnorm: 0.000110788854 xtb: 6.7.1 (edcfbbe)
Mn          -0.07330916413356       -0.26503184480687       -0.82696095473766
C            2.16752739126413       -2.46079438060546       -1.01560250857306
P            2.11169628021721       -0.59912970715509       -1.14118171821990
C            2.93346953375943       -0.25370031720864       -2.72181135474741
C            2.41520547183877        0.76831254831970       -3.51026166071132
C            3.02287127077238        1.09520541543894       -4.70909749983199
C            4.15058519145812        0.40143984324769       -5.11878804823645
C            4.67694642434922       -0.60903276961069       -4.32730220661839
C            4.07701814484610       -0.93723868494301       -3.12527513016214
C            3.38959906154692       -0.09383266156889        0.05052264421758
C            3.51973338642708       -0.75562125470790        1.26996893108739
C            4.46391742846942       -0.33193016953426        2.18668570472274
C            5.27258519942761        0.75717963965547        1.90041491046257
C            5.13014425273131        1.43106682711321        0.69781827065562
C            4.18684645481086        1.01439522788971       -0.22407450492407
C            0.91687221308704       -2.98940715137000       -0.37300222745701
C            0.82101457798874       -4.27946015092454        0.12857746602055
C           -0.40948775163325       -4.75269719211138        0.55677855242572
C           -1.53162845506047       -3.94966882841477        0.40248561658857
C           -1.37523164399356       -2.67010873527364       -0.09840837940659
C           -2.52256154382873       -1.75485911994025       -0.44853301288944
N           -2.12483897496591       -0.35232476702959       -0.22326034168266
C           -2.41500414136434        0.01084380538113        1.18691487972766
C           -3.89022551120409        0.16747949423820        1.55949283681935
C           -2.70403276172542        0.62649764517110       -1.16394604491574
C           -1.79168868270689        1.85905369368080       -1.22513559023335
N           -0.15742259025735       -2.18377565969299       -0.40674717272140
H            3.07439809477747       -2.81041085518251       -0.51403209590392
H            2.18409520706805       -2.82994542494273       -2.05169400190600
H            1.53264505230340        1.30248032423952       -3.16740488759107
H            2.62097044891456        1.88709074458751       -5.32381818584483
H            4.62473205152618        0.65130476468785       -6.05629314128644
H            5.56072274042894       -1.13999312100287       -4.64905663683826
H            4.49530272685496       -1.71376913831605       -2.50016294224853
H            2.87709178581612       -1.59440306617449        1.50588285217882
H            4.56738708223843       -0.84892242081917        3.12943130280881
H            6.00970240689354        1.08451851018075        2.61847196265889
H            5.75344294464211        2.28559471638745        0.47911252153950
H            4.06981478670844        1.54277431416762       -1.16075696173982
H            1.69833895350735       -4.90593228700829        0.16885020958776
H           -0.50008056542627       -5.74560610855837        0.96832599149126
H           -2.51319104640656       -4.31469255380376        0.66047259190969
H           -3.42210522994740       -2.02761179791107        0.11087252764495
H           -2.73265558522081       -1.90281397773383       -1.51565928226181
H           -1.91011496055100        0.95265172425639        1.41390796922914
H           -1.96883592391959       -0.76924650885041        1.81029778975470
H           -4.31562693608426        1.08701382366276        1.16533708766016
H           -3.96094863534010        0.21585645267235        2.64358204046372
H           -4.50036849491331       -0.66789975730301        1.22556554576849
H           -2.75718385509582        0.16715860374889       -2.15615243145343
H           -3.71764337060517        0.92151085558334       -0.87608552127383
H           -1.89777192033804        2.47639154880248       -0.33326170843242
H           -2.05418627699075        2.46858288543097       -2.08839613399106
H           -0.69504371139943        1.58852223188660       -1.34221808933708
C           -0.27272908329581       -0.76993942404657       -2.53681354116963
O           -0.25404698143891       -1.21153932821849       -3.59438535885409
C            0.44791120000876        0.21255378111725        0.81992755602337
O            0.88835675605589        0.50087275736699        1.83567218413339
