54
 energy: -69.967592347685 gnorm: 0.000314876602 xtb: 6.7.1 (edcfbbe)
Fe           0.19294960614571       -0.15991981913961       -0.63770203454495
C            2.40718014387246       -2.19317465369340       -1.17639648935358
P            2.32597244243890       -0.45231910553432       -0.93907509686136
C            2.94220950933100       -0.03826970011889        0.79294115480785
C            1.80839130338599       -0.44180967140045        1.73991947622378
C            4.25166818523875       -0.72815539351157        1.15580955763169
C            3.58183145216380        0.35387569643514       -2.04101316053606
C            3.25748458347893        0.04219375391724       -3.49938487823920
C            3.60034137807720        1.86098629286967       -1.79261625733810
C            1.21946976428162       -2.83769097316818       -0.89336087797605
C            1.03254149325624       -4.25175266680452       -0.95719421193793
C           -0.15012445825307       -4.80765859269560       -0.58107306787033
C           -1.18444915815050       -3.98587341243679       -0.09079001420088
C           -0.97676155639283       -2.62877770025917       -0.06417534798110
C           -1.96018776173658       -1.66560765091593        0.55378855544746
N           -1.93257938733154       -0.36480704308404       -0.13287379672991
C           -2.29135270004835        0.75539495841658        0.75493929623324
C           -3.46080868220765        0.55717005646755        1.72271236464587
C           -2.69746494742866       -0.39514736561892       -1.39262351127230
C           -4.22394535041455       -0.45887066440690       -1.30337783780515
N            0.15724820009308       -2.05700972561692       -0.49165973151795
H            3.27712278758714       -2.70993533146622       -1.54590101717522
H            3.05347205763162        1.04943540882882        0.83724289299909
H            2.04021177821641       -0.16700241530532        2.76995563004089
H            1.64257224286389       -1.51988845398952        1.69965609249819
H            0.88712270274426        0.09298527615429        1.44243464253625
H            5.06946786501823       -0.37059154255576        0.53432193652275
H            4.50620186459908       -0.53362709772430        2.19752238346313
H            4.15601332488453       -1.80437343337163        1.01733033678148
H            4.55462677270794       -0.09277517081052       -1.79066777334638
H            2.37202610050811        0.59145253513747       -3.80901010889570
H            3.06763847605486       -1.02218821946052       -3.63486477405782
H            4.08607923316520        0.33389110242740       -4.14400809780861
H            4.13165795166650        2.11063445590612       -0.87676222686866
H            2.57685000902286        2.22593252751334       -1.70907774728924
H            4.08955698808411        2.37619473298169       -2.61796758409085
H            1.85447219054961       -4.85554278865351       -1.31000397877493
H           -0.30104127073381       -5.87608149268492       -0.63686096948136
H           -2.11076654979213       -4.41001596420962        0.26025166157569
H           -1.63742380012403       -1.50831414212894        1.59089942005550
H           -2.96583472038169       -2.09978902094221        0.57310781841312
H           -1.39960164071276        0.99654772707546        1.34635778099537
H           -2.47373984843901        1.61752189546171        0.11173236735124
H           -3.63164207547250        1.49817171923248        2.24134504950225
H           -3.23824921721020       -0.19810889606193        2.47296443643262
H           -4.37923897422477        0.27985804779446        1.21734563961826
H           -2.33930139380279       -1.26485221480910       -1.95062927349391
H           -2.41632116750250        0.50169732506322       -1.95049945649796
H           -4.63929155176706        0.47405326264708       -0.93239664529343
H           -4.56480056893207       -1.28137751036058       -0.67929540674926
H           -4.61375731471098       -0.61992324240328       -2.30598842643746
C            0.05139057839147       -0.14232800364337       -2.37006420677380
O           -0.02593445128605       -0.03788867980092       -3.51461291459854
H            0.22969839273311        1.73029271746136       -0.51914911878376
