60
 energy: -75.947631307645 gnorm: 0.000319605572 xtb: 6.7.1 (edcfbbe)
Mn           0.23233778963661       -0.08401644555196        0.54248928507586
N            0.07444464436949       -1.90929305357248        0.74960919274179
C            1.13360682786281       -2.89486159209015        0.55920737165548
C            2.20875526493260       -2.41725210162929       -0.41684374682493
P            2.27379453829017       -0.58752513369796       -0.24025925741518
C            2.83144834621414        0.00490252174112       -1.92605631800479
C            4.13667349498789       -0.61348368851495       -2.42331623401934
C            1.71170743397233       -0.20845660549404       -2.94492057119008
C            3.80396998916721       -0.32162450236565        0.78916777555606
C            3.63229587202091       -0.99310079178887        2.14953704269009
C            4.03058175639331        1.17934359389042        0.95089606432252
C           -1.07061336573779       -2.62948671327403        1.29177959146020
C           -2.24462392029144       -1.71227988276466        1.63142195796542
P           -1.98815565830178       -0.20010048280641        0.62513166219564
C           -3.15439258545998        1.02116461999698        1.41751458521783
C           -3.39428539584594        2.22189514180227        0.50351231971748
C           -2.56093551027404        1.50645203523066        2.73783793386160
C           -2.83343292324612       -0.53621842604752       -1.01354415423071
C           -4.30290576543463       -0.94239275840386       -0.92358504702371
C           -2.04493339531946       -1.56970361434274       -1.81731275061904
H            1.58806784242106       -3.13740997078762        1.53537568389879
H            0.70083752440005       -3.83723471330315        0.17656693669806
H            3.17573709764325       -2.89060390576345       -0.22857298163673
H            1.89606403611344       -2.64307554349258       -1.44137768411391
H            2.96125493135977        1.08878392551003       -1.80166603924335
H            4.31681784838979       -0.29468135778965       -3.44953740262638
H            4.08512205919405       -1.70089011026388       -2.41337911441398
H            4.98689900603164       -0.29629463390547       -1.82519250725006
H            1.93716829739381        0.32387028928618       -3.86809336272523
H            1.58996522459962       -1.26356910832282       -3.18785547571216
H            0.76723013276340        0.17663028451559       -2.55581271090425
H            4.65554822628135       -0.78065550110153        0.27199257962912
H            4.44708065787886       -0.70907910693425        2.81439079445562
H            3.63413464186632       -2.07779615569008        2.06001200269693
H            2.69263820267463       -0.67982201116061        2.60638197842338
H            3.11768576371740        1.64946244835864        1.32304956321713
H            4.83351248956926        1.36989219258008        1.66145953447002
H            4.29594104427762        1.64641275995658        0.00456783441864
H           -0.75760692781105       -3.18488392678572        2.19541045356842
H           -1.40114317702020       -3.39351314903579        0.56441906390960
H           -2.18897130966747       -1.40197170921901        2.67900451842742
H           -3.21041634464184       -2.19171686865751        1.45769946574910
H           -4.09788633020334        0.49598213733283        1.61951092413934
H           -3.99449655799185        1.96673513517228       -0.36645209462606
H           -3.91455745758988        3.00626474844002        1.05174180936023
H           -2.43854723746029        2.62260785860538        0.16429277566084
H           -3.27750950248451        2.13569618666048        3.26417354517266
H           -2.28936779718075        0.68010429502727        3.39262392894164
H           -1.66350991280034        2.09294102341033        2.54207274065071
H           -2.75246273931966        0.42657607380628       -1.53951737853026
H           -4.41539919936194       -1.90168289145772       -0.42109259656160
H           -4.90322039763546       -0.20427687850188       -0.39809576460417
H           -4.70583148177511       -1.04760108612974       -1.93092455180408
H           -0.97308820395954       -1.36240213241555       -1.75566811493362
H           -2.22693084688338       -2.57573296907068       -1.44174593588163
H           -2.33925049048501       -1.54196351560786       -2.86632035138447
C            0.19438944436421        1.44410625545315       -0.33554248099297
O            0.17525822652608        2.46756277444198       -0.89973751508532
C            0.59348803688034        0.74055806823971        2.06176620892191
O            0.83111349361127        1.24301891470702        3.08861949537722
