59
 energy: -87.243600557070 gnorm: 0.000162575311 xtb: 6.7.1 (edcfbbe)
Mn           0.19544015252906       -0.10251914591446       -0.21073350196953
C            2.26129766173072       -2.36948496153861        0.24260093402883
P            2.27545097458213       -0.70358233326307       -0.57830930869113
C            2.86626018677815       -1.10660406748207       -2.25526587959769
C            2.49633873936486       -2.28219375028440       -2.90141231222880
C            2.89474890118805       -2.51185595370802       -4.20629118364270
C            3.64977692101681       -1.56608633589008       -4.88028006322280
C            3.99687033644185       -0.38052193318269       -4.25124896071250
C            3.60101613419960       -0.14692881769415       -2.94786204912147
C            3.79199833622313        0.01329441992185        0.13568638112465
C            3.72035161422037        1.26376887386217        0.73734395967959
C            4.85288436185353        1.82581998206124        1.30170639406985
C            6.05722740903125        1.14238913069170        1.26204514950022
C            6.13407171270380       -0.10030384305422        0.65045320340089
C            5.00680047652098       -0.66584788435632        0.08457395074076
C            0.87118635612158       -2.90706602120326        0.09585539505248
C            0.62229079356065       -4.26823932862651        0.16258282245548
C           -0.67771761984358       -4.73716177796402        0.04321477176438
C           -1.68611257742598       -3.80613548531862       -0.15259253123125
C           -1.36344065545359       -2.46185675584991       -0.23057942067605
C           -2.41037688675049       -1.42342439373537       -0.51960545123302
N           -2.10533575746804       -0.15938651437173        0.17076290054455
C           -2.48930388981908       -0.31635472269178        1.59061680069163
C           -2.30894225328507        0.94427254065946        2.42782744774419
C           -2.84371103160432        0.95659915151397       -0.46309679219779
C           -4.37178826959425        0.86274145690544       -0.44382978138365
N           -0.10669129632347       -2.00283446002993       -0.10615695193072
H            3.01687240540674       -3.06039799438837       -0.14191668450171
H            2.47466179191673       -2.17474602023599        1.30267588608860
H            1.89135275058997       -3.02048650844536       -2.38943303885824
H            2.60996857585338       -3.42991343713352       -4.70145871276855
H            3.95804820564000       -1.74875927893824       -5.89962555887208
H            4.57192047109932        0.36488235930058       -4.78179563501013
H            3.85329931400444        0.78141083371091       -2.45114697453249
H            2.76591998598925        1.77835542186168        0.74641015017374
H            4.79646874563348        2.79706345353475        1.77164222892872
H            6.94160893520169        1.57932590340572        1.70320916982626
H            7.07711721909108       -0.62725574121070        0.61454172961477
H            5.06711354096152       -1.62884362795506       -0.40565247303837
H            1.44509143012961       -4.95119337207477        0.31375971928713
H           -0.89607352847457       -5.79192567260046        0.10050474644899
H           -2.71513335389975       -4.11594704510537       -0.25572919801182
H           -3.40300111242576       -1.80993046853001       -0.24208696537759
H           -2.40875051534156       -1.23443040594241       -1.60245655473248
H           -3.53635243148625       -0.65027058019742        1.65726888229991
H           -1.86858356759657       -1.11426646184914        2.01380494853872
H           -1.35080096428035        1.40971444212365        2.20025801107529
H           -2.32441903521787        0.68009349148044        3.48290047886017
H           -3.10150747243326        1.66561989547902        2.24651746616248
H           -2.52923677139751        1.87818446625700        0.02826337685295
H           -2.50876208091625        1.01987677608051       -1.50287374987115
H           -4.73170100164969       -0.02658036723172       -0.95654753313715
H           -4.76962400939641        1.72993913840498       -0.96568603608404
H           -4.77051588616705        0.87275862675713        0.56724929025570
C           -0.02514342668391       -0.02296319842834       -1.97601884592476
O           -0.05350324543264        0.01084572522626       -3.13420201017231
C            0.69343472328815       -0.00911545150457        1.48870514997766
O            1.14409421239479        0.00955937292067        2.55935838880409
H            0.20461596051595        1.45831497186095       -0.24111346759258
