59
 energy: -87.238266622222 gnorm: 0.000272549900 xtb: 6.7.1 (edcfbbe)
Mn           0.10653556477183       -0.08110284025554       -0.23956891301111
C            2.38646820116034       -2.18644258047105       -0.64886849242430
P            2.22636534059196       -0.34021885793168       -0.78215695416424
C            2.86741090785514       -0.02302851501557       -2.46198601086196
C            2.63236575813161       -0.89869418995822       -3.51766211868854
C            3.07728468609277       -0.58819754286815       -4.79025545892710
C            3.74748810282952        0.60156432893136       -5.02237229201564
C            3.96129267909403        1.49004990632048       -3.98009389052476
C            3.51700342351138        1.18443110526422       -2.70740887942662
C            3.67257718762211        0.21100976401225        0.18625855334511
C            3.51526651204071        1.26901591875906        1.07340879692394
C            4.59306186733507        1.71485185927876        1.81916411168757
C            5.83033729470865        1.10787431929569        1.67746530442293
C            5.99399514098123        0.06136560514585        0.78215723116132
C            4.92139045346108       -0.38559170820020        0.03291051749141
C            1.01330651865776       -2.78318450435060       -0.72790975614348
C            0.83014734983462       -4.10463894677155       -1.10247423352627
C           -0.43550936309578       -4.66850185099108       -1.03489856045789
C           -1.45943935151130       -3.89787905296989       -0.50456792622146
C           -1.20401302461938       -2.58408961850874       -0.14989529396217
C           -2.22303192591004       -1.75129062247538        0.57879667740783
N           -2.21752875042519       -0.35524509097005        0.11790581593507
C           -2.74783392213085        0.53861372109055        1.17200875943493
C           -4.19124640215968        0.28633236004013        1.61623107929752
C           -3.04587547880680       -0.28706287511415       -1.10534096901539
C           -3.19588859444620        1.11307062911449       -1.68770276032528
N           -0.00781590078703       -1.99990411555514       -0.33526594385174
H            3.07804166147117       -2.62323816010409       -1.37353404252967
H            2.77779176786348       -2.37305729649601        0.36203521692380
H            2.08920266128537       -1.82106791277740       -3.35212733854857
H            2.89371825178502       -1.27404541211754       -5.60563289964980
H            4.09348153526822        0.84049284670078       -6.01768559137901
H            4.47018611434469        2.42569702856582       -4.16275317885505
H            3.66479338864176        1.87845432073800       -1.89014736759753
H            2.53767094671259        1.72972970229840        1.15990600289383
H            4.46828595872289        2.53560659084089        2.51076530845083
H            6.67185525450563        1.45241140870654        2.26123372330477
H            6.96255615703025       -0.40448015280773        0.66691800176312
H            5.05277445427517       -1.19181652093823       -0.67670535550779
H            1.67702766473445       -4.68590386076365       -1.43569410392019
H           -0.60860038682081       -5.68622036608556       -1.34777997240429
H           -2.44648770581074       -4.31053147692551       -0.36022899376621
H           -3.21947235210877       -2.20915072763837        0.48558557930801
H           -1.94067147312145       -1.76372525690544        1.64175383507524
H           -2.65040849632916        1.56307716547937        0.81053629898808
H           -2.09099658939650        0.44304232950293        2.04203735566735
H           -4.42518410830737        0.98212387142041        2.41856075561411
H           -4.90262405537192        0.45659433221675        0.81233778173168
H           -4.32744472873072       -0.72251923816949        2.00009851684800
H           -4.04511730454201       -0.70033048862542       -0.89783676088124
H           -2.58024811788944       -0.93695882849920       -1.85427146607391
H           -3.55961377436910        1.03812450589055       -2.71015197311928
H           -3.90240012807394        1.71156851524650       -1.11842703201437
H           -2.23267982819783        1.62089982409339       -1.69832714119130
C           -0.13162023076482        0.06198206302232       -1.99549725106460
O           -0.19326997225264        0.10890594587540       -3.15110562841088
C            0.50895321444265       -0.11632109215562        1.49062283016578
O            0.84126431736298       -0.19210282101794        2.60003787324694
H           -0.02858906719366        1.47138667077656       -0.14174406803531
