61
 energy: -76.075010865192 gnorm: 0.000220200715 xtb: 6.7.1 (edcfbbe)
Mn           0.00148902985537       -0.16952544932941       -0.08315322830703
N           -0.13033810559926       -2.32039342626115        0.29240449771133
C            1.12011236006238       -3.08844496000373        0.07199460111714
C            2.35480204767169       -2.26910433393054        0.44448965812795
P            2.23894272119725       -0.52490211002324       -0.20492776334499
C            3.07671212557758       -0.58210639032342       -1.87567768064097
C            2.78762700957456        0.72863469961595       -2.62846534833443
C            2.64045646918372       -1.78364608906407       -2.71000980147538
C            3.62030897234043        0.24393408896327        0.79910199254032
C            3.37305409960353        0.29289691138640        2.30736311374314
C            3.96033862774277        1.65149543646183        0.30935451111188
C           -0.71650085269803       -2.51316802467292        1.64077839284880
C           -2.00439859353291       -1.67856012079054        1.82621416026318
P           -2.18577179963212       -0.47643538616193        0.41107703879733
C           -3.32362167191813       -1.52871095322374       -0.66612267077407
C           -3.20437930344711       -1.23362951783667       -2.15899177953029
C           -4.78333762071367       -1.50218122155500       -0.21397439582704
C           -3.26124935362411        0.91837102853667        1.00371312901393
C           -2.63503097153275        1.70994920550758        2.14777901388940
C           -3.46759706068968        1.84375296789900       -0.19872682643544
H           -0.81419441858417       -2.70894169650026       -0.36948000484447
H            1.16041824918145       -3.35066291496421       -0.98676894122898
H            1.09560528037391       -4.01328682299294        0.65999574342644
H            3.26344553136581       -2.74113930896535        0.06178878848415
H            2.44158430173614       -2.20338715770307        1.53168659990781
H            4.15247732445284       -0.66945291092732       -1.67558727533296
H            3.69970703666186        1.16771871289199       -3.02663868251321
H            2.31041742063916        1.47022291484579       -1.98090021665300
H            2.11923468731025        0.55037794833801       -3.46776749357191
H            3.05626873076154       -1.69251975146463       -3.71231581617751
H            3.00015369146640       -2.71948370238131       -2.28932833179070
H            1.55399597210847       -1.81759284160936       -2.79728207724501
H            4.47490462605380       -0.42330522807614        0.60865862806019
H            2.78068829518507        1.16412952771392        2.57456381031324
H            4.32968332248144        0.38120544018356        2.81989072122257
H            2.87467198695407       -0.59432036189377        2.69108898336758
H            4.69716307270707        2.09939338812691        0.97480511081760
H            4.37803778727319        1.64928066586735       -0.69336933162785
H            3.07281079646554        2.28674791230027        0.32045681865244
H           -0.93549244767271       -3.57640251373151        1.79475072915389
H            0.04036658159882       -2.20901037460819        2.36921606551464
H           -2.88757965742473       -2.32085325260569        1.87643171454760
H           -1.95276927340537       -1.11307950754844        2.75870780918358
H           -2.95344525187577       -2.55367001340018       -0.50521141631942
H           -2.20259441825031       -1.45719452160361       -2.52083719193853
H           -3.43246171167666       -0.19636738964461       -2.39077231728991
H           -3.90439091917558       -1.85972914895114       -2.71021649017034
H           -5.32310289336219       -2.30342955738249       -0.71654484336847
H           -5.26912611047322       -0.56588097284303       -0.47642439960606
H           -4.88020924797891       -1.66068704641011        0.85890039659487
H           -4.21717825567378        0.50467676011503        1.34296143532689
H           -1.74646127238357        2.24164897659725        1.80663325355307
H           -2.37158802933767        1.07995042686990        2.99497798937546
H           -3.34650175365518        2.45603798180869        2.49928035328643
H           -3.97495143688552        2.75706853109071        0.10836418488033
H           -4.06484129707789        1.37555536816925       -0.97760360559458
H           -2.49815156747198        2.12240124537329       -0.62568427261386
C           -0.24544758680658       -0.00575005192468       -1.84489563817951
O           -0.41148017208526        0.49686907863038       -2.86132589643602
C            0.23498122066455        0.42497375728411        1.58077101087062
O            0.38378634096433        1.00710375613971        2.55637210122889
