47
 energy: -70.119007195212 gnorm: 0.000330496790 xtb: 6.7.1 (edcfbbe)
Ru          -0.00053626316397       -0.16229754809611        0.01033037606524
C            2.38143167748382       -2.19939226132509       -0.14223739449368
P            2.29629858132549       -0.35869957353197        0.24901472330788
C            3.07829165118787       -0.32012328845362        1.94710050706324
C            2.52502261215060       -1.44261482825090        2.82478784622820
C            2.78195508187403        1.02611325378171        2.60565803514211
C            3.69862309121350        0.20081872722341       -0.86152072817318
C            3.21273432163290        0.26467456229770       -2.30654271661518
C            4.22070578721120        1.57500321156837       -0.45019409778030
C            1.09849797349562       -2.90296715377087        0.20179787781304
C            1.02277435913287       -4.26175278874367        0.46827095375795
C           -0.21963391538262       -4.84977159475468        0.68244915142322
C           -1.36177673311713       -4.07091339061485        0.61269993206260
C           -1.24363478816849       -2.70790969206156        0.35970869364787
C           -2.33935509557368       -1.73610480649849        0.28142256809625
C           -3.72453479436713       -1.86792180083446        0.37288364124978
C           -4.48517564586180       -0.70174351496915        0.27153463673047
C           -3.92417605020295        0.55296644665302        0.09647265316366
C           -2.51757124690624        0.64092552459475        0.00738554409780
O           -1.72148722009320        1.63053881656453       -0.14297781777262
N           -1.84611543125681       -0.51706985904121        0.09296279726267
N           -0.00953154830526       -2.14950947169023        0.17516164139388
H            3.24847572062306       -2.67898256635987        0.31780383108481
H            2.50256928781943       -2.26285925668490       -1.23136591717042
H            4.16150474510061       -0.44995110261251        1.81918419134103
H            2.81996618550459       -1.27584812148672        3.85931966268241
H            2.88992431086045       -2.42218515883800        2.52716348849791
H            1.43572130922386       -1.44315532128471        2.78047015350158
H            1.70310781982629        1.15584871489936        2.68567555749452
H            3.21206482107788        1.06196101357024        3.60551294350041
H            3.17570526783511        1.86073624915500        2.03205698763373
H            4.50138582308085       -0.54293605998126       -0.77178348075054
H            4.03727781229510        0.52143396838078       -2.96993916711875
H            2.78999582706590       -0.67991989948012       -2.64603252116180
H            2.44685597136806        1.03490710975870       -2.40151828007983
H            4.90424693158704        1.95407888927543       -1.20894458076284
H            3.39005228124182        2.27701075563278       -0.36192225150887
H            4.75785486413546        1.53549106499120        0.49396335908480
H            1.92331910899305       -4.85493927456405        0.49979304938840
H           -0.29135427558803       -5.90519348949043        0.89310824218321
H           -2.34011774418526       -4.49958626080385        0.75996770278426
H           -4.19704772214379       -2.82525561203468        0.51745105338373
H           -5.56104887351045       -0.78164128082017        0.33895698859059
H           -4.53548678396084        1.43903365053367        0.03346557944543
C           -0.02420683432960       -0.06824063660133       -1.84340496553788
O           -0.20330493705334        0.10416690578432       -2.96566438395665
H           -0.11979503964855        0.02451781309553        1.54965987398557
