56
 energy: -71.166092481317 gnorm: 0.000578333843 xtb: 6.7.1 (edcfbbe)
Ru           0.19069174401051        0.02618380300229       -0.13294657331998
C            2.34961516579873       -2.24468838380658        0.56355258392692
P            2.34336798745217       -0.37692441297071        0.45737354267276
C            3.09716381917720        0.08498414810509        2.10598562842494
C            3.15259505233750        1.60725968223681        2.19547903223625
C            2.28162217826947       -0.47492361874149        3.26747471282039
C            3.72888295135137       -0.13378556819966       -0.78472266366016
C            5.11219650815593       -0.59705760823098       -0.33841441811895
C            3.75343249590728        1.30497052293338       -1.29564931111403
C            0.93644925249672       -2.74823763023406        0.62052570406896
C            0.63975679300912       -4.02471399695438        1.06931172630846
C           -0.66101673543530       -4.50393987261784        0.98415756291345
C           -1.61459264486862       -3.70058203149627        0.37358129978933
C           -1.25215819704378       -2.43600211576053       -0.05406803112937
C           -2.16898413316838       -1.55247756898588       -0.85675383053953
N           -2.09274245776526       -0.14566728169880       -0.42921470795461
C           -2.81381345040421        0.01581636415063        0.85473422761232
C           -4.33745862582304       -0.14117778813466        0.82970544432336
C           -2.68794742456479        0.69414584811949       -1.48702196995722
C           -2.71353403553313        2.18036887838015       -1.15481967475231
N           -0.01675973939055       -1.93653879395646        0.12588744430247
H            2.94841144035651       -2.62197638803586        1.39594699211574
H            2.79350209033608       -2.62037286210780       -0.36865486819196
H            4.10766432780298       -0.34167480952749        2.14299874933654
H            3.40983217405632        1.92371357862560        3.20546452323812
H            3.88790052302591        2.02040250846641        1.50979683214042
H            2.17312052070658        2.01100590850598        1.93527006877409
H            2.73576734700673       -0.17977482959330        4.21282515236968
H            2.22274812822005       -1.56186191786867        3.24389746858980
H            1.27044520926511       -0.07560007800545        3.22995619256654
H            3.39314781485738       -0.76916963370706       -1.62022797852455
H            5.78475883352018       -0.61006553523199       -1.19551618195768
H            5.08207391963213       -1.59958600204892        0.08487483605197
H            5.52848134932070        0.08390075966194        0.40048217075353
H            4.24207878806225        1.35551383024972       -2.26797464753990
H            2.73104592926486        1.67644838290630       -1.39467688035781
H            4.29177727488128        1.95868791234553       -0.61413986914901
H            1.42545037221415       -4.64256306499730        1.47765838898910
H           -0.91533413090335       -5.48545522480566        1.35144399601897
H           -2.62448316795781       -4.05246344134649        0.22682761186497
H           -3.20008370854671       -1.93147566528551       -0.82724899156318
H           -1.82773312454506       -1.60795611289838       -1.90265439021215
H           -2.56080736585712        1.00359863578970        1.24521090335172
H           -2.40318713974854       -0.72473315761264        1.54873144613175
H           -4.69628720424889       -0.05329023686830        1.85274474778607
H           -4.82189364534455        0.63243788983207        0.24049830109300
H           -4.64992578132593       -1.11352197334791        0.45501810215261
H           -3.70692825232916        0.34315488920220       -1.71084015612502
H           -2.08377972837360        0.55995697795614       -2.39084279133811
H           -1.72666570085357        2.48412340270768       -0.80506122012285
H           -2.95596452789783        2.74298861862607       -2.05350128486911
H           -3.44970153867827        2.41997487817547       -0.39246313996856
C            0.50869152960262       -0.06535027735324       -1.94477138093256
O            0.72021792544133       -0.16994976839264       -3.08459019371610
H           -0.10624841001489        0.19821580109652        1.40077236437002
H            0.25170025924106        1.59400702954046       -0.16011684540611
