58
 energy: -70.507438893369 gnorm: 0.000085443693 xtb: 6.7.1 (edcfbbe)
Co           0.04869380005622       -0.43201179122168       -0.03411999803483
N            0.01253668383157       -2.21407564708344       -0.47704596207357
C            1.13940631840099       -3.12556841436522       -0.43421767989633
C            2.38493669835361       -2.45822418513843        0.14222073408537
P            2.18212427857006       -0.68827859391265       -0.29038726052966
C            2.64452198376573       -0.68267116648657       -2.10084965782374
C            4.13493207104009       -0.76283623494643       -2.41203235017141
C            1.95936903642170        0.49573965553964       -2.78969328464148
C            3.58481101200758        0.14181469170140        0.61867758876060
C            3.65233944861751        1.62497609355130        0.26330136853248
C            3.36207446004166       -0.01973597930587        2.12138564464513
C           -1.12767050998900       -2.94909811384268       -0.98787998296249
C           -2.30502199694531       -2.04368488560719       -1.35088684847948
P           -2.09229509656841       -0.46598110692665       -0.42862392534646
C           -3.15254421143622       -0.74232918516482        1.08338158958312
C           -3.34659337581016        0.54109784823301        1.88639543794091
C           -2.46900028954107       -1.79664722840944        1.94948635602716
C           -3.12820696729715        0.78859579012299       -1.37333056905306
C           -2.54446730834405        2.17820065605799       -1.11986619064279
C           -3.17517647768168        0.53124879758317       -2.87732074896184
H            1.36386780392162       -3.50831984279570       -1.45164227492115
H            0.87794473450826       -4.01808770400844        0.16739804487140
H            2.37537521520571       -2.53842259599888        1.23085579787539
H            3.30880778187986       -2.89812356181734       -0.24184877029945
H            2.16466825558908       -1.59851878460798       -2.47018000441027
H            4.27591554308189       -0.92248158798793       -3.48086037117109
H            4.65041332346934        0.15523643723612       -2.14085520741796
H            4.60248139228232       -1.59240465207133       -1.88374327022990
H            0.91267121676253        0.53181830721988       -2.46853072566278
H            1.99527172460743        0.38577645816649       -3.87293541220280
H            2.42744059085414        1.44114926158210       -2.52484084756826
H            4.52197708651420       -0.35178974300185        0.33324017824117
H            4.43855440217516        2.11454114452320        0.83760859064577
H            3.86127754538342        1.77788925123853       -0.79226204811492
H            2.70675581074391        2.10934630497728        0.49819183977364
H            4.06071106986508        0.60535211411646        2.67605642590635
H            2.34778789472945        0.28633257634302        2.38170238090684
H            3.50583785238055       -1.04938280243738        2.44102803970941
H           -1.44488517650513       -3.70812147424565       -0.24690352030221
H           -0.83153283313399       -3.52386463377430       -1.88940040342483
H           -3.26991750200889       -2.51614550565138       -1.14942057357818
H           -2.24248823572976       -1.80636017946773       -2.41334375354976
H           -4.13133387503282       -1.11109403671865        0.74447147295826
H           -3.92558489961553        1.27893667398247        1.33601635192225
H           -2.37990700598853        0.97189943774011        2.14322007060004
H           -3.87745351520289        0.32299982639810        2.81287634715360
H           -2.50478255730770       -2.77647405834919        1.48079896207697
H           -2.94739724502089       -1.86691429767250        2.92575313588477
H           -1.41892940427587       -1.52167123804660        2.09002524559654
H           -4.14863095837707        0.73994499854023       -0.97355857728590
H           -3.16942780066292        2.94575793044854       -1.57515456790290
H           -2.45830258155543        2.39061029659581       -0.05727253465681
H           -1.54616631171532        2.24061592466399       -1.55202063175828
H           -2.16772182294125        0.42324541588717       -3.27811119212198
H           -3.75389456537401       -0.35842925264175       -3.11569928891026
H           -3.64579050420833        1.37829672906104       -3.37561057954594
C            0.08277672851318        1.13428823148538        0.66909397920150
O            0.11345082092618        2.16282454254134        1.22013637857726
