50
 energy: -86.201237216858 gnorm: 0.000141468220 xtb: 6.7.1 (edcfbbe)
Mn           0.01693033669620       -0.27965689873259        0.26286505122401
C            2.30509685977875       -2.30020946527842       -0.52235926748479
P            2.07523120541895       -0.43491780997435       -0.54550414812586
C            2.41220074799010       -0.06484465232992       -2.29729921236923
C            3.18108178706622        1.03404555008533       -2.66691625295658
C            3.36018674576707        1.33278158900630       -4.00636217216700
C            2.76629584304028        0.54729029386680       -4.98090023680305
C            1.98242943440791       -0.53668054690706       -4.61627890179381
C            1.79958099158205       -0.83982511289780       -3.28004154196222
C            3.60327858483403        0.13912061683723        0.25641230448109
C            4.85464924970891       -0.38575847434788       -0.05769059008351
C            5.98084184919263        0.10387003140237        0.57791896934375
C            5.86692167422846        1.11819014475555        1.51748755387851
C            4.62477113487995        1.65279225347797        1.82001260588847
C            3.49356821004193        1.16486182886062        1.18906708896455
C            0.96170233746949       -2.97566947434215       -0.56153767199104
C            0.81054741552118       -4.30533812264165       -0.92408152140763
C           -0.44658783140032       -4.89675797404504       -0.85509815028663
C           -1.51801770263429       -4.14882288038333       -0.40254297197643
C           -1.31882112543131       -2.81495574598787       -0.06424613369190
C           -2.31855755752565       -1.87923648412808        0.44705215940178
C           -3.67814900870784       -1.99592458426969        0.72601910502700
C           -4.33034209118681       -0.86115231272838        1.21017964374612
C           -3.68515448277471        0.34883165040389        1.40551804873548
C           -2.30817684108096        0.41440596981361        1.10277360916178
O           -1.45786495485795        1.37392256049312        1.14872143505908
N           -1.72491666737899       -0.70908743304437        0.66297945316936
N           -0.08755675315199       -2.23247110576881       -0.17609018975258
H            2.96219603748357       -2.64936965022470       -1.32349119552648
H            2.77648500481194       -2.52394040693850        0.44450870308216
H            3.63409811876062        1.65164342015883       -1.90315944433565
H            3.96054890785823        2.18494288511720       -4.29027927579029
H            2.90603410513599        0.78456443237480       -6.02536701116719
H            1.50877750985862       -1.14178023602371       -5.37596042945979
H            1.17199663544451       -1.67431823312194       -2.99021672390421
H            4.94208510155009       -1.16616128419666       -0.80040274111168
H            6.95271044438667       -0.30378690245374        0.34031275718572
H            6.75028485174990        1.49542652295005        2.01170844524031
H            4.53811094562930        2.44764222289291        2.54656733590930
H            2.50873677015364        1.56949084573991        1.40428586993362
H            1.66884396056674       -4.87450376950764       -1.24560101886332
H           -0.57831516349404       -5.92997494466751       -1.13637820551822
H           -2.50261284012264       -4.57850421342391       -0.30876384850865
H           -4.21185972662466       -2.91988777349373        0.57531268438366
H           -5.38574135584242       -0.92760445880189        1.43556535168771
H           -4.21159244453046        1.21755879408457        1.76810919758249
C           -0.47118411775395        0.44995190808328       -1.29918495402999
O           -0.77398074204616        1.02350381282557       -2.24881654220699
C            0.64056871523461       -0.45963211420258        1.92533332725474
O            1.03716233627360       -0.47501959987653        3.00767450073992
