65
 energy: -93.115499797019 gnorm: 0.000423152525 xtb: 6.7.1 (edcfbbe)
Fe           0.17605741432391       -0.18787987849184       -0.41581532260961
N           -0.02154753782643       -2.08626340067111        0.58074748967100
C            1.20390866619387       -2.90560164100719        0.56510621561911
C            2.44754440268150       -2.02548678087463        0.66324706877887
P            2.22597136993990       -0.70008994133787       -0.62582725292516
C            2.89191876547794       -1.43270570238795       -2.16591756863858
C            3.40004324840653       -2.71273521028761       -2.34669506335584
C            3.82883069224890       -3.11584238103961       -3.60135052076612
C            3.75241285879870       -2.25121559780901       -4.67948233283193
C            3.23783070070921       -0.97410171154281       -4.50762588280844
C            2.80595530377214       -0.57247035939754       -3.25968328785512
C            3.60298171785748        0.42473462040450       -0.22586284895907
C            4.92759775358261        0.00248215680265       -0.29952879595115
C            5.94672188126545        0.87835022829740        0.02631022305762
C            5.65049814261185        2.17518982057199        0.41887077543606
C            4.33283507831827        2.59911181487433        0.48236703839954
C            3.30866575028429        1.72604910050268        0.15867404334472
C           -0.58605368748814       -1.87758646797221        1.92080443605062
C           -1.89931798683957       -1.11089041167550        1.79395422193087
P           -1.64487713706120        0.30384844155218        0.57987070487647
C           -1.72417770007189        1.78240391778836        1.64753194166901
C           -2.35388122755469        2.93612772598611        1.19027600499508
C           -2.34246893976324        4.08751350367923        1.95725450911569
C           -1.69604853496673        4.10161713918225        3.18247432085422
C           -1.04650285868620        2.96310334276358        3.63220832219448
C           -1.05277955250813        1.81276001022170        2.86533327108407
C           -3.32558363149739        0.39912140284782       -0.14601441363753
C           -3.44205901306099        0.53054904047790       -1.52347229162972
C           -4.69140890662497        0.62269575522975       -2.11300247673752
C           -5.83041120422506        0.58374150094278       -1.32548326519934
C           -5.71929015622436        0.46260103900783        0.05181145364299
C           -4.47261371375507        0.37459141504680        0.64292909302657
H           -0.73350040851560       -2.59182621809654        0.05151056912521
H            1.23235770090291       -3.43959150361081       -0.39090650728081
H            1.17932360748921       -3.64607115171543        1.37681889416344
H            3.36618471575789       -2.60509472048321        0.54752977058392
H            2.48251124391675       -1.50674179969283        1.62625747026616
H            3.46972253820039       -3.40722131913534       -1.52063753129642
H            4.22432314439077       -4.11336944526134       -3.73726369280044
H            4.08738775308855       -2.57370442621845       -5.65531168535651
H            3.16863005921213       -0.30073988734986       -5.35058519819815
H            2.37784459561474        0.41152920773710       -3.10182553423865
H            5.15727608496132       -1.00599411533547       -0.61863941296308
H            6.97651400742775        0.55289488588314       -0.02867525265204
H            6.45151855993004        2.85652305133064        0.67010652137616
H            4.10508605871279        3.61256698469038        0.78193438584998
H            2.27006119150843        2.02556099140904        0.19363699106541
H            0.13528129310901       -1.30143731797707        2.50456895577323
H           -0.75677637701745       -2.84192547025458        2.42404822172269
H           -2.66672856882741       -1.76470463220282        1.36176183605946
H           -2.24809879917960       -0.76074609203171        2.76839879238215
H           -2.85018074893212        2.92868480394087        0.22852518180319
H           -2.83682082956756        4.97903486369420        1.59670345464868
H           -1.68958872859647        5.00131147351036        3.78159890092021
H           -0.52860143772874        2.97656545946275        4.58145814840437
H           -0.52052106574390        0.93588473040788        3.20724836323127
H           -2.53762773393387        0.56655857365208       -2.11611261419699
H           -4.77765616947692        0.72570214362380       -3.18580830679022
H           -6.80715349226374        0.65365897703244       -1.78327847738864
H           -6.60994324435171        0.44127893276505        0.66454043211847
H           -4.38513362248794        0.29714546802773        1.71844327258586
C           -0.33455732332344       -0.75647592703017       -1.97157291890439
O           -0.60183337403056       -1.11777038533945       -3.04266135869946
H            0.71329698308679        0.38651049920662        0.84308309387674
H            0.30528934641089        1.14927046420436       -1.01554243396706
