64
 energy: -93.100050491693 gnorm: 0.000516026870 xtb: 6.7.1 (edcfbbe)
Co           0.74440334104890       -1.11539499054925       -1.59410816910013
N            0.64369181635297       -2.93679580749499       -0.45918438658347
C            1.26914982719211       -2.89364426205918        0.87433939824195
C            1.10775185104811       -1.53364394008471        1.54956571566711
P            1.53735861841297       -0.26891423521181        0.26335406086811
C            1.08785333406396        1.31553602570348        1.04064095733470
C            0.45810302208388        1.46656413709483        2.27018256750549
C            0.13955428540685        2.73106832411891        2.73501664695815
C            0.44296837443334        3.85207959473482        1.98165493842161
C            1.06795829223652        3.70911859734107        0.75250576182539
C            1.38349874988783        2.44868413926986        0.28471053231701
C            3.35401502704131       -0.22529826134283        0.48307501266634
C            4.14229146288606       -0.77848617278773       -0.51795020990065
C            5.51916649092807       -0.81317279291481       -0.38356122624003
C            6.11355190672167       -0.28828059509609        0.75239955902217
C            5.33102262401258        0.27154040705268        1.75128413754973
C            3.95465309417795        0.30327061145241        1.62134905929776
C           -0.73023603782794       -3.45636307309132       -0.47441370021529
C           -1.75228503415033       -2.43598653837030        0.02264842000368
P           -1.47052254094621       -0.84172970230452       -0.90239759547016
C           -2.17112216392000        0.43386694449122        0.20564440549971
C           -2.80790052416195        0.23218211476004        1.42423169289443
C           -3.24375604885780        1.31670298052616        2.16768393782544
C           -3.05328640361836        2.60702012105697        1.70538771213593
C           -2.42093966492330        2.81717845881373        0.48934150657774
C           -1.97883422075809        1.73839510082949       -0.24872748235810
C           -2.85690267759073       -0.92444061911446       -2.09970009286579
C           -4.18460751778034       -0.97514585366763       -1.68381845995817
C           -5.20049773150361       -1.05258020730703       -2.61789274674317
C           -4.90226869412428       -1.07576548317429       -3.97211408490206
C           -3.58395979857625       -1.01385916160970       -4.39122035454915
C           -2.56495009390841       -0.93550124669471       -3.45725035736348
H            1.19546742990841       -3.58601458159196       -1.01743193302315
H            2.34219300764465       -3.07334577113553        0.74545303663237
H            0.86347231853626       -3.69279717761092        1.51220044291983
H            0.07565751929639       -1.36361293545653        1.86075049238553
H            1.76225949495986       -1.46061474789863        2.42247664496541
H            0.21387698181833        0.60771378585933        2.87818730740782
H           -0.34957834196390        2.84005791105035        3.69282530590002
H            0.19104878758482        4.83583561012520        2.35075809760645
H            1.30436433128900        4.58151528027257        0.15956035179958
H            1.86046342776088        2.31988157751375       -0.67893157559188
H            3.65210814630992       -1.16614152876171       -1.40593876792331
H            6.12912932471817       -1.24405726156075       -1.16485018720445
H            7.18871244723824       -0.30937744049947        0.85912449087796
H            5.79803057118066        0.68582267521820        2.63378544109651
H            3.34450152875896        0.74591231299885        2.39793662588234
H           -0.97253169044497       -3.70960466250811       -1.51156342344167
H           -0.80003433475703       -4.37530603677725        0.12963470769520
H           -2.76320776925914       -2.81224992256715       -0.15259148087252
H           -1.62209214482844       -2.27086350347352        1.09284211624133
H           -2.98276923293610       -0.76520468496526        1.80315903672036
H           -3.73958446088332        1.15021322225702        3.11424758832422
H           -3.39541023274148        3.44784461187337        2.29125808965876
H           -2.26695529084491        3.82245100386888        0.12456968976502
H           -1.46573296203159        1.88691364356084       -1.19125122435229
H           -4.42246952545215       -0.94553990091390       -0.62872335124807
H           -6.23027834645778       -1.09290151195113       -2.29127916839865
H           -5.69964563899274       -1.13687112406132       -4.69891290319248
H           -3.34888936894654       -1.02510274252121       -5.44606259093757
H           -1.52989438861742       -0.87892654619194       -3.76908788066085
C            0.88856539754345       -1.94018580177906       -3.09711862835909
O            1.00760535368685       -2.47620426790456       -4.12403001919402
H            1.09520558319237        0.07776355991436       -2.35383694704968
