49
 energy: -71.170355330007 gnorm: 0.000699322840 xtb: 6.7.1 (edcfbbe)
Ru           0.04862945587136       -0.08662235374000       -0.30351579888589
C            2.33438246972953       -2.23578502494826        0.10083906658980
P            2.29720522547251       -0.45565469730849       -0.44505796077792
C            3.21892898481570       -0.57958539892771       -2.06935229392060
C            2.51166637150516       -1.55101885309731       -3.01064037059040
C            3.30287071056033        0.80698536506430       -2.70003496560842
C            3.52043652803073        0.28412810385591        0.75994956121641
C            4.96296013762186       -0.19362269875150        0.62080040921506
C            3.41994566016801        1.80750977060469        0.75108186391037
C            1.01502046031446       -2.87420022601788       -0.21536375904520
C            0.90034911946040       -4.23861590900540       -0.39250919305558
C           -0.35887334945061       -4.80780198582459       -0.58358594324703
C           -1.46368712024481       -3.98618346412987       -0.53904582716742
C           -1.29221811193836       -2.60972008369278       -0.36272163185434
C           -2.37997635337247       -1.65529492268507       -0.24528479579748
C           -3.73186122908960       -2.00962036662472       -0.23975966577665
C           -4.69226034297452       -1.03261209249096       -0.07974175205792
C           -4.28627398652714        0.28584844830779        0.07015494541082
C           -2.92613617524244        0.57660425243530        0.04703094401913
O           -2.46358150000961        1.83068761614422        0.16756734386306
N           -1.98640374517872       -0.36202050150100       -0.10586231671293
N           -0.05671752882939       -2.05826731405613       -0.25677161253472
H            2.43466043693547       -2.20782142616547        1.19447539029680
H            3.17240156022584       -2.80397999457699       -0.31145863074278
H            4.22455112071282       -0.96288438716891       -1.86006128301645
H            3.03737350611024       -1.59417987003990       -3.96407970706134
H            2.47082810481329       -2.55945998527324       -2.60184116061139
H            1.49285534064167       -1.21805093823445       -3.20535970925552
H            3.97804353778182        1.45251526479030       -2.14416366644280
H            3.66034453196519        0.74220996793304       -3.72712895922530
H            2.31329725255601        1.26958507980198       -2.70246176305100
H            3.11669699486129       -0.05914874716583        1.72450354622580
H            5.02341845027532       -1.27985001235367        0.58349807612205
H            5.53905454802882        0.14801306723607        1.47970395721920
H            5.42553803701321        0.21716383844740       -0.27389684456127
H            2.36818127645619        2.09626604007527        0.71954632345960
H            3.92463778912117        2.23694565523348       -0.11077351514845
H            3.87350619861388        2.22070759935589        1.65055172432917
H            1.78347309428300       -4.85920404786429       -0.37293097259568
H           -0.46324250940350       -5.86998622576906       -0.73930707545763
H           -2.45248408314073       -4.40085746028565       -0.64726027183563
H           -4.02286519690114       -3.04001202178626       -0.35584103901766
H           -5.74085477333094       -1.28520708088008       -0.07098658064232
H           -5.00543236348073        1.08096208923097        0.19690552021846
H           -3.18725818909540        2.45868978132077        0.30902499804862
C           -0.31799850649739        0.15386623056430       -2.09719978637609
O           -0.75215249667383        0.32179311004575       -3.15956953984045
H            0.19358366420902       -0.04007570020075        1.27103771205451
H            0.09406916702719        1.47071315033719       -0.24105871666939
