57
 energy: -80.959765614727 gnorm: 0.000191264271 xtb: 6.7.1 (edcfbbe)
Fe          -0.00656526589656       -0.41924064975510       -0.39876603182441
C            2.24501828175061       -2.39664222357298       -0.03243883117368
P            2.04474640292161       -0.75244064116047       -0.87517222606323
C            3.31860148205923        0.27239490968665       -0.09893399187311
C            4.65426422539889       -0.11791640093906       -0.05864462971535
C            5.58145388149911        0.69420061874334        0.56838486126124
C            5.18195566704771        1.89073793588126        1.14566899537563
C            3.85288303479841        2.28194044613185        1.09915753383050
C            2.91950189972328        1.47283703674443        0.47622530077865
C            2.69629833122990       -1.09321353973264       -2.54145359911079
C            3.49551291487401       -0.16791393320646       -3.20509065584802
C            3.91116803070151       -0.41968380571317       -4.50052411907336
C            3.51709369138085       -1.58168870402024       -5.14446172484497
C            2.69929615576657       -2.49387886984757       -4.49496528724178
C            2.28359981312896       -2.24986028535070       -3.19958387171056
C            0.91719544950918       -3.07640535111268       -0.00492110566072
C            0.74617677048566       -4.43562064348331        0.20066857009128
C           -0.53402163778929       -4.95231720191792        0.31491781382738
C           -1.62202707410748       -4.09041424572555        0.25391512242373
C           -1.39747340142894       -2.74935022606121        0.02782422239771
C           -2.45185936535992       -1.68440704666467       -0.06168374122041
N           -1.83037429405429       -0.45327345980594        0.46702282220140
C           -2.32413125089534        0.86837177924649        0.02439911288146
C           -3.27639102980076        0.87553062760369       -1.15842754215373
C           -1.75156216914725       -0.51155245908292        1.94845455587499
C           -3.09863109489724       -0.59119759161610        2.65972419752798
N           -0.14690674381438       -2.26499163320681       -0.13942301670897
H            2.51670153285377       -2.14593584193850        1.00188950387042
H            3.03091850212388       -3.02074202304390       -0.46828030977059
H            4.95991796072173       -1.04718280798882       -0.51980161187374
H            6.61932734309987        0.39693675903773        0.60786680885853
H            5.91168588952824        2.52042913712441        1.63364853731187
H            3.54987731115078        3.21594376681586        1.54910442568003
H            1.87025636510514        1.74691377215555        0.43631880229539
H            3.79507070381226        0.74233783861030       -2.70337240949202
H            4.54046634991079        0.29436816465716       -5.01171790198814
H            3.84179293902430       -1.77401974788454       -6.15660461675539
H            2.38380817812669       -3.39339649043859       -5.00321401292985
H            1.63425699357334       -2.95470681322213       -2.69529677142359
H            1.61111030899045       -5.07519170852694        0.28306083495190
H           -0.68394398308706       -6.00876895064265        0.47309345003930
H           -2.62870935648019       -4.45693548083994        0.37806971734844
H           -3.35757464711603       -1.95872751734736        0.48428557978904
H           -2.70785591936647       -1.53998685105107       -1.11421902036184
H           -1.40113916771358        1.45363513730882       -0.22984063247214
H           -2.80392484960141        1.37852628038019        0.86336966037006
H           -2.82596919819789        0.45522769108249       -2.05377269540980
H           -4.19085128399080        0.33479801809621       -0.92515076407308
H           -3.54555211253987        1.90635229194614       -1.37960018923858
H           -1.20626926593768        0.37802291935106        2.26349740261002
H           -1.14379246031797       -1.37672214700050        2.21243490033487
H           -2.94619676700563       -0.36896125324915        3.71298183744713
H           -3.81503467766331        0.12696772567980        2.26809395752979
H           -3.53270995452974       -1.58586085119497        2.59761458583496
C           -0.45593646361346       -0.60208877444804       -2.08597856332768
O           -0.56744041992650       -0.80646020807255       -3.20800833182604
H            0.60411156703171       -0.32154683001948        0.87416047947733
