49
 energy: -80.971406875261 gnorm: 0.000153004567 xtb: 6.7.1 (edcfbbe)
Co           0.11119943693018       -0.35974516599975       -0.11056831211762
C            2.35440884093332       -2.41262005838248       -0.65296782175828
P            2.11679973104292       -0.58810034861554       -0.89837614029515
C            2.49334813809106       -0.28814829901495       -2.64431092571525
C            2.98621342559528        0.96127023667811       -3.01779704031386
C            3.22164522173849        1.23964941852700       -4.35139578437143
C            2.94996756461284        0.28452323343246       -5.31931344756076
C            2.42967210603813       -0.94687294163843       -4.95376897615679
C            2.19234932170914       -1.23387838458797       -3.62123198831155
C            3.47989217731984        0.13382804983245        0.04883936556215
C            4.79663904770950        0.15866788972552       -0.40047414659953
C            5.78319720001309        0.67895692007160        0.41845379306833
C            5.46222499018213        1.16620034916610        1.67672509621542
C            4.15144051572603        1.13208307972336        2.12846054451588
C            3.15943148881158        0.61496299298942        1.31568705448979
C            0.98536846163999       -3.00974038823534       -0.66830697648029
C            0.74134838361109       -4.31905281825488       -1.06462234944508
C           -0.55520328752352       -4.80736214546508       -1.03022568811325
C           -1.57297236188615       -3.98498743096239       -0.57330323370846
C           -1.26417513108110       -2.68758856992338       -0.18274411897854
C           -2.20766142353855       -1.72911343113668        0.38997267265862
C           -3.52975600413132       -1.99679684673630        0.70916315912703
C           -4.27718679623203       -1.01099446178363        1.34147547572537
C           -3.67993655039169        0.19287701006710        1.65676810548899
C           -2.34364135963059        0.39672638315337        1.30021075563349
O           -1.67576543678230        1.51592984428623        1.58259021261313
N           -1.63827441145508       -0.53303672033689        0.65692528930073
N           -0.00541948042647       -2.20890903673367       -0.25741067913147
H            3.03208785777506       -2.86844206312665       -1.37913046065843
H            2.78761131834414       -2.53507791541615        0.34758973841748
H            3.18852303073063        1.70597404078212       -2.25950527980392
H            3.61478197435047        2.20369962181111       -4.63785752105743
H            3.13582296021246        0.50350982602009       -6.36010602107779
H            2.20497681872241       -1.68414645083406       -5.71036508757207
H            1.77009495669654       -2.19076350178950       -3.34587481910682
H            5.04357787447077       -0.22006993285021       -1.38257194795484
H            6.80673721184923        0.70503576842733        0.07502780574695
H            6.23814135752130        1.57344302499054        2.30769658473188
H            3.90736659230815        1.51017663708677        3.10993419108086
H            2.12233699331183        0.57653414728263        1.64315723233857
H            1.55868386212491       -4.94174606986239       -1.39365065580754
H           -0.76824414504680       -5.81646876297732       -1.34706095942589
H           -2.58721474020303       -4.34559365832162       -0.53082928845445
H           -3.97401622872303       -2.95021261974853        0.47857255186861
H           -5.30983562122964       -1.18953434768456        1.59737240937817
H           -4.22663013715143        0.96899416421800        2.17085481858971
H           -2.23063540501706        2.17559077702176        2.02420842331707
C            0.16648893465075        1.37698981112685       -0.27164929817887
O            0.27283335927085        2.48451543126011       -0.52505121687086
