58
 energy: -81.804206455021 gnorm: 0.000520191949 xtb: 6.7.1 (edcfbbe)
Fe           0.19460325111746       -0.23190229409561        0.05589941915672
C            2.41218681594035       -2.30364617699177        0.74202461031836
P            2.24427408231511       -0.44911283396070        0.58340605157266
C            3.69255460291317       -0.04150163998704       -0.45941666962089
C            3.53473593453400        0.93121952859514       -1.43914054585468
C            4.60166536502623        1.28939269519518       -2.24512846931428
C            5.83290383036541        0.67744277472544       -2.07307962094902
C            5.99892509848020       -0.28486454516582       -1.08853110007788
C            4.93550686064302       -0.64245316334151       -0.27982198452854
C            2.86316853149239        0.11626511614822        2.20421746696243
C            2.35396610860048       -0.47807049844879        3.35547812705584
C            2.74627015034659       -0.03339628013389        4.60346112566715
C            3.64034333211651        1.02070782742613        4.71471298844885
C            4.13123310443687        1.63249664831815        3.57340369336359
C            3.74247720812402        1.18696576260797        2.32150428557739
C            1.02734698041980       -2.87691909499257        0.77235523593970
C            0.78921628681411       -4.17460288586153        1.18458694282791
C           -0.49518297005348       -4.69992023128437        1.12161334067143
C           -1.49659443739976       -3.90299340633815        0.58315192498158
C           -1.19246779888403       -2.61634799110170        0.18568691419165
C           -2.16398133565314       -1.72132695916102       -0.52311822023359
N           -2.02468903657713       -0.31946673434408       -0.08030992585582
C           -2.70149385209330       -0.23337948102646        1.23338719246423
C           -2.51768986016583        1.07552283643508        1.98936329628043
C           -2.69751765334403        0.52179727275758       -1.09300517530616
C           -2.44003429642214        2.01976953419878       -0.99537412630015
N            0.03607746906563       -2.07660207264979        0.32108368142790
H            3.00484227289981       -2.61453381628206        1.60713102804765
H            2.91334323069686       -2.65800410927899       -0.16913375038868
H            2.56405347521533        1.39666548407873       -1.54880985503491
H            4.47509594750647        2.04494769796494       -3.00780088158164
H            6.66707302187379        0.95312636046271       -2.70285325895011
H            6.96314438571079       -0.75445092119323       -0.95086712954236
H            5.07141992948161       -1.38134274598619        0.49833695751908
H            1.63265172448082       -1.27960587383139        3.26250862750718
H            2.35154657480351       -0.50256782104820        5.49421288972886
H            3.94609787008207        1.37032776043697        5.69080987302377
H            4.81730984558364        2.46390038691572        3.65875062825365
H            4.12003333465298        1.67279760505799        1.43169360998777
H            1.60955704611502       -4.77369285351780        1.55142993732022
H           -0.70226585209667       -5.70342827928916        1.45809602075387
H           -2.50246702912344       -4.27762946071622        0.46798562980718
H           -1.90874112270991       -1.77013596933166       -1.58994703424079
H           -3.19906601774779       -2.07562598603155       -0.40268374661996
H           -2.28249786019893       -1.03777008951250        1.84408093395242
H           -3.77659360220396       -0.43473459106996        1.09395635068762
H           -2.65174184494438        0.89380891439730        3.05349758968591
H           -1.50842666191546        1.44071507083168        1.82415361130003
H           -3.23516142199279        1.83057354538245        1.68516493122550
H           -3.78064992846391        0.32264555144081       -1.06283343581262
H           -2.32211332640182        0.19778307543131       -2.06790190765867
H           -2.62248793210126        2.47532334984330       -1.96660115266492
H           -3.07926337119297        2.50864978241846       -0.26900795321716
H           -1.39936633955219        2.17746781396338       -0.72249370797947
C            0.42860693487412       -0.24944528316178       -1.66993141725655
O            0.60979674715357       -0.26778040168305       -2.81626602780813
H            0.06617036396003       -0.06944700854862        1.50264829164586
H            0.30773971990372        1.22429297158560        0.03848016738500
