64
 energy: -92.363220669178 gnorm: 0.000159089174 xtb: 6.7.1 (edcfbbe)
Ru           0.05301232547690       -0.17913446521684       -0.43340179220751
N           -0.24295719432757       -2.26046048136434        0.15834494185172
C            0.93236386013607       -3.11124812202543       -0.13657357297442
C            2.25402813522308       -2.37024558961006        0.09118329185228
P            2.20635644441022       -0.77717326926913       -0.86387615315836
C            2.91588672585391       -1.27436217022171       -2.46771347860602
C            4.24882813926793       -1.04801656844051       -2.79454867149234
C            4.73821970740586       -1.47497507880967       -4.01680474532864
C            3.90767949602700       -2.12593440922836       -4.91473076208937
C            2.57666688763906       -2.34585937336647       -4.59554883150610
C            2.08095935412579       -1.91592260671439       -3.37906271757748
C            3.46119346843218        0.28305847501545       -0.11131933212566
C            4.59809315342795       -0.17110986999955        0.54785606917127
C            5.46992625891629        0.74702827867683        1.10857033618511
C            5.21419255551182        2.10604091389624        1.01231219403385
C            4.08180223671095        2.56053268249570        0.35259134561397
C            3.20680410089754        1.64924739020930       -0.20658641299775
C           -0.61574518141122       -2.26925720773800        1.59383764928948
C           -1.84355557702139       -1.39178178001348        1.88793217239952
P           -1.83062280518285        0.09097190690430        0.77293662957086
C           -1.38982806729916        1.68024275743200        1.53715785667191
C           -0.49811521055882        2.39341634116591        0.72638988937356
C           -0.05032117410027        3.63930808010081        1.11224884787254
C           -0.50180993174981        4.17847564524861        2.31194247037538
C           -1.39185012138325        3.48027109233334        3.11048962098620
C           -1.84848031554187        2.22902113835688        2.72393503019946
C           -3.58533663598161        0.38590385431363        0.39920535936687
C           -3.90688195309030        0.90823994658771       -0.84891102761628
C           -5.22189962978785        1.20882951717413       -1.15463788483582
C           -6.21489829935473        0.99490005572162       -0.21191835123916
C           -5.89372874075019        0.48614621826523        1.03741254947866
C           -4.58122401476498        0.18277707873803        1.35025193162098
H           -1.04599835218102       -2.63972914701838       -0.36033906250168
H            0.87528660498878       -3.41280711984364       -1.18807520511375
H            0.90003282291827       -4.01426421147591        0.48531326267799
H            3.08852512766072       -2.99803239064236       -0.23555005574304
H            2.38816765227741       -2.10911172177375        1.14574203979672
H            4.90055172409545       -0.53533538998656       -2.10153471687802
H            5.77277692315503       -1.29615138106760       -4.27035570121328
H            4.29507089718137       -2.45529803856826       -5.86733532950266
H            1.92597099951011       -2.84513407209262       -5.29841660828938
H            1.03492510192498       -2.06426471054673       -3.13671001055702
H            4.80200608166405       -1.22996304650173        0.62188948906620
H            6.35346523916713        0.40091226463050        1.62464012160501
H            5.89870633635768        2.81444939715344        1.45481172910390
H            3.88710432782760        3.62055044511303        0.28017428601166
H            2.30802970553069        1.97942059279526       -0.72946791101524
H            0.24406328037524       -1.90901820329644        2.16342053629613
H           -0.83313600351993       -3.30066680540808        1.89988330262388
H           -2.76505684497103       -1.94124709648151        1.65645324595533
H           -1.85784643333879       -1.10481258992023        2.94324370161124
H           -0.15687689622044        1.94744466151873       -0.26081571149525
H            0.64063608582319        4.19510069913756        0.49555670258236
H           -0.15137347746152        5.15209002543059        2.61986011623104
H           -1.73247753019261        3.91141526193937        4.04003612517235
H           -2.54422652926677        1.68160802054649        3.34364204989810
H           -3.12202995929218        1.07118974647076       -1.57838291540531
H           -5.47290591162178        1.60852463333903       -2.12602468169051
H           -7.24209804085550        1.22721510165184       -0.45022396223295
H           -6.67044799352377        0.32710150504595        1.77078717365514
H           -4.33519413517730       -0.20948980086166        2.32693274012504
C           -0.63690316490567       -0.22527131662113       -2.16386229154081
O           -1.05019658777645       -0.15166482069852       -3.23068785503338
H            0.68132987091704       -0.02270128196365        0.95979308468282
