63
 energy: -92.275079641797 gnorm: 0.000503316318 xtb: 6.7.1 (edcfbbe)
Co           0.17128580713533       -0.74523086828829       -0.94956004253766
N           -0.27603287169912       -2.58172853000391       -0.35106019225343
C            0.58232556399771       -3.12626129728228        0.71774006773496
C            2.04868507327014       -2.93368902900449        0.34706131084770
P            2.20585122192120       -1.20133072561870       -0.29744415673048
C            3.43742030673635       -1.37608264182149       -1.61448411541552
C            4.78466622799939       -1.60461734780093       -1.35079828381372
C            5.66343871875439       -1.78293085371453       -2.40380727170530
C            5.20428491215426       -1.73806367434161       -3.71217658305942
C            3.86140646582813       -1.51722221110628       -3.97544972603109
C            2.97726452510252       -1.33767236487259       -2.92701081811393
C            3.03711048344539       -0.23401465058422        0.99038665907505
C            3.78764473275449        0.87363929343790        0.59782475685370
C            4.39083176181193        1.67331250543842        1.55006579255319
C            4.23580741982713        1.38601293829043        2.89791514699180
C            3.46748691835307        0.30255032206644        3.29238175105268
C            2.86135569519459       -0.50348891966686        2.34462284420295
C           -1.69430391137075       -2.90084177933578       -0.10001022106689
C           -2.56316147878300       -2.29692167933718       -1.19675556389755
P           -1.97363137782344       -0.55368751955846       -1.33231328162246
C           -2.60315885148391        0.17746826400653        0.20618942758259
C           -1.68224226849244        0.42437693633914        1.22126597547795
C           -2.10743811022311        0.93578722424214        2.43348941076628
C           -3.45338209983489        1.20452528118712        2.63153879325371
C           -4.37185471813403        0.96415208110717        1.62033421341297
C           -3.95254376375188        0.44987335674270        0.40644088089944
C           -2.94916337357115        0.25316561271124       -2.62514110854082
C           -3.67703846748842       -0.44165125908018       -3.58520805414462
C           -4.37989589780519        0.25761242137942       -4.55190472752286
C           -4.35330859842776        1.64247836793853       -4.57130814822133
C           -3.61762769940383        2.33770959850643       -3.62256829426891
C           -2.91255332247754        1.64739710999483       -2.65601699075017
H           -0.01319209356179       -3.06328912941460       -1.22162090972098
H            0.34590229209987       -2.58845336366914        1.64088372523188
H            0.36640096765746       -4.19078310864735        0.87738998313191
H            2.32712648463555       -3.60660086368727       -0.47108245943060
H            2.71497432931896       -3.12500601565857        1.19013329302414
H            5.13933184087131       -1.63376972183339       -0.32966885830871
H            6.71066421372209       -1.95717365742581       -2.20565605844751
H            5.89721192686062       -1.87555834328016       -4.52885982496806
H            3.50790783945208       -1.48291689463262       -4.99529452594576
H            1.92094829280514       -1.15608390444016       -3.11122086602744
H            3.90046368178473        1.09787328744891       -0.45476559614988
H            4.98220107678438        2.52279685959233        1.24238529060351
H            4.71011592757783        2.01026381465467        3.64033285255361
H            3.33878276095713        0.08597650955075        4.34265113587887
H            2.25627844539265       -1.33934323760976        2.66564051091962
H           -1.97208158181898       -2.46924325337966        0.86727705050501
H           -1.83867787677678       -3.98732913452242       -0.04493818521797
H           -2.38856681446978       -2.80713968851221       -2.14897982447303
H           -3.62591704535704       -2.34878347977316       -0.94829309875257
H           -0.62184665689699        0.22113030573289        1.04099046619758
H           -1.39464608723631        1.13084462226724        3.22111736169008
H           -3.78823444798487        1.60758220217907        3.57569525147852
H           -5.41803847464273        1.17970848437863        1.77970735022055
H           -4.66496877678330        0.26705500717847       -0.38663360045054
H           -3.70524738391002       -1.52129658392574       -3.58310003480112
H           -4.95079337545674       -0.28156695289756       -5.29345298791610
H           -4.90428550461228        2.18170693945042       -5.32736375658340
H           -3.59464080126301        3.41734841752325       -3.63977971391287
H           -2.33348499319816        2.18042155468897       -1.91239899240523
C            0.58218917155002        0.82679298925864       -1.55488169538912
O            0.85743606209897        1.86331320657992       -1.95078259379810
