57
 energy: -86.157867347925 gnorm: 0.000128786742 xtb: 6.7.1 (edcfbbe)
Mn          -0.12745992610013       -0.12827732915974       -0.66759531052663
C            2.14929955705289       -2.18946595918872       -0.50707730552973
P            2.06524785103969       -0.48113044856649       -0.93099469242460
C            2.90435312153997       -0.30591255875778       -2.55449404039362
C            2.75564149210621       -1.33798790780865       -3.47617802848551
C            3.32763830526036       -1.24386989597630       -4.73086753233423
C            4.05222154365580       -0.11444323071612       -5.07807344626962
C            4.19785196875592        0.92028959982011       -4.16787937971375
C            3.62365539452937        0.83010434864096       -2.91246888097537
C            3.26980764644281        0.44356235089116        0.08845706081323
C            2.97516479328082        1.75764909513563        0.43635787313941
C            3.86453147006103        2.49999520623359        1.19108961139687
C            5.05794795822713        1.92908937233962        1.60425553416077
C            5.35910391086625        0.62135448024657        1.25766642371230
C            4.47050612075118       -0.12047694645699        0.49950474364526
C            0.93226592362681       -2.85098146497740       -0.40755641448897
C            0.78744847512029       -4.25280172238646       -0.18095244889859
C           -0.45227154212151       -4.81720873547344       -0.12723429541877
C           -1.59904187504218       -4.02346897672659       -0.30751719921311
C           -1.42121183913102       -2.67328967920115       -0.51593464488970
C           -2.55797987604282       -1.70822253815876       -0.78850758424372
N           -2.23011482155551       -0.39816053363857       -0.19166688457991
C           -2.55915811461336       -0.42060467963397        1.24980566512611
C           -4.04586580240289       -0.41708748475463        1.62041371165807
C           -2.82101784820914        0.76247883813820       -0.87459239213008
C           -1.94779621221245        1.99893453592851       -0.62184525989269
N           -0.21169025570266       -2.10679097161836       -0.53815206010693
H            3.08669888478063       -2.72687062860309       -0.49606605168962
H            2.18472461389897       -2.21322872331813       -3.19035873847792
H            3.20843183743032       -2.04991423839132       -5.44163104581913
H            4.50104071199350       -0.03926009403811       -6.05847762246389
H            4.75948632737091        1.80340619861219       -4.43987073434525
H            3.73495793288713        1.64270269065572       -2.20678151056566
H            2.03121210002235        2.18581379832363        0.10411575368518
H            3.63037416210455        3.52055930549510        1.46138928295003
H            5.75375856248265        2.50412559290454        2.19864925430656
H            6.29131072990943        0.17960689816405        1.58120191101495
H            4.70218121285660       -1.14001242607212        0.22648501837183
H            1.68057018364046       -4.84688181327554       -0.05952498138501
H           -0.56352992664078       -5.87827963983672        0.04617897736137
H           -2.58539672142237       -4.45779096472880       -0.28982738358969
H           -2.64003536068449       -1.59278122308775       -1.87615928905141
H           -3.50751202000670       -2.11139478782644       -0.41942818958488
H           -2.08916339483984        0.44294945566288        1.72854613758757
H           -2.09355502055169       -1.32005334295965        1.66352086623463
H           -4.12970220201125       -0.62186079339868        2.68506447233663
H           -4.51097082373001        0.54806860087335        1.43345400452970
H           -4.60556628505972       -1.18275616279934        1.08920705071898
H           -3.85108801813651        0.95641884803016       -0.55249595197523
H           -2.84133946835846        0.55907172315162       -1.95051204393547
H           -2.23334181087899        2.80312616679515       -1.29816417888608
H           -2.05640928112185        2.35908728116472        0.40112689009788
H           -0.85758292247265        1.78072642750958       -0.81612796041072
C           -0.24803000914687       -0.21170343825550       -2.44176454961661
O           -0.18396626831463       -0.28610002660767       -3.59425955204470
C            0.41806294152810       -0.02943984759946        1.02238662303652
O            0.88801338453263       -0.00970928444693        2.07701080499647
