49
 energy: -71.029756563988 gnorm: 0.000219775717 xtb: 6.7.1 (edcfbbe)
Fe           0.12593755765327       -0.21147843197328       -0.23672830754815
C            2.40598496919444       -2.25781834736358       -0.33372400110636
P            2.26228741357798       -0.43838485382778        0.01434305894755
C            3.02552748464020       -0.29480327749535        1.71667817714432
C            2.34988783669124       -1.25262087011582        2.69244219314007
C            2.85816364806515        1.14572413732680        2.19184111176712
C            3.65309844788288        0.28345098869059       -1.01931865076232
C            3.12223361008701        0.66715898476360       -2.39617714447027
C            4.88909672147770       -0.60659528940797       -1.14063769494997
C            1.11939660497074       -2.87435922875896        0.12014352355706
C            1.03201178008292       -4.20382486159577        0.46443872024331
C           -0.20032389786450       -4.74621203583546        0.83855303972678
C           -1.30464495886651       -3.92642043530011        0.82053382951160
C           -1.16434067189551       -2.58436329814282        0.45899788041462
C           -2.24412605621836       -1.63504844534278        0.35617173174234
C           -3.58549570092357       -1.90634469613046        0.64054112804913
C           -4.52668048078669       -0.91516514986005        0.46957098004625
C           -4.11437237106752        0.32407589996036       -0.00506292983822
C           -2.76565900391793        0.53098243536968       -0.27011606328427
O           -2.31221906276836        1.69521919281152       -0.76169033268274
N           -1.83538293837073       -0.41006549951325       -0.07664008218112
N            0.04859997340885       -2.04633390681672        0.13837612124844
H            3.28301389360075       -2.73929422486974        0.10499239291053
H            2.46118039503705       -2.34544584530656       -1.42679406554044
H            4.09331087488846       -0.54169005932431        1.64175005951863
H            2.71274402044699       -1.07538607329414        3.70463278873008
H            1.27364888908632       -1.08405122236697        2.68023218561667
H            2.54277234797186       -2.29420943750587        2.44062744396124
H            1.80356446838039        1.41256069422588        2.14422384275672
H            3.20790086033049        1.25601010328908        3.21774854397846
H            3.41229794219891        1.84200252001964        1.56473202324374
H            3.93227696239601        1.20819704509848       -0.49689240617395
H            2.82047073248254       -0.21647571569431       -2.95764825608486
H            3.88654554199284        1.19024612126006       -2.97045288690500
H            2.25452012230898        1.31673565635621       -2.28995245721763
H            5.23413853434200       -0.95797285064509       -0.17078654596768
H            4.68842234251442       -1.46923957590590       -1.77229302082219
H            5.69917479064419       -0.03987432129443       -1.59890162297106
H            1.91647169312427       -4.82307783725843        0.43988387634066
H           -0.27995169598497       -5.78444837825015        1.12088513369903
H           -2.27615556010967       -4.31359681870419        1.08248243990408
H           -3.87671127195938       -2.88101499699261        0.99547959073393
H           -5.56765183120135       -1.09449308719868        0.69062227168910
H           -4.82450215814846        1.12117162448009       -0.16933255443185
H           -3.02857176313772        2.34373058625643       -0.82112253884882
C            0.08331155814369       -0.21972315911498       -1.98356739766757
O           -0.06816796160587       -0.18267288943505       -3.12984265398324
H            0.05888059572440        0.20423266331750        1.16594868761806
H            0.14013124065460        1.22588680925382       -0.42941367156465
