63
 energy: -92.203015430092 gnorm: 0.000181814047 xtb: 6.7.1 (edcfbbe)
Ru          -0.05825373200004       -0.38412768310123        0.33602960553600
N           -0.20371417816322       -2.26768755354667        0.77711715668647
C            0.90843658266230       -3.20641626205519        0.84771106293619
C            2.14686353488396       -2.66662244091277        0.13176280122705
P            2.14350770446376       -0.86062909321282        0.51376092087238
C            3.46256563128454       -0.13456772062194       -0.50394706752057
C            3.50188360994378        1.25851008991407       -0.51557415047840
C            4.46549244510761        1.92221369327974       -1.25038971706257
C            5.39408312979466        1.19861670182179       -1.98385795858446
C            5.35498076000907       -0.18592944716125       -1.98047387312470
C            4.39278284321149       -0.85634037405597       -1.24349986655833
C            2.91090372273097       -0.89610229713145        2.17006226882681
C            2.06409184028684       -0.83248846288419        3.27104105251044
C            2.57856913821181       -0.93335236398296        4.55109098981761
C            3.94305733585400       -1.09184128432398        4.73564880236239
C            4.79105418565825       -1.14891946457217        3.64036445484680
C            4.28014824860505       -1.05500999085491        2.35791930948115
C           -1.44440196540393       -2.96199190769261        1.09003579079459
C           -2.56425579884937       -1.97529134230359        1.41784594795569
P           -2.30828874261529       -0.58493387601750        0.23331431969918
C           -3.58467779052717        0.63310298632769        0.67923258248490
C           -3.69179339097319        1.04336555357012        2.00599541035063
C           -4.60552500504031        2.01705696730793        2.36338877933134
C           -5.40677372683638        2.60562721419526        1.39729866960023
C           -5.27799361280709        2.22948695055927        0.07030588628181
C           -4.36679824535995        1.25297456566917       -0.29134136292351
C           -2.97087635760396       -1.34823012485213       -1.28652060055497
C           -2.09892880694392       -1.56777665795649       -2.34620544451568
C           -2.53912557541084       -2.20484191434917       -3.49351173276252
C           -3.85548220011427       -2.62651110617695       -3.58546032085716
C           -4.73053302316211       -2.41071126832313       -2.53093169516220
C           -4.29283750199299       -1.77613651460307       -1.38313566574911
H            1.16204067591756       -3.40872506384546        1.90578337906493
H            0.61129669510104       -4.17013152393122        0.39648277178139
H            2.02750331928334       -2.77170879155399       -0.95455348722714
H            3.05669649442738       -3.17949095329589        0.45840889883681
H            2.75469164085579        1.80121269655649        0.05306142301548
H            4.49173469539664        3.00223842473996       -1.25802997510878
H            6.14636562004446        1.71482986582530       -2.56263768698840
H            6.07726481547065       -0.74775033460012       -2.55595661650026
H            4.37077992991517       -1.93723964664306       -1.24917590791296
H            1.00055559453286       -0.68621608771055        3.09793086587629
H            1.91920685114230       -0.88451168516558        5.40614113096084
H            4.34835581781556       -1.16676773436937        5.73455352890006
H            5.85528414986836       -1.26739774772570        3.78733870115056
H            4.94272766733058       -1.09736710851588        1.50361354711543
H           -1.75299127612558       -3.59271064722274        0.23430186515831
H           -1.28498268698214       -3.64002983673107        1.94809851247523
H           -3.55441446327652       -2.43248301187406        1.33589073169320
H           -2.42373231612797       -1.58087500641521        2.43013677873358
H           -3.04146709909931        0.60863934592586        2.75338804895009
H           -4.68960927488788        2.32482048342983        3.39588779185421
H           -6.12063138542311        3.36691536497628        1.67660273163351
H           -5.88632094335802        2.70225526277246       -0.68765566910864
H           -4.25857131365781        0.97247030263368       -1.33068010368275
H           -1.06828885862083       -1.22901168730550       -2.25547570644718
H           -1.85749334590227       -2.37171342824026       -4.31569355620382
H           -4.20218079933349       -3.12367445204959       -4.47995713018735
H           -5.75720831741639       -2.73998876695960       -2.60588505091051
H           -4.97674338477645       -1.60011338187571       -0.56274756874359
C            0.10503510111564        0.90226964491492       -0.97273437933670
O            0.25091974714655        1.58371902187873       -1.90552314965052
H           -0.07542798550137        0.77207738272286        1.39552888295740
