51
 energy: -81.949380895437 gnorm: 0.000195604942 xtb: 6.7.1 (edcfbbe)
Ru           0.05973388894530       -0.12509477781894        0.06887939087196
C            2.31442054646189       -2.30588360954858       -0.09143549246868
P            2.27894258875624       -0.49595022371914        0.36429875053567
C            3.63912080751924        0.14071928446085       -0.67118894980185
C            4.89541977787909       -0.45973126720709       -0.68141115462013
C            5.89395927949901        0.04734033891870       -1.49205890150748
C            5.64869977428542        1.15672346342955       -2.28776212412326
C            4.40462599065820        1.76592019510552       -2.26803447069777
C            3.40056657982293        1.25958541459834       -1.46009387631884
C            3.07831813797300       -0.50230304065799        2.00320701147307
C            2.80932770649404       -1.51135773628584        2.92306729714082
C            3.37998331597618       -1.47322590608621        4.18253852823327
C            4.21083373717922       -0.42276149552278        4.53823364498289
C            4.46002420106871        0.59873537595516        3.63547481058521
C            3.89324161753201        0.56358907226053        2.37434531510277
C            0.99002530910106       -2.91440483947232        0.26001337312806
C            0.86850135446366       -4.25710354839733        0.56060774502815
C           -0.39083829476581       -4.79061810820721        0.83452481541836
C           -1.48774433891889       -3.95919939323016        0.76953988360097
C           -1.30948088865350       -2.60722509238613        0.46073887272448
C           -2.38630685515642       -1.64500903492477        0.30792300703535
C           -3.74246007033115       -1.95929908576441        0.42876333601737
C           -4.69032381956491       -0.98390651304759        0.19843371999368
C           -4.26894518955891        0.28292918458699       -0.18176278145338
C           -2.90518506735672        0.53384909718938       -0.28454151215832
O           -2.42261049042718        1.71994317026854       -0.68853231548190
N           -1.97594253379108       -0.38953341780682       -0.01446784930024
N           -0.07478984908681       -2.09133136822012        0.23868787271235
H            3.14908511272929       -2.85307888676256        0.35472695485551
H            2.43015095630384       -2.32226845574895       -1.18519823880671
H            5.08936973232643       -1.31504671307845       -0.04831423391361
H            6.86782959459291       -0.42076288261745       -1.50368113602106
H            6.43216934731141        1.54905313599364       -2.91983452866330
H            4.21682468723635        2.63534796514039       -2.88137411094083
H            2.41984138500986        1.72132157271082       -1.42046779175707
H            2.14289281624059       -2.32230553850067        2.65741876526461
H            3.17300784428532       -2.26288814163657        4.89104767996853
H            4.65556166093848       -0.39585095903019        5.52241787484108
H            5.09561592310814        1.42601182588887        3.91686780315176
H            4.07477633529248        1.36310310201399        1.66793964809468
H            1.74642933443510       -4.88487834798097        0.58034148638111
H           -0.50070113676556       -5.83452194270070        1.08260030222696
H           -2.47459226434513       -4.34667512424422        0.96240926427760
H           -4.04609571126785       -2.95573335618406        0.70235921757858
H           -5.74202120226884       -1.20172488754361        0.29754788072254
H           -4.97958926916126        1.06739657716852       -0.39378586309062
H           -3.13406873765366        2.36681628385850       -0.80485723329019
C            0.23911131844524       -0.00137579059454       -1.76794709841209
O            0.34924411279404        0.06860403074836       -2.91859396274516
H           -0.09444053496641       -0.02515069179783        1.64186776765240
H            0.06569231412528        1.43302708171091        0.14913374014785
