57
 energy: -76.459827104881 gnorm: 0.000362867236 xtb: 6.7.1 (edcfbbe)
Mn           0.22719076935261       -0.05286896450255        0.00021940625607
C            2.37591518525466       -2.17366108944668        0.67906386816971
P            2.41940492796636       -0.53280729734656       -0.18364410530626
C            3.22922073386565       -1.01247164581150       -1.80481663735009
C            3.37583022656904        0.21296907082931       -2.70419099278520
C            2.44034257448278       -2.10489668953910       -2.52236706410245
C            3.87554860125937        0.32106073527803        0.63445796977472
C            3.40123337063459        1.17829873375347        1.80435274461797
C            5.01053359001463       -0.60456718519405        1.07066927146257
C            1.05390085819099       -2.80312952053059        0.36393190698980
C            0.89018560522126       -4.17699267412678        0.42427107896543
C           -0.35119133924095       -4.73597936842878        0.15743338704971
C           -1.39033462229021       -3.87658945168065       -0.16330132243889
C           -1.15310601223675       -2.51353533863546       -0.22172782192939
C           -2.24232802528641       -1.55455865537686       -0.61484217860846
N           -2.13558635859316       -0.29643534393037        0.14122327240214
C           -2.65212614651505       -0.54048853754533        1.50396560760899
C           -2.68673594279263        0.70062115692319        2.38837008917553
C           -2.89854239535389        0.77694875229659       -0.53182598276441
C           -4.40804775954154        0.55895492225832       -0.67163326704268
N            0.04972823643173       -1.96818908488413        0.03180382373942
H            3.21484044473173       -2.82687795394521        0.42544123070583
H            2.41783027176766       -1.94776317974509        1.75233260202634
H            4.22677456890908       -1.40327324222871       -1.56320994169291
H            3.80249503347169       -0.07406616612688       -3.66465028971124
H            4.02324838169370        0.96379714256082       -2.25690862694246
H            2.40481780781346        0.67100287951248       -2.88096205284865
H            2.90971435139268       -2.33353610048810       -3.47905900592943
H            1.42204056810072       -1.77453803411326       -2.72202166275515
H            2.39777693081271       -3.02444957704681       -1.94039183255547
H            4.24957473327223        1.00202821413017       -0.14077447545035
H            2.54874983386424        1.78549275767961        1.49575440812524
H            4.20133767528125        1.83635208945891        2.13999711851137
H            3.09777437066715        0.55881757937277        2.64633816155094
H            4.71093557498377       -1.21754499670483        1.91806515578763
H            5.86181332746800       -0.00093723620677        1.38255827869985
H            5.34235102931850       -1.25801744226288        0.26688277342880
H            1.73152550966628       -4.80158793172205        0.68596729662734
H           -0.50332526298921       -5.80285315248495        0.20321437174730
H           -2.37843712421041       -4.25670948823156       -0.37533463200789
H           -2.12991745363117       -1.32673315226031       -1.68372312789236
H           -3.22361911694729       -2.03332152589065       -0.47168223189929
H           -3.66319291121420       -0.97395452905227        1.44703773854820
H           -2.00869379974177       -1.29348794078915        1.97260192511295
H           -3.53148405782272        1.34195974670553        2.15013828040537
H           -2.77307446739713        0.39764400771653        3.42961672285990
H           -1.76833708445051        1.27318562821059        2.26925264181330
H           -2.71209600959988        1.70281675215785        0.01432914333520
H           -2.47607384383653        0.90728748062180       -1.53162443050387
H           -4.90597859813014        0.49868037371366        0.29264271577244
H           -4.63636489830126       -0.33807324819318       -1.24329229123054
H           -4.82375041038362        1.40899829935505       -1.20764781831543
C            0.00616266442228        0.19383931522021       -1.74521231729297
O           -0.17386804658623        0.41658621990264       -2.87182351479356
C            0.41483384360755       -0.02904220938784        1.76226866066795
O            0.56185777127614       -0.06986981462347        2.91258114937720
H            0.18326091864813        1.50953453244462        0.05486359635856
