48
 energy: -70.193404548681 gnorm: 0.000200190241 xtb: 6.7.1 (edcfbbe)
Fe           0.05348553606406       -0.45943857199653       -0.82526774199377
C            2.20919781946947       -2.57392759271267       -1.32796216444078
P            2.16416671417383       -0.72477239116149       -1.12491501347456
C            3.34107702120736       -0.45008250376243        0.28236146076816
C            3.34403185330331        1.03801735300316        0.62106684345173
C            2.90502079104927       -1.27080857383961        1.49252907064978
C            2.97184323111889       -0.11700407114139       -2.69132158180140
C            4.47952240568942       -0.32494000646623       -2.76384146220247
C            2.56550855851048        1.34077316663523       -2.91199120695475
C            1.04724102556611       -3.13373292304823       -0.56762159388955
C            0.99611312693846       -4.43898012023219       -0.11449116697293
C           -0.13933909754728       -4.89855557190231        0.54190485784829
C           -1.20379941071444       -4.03784700225667        0.72888549000453
C           -1.10440491467122       -2.73199188092585        0.26765369965699
C           -2.09769538493702       -1.68856224728965        0.40000529696349
C           -3.35294790424446       -1.68510882562967        1.00012608706681
C           -4.07002377018265       -0.50012197634707        1.02563008058751
C           -3.54790191588518        0.67243541168061        0.47739636951264
C           -2.30252342979235        0.59453388365196       -0.10827987891673
O           -1.55211189153539        1.54870713837820       -0.69589437994069
N           -1.63111753269888       -0.55400898984730       -0.15347796470303
N            0.01622980451361       -2.28944248548193       -0.37319975854371
H            3.15719022410123       -3.02107921653739       -1.01469925231824
H            2.06488533197166       -2.78765106505098       -2.39531134045898
H            4.33823919242288       -0.77541185760463       -0.04324489267016
H            3.92625994850639        1.21994512935038        1.52299658699122
H            3.77499460835896        1.63219243408367       -0.18194608545648
H            2.32159788878379        1.37135454319301        0.79717877699085
H            2.98107747011093       -2.34100859468348        1.31245590963615
H            3.53905188085673       -1.02794583711107        2.34374243142626
H            1.87694781710275       -1.03209958314372        1.75603296626535
H            2.48862392299184       -0.72243130872090       -3.47339850167998
H            4.74281085373459       -1.36207919939463       -2.56416659769491
H            4.83593308849579       -0.07207607806069       -3.76145763653279
H            4.99954290966742        0.31403556216056       -2.05375958728578
H            1.49990374393779        1.47165539827738       -2.69384978085422
H            3.13143666986802        2.01131287958824       -2.26982362738004
H            2.74784972272836        1.63403210804146       -3.94464042826989
H            1.83824624783904       -5.09357017593113       -0.27855978878223
H           -0.18635635418523       -5.91541060402756        0.89902160265996
H           -2.10088331219983       -4.36097443082518        1.23154721448506
H           -3.75440678101432       -2.58120795923835        1.44328456920156
H           -5.04416209659405       -0.47456460499807        1.48878159054863
H           -4.09609311124142        1.60061732435159        0.52022985627979
H           -1.93922420547846        2.43263446835719       -0.61596261172965
C           -0.34139220682735       -0.83381526405489       -2.49668489443055
O           -0.64950966844169       -1.14845041904185       -3.55018472637865
H            0.44006591922351       -0.12615291051372        0.49053381891856
