61
 energy: -71.685414743144 gnorm: 0.000615581128 xtb: 6.7.1 (edcfbbe)
Ru          -0.02296145937564       -0.31856230433390       -0.46074291805605
N            0.05467309228630       -2.31563642450235        0.53925194062039
C            1.37799736138993       -2.95518727310696        0.54668720677000
C            2.49580394551589       -1.94285717994253        0.78057308522416
P            2.24849499797458       -0.43763565726662       -0.30806210311331
C            3.36452429250060       -0.77941021849489       -1.78577022024893
C            2.94812851070897        0.15747120007981       -2.91955482284763
C            3.28041452433666       -2.21905113614249       -2.28559983696966
C            3.37277880139069        0.73358663684643        0.64492107688268
C            2.81180682170004        1.10097582435343        2.01572294866271
C            3.61019121103009        2.02139251992834       -0.14111117232463
C           -0.59606411888845       -2.20615221354737        1.84820340869752
C           -2.05278342360347       -1.78350585763911        1.64513107954282
P           -2.17836185697958       -0.50625655614946        0.26124859280881
C           -3.48454804126654       -1.38739991961477       -0.77690103444044
C           -3.62978748737997       -0.75744008591683       -2.16074643688137
C           -4.84556829656406       -1.57869168818231       -0.11226274418386
C           -3.13989509946674        0.86835989202057        1.08460388868036
C           -2.30610544794780        1.54087874750017        2.16931801563903
C           -3.51748359387132        1.89952166539273        0.02270792434546
H           -0.55943524529440       -2.90986589577167       -0.02404675171676
H            1.52316300193695       -3.43108402143541       -0.42834063114214
H            1.41621294364998       -3.74243245111317        1.31642916213461
H            3.47447572534299       -2.39981181160806        0.61516723149284
H            2.45373383991367       -1.59642662448311        1.81535533695962
H            4.39865400263653       -0.56477263301281       -1.48581828877431
H            3.65527975449498        0.09903325960625       -3.74678471348369
H            2.87799732496668        1.19031706197667       -2.58873052206175
H            1.96284503251366       -0.12750206437158       -3.28581722578053
H            3.85624828486664       -2.31867318155880       -3.20576343484639
H            3.67706924227442       -2.93288186347114       -1.56651855205961
H            2.24711426180790       -2.47733663329985       -2.51563027920489
H            4.32465691801342        0.19761825291822        0.77878567447373
H            1.85750656957428        1.60936518201639        1.89579341401868
H            3.50186940372954        1.77224087106396        2.52593133225698
H            2.66266333201007        0.23385676997582        2.65540705479248
H            4.10701652595579        2.75804148202620        0.48980284789941
H            4.23678467219925        1.85506249919439       -1.01380782544984
H            2.65113366138707        2.43211678791768       -0.45912034512777
H           -0.55987376935654       -3.17048020966799        2.38291014113033
H           -0.06125449914639       -1.45870646988644        2.44083342820768
H           -2.64037432195034       -2.66228004995990        1.35948694575266
H           -2.46591710938182       -1.38563599281487        2.57401975251438
H           -3.02487429826516       -2.38012059270602       -0.92400404454646
H           -2.67036602233965       -0.36248274058650       -2.49844266235529
H           -4.34698595844912        0.05882081853840       -2.15494207776646
H           -3.97262507237144       -1.49833198414428       -2.88263741057564
H           -5.43974688276134       -2.28203230588448       -0.69541624850201
H           -5.39029768259184       -0.63860171476200       -0.06990071559466
H           -4.75415491742329       -1.96976364568044        0.89960258945329
H           -4.03880559422066        0.43169529961547        1.53896099034697
H           -1.43274010096004        2.00541215182934        1.71584180904842
H           -1.96547412289557        0.83041174587382        2.92063189673509
H           -2.89479384798964        2.31079640511946        2.66717944558665
H           -3.84655219850123        2.82614878697742        0.49126036991851
H           -4.31861620878773        1.54465561091272       -0.62023315206930
H           -2.64200163327367        2.11308232833986       -0.59431018278069
C           -0.20128114566145       -1.10177601125400       -2.10847428346849
O           -0.31955418175076       -1.66518935226058       -3.12367366651844
H            0.12898684724046        0.37069915504234        0.93390127372627
H           -0.10888860009249        1.11985550892864       -1.08693694159466
