64
 energy: -92.258563536997 gnorm: 0.000088394355 xtb: 6.7.1 (edcfbbe)
Fe           0.24246489017879       -0.79814763425469       -0.91270135490413
N           -0.13741908382448       -2.83662259795435       -0.48230942232904
C            0.81131710085937       -3.30693301412883        0.55211261795504
C            2.24910408664069       -3.02997104322800        0.13059742086773
P            2.29377644363389       -1.31479742369288       -0.55892159175238
C            3.66505941390640       -1.41100530765029       -1.75232436172846
C            3.44290801254313       -2.17241789594007       -2.89795513083891
C            4.43390320910322       -2.29618899833176       -3.85185328883446
C            5.64913599485029       -1.65177354887181       -3.67070373421818
C            5.86685561183570       -0.88199953042029       -2.53985121131795
C            4.87731515487243       -0.75356646831310       -1.57962491308196
C            2.84565221077524       -0.11850862501932        0.68350926755115
C            3.74472679887524       -0.32495746331135        1.71964118567195
C            4.00260819881275        0.70799888257580        2.60785792939015
C            3.37148447719309        1.93211476136081        2.46016265486879
C            2.47301207835536        2.14244650427416        1.42126509987424
C            2.21233530493051        1.11740368086546        0.53603740861229
C           -1.52993328591954       -3.04676172186760       -0.03074096769584
C           -2.49272175935422       -2.26133553695164       -0.91283077785178
P           -1.88345539711727       -0.51814686112310       -0.81999248507529
C           -2.70650272549926        0.14592886988858        0.66343615070397
C           -1.95635028578509        0.60499427345995        1.73878683303569
C           -2.59592849984302        1.11213076158673        2.85713817620742
C           -3.97913344799370        1.16595839357909        2.90183884543258
C           -4.72907519010941        0.71762062221365        1.82398924697064
C           -4.09843858745111        0.21290602667077        0.70304071341840
C           -2.72279737826044        0.39096975034127       -2.14949942027018
C           -3.85163406891777       -0.03593449296017       -2.83725667193440
C           -4.38623705486797        0.76554743818764       -3.83213578490849
C           -3.80271235051972        1.98376893651652       -4.14041067105961
C           -2.67214334847710        2.41000967793263       -3.45870229173626
C           -2.13237677764525        1.61287862870672       -2.46850588338339
H            0.00677869809001       -3.41120726822196       -1.32030401436834
H            0.58728423034664       -2.75348800370513        1.46631797647615
H            0.66327142084132       -4.37707619453635        0.73663345174441
H            2.56625644768431       -3.71018701638788       -0.66886766573346
H            2.93791255846175       -3.14022958374739        0.97236851902237
H            2.48441637229173       -2.65741107450199       -3.03806895107731
H            4.26247298613855       -2.88797255273878       -4.73903953931282
H            6.42449287071761       -1.74540466621245       -4.41664832004993
H            6.81178068350339       -0.37621402631095       -2.40518727395392
H            5.04969373062394       -0.14675581983145       -0.70204382796969
H            4.23878879343071       -1.27953205003113        1.83487050829413
H            4.69628020878441        0.55464602021981        3.42159319558290
H            3.57472034088911        2.72924450513510        3.15995122973651
H            1.98151988633181        3.09840534883150        1.31614298095161
H            1.49024285883415        1.24391700393352       -0.29054442740570
H           -1.60211975357143       -2.66581340707776        0.99331251353417
H           -1.77041958452129       -4.11557605000923       -0.02995225772502
H           -2.43750004946659       -2.59463721065360       -1.95544878222882
H           -3.51986967011692       -2.35604535608868       -0.54946082348020
H           -0.87804279426931        0.55560419376077        1.69953106656770
H           -2.01410591361319        1.46777082114579        3.69490024852067
H           -4.47717744048147        1.56219850968116        3.77475153632130
H           -5.80779787365494        0.76657857042910        1.85840701627585
H           -4.68268738603281       -0.12088864409897       -0.14379433067742
H           -4.31033990401558       -0.98683190032671       -2.60805905165376
H           -5.26274393320451        0.43708414795742       -4.37161376399769
H           -4.22640953435465        2.60172742885201       -4.91832547809551
H           -2.21597349063516        3.35742624159709       -3.70606390830230
H           -1.23876910721660        1.91822397663953       -1.92716143447457
C            0.21814495088406       -0.87496951902425       -2.66422685485364
O            0.18962300264026       -0.85323945327484       -3.80904705742463
H            0.24831907233546       -0.68985318640029        0.49165407211272
