48
 energy: -70.193373510386 gnorm: 0.000319253245 xtb: 6.7.1 (edcfbbe)
Fe           0.06915205382671       -0.32643779439893       -0.29874643217225
C            2.41754851591957       -2.26472411511496       -0.31561081645977
P            2.21155172087477       -0.43951120206442       -0.01440478525256
C            2.85478094157200       -0.19991833141114        1.71114375567857
C            2.24004048874854       -1.20672023087495        2.67681051858956
C            2.50905260258894        1.22630135324160        2.13306072755510
C            3.55503010992133        0.33095874259758       -1.05933473750987
C            2.99799279466008        0.62719675629959       -2.44900600249364
C            4.83268839778538       -0.50139842897627       -1.13350608515471
C            1.14944670994483       -2.94374995623019        0.08908767704289
C            1.08113225124948       -4.27506946767360        0.45732389359581
C           -0.14797378323450       -4.84149564640939        0.77164930117546
C           -1.28633076513872       -4.05998743827425        0.71147819386507
C           -1.16851103216591       -2.72498797773428        0.35036866592782
C           -2.23098632294836       -1.74632021114180        0.27556178439374
C           -3.59294823182243       -1.83871967037833        0.54300250156826
C           -4.36308008435974       -0.69078150594949        0.45187900036421
C           -3.79291824879102        0.53844110863580        0.11611864706071
C           -2.43973371070395        0.55546146758243       -0.14360881859406
O           -1.62107691963781        1.57708138811465       -0.46747076191966
N           -1.71246272902983       -0.55805804032654       -0.08474317167621
N            0.04354954564012       -2.17904723609841        0.04200997768460
H            3.29265154872926       -2.68858338822571        0.18443835253840
H            2.54315354745090       -2.38862861125768       -1.39946125978736
H            3.94571775884980       -0.32581056469006        1.68580925107649
H            2.52659166833055       -0.95592303890092        3.69688318055160
H            1.15443376470390       -1.17088357798311        2.61237216786874
H            2.57242785092545       -2.22273975917526        2.47468921705318
H            1.42742064862809        1.35044770211979        2.13461648698339
H            2.88217291743001        1.42694829467312        3.13592279592111
H            2.94195930950978        1.96252699690779        1.45633596859350
H            3.78359955943009        1.28518765645229       -0.56570174106813
H            2.74670697774587       -0.29399963702377       -2.97219146032533
H            3.73568427927296        1.16104821627437       -3.04612107831816
H            2.09996161999273        1.24208044594070       -2.37756659327607
H            5.17420399103202       -0.80768950328483       -0.14710107584410
H            4.69099184977562       -1.38832796769468       -1.74634333527101
H            5.62385546316835        0.09251293338930       -1.58907293926606
H            1.98350984755968       -4.86570596888602        0.49300750710149
H           -0.21017732782474       -5.87942636532871        1.05921195300540
H           -2.25617123424271       -4.46671370295282        0.94773702172185
H           -4.03635762657738       -2.77905988304319        0.82528887104299
H           -5.42089864803002       -0.73902362891621        0.65872567037976
H           -4.38914940677378        1.43648373630434        0.07299409593138
H           -2.06461469240231        2.43735534773325       -0.44171623266344
C            0.06191853036471       -0.64370529138273       -2.03090557836099
O           -0.07799055492517       -0.97865820242295       -3.11273534452230
H            0.08450052215017       -0.08334546020166        1.08759855690335
