62
 energy: -76.968514553327 gnorm: 0.000115438292 xtb: 6.7.1 (edcfbbe)
Mn          -0.09340754363848       -0.09895333600758        0.10359757023551
N            0.04533863175741       -2.35361251978163        0.07851812426129
C            1.41144491779890       -2.86510626325234        0.00758271808989
C            2.30165830899189       -2.08647590921605        0.96569213728453
P            2.14668854902308       -0.28420865873518        0.52238141303514
C            2.84361691780283        0.48193166362154        2.08323579192362
C            4.26019184455196        0.06268778103795        2.46989482027819
C            2.72309842212583        2.00238940852239        1.99301608985648
C            3.56447844874570        0.06171570953147       -0.68020212055881
C            3.02429310500015        0.52170321997172       -2.03086572067446
C            4.57525699308728       -1.06602533111951       -0.87585236860904
C           -0.81389538054200       -2.95460550407030       -0.94026502217965
C           -2.25173671494800       -2.45933275777537       -0.79900233797357
P           -2.25752107648443       -0.67562029027570       -0.22118525414321
C           -3.23066343287994        0.08222209414146       -1.63659310885588
C           -3.12996705347104        1.60617259479266       -1.64362286165111
C           -4.68244539257725       -0.37277711070003       -1.77099285739742
C           -3.53160178720042       -0.80352605669082        1.15085739123959
C           -3.85188089932153        0.59774990875829        1.66520054293678
C           -3.05556554692018       -1.68098956822894        2.30817438168799
H           -0.33680516461827       -2.60890881495651        0.99388983648546
H            1.44433714632198       -3.94471083024847        0.23202684593543
H            1.77024296921580       -2.72324384115708       -1.01940816493511
H            1.92781884807512       -2.18784192848434        1.99191368444213
H            3.32673897529660       -2.45305745056724        0.92893043308856
H            2.16113540228640        0.13695478474093        2.87180561947821
H            4.50682316423879        0.50475979670653        3.43490774511816
H            4.34836613044823       -1.01732718429945        2.56604604149599
H            4.99366617309053        0.41549779245267        1.74902498314343
H            1.72020163276554        2.27384553840960        1.65861041213143
H            2.90326915635018        2.45628891323108        2.96627970482184
H            3.44167370340173        2.41518728599665        1.28692478901605
H            4.08018647698096        0.92109809356043       -0.23428469500628
H            2.26573443759484        1.29185540895747       -1.88873473276335
H            2.57986516989854       -0.30760405470330       -2.57838207911018
H            3.82893447890469        0.93439359076039       -2.63883347746697
H            5.35445452953169       -0.72434445722516       -1.55712529926809
H            4.10790060786389       -1.94230889801430       -1.32191935440140
H            5.05452206905297       -1.35463486246909        0.05652344403907
H           -0.41794682148364       -2.67154596638933       -1.92214157699589
H           -0.78498602121281       -4.05590290786121       -0.87733856313947
H           -2.79440322610204       -3.07122462016802       -0.07433246012640
H           -2.76323080725249       -2.54021109263903       -1.76041813581546
H           -2.67042029712063       -0.28412946141089       -2.51093502831684
H           -3.78277909763453        2.05346358850853       -0.89883759481942
H           -3.41201366968136        1.99472799664849       -2.62123416633077
H           -2.10536579915591        1.91141373150924       -1.42570908781976
H           -5.30691465456862        0.07338071737745       -1.00058833150237
H           -5.06762456536244       -0.04996719054941       -2.73771929126152
H           -4.78042697407017       -1.45585836470841       -1.71530404991818
H           -4.42837902977151       -1.26396176646578        0.71673481138925
H           -2.92630263049950        1.15261245535545        1.82748992277196
H           -4.39364154564289        0.54355523805193        2.60894149375699
H           -4.46170346304442        1.15270868731740        0.95755163710689
H           -3.85813487296434       -1.78466190395599        3.03834365104079
H           -2.20739366745766       -1.22653229315295        2.81272711269846
H           -2.77552130776943       -2.68341703948502        1.98558717568111
C           -0.01459566386756       -0.05042790084098       -1.66382253067135
O           -0.07294427019187       -0.00424618201563       -2.82379899858797
C           -0.27775888108879        0.12694879804026        1.84611231919395
O           -0.36852243707696        0.36196916849663        2.98357483785278
H           -0.18230181888077        1.47284736245043        0.04053621320031
