54
 energy: -69.977997496958 gnorm: 0.000198166117 xtb: 6.7.1 (edcfbbe)
Fe           0.03286601823457       -0.20440430428399       -0.97220710082286
C            2.20297606075579       -2.18640172200187       -0.11198936200723
P            2.19251626494387       -0.53344390957112       -0.72881025561325
C            2.84661642965362        0.52453530651940        0.70283740686536
C            2.74885884896075        2.01148239143716        0.37390481164062
C            4.24593057443353        0.13507747342932        1.16961225981547
C            3.56919465956121       -0.32667572844024       -1.99412460449498
C            2.95272947060685       -0.12678694368729       -3.37473912331039
C            4.54002640192142       -1.50341637105557       -2.00494132935895
C            0.95567256507750       -2.75442949243170        0.03438939232850
C            0.73508853081045       -4.07148943890853        0.54374207094270
C           -0.52516754999711       -4.57452690039746        0.63434515883324
C           -1.61958596749642       -3.79807675355456        0.20720815603842
C           -1.36403322317824       -2.53712323145987       -0.27805840748847
C           -2.44490840521649       -1.64516163602881       -0.83432978805984
N           -2.07053912630054       -0.23780974593101       -0.62545934737579
C           -2.17539215699384        0.10594001099828        0.80847574471933
C           -1.02723232090354        1.02054821953290        1.22662364477586
C           -2.84769517763742        0.68013508095300       -1.47514386694058
C           -4.36868493319223        0.53650101719033       -1.40202190715666
N           -0.13919931710604       -2.00523161656066       -0.33022699737224
H            3.09947287486593       -2.74318802391969        0.10998131931403
H            2.15044273286093        0.29794424032637        1.52635146423079
H            3.52307407739328        2.30321338569349       -0.33296251046302
H            1.78191994485938        2.22870976450967       -0.07732931446113
H            2.86970120381358        2.61436538978853        1.27402868788234
H            4.49685776782714        0.67765887537778        2.08188845408789
H            4.99516303271329        0.37768696163949        0.41919523264356
H            4.29528074945416       -0.93080887527200        1.38390035663760
H            4.11073158687546        0.58871613121560       -1.72852484045386
H            2.21443306097032        0.67170222071197       -3.34038317619378
H            2.45472626815839       -1.03810393820995       -3.69952358687733
H            3.72023696309768        0.12602914932176       -4.10661345986240
H            5.02133724012493       -1.63387521853816       -1.03838209921431
H            5.31534978516156       -1.33814461283539       -2.75359839056708
H            4.01223228623245       -2.42193002228700       -2.25607433042662
H            1.59534034488391       -4.65032442980620        0.84673083023549
H           -0.69686019728859       -5.57022984757085        1.02052232054961
H           -2.62484265747105       -4.18737330608550        0.23695595514589
H           -3.41548644707557       -1.87896852681901       -0.37853101132839
H           -2.51064987020653       -1.82061582824534       -1.91333756551931
H           -3.13685961349150        0.58291161527642        1.02906806261925
H           -2.11641728890246       -0.81887348651070        1.39085206076068
H           -1.05752612736702        1.19556111632120        2.30072843112829
H           -1.07882300476159        1.97898393141939        0.71369143803182
H           -0.05529989943849        0.54378151979751        0.99378067343438
H           -2.52047074313760        0.52062120918278       -2.50474253365552
H           -2.55537941603196        1.69419560976951       -1.19837581392154
H           -4.69723234913600       -0.41604122440714       -1.81017901640578
H           -4.82036471374045        1.32852510319677       -1.99427078259668
H           -4.74187336841981        0.62594628872779       -0.38419074734886
C           -0.06696965657768       -0.63044967999216       -2.64383088649801
O           -0.23644037694614       -0.84754487085734       -3.76639823894075
H            0.12104918710917        1.16587425317092       -1.46830522319933
