61
 energy: -71.684653113424 gnorm: 0.000950241304 xtb: 6.7.1 (edcfbbe)
Ru           0.14045193035748       -0.12879260998710       -0.43604393485882
N            0.07219441919306       -2.27356276332626        0.12642632912840
C            0.46568293287395       -2.41772751276255        1.53180955787825
C            1.85727903548399       -1.80137786065608        1.75333781636921
P            2.20294092557222       -0.45835201739048        0.48027803201089
C            3.09160954180771        0.86529015041015        1.45259759373042
C            3.68886225146030        1.85158676747558        0.44742897078071
C            2.11872918422649        1.60545881539101        2.36238370589903
C            3.67041194234712       -1.22643726967318       -0.43646408877092
C            4.91292293553649       -1.49220023330343        0.41445995670857
C            3.26035640463196       -2.50438384436609       -1.16958878856980
C           -1.16992214638870       -2.95355903262295       -0.25893649382213
C           -2.39688788392255       -2.10069528003139        0.04796977444687
P           -2.12113035931865       -0.36432409729460       -0.60309901291282
C           -2.90150192297377       -0.49380956914133       -2.30971281033712
C           -4.40633994516894       -0.73645778347523       -2.37769912797585
C           -2.51239249435999        0.71699429172030       -3.15875649710148
C           -3.39783290053384        0.57589199034688        0.39746044272522
C           -3.21272180997795        2.05811601152931        0.08298888933441
C           -3.25573220823527        0.34773682190094        1.90112133924015
H            0.82335714772805       -2.70749506820772       -0.41233328187434
H            0.47774709424777       -3.48207433662653        1.82071244791633
H           -0.27528070320441       -1.90279381122689        2.14936458371760
H            1.91455683827575       -1.35648711294327        2.74901309505539
H            2.62418357443393       -2.57738496738609        1.68967295269981
H            3.87637725725952        0.40208935540722        2.06365034486128
H            4.53189268204934        1.43106618270090       -0.09673659489833
H            4.03134249650091        2.75187704680072        0.95564233250481
H            2.91588716595132        2.13340211234526       -0.27165805382815
H            1.33051510435648        2.05086783334203        1.75675839649288
H            1.65694668580721        0.93842924741884        3.08796359836799
H            2.63947609524626        2.39465532034497        2.90356517866334
H            3.91411015076806       -0.48170481678378       -1.20586847497973
H            4.68059696579304       -2.09117330685675        1.29312567169171
H            5.64471776423378       -2.04155976557682       -0.17775638720116
H            5.38273485039757       -0.56990047605281        0.74335397571153
H            3.01468735157350       -3.30781826308812       -0.47369052292456
H            4.08349035395548       -2.85474621687426       -1.79251154538029
H            2.41425709924741       -2.31711564926717       -1.83107431809713
H           -1.12453661409108       -3.13497431826677       -1.33984975015118
H           -1.24902696462978       -3.92968227885230        0.24652500452115
H           -3.29058556979248       -2.55847086813904       -0.38223123243348
H           -2.52638228713053       -2.03436532843284        1.12905571970405
H           -2.38305508995808       -1.37202251303673       -2.72781760348725
H           -4.95595512088784        0.15916047956726       -2.09604183428514
H           -4.68365605218742       -0.98704038750381       -3.40139389488894
H           -4.72065675138317       -1.55566964478021       -1.73377388321511
H           -3.19937384531395        1.54521675691694       -2.99879963838326
H           -1.50661916012168        1.05320500233328       -2.89589610192034
H           -2.53029125212173        0.46719375708264       -4.21897544853135
H           -4.39343464864763        0.24200794160681        0.08251884883914
H           -2.17656970669215        2.33576874839583        0.28113349567529
H           -3.87004038089112        2.66984331553491        0.70022300981715
H           -3.42611407708135        2.27173916537878       -0.96134541116068
H           -2.21039484335302        0.43709109233386        2.19407207816386
H           -3.82352368874550        1.10411323011008        2.44110684235453
H           -3.63564307029936       -0.62557419665366        2.20592647476550
C            0.53000752191686       -0.49314616103273       -2.19037796572175
O            0.77947572982078       -0.74579494630809       -3.30134621516974
H           -0.19787778730546        0.25845422902077        1.04523734519667
H            0.23652121950796        1.40852229499665       -0.73278726860146
