56
 energy: -80.893859940967 gnorm: 0.000269883156 xtb: 6.7.1 (edcfbbe)
Ru           0.01366795470284       -0.07750333662142        0.00052986048073
C            1.97650039043273       -2.24363858427247        1.13426475188189
P            2.04842112633777       -0.49163141063128        0.96462515602746
C            2.44508348778910        0.14502769522082        2.63376190335371
C            3.60420886382972       -0.27967423777093        3.27766985629589
C            3.86299362713637        0.12120950380291        4.57475710123468
C            2.96783328640743        0.94614155777505        5.23998847794774
C            1.81443499043290        1.37411984837441        4.60337846886238
C            1.55280219075623        0.97155270480991        3.30516784772271
C            3.58794881509944       -0.08968671715943        0.07650246717859
C            4.06985833913423       -0.97391170408281       -0.88249804929361
C            5.19950697653843       -0.65731152538159       -1.61460004588831
C            5.84974199542715        0.54703869268975       -1.39751261439163
C            5.36551149278030        1.43744579450512       -0.45150111083677
C            4.23589206024374        1.12453820585235        0.28166991967941
C            0.79866901554222       -2.85954945044310        0.75784948942600
C            0.54999017638563       -4.25954855093214        0.90881835827462
C           -0.65308009974462       -4.78891762614951        0.55354916715620
C           -1.66511313369646       -3.95482269348004        0.04349938013063
C           -1.37250488325066       -2.61620099663660       -0.10931379808399
C           -2.37495560384880       -1.63783646083701       -0.67724169826716
N           -2.06230232870680       -0.24763315902095       -0.30774982030378
C           -2.92348577905606        0.69263019251995       -1.03879273529865
C           -2.51504959810438        0.82690938320769       -2.50104315834238
C           -1.96903303905186        0.00643913564388        1.13055272629331
C           -2.77621034305641       -0.90041965164093        2.05838221188626
N           -0.19533949734243       -2.08889419833410        0.21086201851236
H            2.78623623250066       -2.79695379997523        1.58836482825533
H            4.30033382823510       -0.91765655375602        2.74882176463859
H            4.76466594772061       -0.20791253044680        5.07191603459582
H            3.17279819860643        1.25778926809302        6.25417394986335
H            1.12174382214309        2.02432687686788        5.11953993368518
H            0.66619748382708        1.31978787948237        2.78411961933230
H            3.54657207763115       -1.90850222977670       -1.04458173537508
H            5.57308074563374       -1.34724030882778       -2.35835979358173
H            6.73271758935632        0.79457991066206       -1.96949850139755
H            5.86999464943210        2.37978284300472       -0.28988703153382
H            3.84444773209443        1.81799895336856        1.01445519419704
H            1.33862241051405       -4.87561695965610        1.31372633340335
H           -0.84496154427724       -5.84647060040262        0.66880133374542
H           -2.63113315735723       -4.34708840310759       -0.23062879575758
H           -3.39585524386540       -1.90765826226140       -0.36938072471417
H           -2.32564990515553       -1.70492201070713       -1.76969181561381
H           -3.97326380350708        0.37446068267474       -0.96065212885876
H           -2.81944981414876        1.67732767957008       -0.57487446339788
H           -3.02446097405692        1.67963713626007       -2.94189642162168
H           -1.43738665699092        0.99835533478933       -2.55454700602823
H           -2.76432996834542       -0.05486095387478       -3.08599777906104
H           -0.83693888057404       -0.08419679509730        1.46817970068807
H           -2.27077276279758        1.04698366708670        1.32315244108762
H           -3.83345160945958       -0.85755209337592        1.79568811028783
H           -2.44522975613871       -1.93774063186328        2.02600516438760
H           -2.66668031241461       -0.54581243520662        3.08238933117954
C            0.85347564534249       -0.13283177818785       -1.62299611437921
O            1.37336447764295       -0.16701971264201       -2.65725522349989
H            0.05881781707029        1.49287595349308       -0.02299176937622
