62
 energy: -92.037426179814 gnorm: 0.000174112392 xtb: 6.7.1 (edcfbbe)
Co          -0.34861609546660       -0.47979231006867       -1.19582069707484
N           -0.60969336583042       -1.85727031235400       -0.05693007123709
C            0.08338249558075       -3.08948044387591       -0.39604104241803
C            1.60118878009996       -2.84410874614664       -0.38688618321986
P            1.75394698179768       -1.22744082951602       -1.28993009589630
C            2.81567224332621       -1.64031770045626       -2.71424870437595
C            3.87251026364343       -0.82446009607115       -3.10686032601023
C            4.60627991929715       -1.13502631429589       -4.23805805922508
C            4.28384106189030       -2.24869031667586       -4.99621710110075
C            3.21134608247901       -3.04686473677162       -4.62906541487679
C            2.47478960522413       -2.73869903483934       -3.50120498911851
C            2.91380457055845       -0.29359222227120       -0.23397287953057
C            4.11237128652485       -0.85029510124815        0.20360498387701
C            4.94407062727424       -0.12651627846734        1.03804865348044
C            4.58866262474223        1.15365939842621        1.43827852828146
C            3.39930752385739        1.71346784494425        1.00127574514589
C            2.56419392502812        0.98976391712733        0.16749870843621
C           -0.83668218821754       -1.71013116432030        1.36815242955267
C           -0.60218655372670       -0.26883414143983        1.82285972972823
P           -1.25846704558872        0.77923106518016        0.45593650888370
C           -0.99956388293552        2.49016719839925        1.03058689501820
C           -1.73923623237303        3.48582794155749        0.39266778141649
C           -1.55922660591141        4.81464944868895        0.72336317566779
C           -0.62439639758732        5.16829990801717        1.68515720841244
C            0.12921849632092        4.18716054632254        2.30744527123350
C           -0.05022206767912        2.85374500991821        1.98011613652452
C           -3.04716157207537        0.57741090241675        0.74601139842480
C           -3.74360932680391       -0.27334026292585       -0.10459349173668
C           -5.09108987690060       -0.51110724193416        0.10106844273526
C           -5.74870345170568        0.10548961045686        1.15343586870489
C           -5.05740960575750        0.95718378553386        2.00162704056666
C           -3.70917202495393        1.19381992053728        1.80330738182991
H           -0.22484078712926       -3.40869980276764       -1.39818944292007
H           -0.19222006472498       -3.88902678456054        0.30319839473565
H            2.17062067332484       -3.65239692052339       -0.85073762452068
H            1.95001410998136       -2.69967840429450        0.63955325029656
H            4.12362316794640        0.05079977551592       -2.52325046330207
H            5.43230685811828       -0.50241175476899       -4.53063481774728
H            4.86015938979802       -2.48907024378363       -5.87771777558656
H            2.94660663775787       -3.90681814099901       -5.22778080734984
H            1.62341962943155       -3.34837083030536       -3.22683130134656
H            4.38879770829120       -1.84632915063441       -0.11669590951828
H            5.87397938747240       -0.55940867667424        1.37865514648717
H            5.24247526536075        1.71383853415111        2.09107713501009
H            3.12032433090441        2.71154670349404        1.30809810723056
H            1.62755925181533        1.41445777850348       -0.17996970514456
H           -0.18686424510616       -2.38241203295145        1.94946652849473
H           -1.88113210120702       -1.98551932731868        1.59605334753968
H           -1.08643866834956       -0.05292685774756        2.77975040833649
H            0.47434247099213       -0.08958018986341        1.90152217330291
H           -2.46275151959935        3.19929478992984       -0.36078271942952
H           -2.14415186278811        5.57795953514397        0.23044549233211
H           -0.48112566268876        6.20720943201349        1.94443291521049
H            0.86168671844490        4.46154407865335        3.05385881919585
H            0.54721731291781        2.09915608336723        2.47106821539051
H           -3.20738921076663       -0.74107923651165       -0.92286927705198
H           -5.62999897228542       -1.17417223065083       -0.56033633753325
H           -6.80190409078602       -0.07539877823423        1.31427181996465
H           -5.57216055772641        1.43756962425855        2.82186064551214
H           -3.17126491226700        1.85973193722783        2.46506461821426
C           -1.11735881137411        0.23316654003066       -2.72999872624732
O           -0.12109511925179        0.84331530675776       -2.60578092662258
