61
 energy: -76.084813859019 gnorm: 0.000164174493 xtb: 6.7.1 (edcfbbe)
Mn           0.07462957290899       -0.13733613661367        0.14580570831961
N            0.20107528288607       -2.32401729530662        0.18431240065724
C            1.00198340215883       -2.74667115797119        1.35705497911979
C            2.32926748179361       -1.96480575337073        1.47268329918383
P            2.24631815998873       -0.40255185705316        0.46037338568558
C            3.54095264911477       -0.72945953716787       -0.84015853415781
C            3.72558703525725        0.47392038947805       -1.76264253326477
C            3.17731130956733       -1.95834876207709       -1.67174177755661
C            2.98545417848304        1.04443329260509        1.38401204505453
C            1.97352561191841        2.20474828258014        1.26699112991833
C            3.38757138063170        0.77554423876784        2.83210686829793
C           -1.10805532245981       -3.01598680322121        0.08803465270681
C           -2.24148896370387       -2.18392555250007        0.69394683705634
P           -2.16353038539998       -0.40480104350936        0.14694471970885
C           -3.41878666946104        0.34826803294026        1.31038798755543
C           -3.75225695858820        1.78433284633362        0.90384692759300
C           -2.99680383572220        0.34201319905334        2.77762589744634
C           -3.15292330873295       -0.33675441657057       -1.43953211610276
C           -2.89362710228355       -1.51674674291846       -2.37240208881858
C           -2.85096582305341        0.98716094568575       -2.16241295320726
H            0.74429009139184       -2.61163902961019       -0.63791723576075
H            1.21491222511853       -3.82029777312933        1.28447389769613
H            0.38916597994110       -2.58515595559824        2.24806828945494
H            2.50436009972456       -1.69496673145942        2.51624857434296
H            3.17970962910977       -2.56610852308416        1.14086989899615
H            4.47208508894130       -0.91483387553252       -0.28209690196272
H            2.82101845720274        0.66120465918234       -2.33668155861320
H            4.53106905808246        0.27253770429150       -2.46699477691092
H            3.98015626153464        1.38367353162806       -1.22328538639322
H            3.95018623942559       -2.13192432618094       -2.41867556254558
H            2.23944123420130       -1.78884748302409       -2.20223004190736
H            3.09715355859923       -2.86039792028352       -1.06808874478414
H            3.89929019992480        1.31099476341872        0.83907183114316
H            1.46598813991493        2.37303774202863        2.21627942543623
H            2.46600506151016        3.13421512446789        0.98837920686469
H            1.19568816381954        2.00236778908370        0.48843129398985
H            2.53707170268074        0.49185290908914        3.44825827119102
H            4.14332136964387       -0.00650470577366        2.88549089478640
H            3.81609078837340        1.68290833585628        3.25596427365205
H           -1.05380602125630       -3.98529775475957        0.59669844764581
H           -1.31233082453197       -3.19485040018590       -0.96840365817917
H           -2.15464385464215       -2.18201632581334        1.78413140363961
H           -3.21365625755907       -2.61082281799824        0.43263432606152
H           -4.31225530062391       -0.28401876728325        1.19743799707022
H           -4.26432492347575        1.83438782424986       -0.05279980467008
H           -4.40413610211443        2.23306594841493        1.65216796300184
H           -2.84329852747978        2.38632071354195        0.84973054714906
H           -2.62886039736704       -0.62550255802073        3.11105429143821
H           -3.85754427837165        0.59469944724826        3.39532288358227
H           -2.23278187693914        1.09474530276212        2.96069555459076
H           -4.20761378317798       -0.36500090447324       -1.13557099487381
H           -3.25396077153933       -2.45254600304975       -1.95179669184015
H           -1.83198554184086       -1.60278702634555       -2.60255899507469
H           -3.42609461119906       -1.35108246478979       -3.30798120869082
H           -2.22655396674989        0.81220695012631       -3.03544120024990
H           -3.76466722882559        1.46712270276316       -2.50594818228621
H           -2.31977219524892        1.69012874248574       -1.51486102845389
C            0.18800690701352        0.09815568046099       -1.61549648049453
O            0.29982689463007        0.39738486186692       -2.71755333310876
C            0.04624161603366       -0.02406781392097        1.92108978353133
O            0.12158634304545        0.11826505479406        3.05579555531602
