58
 energy: -70.509235540919 gnorm: 0.000180139261 xtb: 6.7.1 (edcfbbe)
Co           0.06101733888019       -0.46590100787826       -0.18866371771277
N           -0.14578771713680       -1.92231105630139        0.90571516746968
C            0.86883592916804       -2.48676426626886        1.77772588345806
C            2.05417064503449       -1.54814502333145        1.98844060442605
P            2.10157476805562       -0.44603171963157        0.52220559695886
C            2.99005536188806        1.05070944122485        1.19954484362312
C            3.62435473160098        1.90303236512260        0.10420172770956
C            1.96464308956449        1.87816879103508        1.97369466668736
C            3.31809816536729       -1.21017070599844       -0.66627446211924
C            4.66820591455866       -1.59838905709117       -0.07034689178625
C            2.63323827004635       -2.40102881319784       -1.33318919268772
C           -1.32171764021838       -2.76383335404936        1.02487438014641
C           -2.42792122146121       -2.40881961840036        0.03077242667054
P           -2.03285978300644       -0.75321513015832       -0.66945070197467
C           -2.78189221255083       -0.92867325242092       -2.37635441969206
C           -4.30444718888319       -1.03937148712006       -2.37133643588791
C           -2.29565421276102        0.14744087340564       -3.34252395949063
C           -3.15473016496560        0.38375379628464        0.29396740883049
C           -3.16004081854648        1.79280749666813       -0.29113935397526
C           -2.61332434880139        0.41481655332736        1.72132952174295
H            1.22575876103058       -3.45326027307391        1.36869482027865
H            0.42127761266424       -2.72672982597474        2.76232836791891
H            1.87286409639458       -0.91349935542042        2.85937616138584
H            2.98781358798872       -2.09061403349280        2.14588824363195
H            3.76594068875720        0.69575015205082        1.89156154201123
H            4.46101413489505        1.39662893588696       -0.37086556084724
H            3.99273446860080        2.83675101211873        0.52836732755663
H            2.88720882783135        2.14709172833117       -0.65865500203519
H            1.20149810042040        2.24786209072107        1.28863630272151
H            1.46919232345617        1.28376855898922        2.73995054152299
H            2.44142101488264        2.73076040265224        2.45556487864931
H            3.46695427997508       -0.43613579213457       -1.43080079480049
H            4.56760679435072       -2.44949366438107        0.60021268240785
H            5.35128934278928       -1.88564150245819       -0.86920241987971
H            5.11728587970671       -0.77492719196592        0.48083360541499
H            2.55309496080006       -3.23577467051140       -0.63963456231384
H            3.19037851276279       -2.73182644833777       -2.20864728383960
H            1.62120246473226       -2.11464452467293       -1.64123443656285
H           -1.03569445308448       -3.82511613120681        0.88167590467328
H           -1.71760755840993       -2.70171702092961        2.05915542939180
H           -2.42378664473734       -3.12036600465094       -0.79923005408266
H           -3.41349035029782       -2.42990145330204        0.50224104240006
H           -2.36408484260113       -1.88574311963980       -2.72429345850272
H           -4.76547749956746       -0.08904447823352       -2.11368788003522
H           -4.65503924855428       -1.32384825468970       -3.36293772514401
H           -4.64066890965102       -1.79461756342358       -1.66339205818523
H           -2.68046552794667        1.12897886061285       -3.07964254285231
H           -1.20822497547535        0.19556838846833       -3.33421659128293
H           -2.62163731604490       -0.08546981231944       -4.35586350844227
H           -4.17190684489222       -0.02771961230565        0.29004866016823
H           -2.13772483453161        2.14065933468319       -0.43480802158735
H           -3.66297052062827        2.48010972062575        0.38878512464092
H           -3.67724383047358        1.83035196004451       -1.24656524063801
H           -1.54530465083987        0.65713037737512        1.69356530289017
H           -3.13135388309105        1.16495593258023        2.31765699327806
H           -2.72853415833944       -0.55111295267588        2.20729054852383
C            0.29516334515430        0.91561705117451       -1.18057607441925
O            0.50000724692567        1.86052506945483       -1.83651905908308
