53
 energy: -69.948632178647 gnorm: 0.000277957399 xtb: 6.7.1 (edcfbbe)
Co          -0.34914711117922       -0.36457371022042       -1.04613627665939
C            2.13378940541627       -2.03460682994876       -0.82043308153990
P            1.91153770910773       -0.29280034799843       -1.02484489408074
C            2.41229725624861        0.07749748059850       -2.80316363863267
C            2.07585718217077        1.52157528461900       -3.16686329474250
C            3.85832241422321       -0.26406683234089       -3.14190586030275
C            3.28221120913403        0.56775297220597       -0.04776840457057
C            4.42146184304799       -0.36431226309042        0.34718672708912
C            2.66109925004712        1.19110247486250        1.20053880255326
C            0.99248237052440       -2.75119788965800       -0.53820733447124
C            0.97254391229188       -4.15892975805041       -0.27166837854519
C           -0.16562978260116       -4.76241935349406        0.16066725291765
C           -1.33660353357366       -4.00142721822622        0.35585004696481
C           -1.30940739674352       -2.67269199979963        0.00754307500749
C           -2.49777207025135       -1.75077451823925        0.15382607014107
N           -2.01478355260722       -0.42968876813538        0.58706278844332
C           -2.88457681325647        0.68918469767852        0.20510620027517
C           -2.04781906391977        1.85056047371399       -0.34204032158992
C           -1.75307277174203       -0.48208559625906        2.02650492246671
C           -0.98453905728849        0.72507519553157        2.54245203739830
N           -0.20580055471061       -2.08556962493696       -0.46471757936479
H            3.09299372039529       -2.52322417969264       -0.88915433960838
H            1.75783791758130       -0.58810354938085       -3.38350750140708
H            2.68946235868463        2.22331366238516       -2.60350795630075
H            2.24649505444570        1.69808115950255       -4.22847528414453
H            1.02725202110526        1.73177861772685       -2.95040523344654
H            4.08468522988786       -1.28927820937396       -2.85646241977425
H            4.01786428755058       -0.16889752541444       -4.21618929100449
H            4.55312079800676        0.40592261277811       -2.63972906872951
H            3.67542079781172        1.37404700466815       -0.67821484531560
H            4.04857628866031       -1.16219386934712        0.98681755317650
H            5.17961601480774        0.19178557976327        0.89930710039368
H            4.89430985611046       -0.81142587182749       -0.52323626353731
H            1.88182543547466        1.90170665249816        0.92629092196382
H            3.41434989816346        1.71855489587328        1.78556868874687
H            2.22494800779009        0.41218313025765        1.82526708768485
H            1.88582810223757       -4.71555947402320       -0.41970197814920
H           -0.17965338104274       -5.82164717221564        0.37585548849975
H           -2.22852053618799       -4.44791460370283        0.76415624094297
H           -2.97113153205350       -1.65307979026540       -0.82767384719998
H           -3.23147629796396       -2.17278766737251        0.85622020188931
H           -3.49742839204199        1.02615488727474        1.05054443857644
H           -3.56221348092232        0.35328600692514       -0.58389744358209
H           -2.63220846171673        2.46527382704610       -1.02306701179210
H           -1.17973382857504        1.43545244230720       -0.90464643596568
H           -1.65576749964915        2.48239045477821        0.44977908011085
H           -2.70114506796853       -0.58612940919293        2.58127969511348
H           -1.15524284887648       -1.37896427798381        2.20893739323935
H           -0.13315248878887        0.91306657844419        1.89319714497446
H           -0.61786196822257        0.52288841259809        3.54620399798667
H           -1.60869580010941        1.61421766542289        2.58475511489373
C           -1.14879952687730       -0.52152929666880       -2.65405077292213
O           -1.32295564206742       -0.00543955630770       -3.67779569525121
