58
 energy: -81.946444491479 gnorm: 0.000157581584 xtb: 6.7.1 (edcfbbe)
Ru           0.10922264237937        0.11976367132745        0.31087598742575
C            2.25556274128751       -2.10470275534791       -0.22661569987276
P            2.26499765187759       -0.44153516997320        0.63181171010744
C            3.70914747473696        0.33677481496591       -0.16468755721327
C            4.94020698501310       -0.30982761867818       -0.23726212522831
C            6.00536156293901        0.30613781095189       -0.86765595188322
C            5.85107917784032        1.56845257329390       -1.42143310464240
C            4.63170001525146        2.22064747656654       -1.33770981742853
C            3.56189480778580        1.60667213734351       -0.70876378774794
C            2.95995396180865       -0.86440985836346        2.26451583519771
C            3.80080371952384        0.03762076099200        2.91032434558739
C            4.28336168889932       -0.24487191958776        4.17527408664912
C            3.92224744905145       -1.42270917120363        4.81013049333760
C            3.06435038235029       -2.31190048025090        4.18271943675415
C            2.57844435885990       -2.03235826613545        2.91826401725682
C            0.89158201665924       -2.70471967457085       -0.07025044131635
C            0.67482797474308       -4.06878489376669       -0.17648826808547
C           -0.61348020782568       -4.57379298281773       -0.06189612966687
C           -1.65056949557387       -3.68087890207955        0.17136134563660
C           -1.36641649845424       -2.33193509898989        0.28987259576575
C           -2.41357298902598       -1.30885153627705        0.63396513274674
N           -2.16399017019555       -0.03826452657331       -0.07049568193811
C           -2.37679969681860       -0.22382387651820       -1.52699104246139
C           -3.80323005424458       -0.52540288939733       -2.00257756113316
C           -3.09111446567569        1.00691617317770        0.40741777521860
C           -2.86554338836912        1.47703590421619        1.83836825374881
N           -0.11824564941825       -1.84460494780726        0.16526464447365
H            3.04261523576528       -2.78320731113477        0.11441577435058
H            2.43039754807337       -1.87603888974542       -1.28774213598387
H            5.06226095826832       -1.28828402828288        0.20797295268686
H            6.96012558943007       -0.19674062377883       -0.92734199160672
H            6.68604216906606        2.04509720363750       -1.91449400075916
H            4.51469937739937        3.20738526484893       -1.76234060008051
H            2.59791432867332        2.09588481253674       -0.62371049681418
H            4.06983890547043        0.96030449960149        2.41270955935432
H            4.94047207358903        0.45622727499420        4.66969311285743
H            4.30163639560168       -1.64382559862375        5.79727052383742
H            2.77077605549350       -3.22427836535862        4.68273929914173
H            1.89278877445659       -2.72039823687532        2.43944549287885
H            1.51100057229567       -4.72824334994996       -0.35437423899919
H           -0.80248502680259       -5.63167914639222       -0.15093102739424
H           -2.66747992339949       -4.02822064757768        0.27254748149026
H           -3.42221891387014       -1.69709002974153        0.43205602528808
H           -2.32827871624218       -1.10699580135385        1.70984609550299
H           -1.73497786813473       -1.04689387109188       -1.86152846857058
H           -2.03861946843275        0.69093726330199       -2.02518976969998
H           -4.47072023468984        0.31770555496913       -1.84791678239268
H           -4.22200944479153       -1.40518465875944       -1.52028255004638
H           -3.76171194971863       -0.72406922847530       -3.07132570304641
H           -2.96089931683800        1.86660703901280       -0.25696393488975
H           -4.12506965749545        0.64298770940726        0.32069295301987
H           -3.46194880800861        2.36980951477515        2.01216156718863
H           -1.81400891113301        1.71961991823020        1.98235316760257
H           -3.16055171894747        0.72698992172185        2.56863988522490
C            0.52149203137019        0.35828166372715       -1.46736848240335
O            0.88673334934637        0.46974197140775       -2.56519615940745
H           -0.12948792423246        0.00463587671464        1.86894310961738
H            0.14555769309016        1.68402052266425        0.51612673738452
