56
 energy: -80.975238100415 gnorm: 0.000505952785 xtb: 6.7.1 (edcfbbe)
Co           0.09783056267745       -0.48021234334521       -0.50431318633603
C            2.32863183122789       -2.50323665198720        0.18423295274493
P            2.20955956424086       -0.90352461126667       -0.74054518932187
C            3.48280284319945        0.11208282888164        0.05306479123950
C            4.83763540272037       -0.01187037961108       -0.23930072388732
C            5.75612505610656        0.76028731043762        0.44956518779678
C            5.33066478780603        1.64620205110967        1.42798173948480
C            3.98186625327187        1.76261257375100        1.72729069192975
C            3.05813002397766        0.99603483094009        1.04084275209788
C            2.82330014104459       -1.25859491089894       -2.40704595218545
C            3.36403472310760       -0.21117825514101       -3.15186704610877
C            3.78408252962383       -0.43152559098507       -4.45024540502003
C            3.65060491719492       -1.68909220522279       -5.01944068332923
C            3.08580416747782       -2.72451461027414       -4.29194600052345
C            2.66407036412412       -2.51229504195133       -2.99115990782134
C            0.97596348331935       -3.13452996998483        0.11756657895530
C            0.77860951004913       -4.49289207741500        0.31865767919741
C           -0.50987351010790       -5.00309667423912        0.29064589385216
C           -1.56770201235302       -4.13697516358779        0.06594840441929
C           -1.29990750425897       -2.79288237614631       -0.14278156066281
C           -2.36998229479554       -1.78959592230648       -0.43956644687129
N           -1.89758122901996       -0.43229637403381       -0.12749947727810
C           -2.68934574477968        0.58610127183635       -0.86119793700148
C           -4.20082060294691        0.37012634269691       -0.96526279420838
C           -1.82804339747192       -0.18583921331056        1.33548697566273
C           -3.14383100716963       -0.07912766267365        2.10532254262739
N           -0.05275594439136       -2.30780129787059       -0.12310161507011
H            2.55491101270397       -2.24318001276179        1.22596121332922
H            3.12435496545391       -3.15775929417652       -0.18152691203097
H            5.16842993237733       -0.70228446108701       -1.00258827203804
H            6.80829839696733        0.67112012748945        0.22337834990574
H            6.05356800180462        2.24814393656494        1.95809487035514
H            3.65470415513801        2.45190607734750        2.49130836527312
H            1.99686275614116        1.07264328366519        1.25588487576647
H            3.45891929390668        0.76959506786163       -2.70494740535331
H            4.21326900911898        0.37804852615471       -5.02160223856855
H            3.98004874428723       -1.85975440824504       -6.03342187819193
H            2.97108381905092       -3.69992537441540       -4.74135486563805
H            2.21031315248302       -3.32239602825217       -2.43708411303215
H            1.62499493541109       -5.13638696813315        0.50089357608076
H           -0.68565441811680       -6.05600542394667        0.44709340397077
H           -2.58482343972801       -4.49471998596458        0.04440004697783
H           -3.29368008733539       -2.04076284456338        0.09315216066624
H           -2.57568487210122       -1.83543007051782       -1.51493091768699
H           -2.29523372798639        0.62933599751402       -1.88127222025914
H           -2.49410113709035        1.54947562083527       -0.38659716476322
H           -4.44708787982736       -0.48518169401092       -1.58934986394095
H           -4.68243572853364        0.24595101783053       -0.00193988924718
H           -4.62863549868754        1.25121918480856       -1.43883481963621
H           -1.27525918647728        0.74942432267466        1.47707463019342
H           -1.24025172926088       -0.99719512052381        1.77759022786511
H           -2.91072749516913       -0.02109855073330        3.16659970355315
H           -3.69176834966513        0.82077083446290        1.84135903316744
H           -3.78175738159180       -0.94703918524912        1.95756605193640
C            0.28436985932773        1.16885603279146       -1.03079985380766
O            0.51432410656164        2.20749316255234       -1.44893297221661
