59
 energy: -87.238168205383 gnorm: 0.000379819641 xtb: 6.7.1 (edcfbbe)
Mn           0.14525336385907       -0.11033153371873       -0.20789848894912
C            2.32294134664540       -2.24485123918945        0.33562273158649
P            2.25897802479096       -0.61177174530979       -0.54625823722537
C            3.74064569229836        0.20078814317324        0.13739682220990
C            4.98957794419799       -0.41325337495034        0.08656070178226
C            6.09094628796810        0.22446818002888        0.62603718274173
C            5.95408718826415        1.47527673267569        1.21004449550838
C            4.71503778974228        2.09373392062675        1.24968217771903
C            3.60808557312524        1.45881969155677        0.71252603868397
C            2.86587548302918       -1.04010634529705       -2.21114581495687
C            3.51270944842588       -0.04883301391560       -2.94634049950764
C            3.91427955532086       -0.29569365191280       -4.24527285617045
C            3.66072378728497       -1.52838702043950       -4.82755952658459
C            2.99443810703730       -2.50842597094825       -4.11065816712062
C            2.59025596877479       -2.26548759127546       -2.80962938768262
C            0.97025290684196       -2.86657452318795        0.17437471143429
C            0.79625723063736       -4.23816388591687        0.26537231465643
C           -0.47283742927215       -4.78075401880019        0.12861728912035
C           -1.52770293253057       -3.91176861948452       -0.10494759407515
C           -1.27981132558458       -2.55304339111483       -0.20274342592453
C           -2.37909886548364       -1.57802593809751       -0.52068575612386
N           -2.15754459794368       -0.30665074840751        0.18273243690311
C           -2.96112204238771        0.79213153948965       -0.40717018481054
C           -4.37383874488064        0.46199455248869       -0.90154384642230
C           -2.40432105715023       -0.46100527093087        1.63431650210308
C           -3.84269776592174       -0.68807129992338        2.10759437462280
N           -0.05188149283885       -2.02341527741915       -0.06569041224667
H            2.49339538200696       -1.99488654744926        1.39202759436315
H            3.12883408784667       -2.90287341653197       -0.00102258131137
H            5.09639067415502       -1.38227727014044       -0.38341817890860
H            7.06047408977015       -0.25194344969323        0.59029808787917
H            6.81862418880768        1.96948709223850        1.62947030407933
H            4.61176872181099        3.07170494741039        1.69739815603611
H            2.62751535836140        1.92162786426611        0.72226489696501
H            3.69040818269136        0.91465175702944       -2.48502276922918
H            4.41947976525939        0.47501147972014       -4.80944000025289
H            3.97282570027763       -1.72135990225612       -5.84379844432728
H            2.78312028240646       -3.46467628117348       -4.56870887843231
H            2.05418129188262       -3.03268725886167       -2.26490882745861
H            1.65200392129676       -4.87100849764516        0.44817370383195
H           -0.63340711406527       -5.84486128184422        0.20245919007705
H           -2.53535487819753       -4.28171218282946       -0.22067410822116
H           -3.35571707179494       -2.02335608196098       -0.28805577361959
H           -2.34600882308810       -1.37610749565948       -1.60046340054884
H           -2.40074191878681        1.18700296487019       -1.26078081014619
H           -3.00824022182550        1.58609943999232        0.34153763718326
H           -4.34857335610578       -0.18485841467318       -1.77582995037068
H           -4.99764146096231       -0.00325740648623       -0.14575250710411
H           -4.84707848718382        1.39536351310041       -1.19902665257585
H           -2.02478364824020        0.44260424515156        2.12161652040951
H           -1.79835854524981       -1.30552791561286        1.98192855008355
H           -3.81483934020334       -0.89518841579404        3.17567055131543
H           -4.45626751365186        0.19588668535724        1.95828519001974
H           -4.30952175570779       -1.54073399444600        1.61942984622086
C           -0.06924461918654       -0.06410131770458       -1.97533049493166
O           -0.09860127233355       -0.03192137179797       -3.13361778987212
C            0.59525730816961        0.09384170686318        1.49567709056119
O            0.98932428838459        0.22742060140487        2.57987059404387
H            0.05251146222306        1.44726755274510       -0.25708493997773
