50
 energy: -81.798134968704 gnorm: 0.000174149022 xtb: 6.7.1 (edcfbbe)
Co           0.24351421611694       -0.47693757974316       -1.09114145201717
C            2.40691470240650       -2.25353353814597        0.03751104884657
P            2.08730144706616       -0.42642037572393        0.24675598018184
C            3.73022446666499        0.21288372941661       -0.22349472948330
C            4.85873276627358       -0.02023678609250        0.55785965728778
C            6.09435234599058        0.43551397377287        0.13687446971631
C            6.21277486495197        1.12307475777866       -1.06152884700281
C            5.09187007684508        1.35704523229203       -1.84104200635872
C            3.85251522483879        0.90327586555382       -1.42318853941983
C            2.14544775034800       -0.20617809630240        2.05686561675280
C            1.79132547378673       -1.20080127796928        2.96348380677378
C            1.77507721727910       -0.92919189591297        4.32104243256931
C            2.09595113937823        0.33522051444075        4.78574756189587
C            2.42203425412295        1.33910381472748        3.88571617333299
C            2.43741627028643        1.07320662359598        2.53064154994249
C            1.06596908385781       -2.90451091080304        0.15110202063275
C            0.87066225181132       -4.15581586498009        0.69824735720468
C           -0.43397815592125       -4.62669386522433        0.87255020846269
C           -1.48745571547573       -3.80231650691977        0.55261727029363
C           -1.22825742656265       -2.54151093198343        0.00060213315321
C           -2.20730500188574       -1.51837098663915       -0.26406723051423
C           -3.58997133686708       -1.71365077611086       -0.22890648440848
C           -4.42906724888121       -0.64119135174462       -0.42966023941531
C           -3.86622296081476        0.61338524723366       -0.64843002282533
C           -2.48611330530784        0.73703877765986       -0.69411708442741
O           -1.89072625026867        1.92971481617002       -0.88249793334721
N           -1.65059580864511       -0.29970955782494       -0.53083384318972
N            0.03936166321775       -2.13840883997312       -0.25022994354109
H            2.80539859361272       -2.36605708040844       -0.97792460440943
H            3.13418488410794       -2.65495076438867        0.74837463086761
H            4.76618775870561       -0.55048255146112        1.49612119713170
H            6.96968623639038        0.25415792749040        0.74422740790182
H            7.18051604731650        1.47782566381660       -1.38554416487096
H            5.18274443817561        1.89425687691942       -2.77408728580123
H            2.96448784219045        1.07851729360854       -2.01669968488080
H            1.52571344504811       -2.19001057610321        2.61749137815920
H            1.50919483856409       -1.71055303719709        5.01925588457364
H            2.08454482092172        0.54093610945314        5.84623123462853
H            2.66096321204170        2.33018785529596        4.24410557425198
H            2.68200552427858        1.85226444945741        1.81951777952302
H            1.71793894003873       -4.75508203970679        0.99503613161787
H           -0.60583232776101       -5.60811497648103        1.28740100669222
H           -2.50333351054908       -4.11145967306391        0.73788712316353
H           -3.98995487356939       -2.69941202859716       -0.05647505142357
H           -5.50104682617577       -0.76087424181183       -0.40989549834990
H           -4.49016174076905        1.48548811472727       -0.77791096558496
H           -2.54973753625532        2.62323759729211       -1.02389936633072
C            0.78420820119657       -1.00287801613575       -2.66307553803855
O            1.12081676640757       -1.27054429501253       -3.73976562937695
H            0.29777904280612        0.84371884402699       -1.66040878294708
