65
 energy: -97.649109129131 gnorm: 0.000149553657 xtb: 6.7.1 (edcfbbe)
Mn          -0.04231064368926       -0.64453539588836       -0.52328948322161
N            0.29399619671684       -2.80331912360907       -0.20154830434366
C            1.55032163155094       -2.97160294998358        0.55750914758564
C            2.67945013062834       -2.22469445437604       -0.15656219378928
P            2.18343082096326       -0.45675549209057       -0.45844266005680
C            2.99243661342788        0.49313072717329        0.86995175046917
C            3.27516216735659       -0.05171879877857        2.11924558148277
C            3.82786597354082        0.74183013791781        3.10896973844611
C            4.08807950238326        2.08103150304490        2.86842337045342
C            3.78993257861710        2.63283411816295        1.63224798940506
C            3.23916344733748        1.84569696856375        0.63846149127363
C            3.19576766455727        0.04634052112321       -1.88048056575923
C            2.65625763854778        0.97812031870024       -2.76236757675022
C            3.40051587597494        1.43405820025378       -3.83510449257279
C            4.68792475735834        0.95949456571361       -4.02891516150973
C            5.23316155208639        0.04045867041545       -3.14494939339746
C            4.49587977837452       -0.41433534957850       -2.06676208523351
C           -0.85776865247969       -3.56256694716423        0.36929129546957
C           -1.90992051953152       -2.64557573550093        1.01037555407818
P           -2.13239598694862       -1.20055970102796       -0.13117429910678
C           -2.95357573611871        0.12316514540954        0.78141900447545
C           -3.93348413300939       -0.02200090601778        1.75648693028060
C           -4.44272251925175        1.10755047940317        2.37537233430981
C           -3.98102599426598        2.36745892170758        2.02596542570099
C           -2.99414694248611        2.51507674152579        1.06102728663458
C           -2.47975711138684        1.39227411562839        0.44355951252465
C           -3.36435236513318       -1.81836229314937       -1.31871547472333
C           -2.90124383848417       -2.62068638413680       -2.35994730804392
C           -3.79023130199442       -3.15035092009869       -3.27607072749904
C           -5.14421763607857       -2.87247514821585       -3.16415881718752
C           -5.60508874149739       -2.06139628700205       -2.13955112286032
C           -4.72137102040653       -1.53047789146583       -1.21558483984970
H            0.48187380206541       -3.20186386184443       -1.12954067106665
H            1.80638881798258       -4.03654950590968        0.63244356144054
H            1.39121727365791       -2.57371769445579        1.56526470591586
H            2.84562897976163       -2.66765979147634       -1.14688355646387
H            3.61143255804627       -2.27857261475546        0.41217439631986
H            3.06949361110918       -1.09141271668019        2.32965085598724
H            4.05248127637961        0.31317793186347        4.07466755885225
H            4.51805739817923        2.69613987149818        3.64482680389762
H            3.98472987578799        3.67861776860294        1.44411882715147
H            3.00357921418747        2.27787741820984       -0.32626845072874
H            1.64812247197262        1.34801080042766       -2.59760369210343
H            2.97917147728004        2.15626585989996       -4.51900292621629
H            5.26972763798513        1.31002752967097       -4.86836790267782
H            6.24005713982166       -0.31989928946719       -3.29596466261863
H            4.93091344191340       -1.11881478518332       -1.37285114957649
H           -1.33877691456304       -4.12132185317983       -0.43771112328020
H           -0.48989772543614       -4.27680924985188        1.11185481327580
H           -2.84858665895094       -3.18743074753392        1.15746769424776
H           -1.56601265646625       -2.25293420506841        1.97320456084728
H           -4.28527102339257       -1.00636012632749        2.03243045807459
H           -5.20197539599372        1.00582474263661        3.13670217112560
H           -4.38526858393800        3.24161255503519        2.51420508359271
H           -2.63078173136967        3.49909031406752        0.80312912991002
H           -1.68556229620922        1.47775958488010       -0.31825705782965
H           -1.83792626970581       -2.80921568602531       -2.45595167339936
H           -3.43036880571268       -3.77249379980605       -4.08216518962967
H           -5.83972723647056       -3.28046428449001       -3.88231206644195
H           -6.65868904094178       -1.83707178837414       -2.06054290263727
H           -5.08756510345141       -0.88964311696993       -0.42631212926960
C           -0.17633791130856       -0.65169589384032       -2.30516797496363
O           -0.32433402041280       -0.49000259569882       -3.42941927871529
C            0.01852232287468       -0.18908974554512        1.19940346381068
O            0.05794833616358        0.27112900495026        2.24657293553133
