57
 energy: -76.454241358743 gnorm: 0.000703988681 xtb: 6.7.1 (edcfbbe)
Mn           0.25494476571669        0.08404644042769       -0.07684348561292
C            2.24864894442491       -2.09120378221655        0.81070412529719
P            2.44640339517484       -0.45092059454301       -0.03646887207627
C            3.84615912287877        0.35149389643283        0.92671860173455
C            4.83141588578628       -0.62631658582709        1.56546450496787
C            3.30706168961703        1.32775385871670        1.96733460492997
C            3.43736287412634       -0.94515586681922       -1.55093690241784
C            3.62055177729169        0.26542157511242       -2.46460164511610
C            2.79988469424459       -2.09878844878865       -2.32062262819228
C            0.98161165455654       -2.69441155718102        0.29274136522303
C            0.83009083429359       -4.06770861400479        0.18829720078500
C           -0.36348981833247       -4.59267530279211       -0.28293077409701
C           -1.38059043839246       -3.70480851032785       -0.59894617401660
C           -1.16408350038788       -2.34380628550815       -0.46288947551339
C           -2.25441492497992       -1.35667464230626       -0.78570267529277
N           -2.14196186474017       -0.14254930636529        0.03824744571916
C           -2.71888439698129       -0.39565962120883        1.38400362917430
C           -2.25005564816114       -1.62438744180092        2.15623513193323
C           -3.00123068174134        0.92639148659373       -0.52274195299250
C           -2.59248662680115        1.53271040470536       -1.85715952285292
N            0.01054306575565       -1.83015745255344       -0.05851605953637
H            3.10535064703206       -2.75868346123516        0.69550729215030
H            2.12237618690165       -1.85215304193142        1.87515706058860
H            4.37947439398321        0.93979791606944        0.16851267595310
H            5.20563602987561       -1.35800692559122        0.85237999844536
H            4.37426992103400       -1.15337078032364        2.40016829982252
H            5.68452156169175       -0.06979620209382        1.95143644259099
H            2.86338554739870        0.79793639376778        2.80792911178778
H            4.11149486051619        1.95442947308114        2.34994064804010
H            2.54460026899925        1.96596039327896        1.51833013742905
H            4.42271349593314       -1.26826153597452       -1.18791016965516
H            2.67020495532437        0.55750252349763       -2.90250775293554
H            4.00875242101001        1.12297946921732       -1.91894959826396
H            4.31257525066538        0.02881682573567       -3.27149288943070
H            3.35843262813847       -2.28109148637251       -3.23857356163218
H            1.77469348547463       -1.85960594025258       -2.59880494254812
H            2.79425563536320       -3.02064352219571       -1.74179886262112
H            1.64332265039220       -4.71782304067267        0.47523312262932
H           -0.50167825243606       -5.65744347043066       -0.38698876251265
H           -2.33865788352660       -4.06120111562864       -0.94770952711664
H           -2.14879745085521       -1.07051405388502       -1.83915573233650
H           -3.24483418126260       -1.82680398244357       -0.66509008026000
H           -2.51243053462790        0.49128352026548        1.99002848087619
H           -3.81364514795624       -0.48499835326347        1.27782585829726
H           -1.17218740954346       -1.63979759523207        2.29233767949110
H           -2.55797856494736       -2.55296253773468        1.68035776457765
H           -2.70554855905878       -1.58762304860437        3.14475124487004
H           -3.01506738467004        1.73621591062766        0.21161375701410
H           -4.02774714714605        0.53241172317647       -0.61862377073881
H           -1.59993196248906        1.97173187628556       -1.78205023860107
H           -2.60406661094115        0.81164555338092       -2.67143701632998
H           -3.30103619097668        2.32148803154380       -2.10187238030759
C            0.21645932740937        0.16558002052280       -1.84768642782278
O            0.19130403762916        0.22247840564848       -3.00804033738239
C            0.28018949629531        0.31984399936386        1.68246830264922
O            0.29675981874707        0.52758667461189        2.82433107798773
H            0.25634556174584        1.64481139699159       -0.11555122342383
