64
 energy: -97.508247421651 gnorm: 0.000291969797 xtb: 6.7.1 (edcfbbe)
Mn          -0.05309101922470       -0.52863930206581        0.34582380298739
N           -0.09430379288598       -2.33543164671550        0.68200519955711
C            1.04400881475409       -3.24718368022170        0.64725400729571
C            2.24788854500019       -2.61183234705624       -0.04497625197564
P            2.12038225666045       -0.86396476068387        0.49063356153780
C            3.37537889172606        0.05063531418288       -0.45172605845049
C            3.31786224576087        1.43781640920518       -0.32895763366048
C            4.22601428275880        2.23416128248398       -0.99930893187873
C            5.19439665756590        1.65010743814832       -1.80261917588971
C            5.24951930420504        0.27268151545036       -1.93458724582892
C            4.34357078697620       -0.53088505257157       -1.26252077208024
C            2.89711068107370       -0.95743237101902        2.13960062401659
C            2.08181817364029       -0.92363868266379        3.26490669497281
C            2.63269374522939       -1.05456476619438        4.52740700948017
C            4.00126882538863       -1.21639109858097        4.66982353846207
C            4.81851049752987       -1.24611051172406        3.54984922732512
C            4.27200084691061       -1.11820251206547        2.28598567915345
C           -1.27047919150345       -3.12400964240669        1.03283635544351
C           -2.44290242031068       -2.23145409050235        1.43416620251886
P           -2.23909430998146       -0.80309418015622        0.30490617112444
C           -3.45605123191054        0.44043523970092        0.82576285967318
C           -4.43764809779884        0.24168535398657        1.78992823947790
C           -5.31112521409839        1.27025060428124        2.10227059350823
C           -5.21046704165657        2.49270362793441        1.45911606985817
C           -4.22837548878454        2.69650409715881        0.50095588338077
C           -3.35197800046325        1.67560211804065        0.18814068177113
C           -3.01544720526005       -1.45756592201581       -1.21165058519969
C           -2.19705679177273       -1.86699506667861       -2.25791158183768
C           -2.75038911094700       -2.42378020627571       -3.39737102286884
C           -4.12446363276345       -2.57065252225565       -3.49619288831879
C           -4.94464661518445       -2.15993965056059       -2.45610773499533
C           -4.39577383436921       -1.60523748914543       -1.31437814399262
H            1.32850006822877       -3.52742629724999        1.67900482474979
H            0.75936497539905       -4.17946670303799        0.12801478019025
H            2.12139492662240       -2.63410877589868       -1.13448060985425
H            3.18921764597591       -3.09145387160353        0.23778924670565
H            2.53948729453470        1.87130283700231        0.29071864236812
H            4.17808277870691        3.30911268026476       -0.90317450061458
H            5.90288136154361        2.27067044426593       -2.33199888588441
H            6.00146763831663       -0.17952057810863       -2.56596348778311
H            4.39300842253099       -1.60509598491946       -1.37513619120824
H            1.01196942035887       -0.78666771588739        3.13587475690992
H            1.99652885392612       -1.02699690944779        5.40085271223368
H            4.43368321503444       -1.31608749521041        5.65502421758016
H            5.88627951239509       -1.36840766269750        3.66387863192471
H            4.90951166531837       -1.13546542039483        1.41194502607240
H           -1.57171218243871       -3.74740797196768        0.16989029024776
H           -1.02337863128715       -3.81549800163472        1.85778654298333
H           -3.40561836639233       -2.74010903588429        1.33136403654989
H           -2.31365728790229       -1.86439270998361        2.45980704272493
H           -4.52270669790642       -0.70793545772990        2.29988177974236
H           -6.07358326878319        1.11646991675390        2.85292327065664
H           -5.89469174619817        3.29065033106880        1.70893237884677
H           -4.14518291087588        3.65275026631241        0.00502663748205
H           -2.56325708180612        1.81593355590434       -0.54392629961469
H           -1.12240344283118       -1.73595780555751       -2.16775648773128
H           -2.11164982971024       -2.74047110369815       -4.20983505783956
H           -4.55876760579789       -3.00273441522727       -4.38628069732289
H           -6.01649241366028       -2.27235590001914       -2.53728016220615
H           -5.03522554597232       -1.27900358933541       -0.50478032794976
C            0.09382517238722        0.42111886093552       -1.14168801658760
O            0.24541228575276        1.02417692797166       -2.12732485633814
C           -0.15055738023067        0.89319996090528        1.39752200648525
O           -0.27230597773849        1.81363659742380        2.10184433978818
