63
 energy: -92.230890304953 gnorm: 0.000120566900 xtb: 6.7.1 (edcfbbe)
Co           0.28506667789541       -0.40329045139057       -0.73807766280407
N           -0.00294522353439       -2.22222807049586        0.09349360095004
C            1.02400171434800       -3.15715760792313       -0.41922472661932
C            2.42901832383222       -2.53762257056451       -0.46920261493200
P            2.34326197160039       -0.76723349161621        0.03496603713132
C            3.85295696105997        0.00068563916323       -0.62489648761783
C            3.88803565252260        1.38934231189651       -0.74160065244241
C            5.02847937039697        2.02286912328167       -1.19998061896633
C            6.14314485605293        1.27580695206869       -1.54635603673564
C            6.11694990783382       -0.10380163864651       -1.42251964569787
C            4.98022162296617       -0.74398697391441       -0.96030087699374
C            2.71145199069268       -0.79761636015360        1.82528165358786
C            3.30330542083341        0.31854696079709        2.41176254206787
C            3.58863122484680        0.32826457779205        3.76462534647071
C            3.27334210688670       -0.76684407812836        4.55278442491562
C            2.67799345153259       -1.87719765456193        3.97803020349571
C            2.39590549989114       -1.89509730968003        2.62355494030889
C           -1.29234401365087       -2.94159518969297        0.14970670291307
C           -2.55321422264703       -2.10012850278319        0.40605854695394
P           -2.65596190858435       -0.25937552884915        0.13185213331407
C           -1.91372200206842       -0.00001665328662       -1.54613343422923
C           -1.24053511941982       -0.95097628820472       -2.34900040922299
C           -0.83852346132541       -0.60017293992906       -3.64426408469602
C           -1.10623875354476        0.65323261117459       -4.15864853326993
C           -1.81521203962950        1.57319013459697       -3.39487754785299
C           -2.20899745172008        1.25042475944733       -2.11224850483427
C           -1.24482984012879        0.36753311634430        1.15695906233046
C           -0.67336532603611        1.61466882396454        0.85898945851631
C            0.21178455953379        2.21555867822990        1.74255281083135
C            0.51164291854582        1.61444982312934        2.95171502531621
C           -0.07836969006249        0.40347591236542        3.27822634355588
C           -0.94869434280355       -0.21055986330342        2.39764382781036
H            0.24002064098090       -2.00833352840614        1.06632294033062
H            0.72500173297978       -3.45289772457699       -1.42872430637813
H            1.03478247992733       -4.06547428209278        0.19817274636931
H            3.14067508473413       -3.08394428199811        0.15574922675131
H            2.80032092754004       -2.54077975916009       -1.49830789916672
H            3.01792678193488        1.97121226009282       -0.46802754295515
H            5.04765911086588        3.09883747569887       -1.28952095859285
H            7.03227978168632        1.76878967516786       -1.90974213184679
H            6.98809081217266       -0.68571499651946       -1.68481200085177
H            4.98288225521883       -1.81879451903977       -0.85977852203415
H            3.55051899228573        1.17813012409604        1.80676643270150
H            4.05986988321385        1.19411726301204        4.20563577065028
H            3.49446346909550       -0.75706831811247        5.60945725724167
H            2.43585874228473       -2.73674105975636        4.58586958458024
H            1.95277686673380       -2.78646694440109        2.20264182969779
H           -1.41633746452957       -3.48078933950004       -0.79361029594217
H           -1.23345817942000       -3.70783353312595        0.93448155280667
H           -3.36808362921273       -2.50164015956268       -0.20544634881320
H           -2.88267248386271       -2.21789064761503        1.44361798170424
H           -1.24584823169290       -2.00271830115517       -2.10559912005445
H           -0.35079928001118       -1.34085909847073       -4.26197512856320
H           -0.80020590017970        0.90582249095136       -5.16245898404449
H           -2.07389271919500        2.53532009200169       -3.81142823524830
H           -2.79732191946549        1.95616313198783       -1.53912543144413
H           -0.99142047967577        2.16610501043293       -0.01522809120801
H            0.63772193165018        3.17694276101746        1.49507518018220
H            1.17641371717785        2.09791726971019        3.65077129553855
H            0.12925430912098       -0.05653965215954        4.23328378708001
H           -1.42545688087645       -1.13344733329259        2.69709365674083
C            0.77085093523701        1.01498181760781       -1.61541503840775
O            1.08575309578338        1.90089261770289       -2.26047093086552
