49
 energy: -71.179361526880 gnorm: 0.000248257286 xtb: 6.7.1 (edcfbbe)
Ru           0.09256552068983       -0.05146031770152       -0.25340623563087
C            2.33029491611696       -2.22675447671530        0.13322134026145
P            2.34000188538160       -0.45562104919552       -0.42407825235320
C            3.16774356611058       -0.55654406742187       -2.10630973616479
C            2.44114793786509       -1.60120588457559       -2.95517250343913
C            4.66669061745242       -0.84405562981770       -2.10906514078393
C            3.51618876212610        0.35656540684684        0.77506515598364
C            3.75491359782924        1.78988572905425        0.30387878755733
C            4.81250975205615       -0.35381448653661        1.15855949214578
C            1.01754445644136       -2.84183526871642       -0.24953103009452
C            0.89678269012538       -4.19603738432412       -0.49596034220250
C           -0.35833467476436       -4.73951810296042       -0.76107186382495
C           -1.45830488485092       -3.90917823372630       -0.71406650281759
C           -1.28177982335975       -2.54753259476630       -0.45889282130013
C           -2.37007341996684       -1.59330173378675       -0.30441545773819
C           -3.72157491835586       -1.93105370079016       -0.35666855946792
C           -4.67632257826677       -0.95781671282243       -0.12176465653846
C           -4.26753454227567        0.32834222633655        0.17787744071632
C           -2.90031802950377        0.60864103547490        0.21138651534668
O           -2.50170470208741        1.84151775911671        0.51036531444802
N           -1.97346677377574       -0.32065175812278       -0.04496729592408
N           -0.04637362136315       -2.01623485059746       -0.28741175686155
H            3.17950354148833       -2.81321079947874       -0.22509324892024
H            2.36702799666573       -2.17598143952081        1.23048153547214
H            2.98747933734958        0.43472661372809       -2.54679209870692
H            1.35913483178882       -1.49864807431114       -2.86978562423371
H            2.71600237078774       -2.61020295786375       -2.65184007411187
H            2.70439756821815       -1.47953346549074       -4.00503612712705
H            4.90237647064785       -1.72464099430456       -1.51562455487372
H            4.99090440871939       -1.03136946799130       -3.13250941311524
H            5.23473428048886        0.00139245954266       -1.73322625214922
H            2.87303374601141        0.40428160823918        1.66746992224391
H            4.21958267578086        2.37828416281981        1.09296309579035
H            4.40139235109091        1.81816626885512       -0.57109716962562
H            2.79772998097583        2.24651526015012        0.04479216020386
H            5.56920671317517       -0.26811035158491        0.38572494315074
H            5.20850478154704        0.11227261164499        2.06020353065349
H            4.64869829546551       -1.40727950159052        1.37313609039369
H            1.77277392164365       -4.82626961647539       -0.47523690252301
H           -0.46758064115755       -5.79093703291573       -0.97481446170690
H           -2.44612224769705       -4.30676705509821       -0.87817982543228
H           -4.02215113644786       -2.94185347497392       -0.57513200998877
H           -5.72658473605151       -1.20009378679946       -0.16318378683238
H           -4.96202518168541        1.12476839842032        0.38485275865810
H           -1.51337063583008        1.85459299688786        0.49714801798162
C           -0.25170025732879        0.20600672078504       -2.04986268514292
O           -0.63956825637438        0.38193071272491       -3.12659007373801
H            0.23590615185550       -0.08188371354528        1.32384209205094
H            0.21552047391751        1.52486560736678       -0.15069250784200
