64
 energy: -92.258913866026 gnorm: 0.000154351020 xtb: 6.7.1 (edcfbbe)
Fe           0.53763050815220       -0.63616296039195       -1.36051659502583
N           -0.02534329129865       -2.68917814070741       -1.41521719680536
C            0.99269300682644       -3.61879619862867       -0.86012455338080
C            1.80207886647962       -2.95584718650723        0.25537364692940
P            2.35589548391310       -1.37248308756321       -0.50800138553421
C            3.95111959281644       -1.80772999692222       -1.27117680966538
C            3.95276295935249       -2.19984446422913       -2.60595271592275
C            5.13436821786668       -2.59098239859339       -3.20921068926328
C            6.31552004707951       -2.58275424281450       -2.48369271102664
C            6.31624073133826       -2.18110391199655       -1.15670519845266
C            5.13774062134356       -1.79215763888817       -0.54547036305045
C            2.70744358870993       -0.16768224542602        0.79404655408660
C            3.21451758266880       -0.41421774964327        2.06190774165459
C            3.31315885585015        0.63158355547147        2.96675938935977
C            2.90005656346409        1.90551304126976        2.61302888710298
C            2.37197867157368        2.15144125502167        1.35186599851419
C            2.27560598927042        1.11466750603800        0.44600157699619
C           -1.32484887304429       -2.79941978994369       -0.71964398099812
C           -2.33070329965914       -1.87866394577731       -1.39920940604005
P           -1.56562149725356       -0.19344158352717       -1.46961598356517
C           -2.34912279087237        0.64086728145614       -2.88516425012461
C           -1.68156548685533        1.78178586816735       -3.32600425106754
C           -2.18644122418868        2.52541369834037       -4.37469277020313
C           -3.36357657018104        2.12920207795626       -4.99192485936308
C           -4.03062703050461        0.99585817757772       -4.55644388634268
C           -3.53014574817350        0.24871175573078       -3.50344145834233
C           -2.32511527997583        0.71634209365430       -0.08648062048199
C           -3.71093204613013        0.84595714448598       -0.01685924288603
C           -4.28367289459660        1.54418322326342        1.02907427849280
C           -3.48162389832734        2.12524557644866        2.00049425100671
C           -2.10345094519884        2.01258621429731        1.92219745455384
C           -1.52324636832138        1.31208276665333        0.87886426628397
H           -0.19608531096720       -2.98332474075962       -2.38185807549317
H            0.50258835344078       -4.52761141367480       -0.49590004112286
H            1.67685595187831       -3.89082086947064       -1.66998950705782
H            1.18038098884653       -2.71434942064058        1.12113176564202
H            2.63844696879217       -3.59141276570374        0.56018821817880
H            3.02750974514790       -2.18310266675876       -3.16755189254613
H            5.13807768631214       -2.89623376666202       -4.24529263102405
H            7.23952661871625       -2.88352783865033       -2.95510750778889
H            7.24028310292838       -2.16924056033707       -0.59730665017550
H            5.14107573464063       -1.47149250509332        0.48619826435753
H            3.51233837229298       -1.41383819894050        2.34620475899934
H            3.70561592094077        0.44890700888566        3.95638922537422
H            2.97625736589288        2.71292358131460        3.32621838275485
H            2.03387448469427        3.14346863410736        1.08998313289457
H            1.84324320908365        1.27261819019301       -0.56008447929420
H           -1.18228041798848       -2.49885615831196        0.32033166856208
H           -1.67981220445186       -3.83645825895122       -0.74900209634739
H           -3.27952537064039       -1.86417930890575       -0.85608519775836
H           -2.50524090840933       -2.21291864307514       -2.42922241956842
H           -0.75756097639046        2.07122165995688       -2.83284131289719
H           -1.66679318389515        3.40890227801786       -4.71561310319671
H           -3.76057603170168        2.70500938331192       -5.81496463594499
H           -4.94742149390847        0.69180246879319       -5.04050567641135
H           -4.06303134185091       -0.63144915900084       -3.17416814965110
H           -4.33685076410178        0.40794553538514       -0.78246921484693
H           -5.35821354967770        1.63982338391811        1.08764892317319
H           -3.93427754584057        2.67016853731807        2.81602314351281
H           -1.47888360037724        2.47092772223219        2.67506688282151
H           -0.44789495334669        1.21426679191212        0.81968458359207
C            0.90079439248785       -0.45501971638239       -3.06750714493412
O            1.11815633658000       -0.25872368812657       -4.17471186169165
H            0.22601013165837       -0.70813329667748        0.01889323284723
