58
 energy: -81.807551862097 gnorm: 0.000070857502 xtb: 6.7.1 (edcfbbe)
Fe           0.07057542080954       -0.22126112596079       -0.44970457328274
C            2.41357957774164       -2.24165117902237       -0.76276971057032
P            2.15257139267655       -0.39568310030555       -0.86779635544266
C            2.84193373944095       -0.00229626329881       -2.51489641421667
C            2.63445083373102       -0.84302353628855       -3.60454651862523
C            3.08596555173659       -0.48193806140803       -4.86095710913552
C            3.73533771883993        0.72797111181994       -5.04554035671717
C            3.92022475024897        1.58349347411698       -3.97093891325919
C            3.46975789515305        1.22448868151474       -2.71395405064008
C            3.51275040856072        0.21871525781139        0.18461663079263
C            3.20858455385470        1.11019997938908        1.20441262510708
C            4.21517058294432        1.59425449557327        2.02282537228009
C            5.52472678394971        1.18764480009359        1.82353449291577
C            5.83132580576258        0.29952368485807        0.80293719417380
C            4.83023918659351       -0.18417419116446       -0.01914238125878
C            1.05894749686988       -2.88455223349587       -0.76814973944989
C            0.88249524985283       -4.22876706602808       -1.03597270959480
C           -0.37428362284890       -4.80371141158308       -0.89500063843954
C           -1.39694585677771       -4.01206467937064       -0.38791850662848
C           -1.15489404357243       -2.67657485321150       -0.13534497945630
C           -2.12670429234666       -1.78401312277174        0.58212227867262
N           -2.07608016688738       -0.40655793930566        0.06424499568763
C           -2.45550927942393        0.55990441012986        1.11493297881995
C           -3.87283464008530        0.42819180940673        1.67492846350948
C           -2.97956247955798       -0.32369833275101       -1.10001760904587
C           -3.06805250993766        1.06774508135512       -1.71314814112369
N            0.02729851066493       -2.08630791757201       -0.41208429623371
H            3.08024218424759       -2.64410231498973       -1.53004428778875
H            2.86838410328543       -2.42551105309183        0.22072615038893
H            2.10527004633126       -1.77886293022560       -3.47359734210104
H            2.92476386841153       -1.14243824984985       -5.70189775201889
H            4.08691931555055        1.00824402326801       -6.02837000851819
H            4.41247177894337        2.53498209191114       -4.11631065070676
H            3.59885731315495        1.89413583099459       -1.87321575594744
H            2.17423555443496        1.39721932818716        1.33166632363284
H            3.98112747822777        2.28943394746007        2.81682161834279
H            6.31177994076303        1.56408361800279        2.46194155341342
H            6.85484307854519       -0.01315201100215        0.64862724727739
H            5.06687859513608       -0.86812650970873       -0.82421388446079
H            1.72842098044225       -4.82546343651762       -1.34402499445215
H           -0.53849805545586       -5.84368239417032       -1.12881428116034
H           -2.36974532931489       -4.43141113288612       -0.18001513618750
H           -3.14318360740501       -2.19999541177575        0.54188289516835
H           -1.79846418192279       -1.75593812776194        1.62895253179628
H           -2.30672197307572        1.55794975803779        0.70413605520698
H           -1.73073107277236        0.44242359469422        1.92217727746006
H           -3.99329854530617        1.15452159937762        2.47538502077332
H           -4.63053471295052        0.63522161863643        0.92317669421376
H           -4.05201351551534       -0.56062356434616        2.09133451536934
H           -3.98706952650112       -0.66184269721959       -0.81386908416172
H           -2.60076208757117       -1.02469593592258       -1.85018114635970
H           -3.46444375865071        0.99590703328691       -2.72357274831408
H           -3.71862740501985        1.72125878130600       -1.13732120445463
H           -2.07526242650037        1.51023884864350       -1.75924512519230
C           -0.19415108203698       -0.09604719525743       -2.16536899027646
O           -0.28844310919979        0.00091009350568       -3.31660426038724
H            0.38512569269776       -0.15708996070228        0.98908846108434
H            0.06785119499386        1.24832909978985       -0.40526441185252
