59
 energy: -70.636220962888 gnorm: 0.000091776238 xtb: 6.7.1 (edcfbbe)
Co           0.33123506956547       -0.07266325364121       -1.10303291599168
N           -0.19911043244446       -2.75363391028804        0.28921119319438
C            0.19524791499436       -1.92815833513952        1.41343618092538
C            1.67192761132503       -1.45849898979910        1.41987527891845
P            1.97043333622120        0.03230817803482        0.36087957916123
C            2.03849731046400        1.43175999460055        1.57998272195187
C            0.65231987329062        1.58331486287654        2.20556193052408
C            2.48476920914594        2.74226229716463        0.94125046477363
C            3.65737606481136       -0.28963220575408       -0.35478950865714
C            4.77360140989749       -0.13078311572538        0.67322942612045
C            3.87739626783593        0.55371835415268       -1.60821600912679
C           -0.07398237118687       -2.21401383786870       -1.03515017164060
C           -1.26320587773621       -1.42865406275102       -1.61377584823796
P           -2.07129709746644       -0.27026257837327       -0.37821630570102
C           -3.16628469803702       -1.48018295995422        0.55450921152251
C           -4.35999380468562       -2.07072319546961       -0.18694616690029
C           -3.60240488473110       -0.83390970225666        1.87013949347108
C           -3.11657129560298        0.77124147887843       -1.54903489038586
C           -4.07938860588097        1.61611263788936       -0.71566801133916
C           -3.83180032943342        0.10718346640924       -2.72332450297507
H            0.24707440498367       -3.66088822710549        0.35238991342289
H           -0.45789823731286       -1.05110576228915        1.45459756675665
H            0.01123989286617       -2.52457456784022        2.30982528482355
H            2.32047311960206       -2.27044935161349        1.07416763502784
H            1.95337383047399       -1.21340860221297        2.44664195317955
H            2.76424453129624        1.13338532788382        2.34902398653882
H           -0.09840530751215        1.72056619942342        1.42543331629415
H            0.38525023395671        0.71782052567504        2.80734395917897
H            0.63480419343063        2.45758442012054        2.85277901933951
H            3.49142411060244        2.67766496984281        0.53749369220732
H            1.80612443077775        3.03567467185271        0.14463067357642
H            2.47974622363654        3.52963424810478        1.69297656885073
H            3.61586441784425       -1.34485366042028       -0.66494171624895
H            5.71267143691173       -0.47366080660457        0.24216430272507
H            4.57624537345328       -0.72302605729971        1.56547775027028
H            4.90217903138382        0.90837089966980        0.96410805429107
H            3.03502955353360        0.43873389783230       -2.29421956563361
H            4.78379272517997        0.23385491565788       -2.11833160154477
H            3.97889818716337        1.60861126570813       -1.36918141581463
H            0.15519959276949       -3.03441788573949       -1.72590879285609
H            0.86504476393976       -1.53765665284455       -1.09564375006767
H           -1.98114041827532       -2.08390490319878       -2.11357296425088
H           -0.82424379037490       -0.73979828400726       -2.39779289540924
H           -2.47964907681313       -2.30434410718665        0.78883532835146
H           -5.13959415510671       -1.32938746617760       -0.34338582022721
H           -4.07448439859868       -2.49843359265525       -1.14565968259554
H           -4.78705226583793       -2.87162299960576        0.41601680493374
H           -4.33168348503439       -0.04548221500605        1.70002182249740
H           -4.05979171215081       -1.57906700341334        2.51876802051569
H           -2.75105908483238       -0.40097757576790        2.39407871882418
H           -2.36628769905679        1.45771191615343       -1.97322688613269
H           -4.91943749280213        1.02210165834166       -0.36390581944288
H           -4.47784223867296        2.43382815815250       -1.31416950708554
H           -3.56809161721856        2.04294997852464        0.14709841163660
H           -4.29424117179643        0.88759102064762       -3.32751673736905
H           -3.14656732123448       -0.43760104729605       -3.36923561965601
H           -4.61964600826979       -0.56438733510680       -2.39956715537342
C            0.29991139349135        1.60481300311334       -1.58059036460872
O            0.26418569651457        2.66933364381425       -1.98663660324600
