49
 energy: -80.943987848787 gnorm: 0.000189104443 xtb: 6.7.1 (edcfbbe)
Co          -0.21763252095670       -0.31687015222384       -1.00100639122775
C            2.49899128291078       -2.01850223867788        0.14354987982954
P            2.69118553663992       -0.17394548452085       -0.02721007649739
C            1.22814028019263        0.41518381424905        0.94310037727577
C            0.58789608888581        1.61374950329585        0.59161748404652
C           -0.42996666121541        2.12036710014432        1.38928349555226
C           -0.82136745881985        1.45069572241506        2.53511742744662
C           -0.15448632851390        0.29667587153722        2.91877167170363
C            0.87441328979897       -0.20559426555743        2.14531046128668
C            2.00533414981286        0.01723135705396       -1.73999902743116
C            2.33656261984038        1.22489557037878       -2.37763867233645
C            2.07956753199577        1.42663799205705       -3.71767063029030
C            1.47787614409104        0.42377722942697       -4.47055571356303
C            1.15549277166640       -0.77998069221485       -3.87607039176347
C            1.41409384635667       -1.00738798030771       -2.51921218930727
C            1.14231002862249       -2.65726997532814        0.22758095787619
C            1.11559379511916       -3.99303517696899        0.63226713712246
C           -0.09163304181482       -4.64686855432299        0.77834891950953
C           -1.25559919372244       -3.91708387741348        0.60549314304943
C           -1.16550417386201       -2.58363040302458        0.22767849699819
C           -2.31549589829802       -1.68803010838595        0.17258046615917
C           -3.57448915811079       -1.99872444209773        0.66753136042183
C           -4.55241730123612       -1.01496650413256        0.68120574794880
C           -4.24011626287610        0.24951737508127        0.22459039997563
C           -2.95518642415461        0.49216474759283       -0.26422454750875
O           -2.57006212844305        1.68659291330049       -0.71123018592965
N           -2.02507792431930       -0.46299421218356       -0.30879128689191
N            0.01912649003312       -1.98343858873871       -0.03138274158211
H            3.06875863260501       -2.44914115039015       -0.68972453883713
H            3.05385375537841       -2.30067019153609        1.04684215995086
H            0.94560528852247        2.20283513977657       -0.24295261160430
H           -0.90271880097753        3.05136205643776        1.11493260414867
H           -1.61971762620820        1.84110198559243        3.14879481628662
H           -0.42778970657782       -0.20659752582684        3.83487772463830
H            1.40646155596238       -1.08482166028468        2.48169939579629
H            2.84948172782644        1.98999608621505       -1.80859901944464
H            2.36789741221298        2.35481634593329       -4.18796682913563
H            1.29278138773357        0.57607721715615       -5.52292384360872
H            0.73369371131087       -1.57807701305446       -4.46997467613924
H            1.35171237828311       -2.03345941887450       -2.17782460305634
H            2.04663044080015       -4.50650484173526        0.81752402650170
H           -0.12712058470027       -5.69017584087173        1.05058880193560
H           -2.21579932879996       -4.38104902092130        0.75463576653339
H           -3.79443633674944       -2.98093806517787        1.04940719033914
H           -5.54013653964947       -1.23111736542481        1.05725995641319
H           -4.97004229146048        1.04491815218369        0.24041371413278
H           -3.28927727375477        2.33622152688801       -0.68848219198114
C           -0.65037063883593        0.92728598376055       -2.15021002414723
O           -0.88912588964807        1.65005546531677       -2.99639026796085
