55
 energy: -71.013089544652 gnorm: 0.000127335275 xtb: 6.7.1 (edcfbbe)
Co          -0.23727663997894       -0.20081134467458       -1.61435290322193
C            1.95678884744375       -2.02070222245728       -2.05552127747263
P            1.97249422229298       -0.26006019895622       -1.40670805394421
C            3.16281909182903       -0.45220217669617        0.03851298196296
C            2.52278876027049       -1.32698634133728        1.11446221758987
C            3.48986927461159        0.92175471364126        0.61895960107921
C            2.97936087760612        0.55198382550760       -2.75730590660317
C            4.42655774879955        0.08424097236395       -2.88194580974888
C            2.88647443657286        2.07423851719652       -2.68161367232273
C            0.86866954523953       -2.71139994941483       -1.29917351323177
C            0.88663696567190       -4.06374718966437       -1.00303273742265
C           -0.08909508489620       -4.58397821612581       -0.16333691531498
C           -0.97717110959699       -3.70393534470225        0.43512651861429
C           -0.93505226663378       -2.35948908302981        0.09601411024507
C           -1.70974690258464       -1.33813976484996        0.89069403836634
N           -1.90300642528059       -0.07159064650977        0.18306735129722
C           -1.64572962043810        1.08700880313449        1.04609550261657
C           -2.59588316659021        1.27168070722420        2.23478190617265
C           -3.25020606653794       -0.06503389002304       -0.40567466371738
C           -3.58058083090410        1.18941338225938       -1.20172602054690
N           -0.08849173940603       -1.89567213080851       -0.82791726030367
H            2.90771935602512       -2.55225232065138       -1.95753624483841
H            1.69749618241205       -1.94792083912428       -3.11751560151014
H            4.07795165331664       -0.93802725887305       -0.31860070003766
H            2.36665347240604       -2.34664280924184        0.76629261711748
H            1.55966844155437       -0.91201606199819        1.41255271967418
H            3.16195988337010       -1.36703487585696        1.99657302414717
H            4.13283215252896        1.49166975025038       -0.04648232809769
H            2.57269515265554        1.48929593480143        0.77912935998981
H            4.00282318789761        0.81995491913737        1.57526049907710
H            2.42649993110152        0.24372048385514       -3.65741959549436
H            4.49355332147502       -1.00057060036969       -2.93246875350416
H            5.02767614780807        0.43478860177170       -2.04601917825708
H            4.85863734606956        0.49020873631942       -3.79596296172197
H            3.48298666172586        2.47628198111113       -1.86689843601818
H            3.24075299204489        2.51734708142783       -3.61140230182969
H            1.84963937014532        2.37022837743419       -2.53171743873645
H            1.65652032691709       -4.69678723657675       -1.41804481687657
H           -0.12087186753518       -5.63947124932781        0.05898574523914
H           -1.68979830422786       -4.05099307959371        1.16771713856872
H           -2.66318860884089       -1.77170670014145        1.22562816355204
H           -1.10595488725729       -1.15712273608464        1.79028928215902
H           -1.67465817281611        1.97641148789422        0.41583346852211
H           -0.62127581800224        0.99110845225891        1.41808670016553
H           -2.62756869838731        0.38388555252429        2.86375754331634
H           -3.60615871307283        1.49892094288185        1.90432983081924
H           -2.24586883364513        2.10429482018301        2.84061397308448
H           -3.30125414212558       -0.92570188144280       -1.07883941168435
H           -4.01204713497925       -0.20836064673987        0.37892855134022
H           -4.48165054159162        1.01602326804749       -1.78554176882096
H           -3.75281033408505        2.04621657249269       -0.55556499381639
H           -2.76183136265604        1.41294157931659       -1.88102707429211
C           -1.18047556419132       -0.73579069896515       -2.97830857931197
O           -1.60991369877230       -1.03663460149790       -4.01521287602516
H           -0.33390605324072        1.14232534194053       -2.15710035695084
