55
 energy: -70.189443213889 gnorm: 0.000267644658 xtb: 6.7.1 (edcfbbe)
Fe           0.14872852284948       -0.22764100891812       -0.18853568901070
C            2.36333981300905       -2.20954830044822       -0.71608770250034
P            2.26043891759874       -0.51977484160617        0.06289039078326
C            3.70532568997544        0.41360090378963       -0.66731716017484
C            4.90863670119170       -0.47498955779475       -0.96941533815347
C            3.25928082517727        1.18793025719937       -1.90333785684960
C            2.82451718113407       -0.76415166787306        1.81384486076787
C            2.16021803940299       -1.96197926060744        2.47977157873704
C            2.48724663970380        0.51804491994996        2.57181270803348
C            1.08790378144607       -2.90023209240969       -0.36734673978368
C            0.95580040091340       -4.26897132057386       -0.21624013440119
C           -0.25674717392392       -4.79383884826769        0.20075364980883
C           -1.29980482023206       -3.92950994720151        0.50001214922812
C           -1.11662380639580       -2.57257011633568        0.32834857039183
C           -2.10599829587244       -1.51991718831575        0.71757762567526
N           -1.84183650145377       -0.31601275567973       -0.09069644799219
C           -1.98185086020780        0.96172780944889        0.63468353833900
C           -3.38364864309495        1.55232632833537        0.71251137453405
C           -2.64237689783510       -0.33108508620113       -1.33307231942149
C           -2.44430301756225       -1.57818659227657       -2.17855212940744
N            0.04551408956636       -2.07971840744866       -0.14593082494476
H            2.41639904164787       -2.04829430604047       -1.79992696948410
H            3.23675705231796       -2.78779802307041       -0.40392793893246
H            3.98864252964838        1.13683926685600        0.10944041723850
H            5.76563416738978        0.15015754455352       -1.21775835991439
H            5.18198532219520       -1.08904547086399       -0.11365757333202
H            4.71446366577122       -1.12367957044506       -1.82029477097181
H            2.38275668057158        1.79658420591016       -1.67791189692649
H            3.01296628743387        0.51169026188115       -2.71912693544300
H            4.05735207865085        1.84600612657077       -2.24435772861385
H            3.91392686650175       -0.90804668211890        1.79481570104398
H            2.46368289677437       -2.90242075054563        2.02460819867061
H            2.43879638470765       -1.99174363493593        3.53239612238889
H            1.07887986703710       -1.87086665234359        2.42003718484547
H            2.85736179276243        0.46456087703311        3.59416033679151
H            2.92535151682842        1.39523881667401        2.09625016607465
H            1.40792208441821        0.64486750439445        2.59944311081240
H            1.79971560775132       -4.91193969647235       -0.41232252379957
H           -0.37882244964049       -5.85914300074596        0.31843418049949
H           -2.23978095613699       -4.30289312326178        0.87461667320033
H           -3.14017109676247       -1.86037742120240        0.61549194487730
H           -1.91621457779426       -1.27535053334097        1.76756847991059
H           -1.61119957539636        0.80697035830866        1.64891334293308
H           -1.29307857436193        1.67488851958050        0.12626351850031
H           -3.36549929335310        2.40169718641078        1.39164871753796
H           -4.08128104544194        0.81917500004295        1.11152418378030
H           -3.74223512238495        1.90475119379837       -0.25048097640577
H           -2.34945721149955        0.55105586549690       -1.90631128670209
H           -3.70299749861445       -0.25195619895870       -1.07642745063698
H           -1.39184970199003       -1.78114536488342       -2.35607941201503
H           -2.92365571432611       -1.42087927335578       -3.14249732479621
H           -2.89245406872094       -2.45654970912378       -1.72246307576919
C            0.30373838957492       -0.10903236406440       -1.92931019130310
O            0.47062723532769       -0.03955221046948       -3.06088304266454
H            0.13628848064464       -0.34280908814851        1.20036969069819
