50
 energy: -81.797901913689 gnorm: 0.000575706629 xtb: 6.7.1 (edcfbbe)
Co          -0.68046121684444       -0.52497753042046       -1.35977921482896
C            1.70823549553098       -2.18694457268953       -2.08643698631561
P            1.57883366450322       -0.36331001796700       -1.69204041362890
C            2.59054619072709        0.39723225898915       -3.00057069617222
C            3.46757268044303        1.43821864338039       -2.70466614324815
C            4.17529984018909        2.06179134614149       -3.71598242841405
C            4.00361440041812        1.66585607759353       -5.03274859166022
C            3.10725278467038        0.65378068804719       -5.33768056876561
C            2.39607036122314        0.02919729061641       -4.32961063771678
C            2.71552830447366       -0.34673914318757       -0.25819644280901
C            4.05104106613373       -0.72704359289975       -0.35767036823423
C            4.84244909489001       -0.76746900832842        0.77518273711340
C            4.31029229623319       -0.43266723730988        2.01160342991094
C            2.98401496507262       -0.04791183995203        2.11474047159550
C            2.19027399009496       -0.00372926598163        0.98161371901703
C            0.95935352460489       -2.81493254833186       -0.95603465216168
C            1.35872610719330       -3.97369177404640       -0.32563473403835
C            0.65626860928954       -4.41271373839206        0.80017816447258
C           -0.37041915950569       -3.63850470707617        1.28791194656192
C           -0.72311153482382       -2.46345376234346        0.61325324285759
C           -1.66436642276064       -1.47612693052306        1.07678907045292
C           -2.55692228370577       -1.66412929975377        2.13441674579702
C           -3.36075796118656       -0.62064840903534        2.53405177232922
C           -3.24431485297449        0.60035807846430        1.87472259103284
C           -2.35348698966761        0.71718679203510        0.81894023164610
O           -2.18161395793884        1.88216530608909        0.16644040959231
N           -1.58212837293596       -0.29538631836289        0.39377987339970
N           -0.09686894717966       -2.10193823764578       -0.53086640863817
H            1.19430628403095       -2.36878439543236       -3.03501459866372
H            2.73797789935101       -2.54553684403573       -2.15566768762547
H            3.59485903860442        1.75512103358059       -1.67818584492695
H            4.86068576519629        2.86240628143286       -3.47697816736608
H            4.55839174239528        2.15278111671918       -5.82146982240566
H            2.95778602244749        0.35526452627685       -6.36544467981847
H            1.67649444111174       -0.73957858348755       -4.57519377400568
H            4.47032276315307       -0.97881290618771       -1.32268253329561
H            5.87926799299464       -1.06222050201538        0.69635276974435
H            4.93314546638772       -0.46903204338008        2.89372419413387
H            2.56907416555558        0.21821975142897        3.07653556125084
H            1.15235974319730        0.30238292882060        1.04467965603848
H            2.20696882908132       -4.52723416757668       -0.69738386652157
H            0.94413044142349       -5.32617761753124        1.29758474281556
H           -0.88735050208707       -3.91705022000273        2.19195598809715
H           -2.61896541890649       -2.62368806046457        2.62098548026612
H           -4.06148412443130       -0.73612639475548        3.34609597043998
H           -3.83467563190984        1.45237821063152        2.17828649909006
H           -2.79686798164973        2.55277738811316        0.49320467825042
C           -1.37952035499981       -1.16310088041528       -2.82332029054769
O           -1.88689388649445       -1.49541118717291       -3.81156777146640
H           -1.13229173703969        0.73909030558938       -1.88298752765562
