47
 energy: -70.121399202667 gnorm: 0.000168105638 xtb: 6.7.1 (edcfbbe)
Ru           0.01047634687340       -0.26752658949407       -0.36434727392102
C            2.36332792188511       -2.33944884337431       -0.05085266801171
P            2.27695816099039       -0.52747353373484       -0.53490943050835
C            3.23625402627929       -0.56676460799050       -2.13488043937111
C            2.56104859480818       -1.51834428922112       -3.11962116779784
C            3.30202732787834        0.84370259757295       -2.71331839517834
C            3.38241084520930        0.27506440911058        0.72895359763720
C            4.87685441417287        0.00920737303272        0.58924502754290
C            3.04057127798335        1.76522312935602        0.76160578210811
C            1.04138154930248       -3.03113302890193       -0.27300830964083
C            0.91727328363049       -4.41203358663856       -0.30673660048214
C           -0.34890685055430       -4.98709258908359       -0.35340457449910
C           -1.46625012834578       -4.17171788864622       -0.30807184440693
C           -1.30092920006264       -2.79014599187852       -0.29026591867076
C           -2.36486562792452       -1.78593158079780       -0.18112662673345
C           -3.75338975985271       -1.89889215309399       -0.11722361724458
C           -4.48606521019201       -0.71608143276444       -0.00680225584970
C           -3.89511384639225        0.53629295904391        0.02246451504573
C           -2.48658599400055        0.60580339458946       -0.05896850478272
O           -1.67693254288920        1.59361458706475       -0.11082884338989
N           -1.83799044523848       -0.56730015477630       -0.12650548322844
N           -0.04687246953973       -2.25014293503623       -0.33648680462143
H            2.53955741311573       -2.34224023287383        1.03320289178069
H            3.18689221862341       -2.87357427432819       -0.53186536374534
H            4.24630005351257       -0.93373259705773       -1.91714867039290
H            3.09264418136767       -1.50621735114755       -4.06996245729578
H            2.54548246851910       -2.54268641011303       -2.75257055300716
H            1.53334960459338       -1.20803692082323       -3.30486609144938
H            3.93794506659842        1.49011017422106       -2.11319311859463
H            3.69854234139361        0.82428824876724       -3.72741489163466
H            2.30150900117984        1.28069162983059       -2.74328075426333
H            3.02110924393909       -0.16295554024721        1.67095600570367
H            5.07939545372314       -1.05837257997791        0.52422055748305
H            5.39742774202046        0.40250150757516        1.46098058460744
H            5.28343884092574        0.49991950933797       -0.29193287139598
H            1.95016629023725        1.88839012195245        0.69493020032009
H            3.49682903439587        2.29985959435176       -0.06857706574357
H            3.38363065453950        2.21940514811156        1.68929607015154
H            1.79994280476108       -5.03185980689415       -0.27811646955689
H           -0.45697639820161       -6.05964799168229       -0.39020071376227
H           -2.46065683952876       -4.58776333742956       -0.28345866841860
H           -4.24928545201960       -2.85467159601272       -0.15292133279022
H           -5.56365683800209       -0.78067438447224        0.04930502150824
H           -4.48605706436156        1.43578453009840        0.09078599007322
C           -0.34587477302428        0.05522011744634       -2.15620369365435
O           -0.72369057137683        0.37287062368545       -3.19496809952863
H            0.19291180977998       -0.28526183846224        1.18777612411000
