62
 energy: -92.032089923144 gnorm: 0.000144951335 xtb: 6.7.1 (edcfbbe)
Co           0.07308993779230       -0.64161743292369       -1.04648991123559
N           -0.00160378158418       -2.37766474702282       -0.48625523754238
C            1.22393646896780       -3.11240033774055       -0.62485286753039
C            2.32970488254788       -2.35625961410053        0.13111070083162
P            2.10974590564744       -0.50924505836153       -0.07081629186851
C            2.71069688963183        0.06958756876719        1.56060010920757
C            1.97724318710986        1.04525336300713        2.22467374548556
C            2.38598571145311        1.51292180889049        3.46193271204510
C            3.53705846314548        1.00744880910059        4.04210620563863
C            4.27931676728009        0.03956268722861        3.38143848794362
C            3.87140604727576       -0.42868330658845        2.14635439677797
C            3.54320382559114       -0.07837025893246       -1.11414588863140
C            4.37740318436801        0.99566771557698       -0.82099789615308
C            5.41547986008121        1.32398447231953       -1.67530242138719
C            5.62417090746498        0.59407613694536       -2.83381390401283
C            4.78123730501929       -0.46186062067555       -3.14432717316826
C            3.74302587796861       -0.79131371463432       -2.29405811338258
C           -1.22180339663324       -3.06252665099190       -0.81063352633818
C           -2.38750717062851       -2.27198804742897       -0.19442697535874
P           -2.05623665412286       -0.43445759401786       -0.30261007265469
C           -2.86794353550724        0.04115386304634        1.27099233740297
C           -4.24833291956724        0.08119410269873        1.44114870016647
C           -4.78278617079017        0.39927877901975        2.67667115662145
C           -3.94971633793193        0.67071532357613        3.75131474883524
C           -2.57480035341424        0.61721401440409        3.59164154869725
C           -2.03838210935764        0.30429860554259        2.35538505228964
C           -3.25783891935362        0.15017902350998       -1.54031335761257
C           -3.52200070501550       -0.60013256408845       -2.68247593336710
C           -4.35803813292206       -0.10431724235200       -3.66635256302030
C           -4.92667235927621        1.15172285112096       -3.52940851373096
C           -4.64310153221328        1.91831484139599       -2.41006238442751
C           -3.80655664514418        1.42564048022910       -1.42575019006978
H            1.10872435117760       -4.11670029168649       -0.18982435582569
H            1.50024495116054       -3.24962921341750       -1.68523581060531
H            2.22031053228122       -2.55800153065923        1.20062209888798
H            3.32375124690240       -2.67248684543444       -0.19308215971573
H            1.08339928422934        1.44126579966556        1.75746615013607
H            1.80872156814023        2.27127934803282        3.97182656137303
H            3.86021908211996        1.36897897362353        5.00770634627599
H            5.18152326213588       -0.34850782397182        3.83273290087565
H            4.45738582517181       -1.17443126929437        1.62733241864328
H            4.21657924645515        1.57497223421811        0.07812724668780
H            6.06313368726904        2.15584868415707       -1.43660059901142
H            6.43598119762214        0.85244965001919       -3.49831830173040
H            4.93209305966251       -1.02483931637586       -4.05467200756158
H            3.06838902688792       -1.59855705962898       -2.54603264521325
H           -1.35218697987343       -3.16493304477574       -1.90222151440178
H           -1.20673881245251       -4.07857163574376       -0.38868626631129
H           -2.43338214699672       -2.49999279393895        0.87457041089445
H           -3.34872640598349       -2.52642586295308       -0.64629782083889
H           -4.90188645091860       -0.13366989355386        0.60703732357232
H           -5.85564681231805        0.43320932552933        2.80407666653670
H           -4.37404832815676        0.92046531287956        4.71318505740642
H           -1.92246753454117        0.82036364843224        4.42921586666096
H           -0.96517065741327        0.25023182525254        2.21978756746428
H           -3.05933240688567       -1.56931020109583       -2.80665783098279
H           -4.56282787405573       -0.69682872521756       -4.54700978311031
H           -5.58006502603031        1.53742249994803       -4.29864432672659
H           -5.07131662231583        2.90561458375384       -2.30808917653925
H           -3.57703057520249        2.02908122988656       -0.55671546629275
C            0.13481329100432       -0.61535686721495       -2.80294560612626
O            0.16787949885045       -0.16618615056968       -3.87549144544927
