60
 energy: -75.945462020954 gnorm: 0.000223720347 xtb: 6.7.1 (edcfbbe)
Mn           0.11054177727194       -0.20260023737437        0.39420248843116
N            0.02801270888486       -1.98687215247842        0.87448037556040
C            1.12111094545587       -2.94902131788411        0.80861451408207
C            2.15169552780760       -2.57838213103733       -0.25319360337434
P            2.15896405095582       -0.73907493145029       -0.37039590920921
C            2.72200839451101       -0.58972381139660       -2.15410042987138
C            3.35923825626036        0.74694189623167       -2.51834906099986
C            1.52581988952838       -0.84105129842235       -3.07227429025864
C            3.68977352035861       -0.25204647715526        0.58261947279999
C            3.70380678464597       -0.94741470587417        1.94313185047352
C            3.70212901107678        1.26007408497223        0.80357348008723
C           -1.05972974319032       -2.63459673349986        1.59338888669392
C           -2.20825081155831       -1.67196698962202        1.88823531717115
P           -2.10383470796154       -0.42617716480700        0.54693121778529
C           -2.89283449129349       -1.36797306984493       -0.86851333237326
C           -2.47193703029512       -0.78053306767776       -2.21398295963142
C           -4.40482245500621       -1.54943281687939       -0.77431688288242
C           -3.36047368098911        0.85604884576623        1.04633340199318
C           -2.90614635734839        1.54737524224410        2.32923955789951
C           -3.51578823145989        1.89534288378306       -0.06213629314593
H            0.71905623054422       -3.95427730504814        0.58280476477601
H            1.60390634121241       -3.02469823349674        1.79873027904396
H            1.82961397253211       -2.96777565450299       -1.22432207647779
H            3.14304313013341       -2.98258973955997       -0.03429968281239
H            3.46414987759835       -1.39175944023024       -2.28915228338941
H            4.31418756774725        0.88790612791370       -2.01872399190979
H            2.69186001169509        1.56808764661852       -2.26026365449791
H            3.53635225298761        0.78145116439992       -3.59336769691145
H            1.85762689435262       -0.98528775332383       -4.09997236108202
H            0.95784863737103       -1.72286038649997       -2.77389362204468
H            0.86010612930641        0.02120150452244       -3.04756600681865
H            4.56449766358467       -0.56043732572587       -0.00694318788765
H            2.74883136117007       -0.78345762575535        2.44556960150054
H            4.49035370130246       -0.52522346855525        2.56732334479354
H            3.88273111104033       -2.01711771162260        1.85910920289052
H            4.60626617532165        1.55442592906742        1.33504875486411
H            3.65342322349447        1.81578414857720       -0.12757600645746
H            2.83768008651528        1.54555348959669        1.40282215146940
H           -1.43692506118079       -3.49312342324101        1.00526362663942
H           -0.67597676502689       -3.05954607001865        2.53927262452224
H           -3.17337649947768       -2.18157824435474        1.94532955951099
H           -2.01834260398938       -1.14877579998988        2.82936261171822
H           -2.42205054511884       -2.35979949183433       -0.78394380311279
H           -1.39378653699725       -0.60444296600422       -2.21744646892483
H           -2.96659928496038        0.16760928339260       -2.41070888138426
H           -2.71551661247961       -1.46755254850427       -3.02444022007595
H           -4.72964968646062       -2.26663021846243       -1.52818529422792
H           -4.92853909831422       -0.61422245799726       -0.95653203725551
H           -4.70281145944404       -1.93020060735901        0.20139297353964
H           -4.31494496560727        0.34511666892706        1.22633288737056
H           -1.91690705473510        1.98254491154216        2.18283472105232
H           -2.86189666878334        0.85854581363277        3.16972054169695
H           -3.59909009037965        2.34722023839432        2.58683559771530
H           -4.13988853723064        2.71972199005214        0.28076224976639
H           -3.97622921651567        1.47486580674291       -0.95228767864052
H           -2.53832035165886        2.29535231316617       -0.33129963326759
C            0.04703392361692        1.21455841257618       -0.65334548532248
O            0.03790505891471        2.15745408448111       -1.34331775990417
C            0.42489326637949        0.75404846016855        1.84394271406984
O            0.61494001487423        1.29834045785906        2.85964785061520
