60
 energy: -71.528808397148 gnorm: 0.000073410520 xtb: 6.7.1 (edcfbbe)
Co           0.34145799338703        0.26306564831002       -1.32177489667068
N            0.45567545698963       -1.84449437162362       -1.76158968491910
C            1.68074628548758       -2.47010036960840       -1.25461546874029
C            1.90690247614052       -2.10040093396114        0.20871475279427
P            1.74159871762565       -0.25158999029592        0.33344567539654
C            1.31139991886368       -0.03868670613709        2.14431876384395
C            1.28672408183065        1.44991365350107        2.48282127741706
C            2.06913446224440       -0.83845687908292        3.20181908504869
C            3.53111103561430        0.24445094477558        0.05356419045982
C            4.54200738472215       -0.10869714440484        1.14030118568227
C            3.62715674288083        1.72481659961234       -0.30502074250200
C           -0.74976680522413       -2.59465026476620       -1.39589079795733
C           -1.98564426739658       -1.73516621049884       -1.62647354183764
P           -1.82429993305200       -0.24434968428182       -0.52266572457058
C           -2.44391147812163       -0.97720403078113        1.10791112985321
C           -3.69073486937217       -1.85772747458200        1.05956364929808
C           -2.62324048864174        0.15402964768769        2.12001287063772
C           -3.28964811616271        0.81512060588645       -1.03417773040216
C           -3.59808943362045        0.71989693016608       -2.52491750355654
C           -2.95655250633042        2.26405763278345       -0.67908714421727
H            0.50397878392143       -1.84728985658804       -2.77953519090295
H            1.63845000045225       -3.56424922109303       -1.37520407044941
H            2.52023905134278       -2.09521084665884       -1.84750910096945
H            1.14210180358286       -2.55560778994896        0.84272329354703
H            2.88575391497941       -2.45383700768874        0.53744462406192
H            0.27084152933338       -0.39422567926547        2.14667246833533
H            2.29657110567842        1.83883520741784        2.59602663057512
H            0.75160602891812        1.62288611380657        3.41616794329890
H            0.79072899004010        2.00483107429144        1.68626509876144
H            2.19044101265025       -1.88052931462768        2.91583449699586
H            1.50358983780829       -0.81075810010241        4.13363940952450
H            3.04861056943427       -0.41610679365558        3.40093270475901
H            3.78320173426855       -0.32713942066447       -0.85297392809328
H            5.55057361029496        0.00629916020083        0.74275741291320
H            4.43380737759729       -1.13361157881722        1.48752903463666
H            4.44445237785037        0.56424757836493        1.98848822299230
H            3.42420625502275        2.35240283885940        0.55948954398467
H            2.90099580290775        1.96717706693262       -1.07974971979801
H            4.62493257674553        1.96066682407499       -0.67345037082329
H           -0.68821100266293       -2.86130224557266       -0.33738273879331
H           -0.81428277103646       -3.52965963755993       -1.97484417171760
H           -2.90222064204107       -2.29880954149638       -1.45069954732188
H           -1.98074268593730       -1.38345145760059       -2.65993909974769
H           -1.60526042475826       -1.59962273308526        1.45217914914596
H           -4.51095887899534       -1.36688324764644        0.54022286686804
H           -4.01919443269320       -2.06808293494722        2.07726987223433
H           -3.49322280192572       -2.81103827391165        0.57469147791971
H           -3.54096770070843        0.70384627982071        1.92245116828122
H           -1.78584308485623        0.84947610175884        2.06822518007849
H           -2.68015255839822       -0.24374855981409        3.13328599168221
H           -4.17311702458052        0.49918270746726       -0.46836356826190
H           -3.99965157704098       -0.25444408713847       -2.79488816342495
H           -2.69843140568021        0.91236974592637       -3.10843938039678
H           -4.33775280126966        1.47362974423153       -2.79391526460992
H           -2.07603605408928        2.57871973779773       -1.23756421696981
H           -2.73814987873430        2.37574094365732        0.37999617607965
H           -3.78664278648627        2.92287324726757       -0.93231912403343
C            0.21757796222501        0.74774768553521       -2.97282081729446
O            0.14688936354175        1.13386869436195       -4.07110665451829
H            0.43515277845524        1.68579434168714       -1.06750225103633
