54
 energy: -69.958588895266 gnorm: 0.000235192604 xtb: 6.7.1 (edcfbbe)
Fe           0.06186404123089       -0.05029249350127       -0.66864819558044
C            2.20218322677684       -2.08178955017479       -1.43529345019475
P            2.13401916924463       -0.33172959316294       -1.21653239118386
C            3.51111554827157        0.10804113440963       -0.01808356956966
C            3.31585233809004       -0.75137537227355        1.22502518271220
C            3.47162663857395        1.58720307107332        0.34606117086332
C            2.63806684931910        0.45916802416558       -2.84244233207577
C            4.12501242975186        0.40336550918142       -3.17098191512288
C            2.07628644877755        1.88139661102334       -2.91155532092856
C            1.13783313243280       -2.74175290237286       -0.85134519301749
C            0.99435005555669       -4.16053156520302       -0.77458853335456
C           -0.08972924966414       -4.71226854700475       -0.16213516562944
C           -1.06743848704044       -3.88450549845571        0.41812454982536
C           -0.90392595337663       -2.51993085391268        0.31153631011247
C           -1.82804571679174       -1.52733736375361        0.96961266797871
N           -1.93495609865442       -0.28645391113334        0.17737957859373
C           -2.23698076245685        0.87227929353205        1.03745641359154
C           -3.61095735267052        0.87499163053322        1.70995914970453
C           -2.94333336110110       -0.47118197549668       -0.87909705327829
C           -3.08744321352940        0.75462236352743       -1.77442776701741
N            0.13150791549062       -1.96787476039232       -0.32066497127451
H            3.06028942963896       -2.60481618275252       -1.83196503408783
H            4.46740423167087       -0.15127932210309       -0.49126343535133
H            3.40077387625291       -1.80891972469673        0.98081616498493
H            2.32060923213785       -0.57576806596383        1.62731880998481
H            4.05637362059178       -0.50562408051449        1.98567132634701
H            3.76603433081267        2.21812472925788       -0.48983024996183
H            2.45839135189720        1.85053271771879        0.64733810489151
H            4.14540230199322        1.79360531179200        1.17793945025171
H            2.10444809565275       -0.15895451549420       -3.57668879359436
H            4.50038005117387       -0.61164140171651       -3.05274336210496
H            4.69898217381262        1.06513355988419       -2.52529407562741
H            4.29217493151634        0.71098614807347       -4.20370223891874
H            2.72954869359099        2.58826463345992       -2.40495392232861
H            1.96270932659639        2.20728612700796       -3.94548557917378
H            1.09262755515905        1.91551834057715       -2.42199432629636
H            1.76547126004445       -4.77547200158540       -1.21483392417040
H           -0.20176343664095       -5.78653997852273       -0.10778235430816
H           -1.91334502119514       -4.30317343003847        0.93874700653710
H           -2.81369709802045       -1.97345155196437        1.15272616373346
H           -1.37209664206462       -1.26662699210287        1.92948957111630
H           -2.11844032711612        1.77674736309228        0.43075331436855
H           -1.46496232920564        0.89884058403903        1.80789735249046
H           -3.76192141395149       -0.02863009422078        2.29535579408599
H           -4.42020952566565        0.96791521028294        0.99011314397595
H           -3.66546520731744        1.72615535625462        2.38490143721802
H           -2.61660824237738       -1.32331086324396       -1.47944027889483
H           -3.91625946222801       -0.72726899251515       -0.43818891028050
H           -3.55573044584209        0.46999463492692       -2.71329842301330
H           -3.69512843565640        1.52793916761327       -1.31054659940644
H           -2.10039345098896        1.16798782381604       -1.99772566962423
C           -0.28412621847418       -0.46623318083709       -2.32062800113210
O           -0.47998600645739       -0.76954377489982       -3.41942522863789
H            0.47865132560502        0.31363948841690        0.69542131342616
