49
 energy: -80.898858979323 gnorm: 0.000165381874 xtb: 6.7.1 (edcfbbe)
Ru           0.00838977019610       -0.30784914612142       -0.35816028303621
C            2.26448948653470       -2.24949771915276        0.64360269566894
P            2.09648865615072       -0.37221818449197        0.57489266389936
C            3.63556830398042        0.11423757858419       -0.26285556008219
C            4.88043216649690       -0.42922939899374        0.04123385300260
C            6.00192798328072        0.00628371300093       -0.64088207489023
C            5.88964074964768        0.98647702371872       -1.61603913923273
C            4.65383829988845        1.54051563457955       -1.91043323084838
C            3.52809350446581        1.10413687998835       -1.23435783228863
C            2.43757691607866        0.06007379687457        2.30902540095088
C            1.75603633178147       -0.62424538833065        3.31268249548587
C            1.95163775433175       -0.28527730793351        4.63823405735862
C            2.81856171874924        0.74471381105558        4.97074848004343
C            3.48210652238487        1.44131519262795        3.97411138426110
C            3.29097819362278        1.10578849154994        2.64481223042729
C            0.91434701761483       -2.91557332554942        0.68849700868322
C            0.72482305725552       -4.20223197843983        1.17006014351793
C           -0.53981115503801       -4.77875675936751        1.10501349491330
C           -1.58615672352840       -4.06287007410810        0.54930002578492
C           -1.36021873619463       -2.76848312464272        0.09175786461584
C           -2.35110671701237       -1.86736473959475       -0.50643983124282
C           -3.70191727913353       -2.02457265674400       -0.81266148753595
C           -4.36025723440599       -0.93000297524622       -1.37733854622692
C           -3.73423824459133        0.27906813304213       -1.63135211601084
C           -2.36353030323318        0.39453497509092       -1.30880862858806
O           -1.52807151578623        1.35601302928098       -1.41751510936182
N           -1.78612398786484       -0.69691369799820       -0.78378389469079
N           -0.11363231240909       -2.21596047274707        0.18746545708004
H            2.75165457846098       -2.52909796571911       -0.30148407239838
H            2.89782738423578       -2.57877120452244        1.47208801335840
H            4.96692912119398       -1.18209453265712        0.81189802099323
H            6.96913676203514       -0.41650514596452       -0.41113703760797
H            6.76931920905997        1.32194753435529       -2.14551922633409
H            4.56839357858991        2.30849733805739       -2.66544304395241
H            2.54569423757161        1.52303753053845       -1.44476243342654
H            1.06077007729209       -1.41017294465167        3.04427197576413
H            1.42386672278582       -0.81993787663122        5.41475706527880
H            2.96901751146848        1.00992358667216        6.00697865708946
H            4.14797491889465        2.25212137056624        4.23189934724968
H            3.80139848904382        1.65521914878908        1.86517881735467
H            1.55768625001253       -4.74869066120664        1.58429116855312
H           -0.69996170418899       -5.77786790262659        1.47841812363188
H           -2.57436122810185       -4.48721512885039        0.47231872035416
H           -4.22532492384767       -2.94694415070619       -0.62352282126043
H           -5.40834795122960       -1.03031030293315       -1.62163480579308
H           -4.27082897108385        1.11193495643078       -2.05692702449046
C            0.66580297087971       -0.59167956340764       -2.07009605645049
O            1.04907682352765       -0.62395004427475       -3.15340450399988
H           -0.55168673561797        0.21049671828504        1.00695734165791
