57
 energy: -81.804585024792 gnorm: 0.000214246844 xtb: 6.7.1 (edcfbbe)
Co           0.43166627588295       -0.54849683823840       -1.10943723291607
C            2.52851301160977       -2.25329628831882        0.09087570351137
P            2.13114199361195       -0.43869940298326        0.30572190290222
C            2.05691468573839       -0.22301016010014        2.11742201641535
C            1.81327626588265       -1.24380828460552        3.03079722834315
C            1.64220650926330       -0.94986198153343        4.37345423655790
C            1.70138351814296        0.36028328125730        4.81702595032967
C            1.92476731964335        1.38640767006516        3.91016075433066
C            2.08987373153091        1.09688609294186        2.57058765837412
C            3.77753336054719        0.25821070694025       -0.05894857884680
C            4.00086729731928        0.73919419646385       -1.34420768909590
C            5.24639706305180        1.22576212450250       -1.69938754971855
C            6.27505556640203        1.23589576854513       -0.77095660179298
C            6.05728714131771        0.75482178693168        0.51064459671972
C            4.81460184569584        0.26403294042650        0.86897559795937
C            1.20377733021455       -2.92800513634412        0.21580008607666
C            1.02007136267351       -4.15589591672174        0.82979995566992
C           -0.27092254820679       -4.61747992510885        1.04698487102549
C           -1.33304889759945       -3.79744238442460        0.69755584629212
C           -1.07691257227250       -2.59032367179458        0.06756532285636
C           -2.15542652912126       -1.61499423544874       -0.29635617143745
N           -1.70096755667038       -0.24151158382861       -0.03472865691239
C           -2.67434786992496        0.73071499854513       -0.54153247317164
C           -2.75170437716908        0.78496246009077       -2.06236532828257
C           -1.44150657254240       -0.00993142640630        1.39393733770661
C           -2.64422933524564       -0.04079695147378        2.34366587709086
N            0.16870854386930       -2.19300385548752       -0.21828887816349
H            3.27757434498743       -2.63734334384541        0.78846698957864
H            2.91516957655107       -2.33937436981967       -0.93160879245319
H            1.75811440279904       -2.27290707762308        2.70443500046674
H            1.46151229879852       -1.75099448388527        5.07661489873056
H            1.56910426862249        0.58308585185069        5.86580832258709
H            1.96479803526891        2.41097899033423        4.25153002862784
H            2.25401162579190        1.88995135225114        1.85083827655124
H            3.18121529207511        0.72895585245438       -2.05176943513805
H            5.41463748660340        1.60021068462838       -2.69890665278667
H            7.24740388858730        1.61963551831013       -1.04454855184193
H            6.86057484290664        0.76123801391869        1.23389271393357
H            4.64914915800525       -0.10906129048434        1.87065257982628
H            1.87636764223393       -4.73387349238425        1.14415441807371
H           -0.44216361333749       -5.57506270193076        1.51412200286402
H           -2.35027163341728       -4.08845980558774        0.91059140556959
H           -3.09049762264244       -1.85643590516086        0.23208476377080
H           -2.33793883235494       -1.69795069470827       -1.37285003710731
H           -3.67790225583926        0.51797262205559       -0.14105411301636
H           -2.35790562140413        1.71208669435979       -0.18025873571175
H           -3.28795800676481        1.68120791561428       -2.36486918091235
H           -1.74454195414834        0.81882404185650       -2.47268625057759
H           -3.27281820282918       -0.07456121105218       -2.47734677400091
H           -0.72524001702192       -0.76104365537779        1.73777989247972
H           -0.95298362226253        0.96565076902645        1.47563086955184
H           -3.34944358933422        0.75758027451220        2.12799539213346
H           -3.16586763155690       -0.99432943484704        2.30066653112832
H           -2.28004402414614        0.09548464326473        3.35952410861529
C            0.26920031031552       -1.17219004731959       -2.72011991322139
O            0.31067129609126       -1.54891362389670       -3.81822623445880
H            0.61115569818666        0.76108205717640       -1.70671357088032
