65
 energy: -97.645436253981 gnorm: 0.000164411924 xtb: 6.7.1 (edcfbbe)
Mn           0.02235246561018       -0.21495668831506       -0.01830720195999
N            0.10880811785100       -2.31956339993763        0.58015084138482
C            0.60007934151747       -2.38258666649293        1.97658279547936
C            1.95281468224349       -1.66067414400195        2.10517405029263
P            2.01427622168273       -0.21542073488900        0.92377514864623
C            2.22934598137951        1.34156804483489        1.81762457646449
C            2.96799378080156        1.54359021757785        2.97690356656958
C            3.03397957406810        2.81490617573672        3.52270255132529
C            2.37903433933660        3.87463949057222        2.91387320355089
C            1.64570001806785        3.67750311507111        1.75172765164478
C            1.57070538746977        2.41096450753718        1.20729111349356
C            3.61829477913178       -0.46213621398788        0.10158678130173
C            3.74050484541713       -1.58602224676433       -0.71553695469750
C            4.91999077453968       -1.83120620639060       -1.39013923808749
C            5.98416930398933       -0.95028801066080       -1.26176743016955
C            5.86026015927331        0.17654871579115       -0.46617773556807
C            4.67948982702282        0.42955359980922        0.21206026094390
C           -1.16080622011487       -3.04812003224067        0.34590478124175
C           -2.35896204722541       -2.12989829336987        0.58280445725478
P           -2.13282323406225       -0.61922252405353       -0.47338374961875
C           -3.52836363316094        0.45313854941147        0.00535627222657
C           -3.99023431183366        0.51590342420010        1.31912848811746
C           -5.01758951448536        1.37955318656604        1.65403331266709
C           -5.58738446313540        2.19749576734409        0.69214505493988
C           -5.12274538421304        2.15161726145629       -0.61230816300352
C           -4.09696638404179        1.28984412700898       -0.95484409467445
C           -2.61671018603582       -1.11964747123445       -2.15764059411438
C           -3.46040247821067       -2.18417722051146       -2.45568829893965
C           -3.78490945601493       -2.45507410600562       -3.77422510679221
C           -3.28564511252504       -1.66674264460269       -4.79831803660497
C           -2.45634981939248       -0.59503586912679       -4.50641517805456
C           -2.12231698372917       -0.32683029067903       -3.19272000988699
H            0.82292368826231       -2.79672963543577        0.01621940630539
H            0.71411459095131       -3.42948363675043        2.28450522042449
H           -0.14570771039458       -1.91065544524371        2.62223459377265
H            2.10267882611579       -1.30405214663173        3.12758389573471
H            2.77756392575581       -2.33441491745150        1.84949376246197
H            3.48695578453074        0.71786485953884        3.44357963109482
H            3.60019530924061        2.98140597541270        4.42710252719126
H            2.43671677343103        4.86195060837970        3.34715018295754
H            1.13662537967122        4.50741147520441        1.28386753500026
H            0.98905511231880        2.22534536710730        0.28590954275939
H            2.89909487102103       -2.26076629736697       -0.82777821930263
H            5.01212160342750       -2.70327525287388       -2.02044207057607
H            6.90716394245288       -1.13935370884754       -1.78913447329389
H            6.68598305852927        0.86664404168595       -0.37407104592431
H            4.58988273363514        1.31654791382283        0.82300367761494
H           -1.16918372573962       -3.37495882793479       -0.69918275232887
H           -1.21689361844398       -3.92813934095389        0.99680593207733
H           -3.30199006185850       -2.63293205404674        0.35756688681904
H           -2.38513181715936       -1.81229196354364        1.62895375782164
H           -3.56088701184609       -0.10419472706123        2.09161175128296
H           -5.37359266923920        1.41479660631592        2.67325716599250
H           -6.38905961141533        2.86995506186889        0.95868244082342
H           -5.56000431203274        2.78951880088939       -1.36639013275055
H           -3.74355100871216        1.26180457971655       -1.97646162749230
H           -3.87256316229975       -2.80438282886613       -1.67429115622808
H           -4.43554240602308       -3.28618798252411       -4.00328931171347
H           -3.54424783352310       -1.88497015958798       -5.82369525241944
H           -2.07024097004295        0.02639565982664       -5.30111247185722
H           -1.47573406689760        0.51255862058029       -2.95531090067304
C            0.67019072660058       -0.41013454484175       -1.67188332017091
O            1.15346817789682       -0.38337547088702       -2.70953385278972
C           -0.61138888441327        0.41652619176885        1.52492910690818
O           -1.03609511741186        0.97755741778476        2.42860299554469
