56
 energy: -71.027787345681 gnorm: 0.000377426354 xtb: 6.7.1 (edcfbbe)
Fe           0.22972339709120       -0.14452501716751       -0.22578697709770
C            2.35108984107380       -2.26545715444911        0.62672865100480
P            2.25758091039210       -0.41531614639331        0.40190412794049
C            2.88150543372734        0.20495687819860        2.05183131278427
C            2.76838481075740        1.72601777302660        2.04722419294068
C            2.05732185296123       -0.37206934619088        3.19826432404447
C            3.69985785662302       -0.17461552766151       -0.77764589603739
C            5.07639114597646       -0.55029504742964       -0.23718137910478
C            3.68781336843878        1.23271273009305       -1.36840838146934
C            0.94397776021546       -2.78212169245752        0.65468363849716
C            0.64684913422879       -4.05443350147231        1.10431519523882
C           -0.64949952966737       -4.54386310861958        1.00383823295168
C           -1.59644923100251       -3.74218837678513        0.38038981158101
C           -1.23623422993618       -2.48069505667666       -0.04775653224140
C           -2.14943388493559       -1.58980482923661       -0.83734373188999
N           -1.98211888503630       -0.18881716836144       -0.42261179633433
C           -2.62378698948284        0.02176573569655        0.89295270810380
C           -4.15202981460968       -0.05524786510733        0.94519810206610
C           -2.55738148253192        0.68877837692276       -1.45748853820303
C           -2.45981694404344        2.16904121362908       -1.11933424454828
N           -0.00134858857947       -1.96466207573475        0.13870071781512
H            2.92236014080455       -2.57578016712978        1.50467920692019
H            2.84191588213948       -2.68196553943221       -0.26289420564480
H            3.92762056936310       -0.10750654504317        2.16602513011072
H            2.95941228324559        2.13324121373801        3.03986705096065
H            3.47211285359080        2.17577538142812        1.35113382669459
H            1.75963595309304        1.99520977339765        1.73741059336258
H            2.36684496089490        0.07767414937133        4.14150132944390
H            2.16847834818303       -1.45136140899697        3.28532769318992
H            1.00609518220973       -0.14534610476923        3.03456420763087
H            3.43536232078202       -0.86983692484556       -1.59040768986091
H            5.79413188488010       -0.58708772697745       -1.05682570897418
H            5.06304162321463       -1.52537307904600        0.24669036120278
H            5.42755006307681        0.19066814824950        0.47787227038174
H            4.22041333006026        1.25432468848528       -2.31908039224523
H            2.65767784812784        1.54816387066610       -1.53334042675686
H            4.16455858757175        1.94671495118442       -0.70062172805435
H            1.43156235427792       -4.66511450000392        1.52631573653220
H           -0.90382132812539       -5.52604440519316        1.36985343283063
H           -2.60424572616518       -4.09623824845972        0.22255328147850
H           -3.19376183792180       -1.92142957695483       -0.76759382790523
H           -1.84163486942571       -1.66443629263215       -1.88941901374114
H           -2.29592059575142        0.99584037088577        1.25396409800063
H           -2.21135646602238       -0.73082061528691        1.56906391813201
H           -4.45935099943332        0.07394713765716        1.98061368876007
H           -4.62274887668013        0.72879425148919        0.35842549053103
H           -4.52975991173968       -1.01802743780502        0.60823970956321
H           -3.60487494545561        0.40980946852291       -1.64720772266441
H           -1.99006120748744        0.51164413670539       -2.37555364614113
H           -1.44619024694537        2.37869274306888       -0.78360551650535
H           -2.66774910006747        2.75814541523282       -2.00977114877559
H           -3.16144951871907        2.46211649076402       -0.34327056663538
C            0.55687874991464       -0.27287675045092       -1.92918828925317
O            0.80388926431912       -0.32502564799297       -3.06334272510084
H            0.01138555294820        0.18354941503729        1.17634916360121
H            0.35616077974192        1.29910117110872       -0.38950536254710
