56
 energy: -71.166670494307 gnorm: 0.000172373022 xtb: 6.7.1 (edcfbbe)
Ru           0.26999030935698       -0.16787567025925       -0.03212587391211
C            2.40907493293288       -2.46629301955542       -0.33336618290288
P            2.44727786775167       -0.70745873672783        0.29266967691284
C            3.81253094087513       -0.01221555700442       -0.78380476430903
C            3.81297812631136        1.51371975031619       -0.72335908867203
C            5.20367981440732       -0.58984957477377       -0.54125993249418
C            3.22074972978511       -0.95789438960925        1.97641735092727
C            3.36762756094487        0.40002843882071        2.65595494117465
C            2.33908144248293       -1.88037529471592        2.81355104780348
C            1.04124018411861       -3.02832699060596       -0.08533393752178
C            0.81108692701533       -4.39356612595195       -0.07797613920728
C           -0.47774988400322       -4.87944665196765        0.10138365590004
C           -1.50132839435668       -3.96149047240040        0.28752915713084
C           -1.20086218458093       -2.61067069565294        0.29470099671171
C           -2.22289748401569       -1.55743795988407        0.61104699033855
N           -2.05068813893644       -0.33607274301585       -0.20570214110522
C           -2.91405453027992        0.69908118400208        0.40570551118338
C           -2.69708590439694        2.13391969746033       -0.05952166202071
C           -2.51433108089166       -0.68646705104235       -1.56472972330367
C           -2.34234211575212        0.39694245367949       -2.62623301369408
N            0.04365010692954       -2.14122668468459        0.10131865319836
H            3.18753665723651       -3.10295384631556        0.09695738588585
H            2.57478836315283       -2.40994513663812       -1.41770089601474
H            3.48283016697923       -0.29810353764671       -1.79440255949389
H            4.34937158663112        1.92747351945760       -1.57632184624475
H            4.28864923003981        1.87507304847814        0.18484909098780
H            2.78355782930487        1.87769613196236       -0.74089324709544
H            5.60700422083297       -0.24883661824478        0.40952073826675
H            5.87665960507767       -0.25313598504065       -1.32912294535335
H            5.19120559935864       -1.67827908769220       -0.54998001049595
H            4.20248157714945       -1.42840692878091        1.83834058236313
H            4.14768378440640        0.99488109698893        2.18717693142089
H            3.61765598746905        0.27834320660609        3.70920687019052
H            2.42459370419231        0.94210466600797        2.57645813282040
H            2.73514388555733       -1.96042896197288        3.82523627544600
H            2.28275237601600       -2.88306701563114        2.39119422078588
H            1.33157006542552       -1.46898156980985        2.87012236650205
H            1.63828479493610       -5.07282103325797       -0.22123329418442
H           -0.67575671978747       -5.93941287035767        0.09800500530587
H           -2.51929395062631       -4.28729524415507        0.43771926259731
H           -2.07238742878969       -1.28153434196543        1.66446756465486
H           -3.24334413226673       -1.95953603205116        0.50002529931491
H           -3.96841238777790        0.41397063000570        0.25863332112091
H           -2.70181641168863        0.68800968016300        1.47852553045400
H           -1.62744988656331        2.33446920012813       -0.10382169051682
H           -3.14406991794090        2.80485735823647        0.67095627497170
H           -3.14475977102154        2.34167556905549       -1.02463029801070
H           -1.95013344607476       -1.57342092014944       -1.87839468251246
H           -3.57802520233270       -0.97594776738268       -1.51491617601289
H           -3.21314589847438        1.04317815336111       -2.68618274407592
H           -1.46377701700454        1.00166367913280       -2.40579348651138
H           -2.20333736509588       -0.06715181592430       -3.60066204348799
C            0.62044320321101       -0.29067003440572       -1.83314968623253
O            0.92917611616703       -0.44093438920783       -2.94467999667554
H            0.00587571263535        0.03423762775335        1.51154130357091
H            0.37464119786276        1.39548537327656       -0.09242741382038
