50
 energy: -76.468523727044 gnorm: 0.000245580317 xtb: 6.7.1 (edcfbbe)
Mn           0.10550614017116       -0.07560112201121       -0.10612551938522
C            2.34461811533370       -2.20398135870095        0.28600334418047
P            2.30779410763013       -0.46871198947285       -0.33925569294065
C            3.08167111558223       -0.61048247040760       -2.03959120479297
C            2.31807352738506       -1.65651391184327       -2.85430376511429
C            4.57662672106412       -0.91904488826198       -2.08297543781960
C            3.51817347414455        0.41643794266200        0.77369374643998
C            3.75764864521622        1.81555899105652        0.20889129394331
C            4.81727306851572       -0.28397602494664        1.16653338564493
C            1.04068264924658       -2.82099518565229       -0.12168363526967
C            0.94173050299495       -4.17961161826878       -0.35184092725874
C           -0.29018669127411       -4.73009979908264       -0.69498486467337
C           -1.38382178004156       -3.89441083450630       -0.74562552508521
C           -1.22428121550905       -2.52928866726940       -0.49307090894877
C           -2.33196183189192       -1.59267260875945       -0.42177553744181
C           -3.66306931194127       -1.94043852938614       -0.64666194517089
C           -4.65311560511363       -0.99351610326888       -0.46573667161690
C           -4.29489242212441        0.27595184435497       -0.05387667362798
C           -2.94315532579249        0.57074377327658        0.13463129666339
O           -2.63023699239741        1.80370832235369        0.53045562133539
N           -1.97347223066700       -0.33244744439891       -0.06006055669925
N           -0.00927307052613       -1.98665551445498       -0.23262589552628
H            3.20382275048608       -2.78496272326645       -0.05652594391559
H            2.37553209402519       -2.13074132225489        1.38164367806549
H            2.90093211486728        0.37745377503457       -2.48778344097974
H            1.24050925543663       -1.52179448523888       -2.76673704081246
H            2.56802882204915       -2.66484204055458       -2.52648660786242
H            2.57717547143802       -1.56928244294098       -3.90879714967493
H            4.82181003181383       -1.79019999039388       -1.47892260809008
H            4.86362348875591       -1.13397035034735       -3.11218352215898
H            5.16953609409209       -0.07421119038822       -1.74626697570284
H            2.90869331088116        0.52776687124399        1.68540361959716
H            4.22615653080213        2.45232891683314        0.95704677694623
H            4.40263326841807        1.78433553047243       -0.66639740080128
H            2.80186189929872        2.25818283586796       -0.07830268310225
H            5.54357343987079       -0.28458192602536        0.36088497755408
H            5.25722151717117        0.25166904688058        2.00726509312726
H            4.64369010458183       -1.31034616587506        1.48192083493196
H            1.81815298174365       -4.80373758917845       -0.26259751540814
H           -0.38623987734165       -5.78540211924564       -0.89740911173697
H           -2.35809715961441       -4.29179003040953       -0.97759449129941
H           -3.92069314609430       -2.93778562695849       -0.96106627866850
H           -5.68916553016142       -1.24138914525650       -0.63664515132548
H           -5.01723652341352        1.05525556454924        0.12081613395502
H           -1.65475019184762        1.89533981926632        0.58396821086617
C           -0.19694328018186        0.29234133707143       -1.82534880640581
O           -0.52399810586562        0.57565602170898       -2.89842111516011
C            0.26082311947900       -0.08802069448803        1.66613197609408
O            0.36446635655016       -0.08969770499399        2.82051696525128
H            0.22195211142432        1.48183061934292        0.00536287169679
