57
 energy: -81.804165089119 gnorm: 0.000220530425 xtb: 6.7.1 (edcfbbe)
Co           0.39711110000933       -0.47169595980462       -0.90641810463824
C            2.44867526618578       -2.17679994228824        0.39353954799926
P            2.10721408706465       -0.34450658284742        0.51706504317231
C            3.74731937054837        0.26861453336173       -0.00267774857516
C            3.88386154849875        0.74283465341163       -1.30188321768884
C            5.11976442958107        1.15696981811103       -1.76682384184433
C            6.22669278991816        1.09806701393455       -0.93573063273801
C            6.09626666572696        0.62027428828642        0.35906776397637
C            4.86326664594538        0.20338340103632        0.82690249959941
C            2.19395128320910       -0.03484849572790        2.31764146363418
C            1.87901115798249       -0.98975608121914        3.28020083279598
C            1.84924231693721       -0.64392004108533        4.62017912190422
C            2.11652228713494        0.65688697447203        5.01317393115581
C            2.40355177731705        1.62103018405879        4.05805279107645
C            2.43111751739181        1.27991097629918        2.72011317076029
C            1.11141072690995       -2.83066765588874        0.48411712819785
C            0.90105763120828       -4.03368551558815        1.13657432575259
C           -0.39188601200497       -4.52463318436640        1.25306141995581
C           -1.43117381713131       -3.76689799021516        0.73852510799577
C           -1.14857835853984       -2.57406472807764        0.08908597779205
C           -2.23393347655575       -1.71480618714075       -0.49340707340524
N           -1.95992765024224       -0.28526829388329       -0.30301108008358
C           -2.60221306861382        0.52139964346922       -1.35121919817489
C           -4.13208353728105        0.46620480219176       -1.40793991673105
C           -2.38637143117766        0.16909137433022        1.02299182567932
C           -1.45735071428137       -0.27484566491322        2.14407833078239
N            0.10491680803785       -2.13010942972644       -0.06229022516959
H            2.86816143155565       -2.31669813960329       -0.61020100594441
H            3.16321821933862       -2.54779919272927        1.13255966592407
H            3.00603656411695        0.78268072888088       -1.93427512346420
H            5.21927459043608        1.52719652478980       -2.77710849069201
H            7.19210784884074        1.42376737643826       -1.29561246290737
H            6.96060757406097        0.57079884666737        1.00624799024519
H            4.76678034334458       -0.16664598424636        1.83869972942047
H            1.65345963865643       -2.00642666774759        2.98944200868707
H            1.61402181688908       -1.39481120857466        5.36146270335258
H            2.09402144169538        0.92134379245509        6.06038562237863
H            2.60216495480992        2.63960954410048        4.35974861020681
H            2.64571588876656        2.02718123077300        1.96591532478283
H            1.73901333391391       -4.57461346501148        1.55020914812384
H           -0.58341243494286       -5.46252457772900        1.75121527207093
H           -2.45526023161674       -4.09278019803301        0.84007541395563
H           -3.20611263408024       -2.00857367928338       -0.06768199034861
H           -2.25481995512150       -1.90860230939479       -1.57280976771725
H           -2.28445036972026        1.55582729564026       -1.20370633857515
H           -2.19488299380341        0.19474458276936       -2.31107821748222
H           -4.47117759495664        1.07261756683861       -2.24427012162081
H           -4.48899238693020       -0.54951310274209       -1.56310284529787
H           -4.58191694798684        0.86326718219642       -0.50113486993793
H           -2.39361193275381        1.26169612314581        1.00379903959579
H           -3.40740153530588       -0.18019985910133        1.24617844863702
H           -0.43246991222411       -0.01105294347737        1.88706361005105
H           -1.51474127157171       -1.34665572452966        2.32141477901881
H           -1.72116230815938        0.23803843344538        3.06673370339326
C            0.37692167341579       -1.04718239282293       -2.54577921720953
O            0.54489317539733       -1.36358861700915       -3.65085350329425
H            0.52041631874394        0.86856074415585       -1.45265960998765
