65
 energy: -93.254387397703 gnorm: 0.000153304994 xtb: 6.7.1 (edcfbbe)
Ru           0.18791159927046       -0.43463904220507       -0.60327512979846
N           -0.09989152623078       -2.39797358620169        0.41670379272955
C            0.96600393497945       -2.65120429985012        1.39095616763745
C            2.33406099293494       -2.50773338356063        0.73147133146211
P            2.37121023736746       -0.86856069239209       -0.18492196225898
C            3.53568649239595       -1.22951189385052       -1.55043841644880
C            3.36461518102285       -2.35813605478698       -2.34764316286968
C            4.18393312470853       -2.58182612219255       -3.43823163425901
C            5.17493542296545       -1.66908856139597       -3.76089437028984
C            5.32895608736002       -0.52404457505552       -2.99690330146578
C            4.51143613828104       -0.30097378845362       -1.90362385453549
C            3.44749212207775        0.13008194217462        0.90197297442013
C            4.68883538589256       -0.33218951893010        1.33457835915564
C            5.47267443419532        0.45952154056244        2.15293589306036
C            5.02989198392877        1.71661498579241        2.53784151717056
C            3.80432848882692        2.18639027370639        2.09529901610174
C            3.01489547462868        1.39545164660694        1.27776477653977
C           -1.43826989090248       -2.51670097014470        1.00326575822884
C           -2.49618327102144       -2.17275330081814       -0.04031080766673
P           -2.07380777837319       -0.47502489716295       -0.70237466825698
C           -3.19655303914349        0.62492305738505        0.23679458309406
C           -2.65730104701184        1.77412795871985        0.80162560074168
C           -3.46878756490802        2.65690206672686        1.49295260037826
C           -4.82365007327006        2.39767034708510        1.61841554650223
C           -5.36913542881034        1.26144969488789        1.04011797445244
C           -4.56283272779689        0.37974450230704        0.34439234845012
C           -2.96066344319230       -0.43155095568080       -2.30034969465998
C           -3.99423336813625       -1.27901528109043       -2.68213014395846
C           -4.59716436485208       -1.11964026335455       -3.91867279142823
C           -4.18171842974950       -0.11522950964735       -4.77651365729076
C           -3.15385669399247        0.73543601143903       -4.39953540431044
C           -2.54690092645396        0.57593190668304       -3.16860785664849
H           -0.02283850959581       -3.11174656824363       -0.31458254634220
H            0.86931626103986       -1.90755066206277        2.19022619355505
H            0.85850694884230       -3.65644352333728        1.83038300887293
H            2.49717453573078       -3.32322132042928        0.01980466103139
H            3.12175416826900       -2.54700157864446        1.48731916316846
H            2.57415699036220       -3.06603473089462       -2.12968061086537
H            4.04384443010821       -3.46623128669374       -4.04408309656380
H            5.81461564865433       -1.84394482079511       -4.61381623722896
H            6.08658121455945        0.20152016761682       -3.25695387982227
H            4.62556709374458        0.60207833375610       -1.31915441969136
H            5.04731252726934       -1.30274453333951        1.01520621081961
H            6.43474148051368        0.09930487607172        2.48932456877237
H            5.64675643832456        2.33101844973372        3.17799302460879
H            3.46446560310767        3.17003195051324        2.38633284717641
H            2.05263284413114        1.73638588370583        0.91572189194801
H           -1.50562330050488       -1.80266133591125        1.83321532311304
H           -1.60001569630746       -3.53301095947443        1.39837974948210
H           -2.44026726962806       -2.88218760442596       -0.87568092470883
H           -3.49450459569413       -2.21386525681558        0.40141063088110
H           -1.59486037986682        1.95126795781202        0.68911819612687
H           -3.04495024370332        3.54817803964024        1.93313886765877
H           -5.45920274728672        3.08338152300022        2.16033094550389
H           -6.42872184528765        1.06619517122516        1.12792594061738
H           -5.00058235302790       -0.49175914395467       -0.12336538499317
H           -4.33379513214564       -2.07021488991763       -2.02831915425970
H           -5.39632039904766       -1.78526184671146       -4.21406386698950
H           -4.65596178539803        0.00181330770673       -5.74038746344048
H           -2.82406650478444        1.51736888268941       -5.06869834619970
H           -1.72721539353315        1.21660351081535       -2.85931732407573
C            0.28331579804304       -1.09453413457110       -2.31452423299360
O            0.31684416650142       -1.51965608109772       -3.39525517278756
H            0.09069377309523        0.17453241672708        0.84653958352468
H            0.39757112992832        1.02304339797775       -1.14747939030335
