60
 energy: -70.805322153697 gnorm: 0.000971189855 xtb: 6.7.1 (edcfbbe)
Ru          -0.23048178889276       -0.16916605813932        0.19230023131021
N            0.05606758914601       -2.28158323466262        0.33651396719665
C            1.42709275531927       -2.67627905071859        0.71390570233408
C            1.99411451889840       -1.70157088701153        1.75439619204769
P            1.89681406094641       -0.00485314067631        1.00935535308514
C            2.10729616047660        1.21122482423870        2.39078394082080
C            1.49028817647207        2.52574784503827        1.90043971517725
C            3.50216125253100        1.39918002266305        2.97297322780737
C            3.34100513988395        0.01971479994849       -0.17766051506087
C            4.67229739444214       -0.52772352814945        0.32899362425499
C            3.48838395019911        1.42484211001786       -0.75989872618595
C           -0.43910070743353       -2.93698495988553       -0.88831911621531
C           -1.87209268555466       -2.50106336086288       -1.26883766326293
P           -2.28415863047465       -0.85531280469185       -0.47750770912050
C           -3.77598829338677       -1.32810948307348        0.52670679350201
C           -4.95127408166633       -1.76908527724003       -0.34648700847040
C           -4.16155562757721       -0.19077718239134        1.46690620255057
C           -2.91175918842123        0.49414494976326       -1.60932317858880
C           -2.79568975886131        0.17057989145267       -3.09532175218603
C           -2.12098834530640        1.76817610070944       -1.22018577547967
H           -0.56943722505631       -2.52854004899018        1.11991547284476
H            1.42858538426589       -3.69982413561546        1.10783712183343
H            2.04553486925895       -2.65240371893746       -0.19154878039898
H            1.36287213153327       -1.69279695673996        2.65025047805586
H            3.00843809610685       -1.98503999476751        2.04198318479691
H            1.44706432198233        0.79654304625783        3.16731205569581
H            2.16174168027811        3.05355429267618        1.22593404713332
H            1.26787140826616        3.18216940558482        2.73947059258809
H            0.54442280187238        2.32051173017294        1.36499327204485
H            3.92883776663922        0.44736549689798        3.28331129465400
H            3.44050861653331        2.04285607552796        3.84950548510305
H            4.17029369183730        1.87744795636301        2.26064887899148
H            2.99563402955487       -0.63898982296689       -0.99118200536982
H            5.40964705360533       -0.43478756233098       -0.46757405695385
H            4.60377363384563       -1.58158666429361        0.58818552290588
H            5.04060264508974        0.02284182547373        1.18817118957661
H            3.99149811491519        2.08890207772774       -0.06122559593055
H            2.51019214118994        1.84754795278697       -1.00306587326915
H            4.07898194254073        1.39234406287438       -1.67429145213415
H           -0.41386592012416       -4.02621478414759       -0.75873390385982
H            0.26070734181634       -2.67952717724317       -1.69210239824779
H           -2.59356714838661       -3.24336818364957       -0.91508333109531
H           -1.95956983418461       -2.43211695072376       -2.35531589294405
H           -3.43469972510483       -2.18038786529194        1.13489218235748
H           -5.41299944580282       -0.92020624911989       -0.84563979298002
H           -5.71095368866503       -2.23426887930338        0.27899685263719
H           -4.65410452002976       -2.48903955971800       -1.10713203324840
H           -4.54251426455790        0.66732694872839        0.91554677229078
H           -3.29877207854320        0.12830392764910        2.05140760734451
H           -4.93996037816848       -0.52118899378831        2.15193996318910
H           -3.97021399185980        0.65200942265090       -1.37189891107627
H           -3.42043657352762       -0.68312138176682       -3.35192297012196
H           -1.76730467824479       -0.04897323393790       -3.37628164662219
H           -3.13137268381517        1.02319770912835       -3.68365788937738
H           -1.43563988071745        2.05842606639658       -2.01836808018540
H           -1.52002922262229        1.63158710308820       -0.26959037923656
H           -2.79116694962684        2.60653644107129       -1.03826695970856
C            0.36469561706982       -0.05225019255734       -1.55781519541647
O            0.76268463765445        0.16196892393848       -2.61300059420948
H           -0.68452099455885       -0.08909531723878        1.67400699515791
