65
 energy: -97.651581278749 gnorm: 0.000500238739 xtb: 6.7.1 (edcfbbe)
Mn           0.02812457731978       -0.48871331691496        0.29609472731564
N            0.00603544997275       -2.66403675394256        0.18939050578796
C            1.29714133631366       -3.20135909643472       -0.28664062032244
C            2.43267709364063       -2.55187894093120        0.51004034650601
P            2.23889803787023       -0.71440124585414        0.34588362057588
C            3.20323396674457        0.00985015732432        1.69805726786859
C            2.69849512752822        1.17468608793488        2.26931831680586
C            3.39674185699413        1.81448237227252        3.27609080926632
C            4.60176590795064        1.28717122503395        3.71392233759720
C            5.11007901177166        0.13043714538889        3.14181754176741
C            4.41922645246587       -0.50990732169128        2.12875537019242
C            3.25042039925851       -0.22848045595892       -1.08751333889078
C            3.41471167941900        1.14638001545217       -1.25854144201361
C            4.13011914195983        1.63643674433179       -2.33309279375735
C            4.67926606357408        0.75640424299074       -3.25377689149444
C            4.50382595960387       -0.60828044580619       -3.09750446912931
C            3.78743634321280       -1.10656448931369       -2.02181026619660
C           -1.15736561897512       -3.14671081285732       -0.57990825894258
C           -2.42910278583400       -2.48207310561754       -0.04415046783345
P           -2.17833409582430       -0.63822352961354        0.00975140994800
C           -3.31077320486142       -0.04766538931241        1.29707730533417
C           -4.55034579979174       -0.62599392239535        1.54871614465061
C           -5.36578266094260       -0.08634611012511        2.52765061800773
C           -4.95827502587297        1.02917809263742        3.24359699049834
C           -3.72997365006772        1.61706147758768        2.98366653876667
C           -2.90818148851265        1.07744165712354        2.01217417716807
C           -2.99360812131524       -0.00818650679583       -1.49255520849438
C           -3.03556993725037       -0.74403301549119       -2.67394151879688
C           -3.60433884225674       -0.19577152414941       -3.80964436893584
C           -4.12072412215124        1.08964703048594       -3.78252883052181
C           -4.06400694130902        1.83299137261546       -2.61418702882824
C           -3.49823397552658        1.29119362797970       -1.47494611841019
H           -0.11769712476771       -3.01290717597501        1.15162377275196
H            1.32071715510200       -4.29231378717093       -0.17356134216893
H            1.38843895721895       -2.94601239984035       -1.34879209977749
H            2.33373825393109       -2.78714654364268        1.57717423105448
H            3.41282047750058       -2.89016402246694        0.16578066866334
H            1.74791233237165        1.57239995168601        1.91235056059015
H            3.00613805691024        2.71788587978897        3.72136462702761
H            5.14813744238542        1.78150620474974        4.50334637344152
H            6.05168924715687       -0.27082943403243        3.48634670661299
H            4.82000912786943       -1.40466357800945        1.67488530294119
H            2.97622284683271        1.82884348059450       -0.53803394123397
H            4.25807522695326        2.70182655151341       -2.45754261516235
H            5.23905235860023        1.13671861707659       -4.09519541451187
H            4.92492733992547       -1.29173112019841       -3.82020168614125
H            3.65656303276907       -2.17397059123182       -1.92515853405123
H           -0.98990907260566       -2.87543768378626       -1.62763445116172
H           -1.23984332751196       -4.23822982165390       -0.50237910451815
H           -2.60945190723931       -2.80060004857715        0.99004859093390
H           -3.29988360548455       -2.74190643766285       -0.65174772116019
H           -4.87549230823063       -1.48736948803841        0.98354389122107
H           -6.32666913677703       -0.53479852196503        2.73249038000428
H           -5.60133622193755        1.44422235807004        4.00534393503679
H           -3.41743182517339        2.48995157367714        3.53803309829712
H           -1.94066147989940        1.52744262703723        1.79202403155529
H           -2.63026923000193       -1.74440739305578       -2.71567856548094
H           -3.64166822189036       -0.77345691540129       -4.72154026854217
H           -4.56264253798480        1.51399941275771       -4.67168169222823
H           -4.45992176756266        2.83778641535172       -2.59132036349113
H           -3.45384890439692        1.87608793016171       -0.56498234332717
C            0.15872226543681       -0.10024286300744       -1.43958978126619
O            0.24132588755194        0.33180290997569       -2.49549946768791
C           -0.08339306337239       -0.48374896009257        2.07897405884441
O           -0.14507446171142       -0.38681290077764        3.21780142089694
