54
 energy: -70.207465816442 gnorm: 0.000164216294 xtb: 6.7.1 (edcfbbe)
Co           0.16555258870188       -0.20335238564236       -0.00681650528709
C            2.12558200193525       -2.45290908536051       -0.76556832944554
P            2.29071337150982       -0.75175838501439       -0.04962728195748
C            3.62453072538768        0.01919500998557       -1.09023679511735
C            3.74047678356656        1.50832629378374       -0.77286687047795
C            4.98068430774279       -0.67254251570143       -0.97709055369615
C            2.94774211323524       -0.97789084205639        1.68111274691311
C            1.76788673298149       -0.93355162369356        2.65685500029759
C            3.76754826521193       -2.24582846732852        1.91253390287877
C            0.84837450901338       -2.98149092092947       -0.20584492289676
C            0.61676631898393       -4.32817131847376        0.03155419946344
C           -0.59974320971550       -4.72202795408642        0.56708513892273
C           -1.55602437641058       -3.75731652474873        0.84482802134871
C           -1.25704681513735       -2.42932283777378        0.58688263385306
C           -2.20024481357473       -1.29855384263470        0.85663149053281
N           -1.90977977897612       -0.18617162098185       -0.06814393122876
C           -2.70522289683703        0.97637111686922        0.38396221768816
C           -2.65236571070863        2.19896744898811       -0.52039680670905
C           -2.27568930879000       -0.58782303589056       -1.45030803963187
C           -1.29175946833054       -0.05567582113435       -2.48820457284934
N           -0.07830203757365       -2.05693595315809        0.07805966324988
H            2.97013223540436       -3.11467711421368       -0.56812944486716
H            2.03077627753843       -2.32758124037574       -1.85092543282065
H            3.25440523139356       -0.08666278618365       -2.12042785229124
H            4.50493284348625        1.96281243973202       -1.40024916463754
H            4.02045161418821        1.67015298182477        0.26672185004765
H            2.79954768268213        2.01968754583677       -0.96292883400614
H            5.41233679342541       -0.52243169753422        0.00979692744352
H            5.66436837680346       -0.23929681131852       -1.70549850196719
H            4.91069692968367       -1.73848782498876       -1.18243736734367
H            3.57909691970420       -0.09736449227719        1.85830772147820
H            1.09735176133859       -0.10096170944226        2.42241483581162
H            2.12676688319663       -0.80662889554539        3.67667453878142
H            1.20218606205827       -1.86365276901419        2.61573854467222
H            4.18276195485706       -2.21950240542521        2.91898424513354
H            4.59479801948177       -2.34034253938518        1.21475947387945
H            3.13891979639955       -3.13174701880741        1.83929051308359
H            1.37936132151929       -5.05479769357710       -0.20114878532212
H           -0.79991536452840       -5.76397066041351        0.76262462983010
H           -2.51464926415556       -4.02575586454684        1.25940031896872
H           -2.04235816932419       -0.94854033216270        1.88385183079402
H           -3.24507551479150       -1.62774600913957        0.76879706979547
H           -3.75517783818570        0.66597362919219        0.48538167452571
H           -2.33757747860334        1.25703445552381        1.37452604875800
H           -1.62815126324639        2.48914138041717       -0.73545542246935
H           -3.13828026602423        3.02661215421122       -0.00855757444021
H           -3.17737918458396        2.03648989566779       -1.45751932911815
H           -2.26884648951896       -1.67954240949279       -1.50728191267277
H           -3.29315345031865       -0.25571577325625       -1.67848312801152
H           -1.46216761426615       -0.55297101642818       -3.44061474671195
H           -1.39494849440252        1.01389375732818       -2.63883630447290
H           -0.25842748674610       -0.26601827881976       -2.16575091837751
C            0.42802367131437        1.49156592462472        0.27475749985344
O            0.67333855596188        2.54877415327727        0.63930525288265
