53
 energy: -69.990806467689 gnorm: 0.000167576965 xtb: 6.7.1 (edcfbbe)
Co           0.07363795454135       -0.32146480629617        0.29573167099198
C            2.08816005371374       -2.54573391927275       -0.31960703665353
P            2.19201159382512       -0.88079880748912        0.23550727336883
C            3.37328560397644        0.04657978601406       -0.88852161934940
C            3.93306955377193        1.30247721861521       -0.22765896729089
C            4.47863970328293       -0.83143500756283       -1.46928313414274
C            2.95688125162239       -0.88468932992326        1.94833244012000
C            1.89725622426096       -1.51071592220903        2.85298921739627
C            4.27402011267074       -1.64483527091176        2.05142145170598
C            0.79336355740829       -3.01788415735141       -0.34462803121913
C            0.44267537287495       -4.37133863605364       -0.64467968031341
C           -0.85663084456656       -4.77093442819991       -0.60718936067569
C           -1.86116841557026       -3.84473133929164       -0.26799243037018
C           -1.47979247244896       -2.54957203288236       -0.00266346353997
C           -2.45994855379069       -1.48132404562605        0.39896322143308
N           -2.00437698724086       -0.17893606174164       -0.11917115294904
C           -2.85537727421558        0.85869257894033        0.49034818794020
C           -2.60940280923769        2.28053677860258        0.00517954683078
C           -2.13773588582024       -0.18745123309949       -1.59469200630189
C           -0.99096897745180        0.53013623034785       -2.29898676265397
N           -0.21593927836131       -2.12680338697776       -0.06157108828863
H            2.93894482406952       -3.17888860215355       -0.51242044665539
H            2.72486651388967        0.35921328262302       -1.72067238786949
H            4.42842243374654        1.92707404930866       -0.97037275540284
H            4.66118564884585        1.04918309162432        0.53982905259174
H            3.13498102015477        1.88407917553184        0.22941874271183
H            5.12723281809646       -1.22509801792912       -0.69143432435939
H            5.08838528215300       -0.24612441631237       -2.15725803384879
H            4.05120831660868       -1.66663484733065       -2.01922593250061
H            3.10335987070821        0.15959449954686        2.24518825541663
H            0.93970028677285       -0.99575953430070        2.71661159172491
H            2.18555194517010       -1.44628666499179        3.90142557080317
H            1.75824909453010       -2.55982414883948        2.59248793599090
H            4.56097607727111       -1.75093891850402        3.09782914123591
H            5.07825684236298       -1.12585076304282        1.53531443884685
H            4.16899176295346       -2.64151004954102        1.62579737447072
H            1.23773573876405       -5.06116991493144       -0.88742732518234
H           -1.12758237111189       -5.79426977187454       -0.82941677336570
H           -2.89691641350222       -4.13998212023640       -0.21179944083584
H           -2.49111817760812       -1.43088841468742        1.49390600417659
H           -3.47426198338667       -1.71777822445365        0.04224554621683
H           -3.91267851182207        0.60555178372008        0.30781050336495
H           -2.68305035925017        0.82736307550940        1.57002963570195
H           -1.55975560282317        2.54225043074676        0.09857265705719
H           -3.18933201073645        2.96418308990315        0.62164597959303
H           -2.91798640037473        2.41577708475654       -1.02772872535909
H           -2.12845390028215       -1.22808036673133       -1.93044722495392
H           -3.10246906960709        0.24532416216410       -1.88587304626569
H           -1.05042412372647        0.35060322728763       -3.37061678957579
H           -1.00793907552442        1.60111667671991       -2.12390074618843
H           -0.03670618708091        0.12807465306957       -1.92900304540908
C            0.41297931729468        1.25257144492650        0.91119243671594
O            0.74700430676792        2.20697523110731        1.47896097228168
