55
 energy: -70.198525471866 gnorm: 0.000205167980 xtb: 6.7.1 (edcfbbe)
Fe           0.09143725872486       -0.26324747323058       -0.44901094321378
C            2.17060721081232       -2.14613748534039        0.61086258573533
P            2.21447304850435       -0.53630974160968       -0.30327398173382
C            3.26074517215312        0.57806863813095        0.76106478410311
C            4.36759772698768       -0.16663036077979        1.50723446786825
C            2.37378560797771        1.36321304917218        1.72085386687724
C            3.35013900293184       -0.90015442491067       -1.73752536704419
C            3.29239356938832        0.27790357317309       -2.70764065561412
C            2.95919969186832       -2.20162200450436       -2.43147436432165
C            0.95119695723930       -2.88123423224081        0.17641933058134
C            0.79507762013874       -4.25471818540423        0.24602688216909
C           -0.43153032416111       -4.81659413429984       -0.06813970025861
C           -1.49734897412504       -3.98405149123322       -0.38210017577220
C           -1.28449866848894       -2.62283144832384       -0.44344574930294
C           -2.33658511029953       -1.58977442643979       -0.71656283688214
N           -1.88421770132980       -0.32073046951841       -0.10912437042423
C           -2.32586206626110       -0.24394093895334        1.30656473244064
C           -1.84784133306130       -1.36833167398681        2.20369901730505
C           -2.35450759633633        0.89403230988739       -0.80833619452057
C           -1.36044901513956        2.02793125052203       -0.55162080591888
N           -0.06046440606163       -2.09872094244964       -0.23672853914359
H            3.08416258065661       -2.73902730829240        0.52689865172420
H            2.01980414016630       -1.86790112227790        1.66248539467931
H            3.72507639527321        1.28369933578916        0.05776104424583
H            4.93375392501953       -0.82199387541880        0.84790996391062
H            3.96184049273038       -0.75793191077945        2.32449392703476
H            5.06222203742520        0.55555548167037        1.93429645795999
H            1.85574550229025        0.69439404919860        2.40259642390077
H            2.97789021534813        2.05515386377183        2.30642535349279
H            1.62494455574628        1.93008814075302        1.16943425175619
H            4.36968086493010       -0.98878573889387       -1.34168768881834
H            2.30640883426092        0.34968727733490       -3.16120926169941
H            3.50518948267477        1.22015968166168       -2.20390544352485
H            4.02312059046061        0.14945990375483       -3.50472512961039
H            3.51195207745327       -2.30172565615124       -3.36467451775189
H            1.89700710642476       -2.21264192781946       -2.66818007212792
H            3.18190375943689       -3.07107068881612       -1.81747431529002
H            1.62374289214235       -4.87237561423427        0.55498650350377
H           -0.56691493166239       -5.88625157161360       -0.03505615327768
H           -2.48046788257680       -4.38522119803397       -0.57164132222311
H           -2.43570216467144       -1.45206334429804       -1.79762987355062
H           -3.31071090667252       -1.89691661945204       -0.32231339241352
H           -1.93896636112555        0.69236580076202        1.70503001377072
H           -3.42215247458257       -0.21036702462693        1.31495029456511
H           -0.76443021272520       -1.42051901107420        2.20501143369784
H           -2.25331857951209       -2.33521406414188        1.91927628459964
H           -2.17731352891016       -1.15174064850091        3.21814492271538
H           -3.35843669961180        1.17550324008417       -0.47275479790232
H           -2.39505042373505        0.68456395951205       -1.87973438173119
H           -0.31049995336539        1.70639779043263       -0.75626474775351
H           -1.57588713777069        2.86255928004468       -1.21605948332921
H           -1.41554144038962        2.38621743636101        0.47407980216595
C           -0.04654428782132       -0.48101187643008       -2.18229809958765
O           -0.14006930885793       -0.70512948343089       -3.30318299773592
H            0.30520487455110       -0.13972228152861        0.92272109498048
