56
 energy: -80.987255047181 gnorm: 0.000137949832 xtb: 6.7.1 (edcfbbe)
Co           0.10577219845665       -0.14724649039279        0.16322879832032
C            2.32334038711164       -2.27658587869400       -0.09654091989938
P            2.23837461743869       -0.49137457479555        0.37252516397246
C            2.58808792892031       -0.56503101323618        2.14896872495032
C            3.80700306565358       -1.01196638795762        2.65143837180519
C            3.99065672796578       -1.09402993334647        4.01982839473761
C            2.96644882216678       -0.73612066955670        4.88453448928422
C            1.75200434725715       -0.29124515567614        4.38552076861154
C            1.56327135105386       -0.20502118695186        3.01806924583788
C            3.67708577866153        0.29828460798278       -0.39183448608435
C            3.97530664506785        0.05641664301481       -1.73142730428585
C            5.03229072105191        0.71292675326604       -2.33423926327368
C            5.78487613527019        1.62718811610103       -1.61334919738344
C            5.47127469468947        1.89434406190015       -0.28991378598321
C            4.41590985085470        1.24087885118194        0.32010190665084
C            1.01686573200749       -2.85224284391496        0.34808789722946
C            0.85583852367876       -4.20825800830201        0.58727008081689
C           -0.38907038871170       -4.68921748632765        0.96112635408099
C           -1.43895481196864       -3.79511627821808        1.08376285905025
C           -1.20688570740895       -2.44851696618379        0.84400027047578
C           -2.27922411197463       -1.41846744930018        1.01382963265208
N           -1.95547643906295       -0.16770516550513        0.30286914159755
C           -2.46086414776380       -0.19711567533991       -1.08563069733030
C           -1.57746354761886       -1.02238275873194       -2.01353536178023
C           -2.52179460140757        0.98805112519436        1.03761124912167
C           -4.03957490636593        0.97570281980213        1.21580869808782
N           -0.00093754672672       -1.98931291269106        0.49229246778820
H            3.17794964934970       -2.78984136173270        0.35386906679403
H            2.40684548681907       -2.35715552041479       -1.18562147243463
H            4.60683011892264       -1.28170793236755        1.97463151407459
H            4.93507604432226       -1.43725019141078        4.41570363807061
H            3.11866143698603       -0.80196776620545        5.95157070103186
H            0.96026409290850       -0.01003965573764        5.06404681949874
H            0.62243651071068        0.15098275560348        2.59741621635221
H            3.37877568061498       -0.63833531956130       -2.30622653828770
H            5.26742404373475        0.51677613321530       -3.36989782800457
H            6.60952159442525        2.13909533659399       -2.08630679526081
H            6.04809873906354        2.61785809845519        0.26692945147344
H            4.16510226187924        1.45835269312778        1.34922829175547
H            1.69566423011436       -4.87536523799379        0.47368888658818
H           -0.53765326198476       -5.74134868951722        1.14779092269401
H           -2.42458218120002       -4.13004994823982        1.36595933846999
H           -2.34927326622276       -1.20228391942615        2.08621993482277
H           -3.24636210887783       -1.82349212536553        0.69111591583869
H           -3.48458154031951       -0.58896601101305       -1.11137650898256
H           -2.47742085337469        0.83240048122415       -1.44944848652714
H           -1.89463084622083       -0.86951418998013       -3.04277355314929
H           -0.52981183750862       -0.69041513112617       -1.92744249082706
H           -1.64336530495340       -2.08636246572627       -1.79520951941491
H           -2.04291216659604        1.02294145743960        2.02023165872226
H           -2.24236690128805        1.89665428127517        0.50082468613001
H           -4.55502204948966        1.00409145574618        0.25959436862971
H           -4.38251066250731        0.10947831116222        1.77560843953930
H           -4.32714390011063        1.86459552274233        1.77216263128472
C            0.30630439327277        1.54860682614178       -0.16682343471268
O            0.56458138374732        2.63748409732280       -0.40127361923160
