62
 energy: -76.959078111012 gnorm: 0.000817882939 xtb: 6.7.1 (edcfbbe)
Mn           0.00692976177742       -0.06648327604639       -0.22321338882387
N           -0.08986055352971       -2.24054005901450        0.35085737610341
C            1.13131290463825       -3.01634793495096        0.11540474147162
C            2.36861697374445       -2.20946316961492        0.49106133154736
P            2.22697869973556       -0.49842910150397       -0.23599244641684
C            3.20898983727463       -0.63505737385989       -1.83770454777950
C            2.88175237761187        0.57376919723874       -2.72292840474414
C            2.98430659256182       -1.92245390098057       -2.62741313823005
C            3.58792078530033        0.30919045304001        0.78598598591401
C            3.29820662058339        0.42000919798511        2.28184160444181
C            3.92268891785159        1.70357002140732        0.25876609597128
C           -0.61777947003622       -2.32833533298643        1.71263088650362
C           -1.97876975690887       -1.61879818502318        1.78755052480911
P           -2.15204300345311       -0.40668278511613        0.36920978666978
C           -3.32981632338448       -1.42223847424995       -0.71224819935383
C           -3.46867931382219       -0.84481769374158       -2.12428058999557
C           -4.70803264328652       -1.71700314861212       -0.11987826985338
C           -3.31147429286604        0.87696480320123        1.07405655295722
C           -2.65083546055575        1.73815024403577        2.14510534788120
C           -3.76604490312483        1.78320012634221       -0.07109664637868
H           -0.81123595440639       -2.63963721020670       -0.25475488738212
H            1.17302546993176       -3.26061046803573       -0.95035075055697
H            1.10674859576126       -3.96300640270054        0.67927469022646
H            3.28385536181922       -2.70314871210880        0.15577789985070
H            2.42057017301842       -2.10355665409436        1.57726752947066
H            4.26746826069765       -0.59892147458457       -1.54570432265007
H            3.74227835866464        0.85657727287936       -3.32752130663444
H            2.56659635417616        1.42839914709653       -2.12407499213097
H            2.05994524098393        0.33826120641123       -3.39456133980194
H            3.54388576514854       -1.86517841257765       -3.56104359219649
H            3.32695129953650       -2.80458183917383       -2.08950277003561
H            1.93362050111329       -2.04401675243264       -2.88199610359777
H            4.45653935575261       -0.35508906892448        0.65457110144189
H            2.61407873903373        1.24087324102020        2.47666112415553
H            4.22805646164853        0.62567655236009        2.81219558534089
H            2.87334621640921       -0.48794613314685        2.70567000817770
H            4.60563212627558        2.20274227059323        0.94561726883450
H            4.39491991939969        1.66897297082433       -0.71885768950317
H            3.00975669880500        2.29647670030663        0.18973226590035
H           -0.72710137557774       -3.38149848947977        2.02250639328010
H            0.09680963714943       -1.85973977967814        2.39630649703251
H           -2.78855788365969       -2.35123180552993        1.74587071066023
H           -2.06927578757754       -1.07055377968026        2.72776592517984
H           -2.79814456009399       -2.38443048888532       -0.79885295086072
H           -2.63367395740213       -0.18599739598861       -2.35966092480154
H           -4.38556409430903       -0.26982822438395       -2.22635909254118
H           -3.49701545153690       -1.64248406276325       -2.86568259518851
H           -5.20196131605979       -2.47158754540610       -0.73203875187812
H           -5.33408253904959       -0.82853893749961       -0.11966929626024
H           -4.65556423357646       -2.09663201298397        0.89907667398482
H           -4.16483267085705        0.34760687464972        1.51785124262606
H           -1.82577462379883        2.29942603232438        1.70832487863349
H           -2.27054073952848        1.14963814235994        2.97790847378760
H           -3.37648430179754        2.44784600532099        2.54173777101149
H           -4.24646711696121        2.67717247807550        0.32421327323824
H           -4.47060783566211        1.28678289778478       -0.73114058882945
H           -2.89430136003506        2.08785863743692       -0.65429574189691
C           -0.15137108864499       -0.45856389244446       -1.94124299564840
O           -0.24308514081624       -0.69860919213370       -3.07592946238996
C            0.18320849282844        0.53062870335763        1.42884137736869
O            0.27942861244591        0.92196039843275        2.51854201738574
H           -0.01539469480532        1.45772729548807       -0.67461853568180
