57
 energy: -81.098656571221 gnorm: 0.000479799464 xtb: 6.7.1 (edcfbbe)
Ru          -0.34946284143202       -0.28611997478731       -1.33792652603983
C            2.11952596427135       -2.26366430845271       -1.46953741322503
P            1.91563074599284       -0.41623054575393       -1.47539281511420
C            2.96729693935010        0.09922699894568       -2.85224686634137
C            4.33594479970242       -0.16348020867846       -2.84141177124473
C            5.10899771836269        0.21806420177834       -3.92174774538188
C            4.52379804406631        0.86022331369079       -5.00389402299117
C            3.16388054746554        1.12829673451114       -5.00870487560965
C            2.38007539634228        0.74966489551315       -3.93215545108736
C            2.81077767210041        0.14022620719963        0.00647452319278
C            3.36264400307861        1.42030652492707       -0.00195174874185
C            3.98743453682835        1.90918261651580        1.13052403156627
C            4.05454573457086        1.13284474404515        2.27775108297853
C            3.48784439488325       -0.13192352664398        2.29617518238492
C            2.85984368598497       -0.62853138374116        1.16754812795777
C            1.00727270663894       -2.87812278590378       -0.68455451864039
C            1.12988734902676       -4.09925256717274       -0.03790712425377
C            0.04068788716525       -4.62461172734260        0.64019505042030
C           -1.15368860927699       -3.92024647635637        0.64740030651639
C           -1.21045158682670       -2.70427755141868       -0.01435927327026
C           -2.47506923674055       -1.90295306468957       -0.13424650394689
N           -2.22913728975308       -0.47060233032265       -0.38955553997866
C           -1.42637558199411        0.20461565269759        0.63637837363799
C           -1.49175582526100       -0.35736884729566        2.05313616213711
C           -3.51913829213672        0.20563546327851       -0.66517982735247
C           -3.37510568273947        1.45610691603986       -1.51697082190779
N           -0.14913644214739       -2.19569695188799       -0.64781443804616
H            2.01440483990838       -2.55980384592700       -2.52391422704052
H            3.10463079578150       -2.58277784917269       -1.11733274208442
H            4.78784994451838       -0.65355194444979       -1.98927479468077
H            6.17018909388479        0.01739239327361       -3.92198940537744
H            5.13377761108109        1.15643778807009       -5.84435665180737
H            2.71523959554104        1.63436527920295       -5.85027463043928
H            1.31677265121949        0.95827201800926       -3.90435207474401
H            3.29777410431476        2.01847703267730       -0.90109897759181
H            4.42297944804332        2.89751532065328        1.11978359167870
H            4.54658953618806        1.51451237626309        3.15989901262573
H            3.53764875685709       -0.73358914065912        3.19182074288873
H            2.41801501270378       -1.61689992055694        1.19286287580878
H            2.06780547105881       -4.63072281322807       -0.07397879686826
H            0.11925866171567       -5.57197365946388        1.14989273475493
H           -2.02637033569601       -4.30401082124230        1.15151777991294
H           -3.01881105797174       -2.29543100997820       -1.00488607437369
H           -3.11182387122353       -2.04184811709080        0.74885767789188
H           -1.72897755132967        1.26006824134076        0.66445836434190
H           -0.28764162514345        0.20726348249905        0.31757230135657
H           -0.93470312640075        0.30148402894794        2.71750207142103
H           -2.52632628965113       -0.38210098696041        2.39572475371311
H           -1.06520638527943       -1.35599894738857        2.13960541728155
H           -4.00746202091052        0.44141649842490        0.28844320720618
H           -4.15186903028223       -0.49845566591711       -1.21007778175224
H           -4.36638366919017        1.84383271103682       -1.73952581454372
H           -2.81015799166622        2.24036041426883       -1.01864617507587
H           -2.87686851701334        1.21244852956122       -2.45584562148826
C           -0.62916802215122       -0.76234679331590       -3.09301565448670
O           -0.86577826999783       -1.05830874630387       -4.17701753590301
H           -0.45586519248350        1.19439624294164       -1.73172182157871
