48
 energy: -75.417060358450 gnorm: 0.000242356912 xtb: 6.7.1 (edcfbbe)
Mn          -0.03352957560100       -0.17114755980356       -0.09628804742343
C            2.29297334719246       -2.23411978864973        0.36342606066822
P            2.19628152799828       -0.46449006898625       -0.23315644507059
C            3.48951787166827        0.48463483898097        0.73435496046611
C            4.54072139656734       -0.36593493544807        1.44312799656909
C            2.78535990283096        1.41130097396610        1.72427564518077
C            2.97561735594522       -0.60169159434287       -1.93353392880187
C            4.47306924725553       -0.90520385154987       -1.96642187680514
C            2.22393267580792       -1.64156730913401       -2.76609830273956
C            1.03257175930122       -2.94330166044561       -0.05009513379120
C            0.96157743422930       -4.31936188148551       -0.19303594864708
C           -0.26162042774845       -4.91801439130519       -0.48021479169321
C           -1.39092128172235       -4.12657800614508       -0.57460569341664
C           -1.26775163027393       -2.74870620444741       -0.43058372038453
C           -2.34853951167442       -1.76623092848308       -0.43560233553641
C           -3.72940195200932       -1.87692121405103       -0.58666240959404
C           -4.47770705382342       -0.70337687521849       -0.49999125854627
C           -3.90155760168962        0.53706080970316       -0.28048814966977
C           -2.49871392434908        0.59532746627088       -0.13962152991948
O           -1.69535805644390        1.57799432148211        0.04526490708686
N           -1.82682042054525       -0.56193801768392       -0.21894178719887
N           -0.05028995210220       -2.16515048785896       -0.21698844672313
H            2.30089772525786       -2.17999705836510        1.45924626443737
H            3.19163402883436       -2.75667053183449        0.03106043249144
H            3.97095814493246        1.11748891704034       -0.02391205163914
H            4.09536856074905       -0.91634377234389        2.26852237473331
H            5.30829801256589        0.28721024220063        1.85558111707914
H            5.01967847681406       -1.07036200369210        0.76989741596185
H            2.40691222594550        0.85031145209582        2.57660091956421
H            3.47366760833388        2.16911339811195        2.09411998892881
H            1.94027023834804        1.91077919507874        1.23961959778587
H            2.80686189520389        0.39211313201566       -2.37346107941926
H            4.69165811559749       -1.86728263744213       -1.50936472997058
H            5.05971245234214       -0.13578837167970       -1.47334806662877
H            4.79571202532661       -0.95248770131928       -3.00564367867758
H            1.14417416442725       -1.52857587406901       -2.66064328421660
H            2.49544565378125       -2.65003654007550       -2.46006894138695
H            2.47415082152358       -1.52729367613340       -3.81951104665993
H            1.84927371479268       -4.92011360789282       -0.06959919278076
H           -0.32928774415594       -5.98768075813663       -0.60355869533016
H           -2.36344931057024       -4.55594612677346       -0.75569192178156
H           -4.20654559199457       -2.82719727056412       -0.76191337970177
H           -5.55168220127007       -0.76351793611269       -0.61110209209537
H           -4.49740481996156        1.43435274694952       -0.22221174729010
C           -0.11094095347234        0.43976546952508       -1.78109998857910
O           -0.27594057653652        0.98545237398509       -2.78045341317887
C           -0.05429714605854       -0.10370548352132        1.68471167233375
O           -0.19733045286704        0.04982804050383        2.81857075404353
