61
 energy: -76.091588008511 gnorm: 0.000136114039 xtb: 6.7.1 (edcfbbe)
Mn           0.26580272384965        0.11253621837989       -0.10373917895393
N           -0.01289291631875       -1.77585254713894       -1.14463657588739
C            1.24635780524975       -2.48710920261392       -1.44776920523547
C            2.25085810582757       -2.32328936110563       -0.30522252390143
P            2.41666636186125       -0.51919201331627        0.12174617542954
C            3.86136726034884        0.06002664405148       -0.90133426438104
C            4.00648451218265        1.57119737813320       -0.72674018224643
C            3.73448798032340       -0.30204939664834       -2.37924721394166
C            3.07412841987948       -0.59497175646625        1.86538389627447
C            4.48213812889005       -1.15944553952532        2.02241819589372
C            2.92760735544529        0.77191854222956        2.54131360307585
C           -0.83432434318644       -1.58347740568599       -2.36185439796050
C           -2.11615423114749       -0.76867199055512       -2.09573778394230
P           -1.91160764021475        0.21173373721811       -0.53119628200912
C           -3.30719597025273       -0.42859837247023        0.52533784752005
C           -2.96594706551527       -1.81332647281524        1.07750551518650
C           -4.65305239001505       -0.48505519594991       -0.21018082247803
C           -2.22320019393782        2.03449424985728       -0.78365715614045
C           -3.64384150721612        2.58642831696441       -0.79608146220373
C           -1.40377671252512        2.68348344453832        0.34653150383980
H           -0.55326674518085       -2.36935739461623       -0.50154231512837
H            1.65482911023823       -2.05181056994354       -2.36272302678545
H            1.04999842098311       -3.55123933452453       -1.62659990456226
H            3.21806847658197       -2.75167628846766       -0.57932014298234
H            1.88268223177342       -2.83081935505481        0.59413933242984
H            4.74793549288226       -0.44544433225121       -0.49912425528875
H            4.81776065813832        1.94682743568813       -1.34823858096297
H            4.22495021107443        1.83534679023428        0.30493821979278
H            3.08979175168593        2.08161702851871       -1.02371787041475
H            4.55631629236673        0.15548199450475       -2.92842970047870
H            3.79505387906556       -1.37647910419970       -2.53529402515753
H            2.80625799113164        0.07469482094833       -2.80313085446918
H            2.37363299902805       -1.29258677190278        2.34935361991172
H            4.59402533372723       -2.10245813135235        1.49064392402149
H            5.23521512254792       -0.45915568989750        1.66798826042604
H            4.67631760866148       -1.34274371260818        3.07818458294096
H            2.79228611472862        0.65623021921704        3.61520551790814
H            2.06047270392033        1.31414358744940        2.14317571689495
H            3.81058664213438        1.38742133186144        2.38522444864173
H           -0.20810622609998       -1.05865638904977       -3.08904595942413
H           -1.09799859389396       -2.55993034442239       -2.78611471953305
H           -2.98076497717143       -1.42747749823084       -1.99290696316460
H           -2.30909808923429       -0.08384253721305       -2.92590261525099
H           -3.36509664825093        0.28007197861232        1.36286286561498
H           -2.87561594782059       -2.54075044856060        0.27079487276466
H           -3.76654330606246       -2.14680679501662        1.73580033028104
H           -2.04392585905697       -1.80846156767589        1.65414677923052
H           -5.46332514595989       -0.28092927194752        0.48652306604262
H           -4.71744511984186        0.23144058483712       -1.02370409890960
H           -4.82333302259925       -1.47733393244502       -0.62267531609517
H           -1.75089296711667        2.26706724381405       -1.74927154250131
H           -3.59633666418733        3.67320482567021       -0.86166574860972
H           -4.20155228964051        2.23173404977574       -1.65992409530661
H           -4.18480677662619        2.33034118527309        0.11178685962140
H           -0.36178215868542        2.27252538080656        0.39827488963264
H           -1.31973961157436        3.75910864147374        0.19711634888268
H           -1.88398644840285        2.51074878196348        1.31117154735055
C            0.58519474617918        1.01111777655104       -1.60624186349275
O            0.76671350881699        1.71534955374952       -2.49570496337980
C           -0.01991061069290       -0.35286578562892        1.59534883327604
O           -0.19938224807789       -0.38867835348917        2.72781907672003
