49
 energy: -75.576597891392 gnorm: 0.000219234743 xtb: 6.7.1 (edcfbbe)
Mn           0.13575330194115       -0.28252131511772       -0.14049569064974
C            2.36844833591899       -2.47494713799023       -0.21433669761851
P            2.28079508718584       -0.65823228916764       -0.62870066438879
C            3.58427897127610        0.28381705348932        0.31220925002020
C            2.88925768752878        1.55718903526788        0.82077803815848
C            4.23519969907343       -0.49665750367369        1.44815714546422
C            2.84828055150006       -0.60730018259705       -2.39836715018754
C            4.20596453591930       -1.26451937841011       -2.64142602473581
C            2.84227788536912        0.84783069091361       -2.86872309177710
C            1.00425483167144       -3.07206279802751       -0.42746876052265
C            0.80184515209010       -4.42236764983741       -0.66699331629841
C           -0.49458079808941       -4.91523450538175       -0.74499598139217
C           -1.56217142580315       -4.05620456802849       -0.54999583150240
C           -1.31079842920878       -2.70622831419478       -0.32636233990205
C           -2.32088159839620       -1.68072689382989       -0.06844076714564
C           -3.69215218847806       -1.88296404910110       -0.00115983459533
C           -4.52113891108358       -0.80279928246016        0.27386319300898
C           -3.97608106541781        0.45135726729008        0.47579747771924
C           -2.59179647337200        0.58570116072439        0.39195893062697
O           -2.01555044513521        1.78200402114728        0.56210770398372
N           -1.79541327407747       -0.44635408342366        0.13058572200355
N           -0.04009406596697       -2.23203124688921       -0.30659258590098
H            2.59718425147796       -2.54543934367201        0.85689955233089
H            3.14171251666497       -3.01106448595289       -0.76771203914853
H            4.35712092085029        0.56664972840487       -0.41160546316977
H            3.59080667077260        2.38472645572267        0.89825717115201
H            2.07730621643814        1.86127976802213        0.13665623959587
H            2.46283122015999        1.38870108506034        1.80897222257320
H            4.77037707995289       -1.36627446542663        1.07226363357037
H            4.95089378727513        0.14452147634208        1.96037203926299
H            3.49550269245769       -0.81941352978400        2.17892640265323
H            2.07234987945714       -1.16447971383590       -2.94573312311276
H            4.15295778418443       -2.34684935104716       -2.56038214749945
H            4.53730737283334       -1.02885583135028       -3.65123340835691
H            4.96175342204217       -0.89812376971604       -1.94997583401696
H            1.92109570539889        1.35322862253249       -2.57078449876191
H            3.68314730861915        1.39839738404851       -2.45186977810119
H            2.91643949223814        0.89378141661056       -3.95348847774838
H            1.64805777921508       -5.08199492085786       -0.77955706464986
H           -0.66728604431446       -5.96259919436486       -0.93710585665756
H           -2.57364665050105       -4.42669199374124       -0.57384181948701
H           -4.11145096752451       -2.86183081422141       -0.16080059186820
H           -5.58948449288886       -0.94007455795139        0.32910219367326
H           -4.57701869239410        1.31939346888177        0.68927574745150
H           -1.03461882848998        1.72893544592325        0.52965214767545
C           -0.30332006831579        0.03724397432445       -1.85535008886166
O           -0.72142447128701        0.19675388591549       -2.90398294978375
C            0.45560018790972       -0.43080749898890        1.61628325267629
O            0.59431090345212       -0.56886931381231        2.74277472833801
