56
 energy: -75.584202430820 gnorm: 0.000060510223 xtb: 6.7.1 (edcfbbe)
Mn          -0.13967509991994       -0.08820726394019       -0.71187213984244
C            2.29941088050630       -2.07917583518576       -1.06289062754273
P            2.08500388163306       -0.22511562914199       -1.08252968800875
C            3.43483842904852        0.26470342693652        0.10272666160707
C            3.26147541315344       -0.40512890438364        1.47343766363842
C            3.52009786412231        1.78351786014024        0.23150333543572
C            2.71006600653832        0.23273948603412       -2.77838933222634
C            4.20638445966266        0.04660425551576       -3.00245218965168
C            2.23901257705506        1.64724206991516       -3.11784536784102
C            1.10922106926020       -2.74431425600499       -0.43103645064982
C            1.13502138569745       -4.06455834267440       -0.00416278855305
C           -0.03893444746892       -4.66586266191366        0.42077980099773
C           -1.22851733377366       -3.95594711324970        0.33008985905389
C           -1.19330381487300       -2.64184714456251       -0.10009396860729
C           -2.42999892271000       -1.82838945757156       -0.39304444535963
N           -2.18877791940759       -0.40752349605366       -0.08391713261250
C           -2.51706447338501       -0.16351915395273        1.34264468826416
C           -3.99715636309799       -0.21930723484172        1.72555954270655
C           -2.87786587466315        0.55396174743849       -0.96575139307750
C           -2.10397980161397        1.87788771783494       -0.97183652168133
N           -0.02932372169020       -2.03177491518312       -0.39539385976509
H            3.23494198843598       -2.37525881641796       -0.58091271738123
H            2.33731203023770       -2.40937557404004       -2.10997008022210
H            4.35596689958697       -0.11302202263256       -0.36041634110974
H            2.58259550988475       -1.25819621765018        1.43517044110227
H            2.86631137372263        0.30002226176367        2.19934279302006
H            4.22266581694041       -0.75270883153406        1.84637070783574
H            3.85161076506868        2.24503572379251       -0.69524537277034
H            2.54830535486033        2.20131848814179        0.49534966073477
H            4.23143887732894        2.05070156312608        1.01118345606238
H            2.17246896074344       -0.46861557152142       -3.43434107967700
H            4.53129208600992       -0.94936553113881       -2.70610056483107
H            4.78700894664858        0.78603296102488       -2.45637766771401
H            4.42673990988684        0.17098932362824       -4.06152277837892
H            2.86839538005812        2.39990379622571       -2.65020200603382
H            2.26384510317800        1.80958409380698       -4.19353271573785
H            1.21048182426963        1.79473381638961       -2.76778300285275
H            2.06318002021615       -4.61411052744276       -0.01771785942911
H           -0.03492154871548       -5.68356401916691        0.77801768698787
H           -2.16975364084797       -4.41863302172613        0.58163445932799
H           -2.62978243545996       -1.93495528650850       -1.46701522189168
H           -3.29265884822866       -2.23138859249449        0.14539225852113
H           -2.14240054919345        0.82336788084178        1.62162593590679
H           -1.96935070027659       -0.91099603593834        1.92376243794333
H           -4.49478273681346       -1.11653876608265        1.36666207218321
H           -4.54542023616694        0.64798403946083        1.36609577443818
H           -4.06272346997054       -0.21737009808556        2.81109976021559
H           -2.90037629749321        0.14552374914279       -1.98072655947985
H           -3.91273751039111        0.72612163052511       -0.65439967859478
H           -2.45411837489987        2.50643183132871       -1.78900976397121
H           -2.24685232945401        2.42634792787411       -0.04108768365907
H           -0.99279708731826        1.72883263249512       -1.13142692916638
C           -0.39622737156948       -0.50751148439916       -2.43528795207684
O           -0.48371367948102       -0.86013924326296       -3.52275568308779
C            0.26525639246427        0.43499401052255        0.94998522651280
O            0.51991814424658        0.86300146405764        1.98033403410726
