59
 energy: -70.721227445756 gnorm: 0.000178810284 xtb: 6.7.1 (edcfbbe)
Co           0.01924782122495       -0.48023681047725       -0.26089247116536
N           -0.16368105368515       -2.43217235630269       -0.53511956986665
C            0.94303375959871       -3.12758511424682       -1.21497800764772
C            2.27366165346193       -2.66045642297334       -0.63961627128398
P            2.16953872767399       -0.81353380729382       -0.58553973171384
C            2.82017605409886       -0.36334743187238       -2.27040355094686
C            4.33633920197143       -0.47073331495128       -2.40547829578749
C            2.28595417946905        1.00620483922162       -2.68481096676452
C            3.40356857444858       -0.34205304356046        0.71811647927244
C            3.66476006259751        1.16223032930125        0.73365006150424
C            2.82425619501929       -0.77811430893195        2.06608925380187
C           -1.46427758375458       -2.93004340283302       -1.01817985537719
C           -2.59073157638800       -2.26956152734030       -0.23450110346070
P           -2.17181973903784       -0.46965774580800       -0.09978322845295
C           -2.89000887834858       -0.07860809343633        1.57101822095335
C           -3.16738711895099        1.40354862110015        1.79576320526490
C           -1.88115317900179       -0.59134060980259        2.60233757756645
C           -3.22025432521923        0.37425100042353       -1.38408452451398
C           -2.71361227987678        1.80030331701134       -1.60071813481008
C           -3.14876045907900       -0.37785451412549       -2.71306293621941
H           -0.10030587930747       -2.67803542362568        0.46171969649292
H            0.88593491849642       -2.88784139814266       -2.28101925183523
H            0.83703639572219       -4.21530511418316       -1.10825318955142
H            2.40493690818415       -3.04889183126592        0.37252271838252
H            3.11122632209552       -3.00150176303825       -1.25103314028138
H            2.36335906602065       -1.11237708699872       -2.93383586803763
H            4.61396735268697       -0.36889499677380       -3.45347479049183
H            4.84538828527582        0.31289174429515       -1.85096052042059
H            4.70274387610015       -1.43427767630465       -2.05493739115916
H            1.19782191882294        1.02289498271709       -2.59391036133974
H            2.55104063132902        1.21806722492058       -3.71905890237160
H            2.69226226536823        1.79902992098568       -2.06133870029079
H            4.33850573515226       -0.87945850693711        0.51640942658560
H            4.37727171000895        1.40233130526229        1.52142820920625
H            4.07892864033723        1.51640031309175       -0.20641946471412
H            2.74592194556732        1.70882451891352        0.93413508280845
H            3.41930253162727       -0.36803785074244        2.87953847610381
H            1.80282640828313       -0.40191691949969        2.16912055647417
H            2.81516342358584       -1.85975285328541        2.17866615223030
H           -1.51717188879324       -4.02231851656248       -0.91614397659062
H           -1.54303497524953       -2.68686163086227       -2.08059680608941
H           -2.63711546224825       -2.68511171276185        0.77560669977705
H           -3.56157693228392       -2.42826879441762       -0.70589997686830
H           -3.83325508710220       -0.63513823663361        1.65765299449315
H           -3.93390936238782        1.77348291464383        1.11889355627752
H           -2.26088567128421        1.99269983693674        1.66949845634586
H           -3.52482210717227        1.55545103605937        2.81337409490387
H           -1.78935427049504       -1.67571972040555        2.57932767859766
H           -2.18842335835015       -0.30876818537166        3.60726760914721
H           -0.89896296624300       -0.15035895334090        2.40763411725181
H           -4.25390859074721        0.38814670501579       -1.01406859785252
H           -3.36125152955497        2.32244243684843       -2.30291664805384
H           -2.68154998709621        2.37554177566501       -0.68010550754539
H           -1.70811115920113        1.77308696746910       -2.02068087315925
H           -2.10957546878361       -0.48614226102262       -3.02500472533575
H           -3.61548480193433       -1.35846909232265       -2.66369582701082
H           -3.66784231972436        0.19384924748144       -3.48054947509904
C            0.15825517785383        1.21294124782148        0.05475206990853
O            0.22549085155157        2.33415739246432        0.28207855069772
