51
 energy: -81.808090481359 gnorm: 0.000129204338 xtb: 6.7.1 (edcfbbe)
Fe           0.13676216001349       -0.26078686362087        0.03140304492479
C            2.36965333514498       -2.37714181346057       -0.09794147324211
P            2.23503371404869       -0.56872864512646        0.33530683406205
C            3.58845046841720        0.13939998721691       -0.66693207934749
C            4.85372101965818       -0.44094168486046       -0.71123127201403
C            5.84570080795013        0.12605837821177       -1.48993318632279
C            5.58581629421997        1.27583010979399       -2.22070945139130
C            4.33274548970615        1.86440683057171       -2.16771543350429
C            3.33576517707550        1.29814631691417       -1.39160784129698
C            2.99717969998446       -0.53076965159109        1.99316921484171
C            2.63131448585542       -1.49072922894749        2.93307782347444
C            3.14549612063925       -1.44141785601571        4.21538362286682
C            4.01627054069991       -0.42468432277788        4.57601507327852
C            4.36170969555402        0.54913866141960        3.65331198127990
C            3.85171474785910        0.50149172730604        2.36769082519108
C            1.03096155278239       -2.98518658081307        0.19272157385170
C            0.88376418045630       -4.33503917393413        0.42018509090318
C           -0.38800305832351       -4.86690458543607        0.64731866828895
C           -1.46706513823943       -4.01406868473568        0.61126857377887
C           -1.26538013284252       -2.65199171022762        0.37568350489401
C           -2.31165287815324       -1.66352987599625        0.27396102242863
C           -3.67857396182753       -1.92224714419781        0.40592513224184
C           -4.58010676360693       -0.89264210159450        0.24513192111675
C           -4.10165417898272        0.37319188732162       -0.06933366409427
C           -2.73009305038529        0.56556727685206       -0.18866747532550
O           -2.20797474872058        1.75415570764471       -0.53027844809052
N           -1.84061760910869       -0.41537624147893        0.00100067014971
N           -0.01759513169554       -2.12881102449957        0.19491227949422
H            3.18301089699110       -2.90201122817631        0.41048444307985
H            2.54764293460306       -2.41100098636942       -1.18175685615440
H            5.06062715818102       -1.32922067339047       -0.12995253126759
H            6.82657660502326       -0.32671575207650       -1.52753345790817
H            6.36420300843133        1.71484492045155       -2.82846456230211
H            4.13308184506430        2.76446620605276       -2.73179970443306
H            2.34952333115021        1.74052328767599       -1.32962183666669
H            1.93214033509878       -2.27027350750487        2.65851255620207
H            2.86407870465601       -2.19362272174763        4.93921203745467
H            4.41705849799042       -0.38657523453969        5.57893096762826
H            5.02866765375187        1.35084187067459        3.93795020419093
H            4.11351901277807        1.26647290452150        1.64854448807718
H            1.75289669582563       -4.97579591302496        0.41837161920371
H           -0.51563862045012       -5.92131707502135        0.83613362139707
H           -2.46535611051123       -4.39037326649236        0.76601257186405
H           -4.02206171229942       -2.91744198683688        0.63454154538357
H           -5.64042614750143       -1.06318491117844        0.35041468637240
H           -4.77785557211845        1.20138390730132       -0.22204511718342
H           -2.89972867709343        2.42889470198606       -0.59133931098796
C            0.29980595783793       -0.03845918990227       -1.69374121266808
O            0.38211370535342        0.15340883743972       -2.83126845135445
H            0.01646288128691       -0.05618201992654        1.48580256713397
H            0.18352561252020        1.18876413142808        0.07410733470348
