59
 energy: -70.514643573151 gnorm: 0.000120830898 xtb: 6.7.1 (edcfbbe)
Fe          -0.00782595952378       -0.26597300677281       -0.39159288048317
N           -0.12461256888061       -2.07722173614173       -0.59980449536899
C            0.99212078942702       -2.99916442349386       -0.43985007361326
C            2.12151170998096       -2.30791160013697        0.31432037122288
P            2.14420382509686       -0.62734091415859       -0.43937434291657
C            2.97442285446107       -0.93328595986751       -2.09393996548128
C            4.18386579467291       -1.86475730356096       -2.02351509961066
C            3.35338270066377        0.38271939579705       -2.77049950906659
C            3.38044519747672        0.37177098015797        0.53645838727418
C            2.99693797276839        1.84336309854680        0.38840888718267
C            3.34626580252159       -0.01489330415249        2.01143189272391
C           -1.27606862016472       -2.82817189994802       -1.08284825468617
C           -2.48102514363267       -1.92509221418929       -1.34463469564490
P           -2.17736654053257       -0.37018445392541       -0.38962692870875
C           -3.03256719408337       -0.73518391852935        1.23349263954864
C           -3.15215943990984        0.51606720861818        2.09821067125510
C           -2.23847413581756       -1.79334193579576        1.99344320460344
C           -3.34686008194862        0.89483850829541       -1.11780610212426
C           -2.81749861419459        2.28757606571357       -0.75122767980612
C           -3.50784832535618        0.77587994720481       -2.63096225345186
H            1.34157702261336       -3.34413702565197       -1.42777134872980
H            0.65435060141510       -3.89105520545268        0.11184325868133
H            1.81221100047099       -2.16532587843771        1.35353080395117
H            3.06485200779255       -2.85511853370243        0.28115888179827
H            2.18817099093719       -1.40451226554749       -2.70050746357080
H            4.69799495663166       -1.86268954475549       -2.98402460328250
H            4.89174860628879       -1.53584936964419       -1.26489565734885
H            3.89148108774134       -2.88917997012814       -1.80715506301457
H            2.51291417079753        1.07275722922876       -2.77189998483299
H            3.64268536795351        0.19964905811697       -3.80517308295645
H            4.19473561734444        0.85254388194159       -2.26491574928858
H            4.38497532587649        0.19811241043627        0.12742085874454
H            3.66379178500349        2.47558322996778        0.97370888395970
H            3.02903243442223        2.17165792417377       -0.64779385976642
H            1.97824450469006        1.97088066868531        0.75022910881149
H            3.94976019100298        0.68213888778054        2.59193956189859
H            2.32010466967971        0.04686078840114        2.36996979066335
H            3.72988029568621       -1.01952547580797        2.17857095041322
H           -1.53308439869887       -3.61174913037524       -0.35396498824706
H           -0.98968046814744       -3.35045206260439       -2.01110457318577
H           -3.42709874260285       -2.40558494206087       -1.08346051420132
H           -2.49988405966306       -1.64876608206347       -2.40055457431762
H           -4.03707552994626       -1.11588991248744        0.98773802321561
H           -3.80317086310082        1.26436147271987        1.65278607136429
H           -2.16248164342723        0.94506573874239        2.24076385736519
H           -3.55581591666338        0.25522112366403        3.07660240055747
H           -2.26551768602887       -2.75854618047845        1.49439177137023
H           -2.64095947830524       -1.92079668103616        2.99832852502674
H           -1.20429207271044       -1.45977488841140        2.07465506049698
H           -4.32449267609166        0.73336061303098       -0.64372198427017
H           -3.63226033280512        3.00021364760869       -0.63131976848207
H           -2.23159207626698        2.25615944437374        0.16679524228754
H           -2.15939106742472        2.65357653388528       -1.53515890244107
H           -2.53160229696430        0.75197581098070       -3.11433301257952
H           -4.06748915366516       -0.11505311870658       -2.90784414477868
H           -4.05042694013866        1.64296964878850       -3.00620712765536
C            0.10249204967009        1.07029961946769       -1.49282031532866
O            0.15866676606570        1.85589028426991       -2.34851148260212
H            0.07040548372013        0.57582262923964        1.34549432531792
