64
 energy: -92.258752679285 gnorm: 0.000120834973 xtb: 6.7.1 (edcfbbe)
Fe           0.12881620988995       -0.79810927990877       -1.11868186383028
N            0.33930959500890       -2.85188829532597       -1.26410667584341
C            1.31406367651661       -3.28030612860027       -0.23286019259325
C            2.64312582305020       -2.55150943531839       -0.42191332725973
P            2.26256151968581       -0.80397619811611       -0.87527128238642
C            2.28400181197350        0.26460837509975        0.59559282183492
C            1.23088348576248        1.18325727454862        0.59361831405753
C            0.99606158217942        1.97393020333622        1.69678919592733
C            1.82821671572383        1.85902502514356        2.80434805707612
C            2.88681678870027        0.96768740927045        2.79958272301405
C            3.12045739974210        0.16308657170643        1.69375991327971
C            3.69924194639331       -0.21765096971784       -1.82157657664725
C            3.48173574772220        0.74719698210314       -2.79945368545247
C            4.55104354725982        1.26226405086138       -3.50956049919474
C            5.83609043184314        0.81661149288400       -3.24226743246118
C            6.05331714675308       -0.14034770256904       -2.26290652296812
C            4.98939513531300       -0.65977169431131       -1.54759509543254
C           -0.95710203319646       -3.55635825676020       -1.13767246020099
C           -1.81810632209715       -2.91546037503254       -0.05212340922007
P           -1.89978235031290       -1.11556492455539       -0.47805684139750
C           -2.20264514577931       -0.21296935648694        1.06742756020292
C           -1.48264483317811       -0.51779551363406        2.21899311114301
C           -1.60120809945805        0.28066382874535        3.34037676349461
C           -2.42359542188267        1.39656079857999        3.31939648765422
C           -3.12840046573350        1.71516690264283        2.16986863732575
C           -3.01400487609360        0.92029552774038        1.04339295659913
C           -3.48804101758311       -1.00609614002370       -1.36219052965575
C           -3.53030140459230       -0.61864144728363       -2.69458074829640
C           -4.74392668933470       -0.56266462072024       -3.35938261494870
C           -5.91339792160051       -0.88988241276416       -2.69331663976274
C           -5.87362883757104       -1.27295596819162       -1.36019270315262
C           -4.66556355353231       -1.33287087259379       -0.69262536702101
H            0.73836501211335       -3.12574543634002       -2.16823389149455
H            1.46755362988856       -4.36346780064567       -0.29977605712442
H            0.89996755810912       -3.04141032724397        0.74572625434875
H            3.19938481920781       -2.97823806076169       -1.26654808076759
H            3.25641456117386       -2.62209854552043        0.48044646004239
H            0.57964889874042        1.25686907088394       -0.30200575147976
H            0.16965984419819        2.66883797205499        1.70731798221401
H            1.64174752916031        2.46955432450921        3.67546480215788
H            3.52715758865057        0.88612111692829        3.66584697450879
H            3.93743673937695       -0.54444313230296        1.69587248745355
H            2.47195017250122        1.08235123974827       -3.00019757548858
H            4.38529320079603        2.00869315946990       -4.27250160345654
H            6.67143628606101        1.21651018841478       -3.79816930986296
H            7.05733948692273       -0.48151154497596       -2.05641001353954
H            5.16396680872143       -1.40335149096176       -0.78374687324169
H           -1.47345895336637       -3.46788332706828       -2.09863835550237
H           -0.78769127123971       -4.61692289763714       -0.92171988617800
H           -2.81712168760099       -3.36038625751769       -0.04302218791399
H           -1.37039343399408       -3.03354247993267        0.93631298620010
H           -0.81632855207967       -1.36538040102134        2.24061054429530
H           -1.04438903018173        0.03761862996830        4.23347134702075
H           -2.50973233017899        2.02187879214472        4.19622861604683
H           -3.76275597537038        2.58972567574886        2.14737315709305
H           -3.55752193248059        1.17544682263707        0.14279313042648
H           -2.61378389811958       -0.35879042160538       -3.20391706221627
H           -4.77826686758618       -0.26167743000241       -4.39623241744081
H           -6.86017403949549       -0.84370453544715       -3.21144439108897
H           -6.78875788728965       -1.52284644884213       -0.84321764313850
H           -4.62930219482301       -1.61945739682926        0.35008498466920
C           -0.01766156728707       -0.47577289229233       -2.83528824493341
O           -0.05499264796372       -0.23193903033124       -3.95465249994556
H            0.27021798946520       -1.01095460003342        0.26983656386211
