64
 energy: -92.258743877950 gnorm: 0.000126765103 xtb: 6.7.1 (edcfbbe)
Fe           0.12352486568725       -0.78708451895107       -1.11938921626338
N            0.33618390076612       -2.83713797689997       -1.30989058374906
C            1.31900918780989       -3.28654959140220       -0.29530773680380
C            2.64567860803371       -2.55109008282260       -0.47678458541503
P            2.25801145824151       -0.79476966907151       -0.88699689684108
C            2.28539386134651        0.24052628034176        0.60742855408319
C            1.23225048556663        1.15886389710174        0.63045669624141
C            1.00362525503460        1.92644062327101        1.75104848465232
C            1.84173272390759        1.78833222372449        2.85146256975243
C            2.89992532447784        0.89700041402225        2.82245942744440
C            3.12764190269584        0.11584453683896        1.69870150147846
C            3.68481134984972       -0.17484394524495       -1.82628587919290
C            4.97822845719598       -0.62824897753249       -1.58953503816805
C            6.03264576774442       -0.07562859633830       -2.29418965610731
C            5.80264379530820        0.92524963060273       -3.22546702788932
C            4.51410462083691        1.38150681587304       -3.45586637092788
C            3.45437445404323        0.83340184228731       -2.75652012485844
C           -0.95855173912085       -3.54579872473896       -1.18900260662651
C           -1.81377521908564       -2.92775108940359       -0.08573374486166
P           -1.90137154220290       -1.11998541215792       -0.47556330967899
C           -3.49357558741897       -0.99643642572095       -1.35057743878712
C           -3.54268415353563       -0.58191330528037       -2.67454318330273
C           -4.75938086862830       -0.51610550830398       -3.33282283784418
C           -5.92492580242433       -0.86074682040633       -2.66868797392256
C           -5.87830189859940       -1.27074543664553       -1.34381175410222
C           -4.66719587954895       -1.34045674801283       -0.68281959255183
C           -2.19929827645216       -0.24933258410974        1.08920269747714
C           -1.47037661021937       -0.57390671987854        2.22975798654239
C           -1.58602521364918        0.20046420240779        3.36819233738642
C           -2.41466551688495        1.31189685121472        3.37547640543191
C           -3.12861468313233        1.65016276013658        2.23725982121872
C           -3.01699198165450        0.87959817569104        1.09372741749870
H            0.72875955640633       -3.09100846743851       -2.22261211010493
H            0.91108753923492       -3.07074212587173        0.69123043689810
H            1.47403821340481       -4.36762057048596       -0.38778105843462
H            3.26521046993505       -2.64079202901545        0.41960865070103
H            3.19669813229311       -2.95755740702542       -1.33467982466544
H            0.57601824562169        1.25092104586047       -0.25978281190471
H            0.17758533128870        2.62121846609145        1.78039403653981
H            1.66022737281210        2.38086187192574        3.73594213479329
H            3.54479664926718        0.79711886887463        3.68341999962114
H            3.94465079347874       -0.59145587607296        1.68150164903245
H            5.16297947700551       -1.40564629307306       -0.86265900950947
H            7.03933334630367       -0.42511001818162       -2.11662369159204
H            6.63069738600591        1.35119595586967       -3.77286749019563
H            4.33840232721446        2.16217468798363       -4.18139385105122
H            2.44172377887982        1.17626006508241       -2.92869235082065
H           -1.48111985591105       -3.43930254668360       -2.14476273923056
H           -0.78645394317290       -4.61013628471771       -0.99488669144130
H           -1.35957346902592       -3.06410824146813        0.89740923052122
H           -2.81188250701201       -3.37476838505964       -0.07909062832860
H           -2.62910706478303       -0.30879760013939       -3.18231457684761
H           -4.79926666147646       -0.19369659395488       -4.36303805217156
H           -6.87407743769631       -0.80682985519153       -3.18171441497562
H           -6.79036029925510       -1.53417524054991       -0.82815045461420
H           -4.62537089803289       -1.64829941677298        0.35363304753378
H           -0.79930428162482       -1.41800036821869        2.22948476008911
H           -1.02215496755427       -0.05786154753939        4.25253380857988
H           -2.49866828600807        1.91862166573983        4.26547825094076
H           -3.76806613754969        2.52128669310677        2.23703973697576
H           -3.56758971369995        1.15046873012067        0.20208857412020
C           -0.02970634789406       -0.42802663727873       -2.82811898478691
O           -0.06906513343329       -0.16000796309056       -3.94184029591845
H            0.27174161885169       -1.03005382811062        0.26341370436901
