49
 energy: -80.969952482344 gnorm: 0.000275857062 xtb: 6.7.1 (edcfbbe)
Co           0.21867863512294       -0.50045991862304       -0.05530999168452
C            2.56580621841558       -2.57646189452589        0.16042337277797
P            2.39139906351378       -0.72976138163674        0.07378815778149
C            2.75853270321937       -0.19875125433869        1.77802256387346
C            4.03236068751463        0.10086661809626        2.24694958620046
C            4.20339842016791        0.47681793515235        3.56897261529329
C            3.11426418136006        0.55960647785976        4.42154467656697
C            1.84021188113643        0.27172419333948        3.95430935418373
C            1.66370420165767       -0.10260974019366        2.63632012066070
C            3.82584312159360       -0.19871987304224       -0.90418191975518
C            3.71893668226056        0.94443411930438       -1.69083117548246
C            4.80807731253478        1.39400956683308       -2.41652121225121
C            6.00990521653402        0.70709187601323       -2.36058764914526
C            6.12237487002294       -0.43094042195821       -1.57681175140121
C            5.03774493829722       -0.88716210353965       -0.84971525563243
C            1.19753527839916       -3.18088459801335        0.12392356657127
C            1.03947406574250       -4.56253313237754        0.07262740209063
C           -0.23261803546635       -5.09898239835212       -0.01652355315904
C           -1.32018311409386       -4.24049570715950       -0.04096823013772
C           -1.10037365804162       -2.87078919154697        0.03562562190312
C           -2.16406914444307       -1.87002026410354        0.10947362778290
C           -3.51750350551564       -2.14447968622714        0.02355030177320
C           -4.42806554211457       -1.10715170424952        0.20635279878472
C           -3.96331827152298        0.14777431940433        0.52400813796122
C           -2.57856913587742        0.35681291304609        0.60369003449397
O           -2.14574619978778        1.55186806514453        0.97283134350627
N           -1.70479849818092       -0.61693498778447        0.34307750504058
N            0.14606803806321       -2.35743164068373        0.11602889894123
H            3.13474154890011       -2.93003727985711       -0.70685495377055
H            3.09877505984829       -2.87928714100559        1.06855461504441
H            4.88552507316390        0.05271927961073        1.58619388864795
H            5.19264135156522        0.70991237421428        3.93357526489022
H            3.25676677164532        0.85641615637734        5.44970643783993
H            0.99149748462279        0.34504311656326        4.61784230766583
H            0.66505838453331       -0.32800131361168        2.24945928783235
H            2.78195597896258        1.47881087655794       -1.73689363681307
H            4.71852380648348        2.28036747874877       -3.02641671132021
H            6.85957672358541        1.05710786623028       -2.92724744497236
H            7.06022062298586       -0.96459159589531       -1.53084824274785
H            5.14265935697938       -1.77163806887815       -0.23716930915409
H            1.90965900183221       -5.19980689030372        0.09523009145139
H           -0.37661532634074       -6.16697497116378       -0.06745393451435
H           -2.32023515814177       -4.63357057642240       -0.11331567280244
H           -3.87004559926840       -3.13970263761858       -0.18737134472538
H           -5.48747030859107       -1.29318970119553        0.12499133692064
H           -4.61934111844052        0.97943366234437        0.72035673791900
H           -1.17865564302536        1.56496918734172        1.08683233955998
C            0.23515507441240        1.11327907612982       -0.71446479687235
O            0.26271290811586        2.05865669109232       -1.35890753605228
