56
 energy: -71.029680119183 gnorm: 0.000340250519 xtb: 6.7.1 (edcfbbe)
Fe           0.24347206666898       -0.08113457932224       -0.14567369932399
C            2.36603072224691       -2.20436947818949       -0.64346718739325
P            2.34551761972432       -0.49277989203608        0.09855501558791
C            3.83968397515028        0.32212729174548       -0.69760254037266
C            4.99036736652328       -0.62842370041967       -1.02269558432962
C            3.41391680786404        1.10583731960975       -1.93357459212046
C            3.05007386327693       -0.78273363677669        1.81032108684428
C            2.28581287944201       -1.88142762265837        2.54031819778138
C            2.94477691867224        0.52864688352941        2.58395239873244
C            1.04977791725543       -2.81446189936406       -0.28140294774193
C            0.86083590766579       -4.18058236485080       -0.20203243415145
C           -0.38218579507694       -4.68842621277620        0.15266537418658
C           -1.39952406683594       -3.78408871740988        0.42627114482688
C           -1.14929652845900       -2.42978654676957        0.32951114173824
C           -2.17311617496198       -1.38689023322718        0.67662179859374
N           -1.96803147585671       -0.17355128450603       -0.13121122266002
C           -2.46759125045515        1.02710071998790        0.57234848298361
C           -3.94373589280882        1.03090153659277        0.97845704902501
C           -2.66177045828362       -0.29127483498739       -1.42746981730698
C           -2.30659812278928       -1.51921427707018       -2.25733438417818
N            0.05458248306869       -1.93363494773092       -0.02766427449875
H            2.39978745359850       -2.04455679195020       -1.72912803330005
H            3.21165130784049       -2.83051794564430       -0.34954919704076
H            4.18255603368170        1.04619217768340        0.05336657987254
H            5.86555385226727       -0.05012538351839       -1.31823277108839
H            5.26622500133244       -1.23956390850985       -0.16580219182902
H            4.73117275416806       -1.28552521559373       -1.85015115075097
H            2.56376950473664        1.74121841196437       -1.68970603874645
H            3.11914488385438        0.43485846499533       -2.73858383703313
H            4.23166582431963        1.72975840641476       -2.29430144926845
H            4.10439510762045       -1.07467264969603        1.70937658479724
H            2.42321116456259       -2.85439503141776        2.07130791401515
H            2.62481011160160       -1.95167115727587        3.57394887150520
H            1.22403752962226       -1.64049979601175        2.54330952224931
H            3.25317901278536        0.39263604708053        3.62013103281210
H            3.56360470324287        1.30758751512370        2.14185224712568
H            1.91008565747038        0.86589192149497        2.55887292389218
H            1.68515953230031       -4.84528018647307       -0.41558960065466
H           -0.54956516378713       -5.75184317178188        0.21943947651188
H           -2.38017745775650       -4.12841245279907        0.71974337923962
H           -3.19182657575143       -1.78462002766722        0.56831550471487
H           -2.00767993479977       -1.11085591451051        1.72512051125481
H           -1.84883181471123        1.14558853267399        1.46213318742137
H           -2.26147869105568        1.88226817344384       -0.07422095279403
H           -4.12832248926731        1.92728430571644        1.56597070920286
H           -4.19466325337897        0.17071855309521        1.59465903400152
H           -4.61166004443326        1.05795271988619        0.12085119658898
H           -2.41425923741668        0.60591573953216       -2.00131094056154
H           -3.74790177000265       -0.30950265339238       -1.26002567216574
H           -1.23169548192980       -1.61063409570909       -2.38242440975679
H           -2.75392452083155       -1.41352016768824       -3.24417775164820
H           -2.68430732765649       -2.43602953585880       -1.81085764824701
C            0.38450025054268        0.10774217278454       -1.86829604471543
O            0.47081328190522        0.33448877949634       -3.00376661428663
H            0.14743303604271        0.06443988077370        1.31314314885689
H            0.30885064420205        1.38231363985517       -0.14639191068579
