57
 energy: -76.453471511984 gnorm: 0.000430396123 xtb: 6.7.1 (edcfbbe)
Mn           0.23162470946297        0.02019485665229       -0.03035179422870
C            2.30845517477080       -2.21913374326941        0.82299703967590
P            2.36317618490395       -0.38265770174183        0.52834908333431
C            3.24078094089112        0.27966595339455        2.04794842545583
C            3.00581219720281        1.78900838758552        2.09198412821203
C            2.77833723157982       -0.36684154588744        3.35343375105926
C            3.70653320226951       -0.32308297253711       -0.78028154604855
C            5.06342302421698       -0.90422536578135       -0.38530338399907
C            3.85763558416205        1.08792052233533       -1.34372628057408
C            0.88138564762994       -2.68587302353291        0.78771259860596
C            0.55611462404723       -3.95480446044804        1.24147532523257
C           -0.73336272366217       -4.43731317174795        1.07523897033964
C           -1.63280956845310       -3.64411316642040        0.37888207383950
C           -1.23936802569016       -2.38656179202972       -0.04516468233999
C           -2.12595003560669       -1.53899029589639       -0.91435585859150
N           -2.14173005043078       -0.14409255131526       -0.45523614034499
C           -2.95458124445443       -0.04367551989441        0.77735203587384
C           -4.46574077881980       -0.26342487036707        0.64453358017561
C           -2.68808683415949        0.70672010491944       -1.53048427917157
C           -2.78829031173185        2.18071805304798       -1.16154062007554
N           -0.02429372801888       -1.87182810114562        0.21899220774613
H            2.80131523003344       -2.51586611505561        1.74949488518676
H            2.82938656774995       -2.70672963040944       -0.01116092332099
H            4.31131768867532        0.08506449229435        1.92029741979563
H            3.60508771373203        2.24745557116210        2.87768790507522
H            3.25748600698752        2.25114975601965        1.14030917629055
H            1.95461870845601        1.99495901242079        2.28589935287254
H            3.11174808122488        0.23964953169964        4.19456969490159
H            3.19042157641348       -1.36537904690149        3.48610464807898
H            1.69342308846759       -0.42929496219912        3.39771494802384
H            3.26977515252944       -0.95317420079723       -1.57166475820783
H            5.64632627569725       -1.09823984032257       -1.28492697930518
H            4.96668790953814       -1.83900242535059        0.16398772366790
H            5.62615911715225       -0.20075769972642        0.22400981863178
H            4.34417065963438        1.05695843440086       -2.31753524066786
H            2.87489204179056        1.54979720438031       -1.45622035334038
H            4.46210242729650        1.70656274773663       -0.68396117693417
H            1.31467682258502       -4.56047105336326        1.71455601442011
H           -1.01677575042511       -5.41077465138290        1.44371919236731
H           -2.62977307786663       -3.99675725428397        0.16077666532560
H           -3.13647486358472       -1.96874985845881       -0.97084558892390
H           -1.70473000011178       -1.56023285199496       -1.93024041477689
H           -2.78436072486444        0.94581959401772        1.20685633701572
H           -2.56807329581784       -0.78367972119221        1.48667989098053
H           -4.89903160564762       -0.21419771276973        1.64115687545312
H           -4.93787393445262        0.50374521456084        0.03723371287408
H           -4.70823787833638       -1.23853080379848        0.22753059399044
H           -3.67582456569708        0.33077881283975       -1.83823905644270
H           -2.01520124824724        0.61824641679049       -2.38883362572313
H           -1.83940633327092        2.51249282930427       -0.74317332485197
H           -2.99450378527287        2.75798667954946       -2.05967756273054
H           -3.58084992969029        2.37373928102421       -0.44357155046844
C            0.57280642252726       -0.07860372603917       -1.77092886031758
O            0.80725657516230       -0.12956882575614       -2.90693729177810
C           -0.16042858776613        0.41141947211279        1.65376592867763
O           -0.45086650764590        0.68872599158224        2.74346271747054
H            0.27024763708730        1.55615234177474       -0.22905567096758
