56
 energy: -80.982425665641 gnorm: 0.000257780605 xtb: 6.7.1 (edcfbbe)
Co           0.14461931572277       -0.28109584572971       -0.01527048214932
C            2.30522142712530       -2.47059960571008       -0.01622788192405
P            2.22148964311276       -0.68400137024580        0.44475287309976
C            3.68473047354983        0.00159137233321       -0.37774784298741
C            4.95043999697823       -0.01987647948398        0.19998785449801
C            6.03206074393586        0.47362925238720       -0.50789514374905
C            5.85799455034901        0.98276821377113       -1.78565748014888
C            4.59887870430899        0.99640879434777       -2.36602181728586
C            3.51303802479101        0.50713560949640       -1.66357113140700
C            2.57750077743412       -0.61007972717466        2.22055962125668
C            2.98210100148091        0.61875868323134        2.74272831078260
C            3.20883022048448        0.75430702058586        4.09909396405416
C            3.01552192735430       -0.32737689412314        4.94563750819627
C            2.58553501013725       -1.54110277913275        4.43422082497628
C            2.35815921610690       -1.68524253083080        3.07625941772339
C            0.93030725167858       -3.02209779896473        0.18007021144197
C            0.69490752668697       -4.38252989139002        0.31632390943652
C           -0.60659268834505       -4.83626402422076        0.45987686957119
C           -1.63797365667733       -3.91156953633992        0.46659740584302
C           -1.33237111376343       -2.56508719422671        0.34140058370806
C           -2.37023214976941       -1.49090955610869        0.40191300424816
N           -1.87662030984509       -0.26857518140597       -0.25610701918470
C           -2.04898902269055       -0.35641997077130       -1.72720587025002
C           -3.48617735195620       -0.31134106934294       -2.24654278749427
C           -2.55424224447886        0.91253516595692        0.31212643176387
C           -2.06936607811381        1.20192700868223        1.73245357649009
N           -0.07330503991569       -2.13152158196321        0.20311180509212
H            3.07157542370142       -3.02541327072390        0.53263948220867
H            2.56324277258279       -2.50287234085156       -1.08229095508611
H            5.08811886227964       -0.41595041183010        1.19632770326803
H            7.01516448155493        0.46148633971378       -0.06103932649749
H            6.70615322920951        1.37043913291118       -2.32995186894211
H            4.46621738438428        1.39174010825402       -3.36207235033728
H            2.52179064427119        0.51373745230237       -2.10204289298472
H            3.12449228072083        1.45896043233174        2.07544224339370
H            3.53318995375816        1.70340647494614        4.49907782816357
H            3.19397951738784       -0.22161733577232        6.00521627897409
H            2.42509530504810       -2.37934052070965        5.09621490965501
H            2.01173503610358       -2.63459024940320        2.69244346668797
H            1.52370381102430       -5.07298494495495        0.30209899712365
H           -0.81193048789749       -5.89051543878569        0.56154922505795
H           -2.66453981499922       -4.22399199800753        0.57407709434269
H           -3.31741131639215       -1.83256291804006       -0.02877051002383
H           -2.54832330791444       -1.27036675875904        1.45858936338093
H           -1.57922670613870       -1.28818580000024       -2.05737776099759
H           -1.49914233610106        0.47752884717202       -2.17293773007642
H           -3.96005557583047        0.64210849213245       -2.02962473287975
H           -4.10362730618306       -1.10948291437571       -1.84213226201744
H           -3.46216745462633       -0.43181400343870       -3.32698502351042
H           -2.32371952508199        1.76374618274994       -0.33094245153970
H           -3.63963281293357        0.76385088772499        0.31394188410307
H           -2.18594119265345        2.25828247120788        1.95749593634462
H           -1.00522757971525        0.94623407743295        1.82363059844147
H           -2.62626979358299        0.64247393890760        2.48046920442894
C            0.43031718555579        1.40633456403491       -0.33537729238218
O            0.72263833682051        2.48772239907899       -0.56428988716282
