57
 energy: -86.145815165268 gnorm: 0.000372951864 xtb: 6.7.1 (edcfbbe)
Mn           0.00185611659482       -0.05024580541923        0.45787758365412
C            2.01704302375177       -2.14557118829758        1.52028498818742
P            2.07764866694536       -0.40424624594875        1.23310162571194
C            3.55712014309775       -0.12810533390725        0.17935157722623
C            3.68166971598683       -0.97654417046948       -0.91920178659159
C            4.74578412732741       -0.84807526015682       -1.78957409580079
C            5.70295042290822        0.13171592520862       -1.57073953931329
C            5.58744503342215        0.97658165214378       -0.47989372761344
C            4.51941452896676        0.85220975910632        0.39303017966099
C            2.62540350476272        0.44373966732325        2.75199319259640
C            3.22240073722298       -0.21518948171880        3.81749448983332
C            3.61236939818772        0.49822222445654        4.93850560471097
C            3.40623687954214        1.86669785822334        5.00250354206862
C            2.80179792391059        2.52944234405054        3.94473162779184
C            2.41156491315924        1.81804287107473        2.82639738175668
C            0.95811140647771       -2.81269227422652        0.91430326438879
C            0.82355761597439       -4.23177998173026        0.85939536663866
C           -0.23895050418677       -4.80013066524354        0.22262596640122
C           -1.21491473790500       -3.98740347272077       -0.38090648774842
C           -1.06712664112128       -2.62123864970539       -0.29132488208336
C           -2.03406505919516       -1.63736932930088       -0.91981684058784
N           -2.07923174707905       -0.39700508607647       -0.11453242172428
C           -2.35905849710198        0.80696473732230       -0.92226689002647
C           -3.76595684432327        0.93567644763205       -1.51670346584230
C           -3.10324313643685       -0.53114253215257        0.94213553662367
C           -2.89396936057041       -1.70087292299776        1.89761485660354
N           -0.03269672950756       -2.04965472311744        0.34033252298490
H            2.88131881321941       -2.68134822417990        1.88616963655429
H            2.92487064803424       -1.73798147864366       -1.07280895297118
H            4.83298251100931       -1.50926544668288       -2.64034925955992
H            6.53738491177798        0.23566691127238       -2.24957328673507
H            6.33313592795613        1.74023490125842       -0.30654321852436
H            4.44096926275639        1.51933421862223        1.24036712701877
H            3.36973509566388       -1.28398627530724        3.76769187234227
H            4.07700199030134       -0.01517257221506        5.76860793194594
H            3.70976922789062        2.41900831865082        5.88048923829269
H            2.63207478510880        3.59614437024986        3.99932141215686
H            1.92529918122962        2.31641384771025        1.98997327707659
H            1.58937991918666       -4.83524733832842        1.32169163543840
H           -0.33784256953598       -5.87480346632674        0.17269614039759
H           -2.05469532288322       -4.42093410320970       -0.89914508372727
H           -3.02972880120277       -2.08528425631238       -1.02769983164480
H           -1.65471847884153       -1.39384130358507       -1.91954324707663
H           -2.15961236301212        1.68531678623856       -0.28404831584348
H           -1.64894463851750        0.82462811375834       -1.75652995281809
H           -3.77026347490560        1.76441063955788       -2.22147481446577
H           -4.04065098618242        0.03237664961049       -2.05670694602593
H           -4.51636385423534        1.14135767900109       -0.75772280310299
H           -3.10806407420983        0.40077125277810        1.51728051897754
H           -4.09143467692305       -0.65439304895966        0.47910981782994
H           -1.87730021913705       -1.71817225685054        2.28660634534472
H           -3.08960087133941       -2.65419216308922        1.41442291245103
H           -3.58079438908266       -1.59463783558109        2.73497443514031
C            0.68365921442202        0.21105311718672       -1.16371691447083
O            1.21552802106893        0.53943532080724       -2.13768606029807
C           -0.32867075709213        0.17432390083501        2.19550732894385
O           -0.40835904703032        0.49153101147507        3.30318296737676
