57
 energy: -81.801682854862 gnorm: 0.000156398959 xtb: 6.7.1 (edcfbbe)
Co          -0.40948915722959       -1.03498636496001       -1.96832302538187
C            1.87857304582590       -2.88398763078215       -1.62813744473246
P            1.76212218281092       -1.01860317639764       -1.59686204226130
C            2.58306541006526       -0.55826646492412       -0.03291339440328
C            2.73003098121134       -1.40036684585688        1.06456798485875
C            3.24676457570889       -0.91098099379083        2.25284427566579
C            3.61124498568968        0.42002697835101        2.36284591374067
C            3.45164541716707        1.27097723887157        1.27870708697704
C            2.93259628977874        0.78700276395188        0.09454423227497
C            3.06886226337650       -0.61589766060390       -2.80377901917000
C            2.67728689947957       -0.26049050530041       -4.08932272085432
C            3.62908370810470        0.00293969734531       -5.05868322352493
C            4.97625229044668       -0.08739144681840       -4.74728536257979
C            5.37065421346814       -0.44458921329561       -3.46707059129144
C            4.42281822469465       -0.71011275926505       -2.49543917464408
C            0.74309968833426       -3.32427306109023       -0.76527964726651
C            0.79494241733238       -4.42623988684541        0.07243850387403
C           -0.24815144055549       -4.65013566629931        0.96050716855762
C           -1.27526472321296       -3.72056776542445        1.02058558324569
C           -1.27500424633939       -2.65266905587912        0.13768577485386
C           -2.31778585119790       -1.57246212718562        0.16761213224517
N           -1.69007733933302       -0.27055275666187       -0.07929552354847
C           -2.66030196908385        0.75413747182942       -0.48628215416445
C           -3.98765384285783        0.82388632497365        0.27814192017568
C           -0.78990133529262        0.14439774678671        0.99998072499943
C           -1.40196670585071        0.55058144112430        2.34465680758396
N           -0.31079186061258       -2.49402192137983       -0.77635666126161
H            2.84466159863682       -3.28308656890474       -1.30741667375940
H            1.70630007323565       -3.16346044528983       -2.67436709176981
H            2.44638066003545       -2.44157476863079        1.00161319004191
H            3.36385240879087       -1.57529624104757        3.09783282756143
H            4.01430610284081        0.79573773731774        3.29211577218907
H            3.72905256917602        2.31206919190909        1.36276726100332
H            2.79304681455055        1.44391300957818       -0.75563664414927
H            1.61938778650985       -0.19117082672057       -4.30889703404100
H            3.32091321980221        0.28146737931855       -6.05617718193739
H            5.72109419898268        0.12130253087146       -5.50177421906187
H            6.42188569601528       -0.51652669078241       -3.22611382808580
H            4.73305623537134       -0.98458783001907       -1.49608953224907
H            1.64621457243609       -5.08971818940574        0.03730745328502
H           -0.23803779905880       -5.50633969406864        1.61727949690119
H           -2.06955328590426       -3.81999298443801        1.74450442038094
H           -2.87060602901956       -1.61406611176964        1.11711766771823
H           -3.02140741655911       -1.75206217962272       -0.65431753331041
H           -2.89055211096642        0.57446849200822       -1.54132991517903
H           -2.15097203173418        1.71787752898439       -0.42388798429008
H           -4.58923958098436       -0.06547995525941        0.10425998620748
H           -3.85133868681460        0.94471259439852        1.34812227768211
H           -4.54844828621445        1.68020296505065       -0.09024876797069
H           -0.19922393601791        0.98341320495258        0.61929151477250
H           -0.09526302632334       -0.68169105871232        1.18310335288727
H           -0.59445831223292        0.68993492619698        3.06091687198019
H           -1.94504440676845        1.48859729940197        2.26658761093221
H           -2.06626327324004       -0.21792197227733        2.73382077312943
C           -1.48787922812312       -1.77134483201724       -3.10838592127961
O           -2.09696365452128       -2.24357183596646       -3.97738192333774
H           -0.47633087073630        0.15407061188193       -2.79819896308710
