60
 energy: -71.528085678326 gnorm: 0.000134502156 xtb: 6.7.1 (edcfbbe)
Co          -0.24856725758116       -0.49927432915956       -1.24239630794829
N            0.01116609712869       -2.49610508930888       -0.56879694759991
C            1.19708406428339       -2.66028205576243        0.27236762781735
C            2.39910415385444       -2.02242251041366       -0.41092238376722
P            2.04519056432778       -0.20489709952919       -0.60558810214527
C            3.27641035370764        0.26720230395383       -1.95139136275004
C            4.58542838807448       -0.52309556615928       -1.94142174743045
C            2.63858066045332        0.19463931741209       -3.33362793933392
C            3.02759158383997        0.56411727701357        0.81990513315532
C            2.91806155752578       -0.18149966914525        2.14578074237320
C            2.53994546459216        2.00532634927320        0.96001080357711
C           -1.19554971013983       -3.07167705385422        0.03597889532299
C           -1.80095602047268       -2.13926305996980        1.08423495027252
P           -1.76368648016765       -0.39857869737754        0.41929958671728
C           -1.96671454891767        0.60420084084207        1.99577239266898
C           -2.15972889250075        2.06952531880440        1.60773792363362
C           -0.74672525513546        0.48485239830928        2.90022012135831
C           -3.49976268485391       -0.20142962908321       -0.28615034506367
C           -4.66624858057233       -0.28673338448053        0.69756995578645
C           -3.71875060998471       -1.19225387991743       -1.42738927665945
H            0.19514907304714       -3.01873198075437       -1.42518471991705
H            1.01448781131058       -2.16514892265363        1.22949468086325
H            1.38705346118869       -3.72868715562359        0.46738322392947
H            3.31791053504452       -2.21043505165734        0.14525891977213
H            2.50492883533358       -2.44458796933656       -1.41434947586782
H            3.50334899754466        1.32136745210942       -1.74585131619355
H            5.30458162956316       -0.03350651607068       -2.59737092393615
H            4.43353530152426       -1.53316400196866       -2.31503913519449
H            5.02668437512401       -0.58544853161389       -0.94920695974078
H            3.32448620788183        0.57544565156030       -4.08970212845111
H            2.38545658058129       -0.83253915204500       -3.59154821253968
H            1.72510142639846        0.78512697157296       -3.36087047845864
H            4.08351775471230        0.58585593101114        0.52979735182274
H            3.39473952595323        0.40197661686605        2.93336358999818
H            3.41399321796384       -1.14883398972117        2.10350184062884
H            1.88070565581606       -0.33680214679283        2.42802001396246
H            1.48084852934644        2.02833378447385        1.21038026942579
H            3.09342158505158        2.53031027989359        1.73787132198779
H            2.66400500653102        2.54764473038650        0.02342442679901
H           -0.96705192091999       -4.04975692875945        0.48961935558163
H           -1.91983276634425       -3.23208347895105       -0.76496726232236
H           -1.21187607477179       -2.17327801767652        2.00242091763258
H           -2.81715915926944       -2.45526592248765        1.32601940074187
H           -2.84192703170709        0.23157973515823        2.53809210010790
H           -3.09799848105325        2.23116950882169        1.08304096757811
H           -2.15229948793476        2.70393896719396        2.49378703446049
H           -1.34917161937925        2.38467575666117        0.95020509847137
H           -0.86912752445948        1.11491332041169        3.78085758904339
H           -0.58763304011559       -0.53596893768709        3.24345020771726
H            0.13593388788767        0.82180757414470        2.36241568316786
H           -3.47559040044437        0.80210493118439       -0.72911628464562
H           -4.63770930987361       -1.20854861466505        1.27615180203250
H           -4.69061171361252        0.55441442752130        1.38480014563249
H           -5.60044896783770       -0.27869824194002        0.13637384540953
H           -2.83849869415739       -1.21902939486257       -2.07099645987193
H           -3.91852323380957       -2.19166213416845       -1.04413513905052
H           -4.57237730367414       -0.88849751491174       -2.03201360878073
C           -0.37678554476673       -0.93586813766687       -2.91294738589641
O           -0.54462960099862       -1.18169011040616       -4.03918528410868
H           -0.54648167818074        0.84570535617052       -1.70233763355060
