49
 energy: -75.590897944674 gnorm: 0.000234427863 xtb: 6.7.1 (edcfbbe)
Mn           0.02229679587895       -0.24327971202676       -0.21379251132958
C            2.35403910789080       -2.33435600735643        0.12129994086944
P            2.24466304335530       -0.54858975271669       -0.41341747763376
C            3.11501433145791       -0.61926996049131       -2.05101249929280
C            2.40137132820625       -1.61821231118721       -2.96077315345598
C            3.15915180938593        0.77223471821302       -2.67698494189468
C            3.35712012764232        0.33371222411599        0.78454576169767
C            4.84843760551684        0.08322079649964        0.59528898499698
C            2.99033071442092        1.81874860990414        0.75983921461525
C            1.05541521898470       -3.02005206247454       -0.19817039393502
C            0.93857532864795       -4.39461272001811       -0.33485635256571
C           -0.31649609022383       -4.96215798873681       -0.52220761813566
C           -1.43427932780913       -4.14698907814584       -0.52543820883911
C           -1.26605521642945       -2.77274537422561       -0.39512227631891
C           -2.32629998019537       -1.77595374415818       -0.31548983656836
C           -3.70971873250309       -1.93451031499644       -0.35089237612583
C           -4.51084480464865       -0.81143958257423       -0.21514318965179
C           -3.94978108127212        0.45509388206182       -0.05220321341839
C           -2.57086782537942        0.53292862836531       -0.03466730286876
O           -1.77363556831087        1.62382347957253        0.08286491259209
N           -1.80704100350258       -0.54508429986632       -0.15686195029338
N           -0.02445708299130       -2.22275953186608       -0.28204084974734
H            2.46966503284202       -2.32645509024754        1.21382563510639
H            3.21376248630832       -2.85191720970893       -0.31221381501100
H            4.13552977037410       -0.97377687316922       -1.85623412225655
H            2.81927834739602       -1.56469537502093       -3.96435017367054
H            2.51228231367243       -2.64009787877296       -2.60555281020145
H            1.33666152471781       -1.39201385688771       -3.02552168242969
H            3.80934401904133        1.43894686998650       -2.11619693987407
H            3.53699709663675        0.71542448432457       -3.69629208331384
H            2.16144058654645        1.20991418500991       -2.70626548656888
H            3.04731429166986       -0.07681535708121        1.75830796101094
H            5.06666560042569       -0.98282491707799        0.57609555831382
H            5.39715370570147        0.52574651071866        1.42482447940748
H            5.21384360247544        0.53550014207891       -0.32319492707589
H            1.89877543287979        1.93135671495885        0.67667009324656
H            3.44901712352488        2.32704677537870       -0.08449669834325
H            3.32143206006082        2.31231947876820        1.67112527310173
H            1.81861504871583       -5.01660058654762       -0.28272153547574
H           -0.41875063494329       -6.02963456165455       -0.63894388344680
H           -2.42374312617385       -4.56264093905174       -0.62611705952556
H           -4.15047211849899       -2.90879172319437       -0.48061559036356
H           -5.58455264024115       -0.91208880989558       -0.23799276806961
H           -4.56688053047160        1.33384471158777        0.05056790367256
H           -2.26550439736133        2.45073610879670        0.17711390021029
C           -0.24476216137746        0.18559405169660       -1.93968666057841
O           -0.63473972708845        0.62203940358416       -2.92101497745028
C            0.17913158297404       -0.14229092689235        1.56953603790688
O            0.18418918587384        0.04627541064551        2.69662398258417
