58
 energy: -81.807128540078 gnorm: 0.000201748186 xtb: 6.7.1 (edcfbbe)
Fe           0.13228385431102       -0.28927779025873       -0.36568229488411
C            2.36866447494901       -2.33682347138669        0.10863642692839
P            2.19435817031793       -0.67466252095178       -0.71723527468679
C            3.61242352337198        0.21160668344711        0.00698337081373
C            4.91968283635929       -0.24282730917428       -0.14784897933828
C            5.96069699068113        0.44743168551644        0.44565961867697
C            5.70346635167734        1.58895709681879        1.19053747643250
C            4.40306805716894        2.04297098246572        1.34318069670752
C            3.35688831943564        1.35563726323653        0.75160133557269
C            2.81450809321007       -1.01648045032549       -2.40253428406618
C            3.49529702205028       -0.02618177190181       -3.10530886028479
C            3.86931130615054       -0.23521054379069       -4.42006603716300
C            3.55475717017718       -1.42866910606953       -5.05071358761558
C            2.85228416952458       -2.40774052878778       -4.36638035227048
C            2.47561398735189       -2.20026085898030       -3.05198401621695
C            1.01913684325076       -2.97948016950998        0.06118843201739
C            0.84230385375036       -4.34185926604052        0.21191029882265
C           -0.43919253751808       -4.87737009251748        0.22057616579478
C           -1.51055198722917       -4.00551417973143        0.07827123925184
C           -1.26889667995493       -2.65666470273964       -0.08982283781350
C           -2.36318053324399       -1.65377345835973       -0.32368324314860
N           -1.99214857650170       -0.35812380113043        0.26576884133143
C           -2.77604783440220        0.75958402228010       -0.30223823517648
C           -4.26002707558703        0.51334136260566       -0.59367966098041
C           -2.05484797102383       -0.40464473908177        1.74076666580804
C           -3.43168080567275       -0.49297897094124        2.40208833931062
N           -0.02346812048431       -2.13474961357541       -0.11177634778624
H            2.60596922464439       -2.09654065402724        1.15365615556060
H            3.16014485699365       -2.97203902428046       -0.29925532308214
H            5.11728670508321       -1.12863340684654       -0.73768534298733
H            6.97691922102372        0.09739962611472        0.32763517569685
H            6.52177332472004        2.12512226850457        1.65057767739096
H            4.20747505414649        2.93418393710991        1.92276094106677
H            2.32832131800552        1.67379555873820        0.84890759473626
H            3.72637164076899        0.90884763417144       -2.61063177358169
H            4.40214040176725        0.53600176610268       -4.95878780698728
H            3.84630487522152       -1.59130804411252       -6.07867508250103
H            2.59256375794398       -3.33278784658352       -4.86272426409956
H            1.90781341720409       -2.95938317783809       -2.52791292672069
H            1.70596255087323       -4.97922036609320        0.33135716831538
H           -0.59694247342420       -5.93749248661547        0.34060463797355
H           -2.52624160680915       -4.37151625473612        0.08720953285079
H           -3.32128569681180       -2.03071674384303        0.05595362977929
H           -2.45100646482514       -1.50896162041633       -1.40807981858900
H           -2.29738756615364        1.04693203099892       -1.24230648845303
H           -2.66476400155297        1.60183985612366        0.38307578224210
H           -4.39172583093072       -0.20099597831326       -1.40347086408705
H           -4.81319690522454        0.16133259567162        0.27045309258448
H           -4.69952733538086        1.45607974102910       -0.91344498246075
H           -1.54451785524855        0.49059906701907        2.10051697453903
H           -1.45982162927416       -1.26576511337501        2.05599817971011
H           -3.28312045040670       -0.64477631515923        3.46937651101503
H           -3.99674145195143        0.42643488752156        2.27507127114740
H           -4.01617393234605       -1.33106281656543        2.02888749810656
C           -0.22418187728009       -0.21816976970622       -2.06866989664384
O           -0.36854667465510       -0.11998816896506       -3.21540040725512
H            0.57740697298769       -0.11289906382968        1.02857929413426
H            0.20524965183045        1.17468177846404       -0.42528564839185
