55
 energy: -70.195516031067 gnorm: 0.000080558145 xtb: 6.7.1 (edcfbbe)
Fe          -0.05395785192026       -0.21030190814718       -0.41589818930434
C            2.26879553940111       -2.17757991787840       -0.59844386978365
P            1.98394204385632       -0.39432334121343       -1.02348527560791
C            2.56655320115564       -0.33331799507651       -2.79775226768746
C            2.18561354501914        0.99894562181104       -3.43747184432655
C            4.05476897922957       -0.62155599437204       -2.98095261317771
C            3.19196558022500        0.62191610265601       -0.03820104229782
C            3.47609087283760        0.03240752500348        1.33788602478322
C            2.53505522758450        1.99751451220783        0.10014313796415
C            0.94396720129303       -2.86012336157491       -0.52549434080995
C            0.80600729357919       -4.23884070669332       -0.51794785709299
C           -0.44825200781115       -4.80060901213475       -0.35359393178462
C           -1.54295480812850       -3.96504560246857       -0.17542681335983
C           -1.35054356434225       -2.60108490729031       -0.21015395046637
C           -2.42447721718841       -1.57002413485660       -0.04844791145043
N           -1.80409022934904       -0.38397234992086        0.57861338243619
C           -2.53770622442222        0.87230209916996        0.31883687038088
C           -1.55638677616473        2.03947527544722        0.18793171430926
C           -1.69886397020248       -0.68291748136832        2.03124139057025
C           -1.04765305765926        0.39117405414747        2.87913605817091
N           -0.12990654825622       -2.06450206125267       -0.41290957197723
H            2.71366500023190       -2.21454364744702        0.40169256095125
H            2.93786995633212       -2.68821505219318       -1.29662607984898
H            1.98003292797740       -1.13258249319875       -3.27640186536065
H            2.82088717517804        1.80159452770915       -3.06750211173147
H            2.31109546681053        0.94669231461372       -4.51791433061343
H            1.14671388626978        1.25086350662695       -3.22565785295983
H            4.39342359827992       -1.45430196841119       -2.36782536863985
H            4.25296258223975       -0.86740325208030       -4.02315875423424
H            4.65283295818457        0.25227216905683       -2.73189713241101
H            4.12654856514129        0.71195337981891       -0.60284185341322
H            2.54656154152142       -0.26321557103606        1.81985406615818
H            3.95670716083471        0.78474468600292        1.96150636836976
H            4.14634116763530       -0.82307864822284        1.27972601375220
H            2.27077862488863        2.41391544256289       -0.87184832179345
H            3.20644467569070        2.69444782326336        0.59944564564711
H            1.62710078259752        1.90259238963310        0.69738916854742
H            1.68034708374652       -4.86126556037325       -0.62818740491113
H           -0.57164027056684       -5.87216576921482       -0.34589144191838
H           -2.53089734270746       -4.36647937826394       -0.01500687099274
H           -2.80069463191402       -1.29604712050669       -1.03908775978241
H           -3.26279549712597       -1.94952566481653        0.54572851113192
H           -3.26896178494615        1.06283300896397        1.10970352640321
H           -3.07448859060806        0.75929326741593       -0.62563278133630
H           -2.04461638886997        2.86870116557205       -0.32028920835007
H           -0.67153388440584        1.75552862159046       -0.42659208240994
H           -1.20504672459393        2.39256087705941        1.15276609258656
H           -2.70912129115402       -0.87798146648198        2.41115628830314
H           -1.10987385185906       -1.59728950503805        2.11372748579620
H           -0.08352346878693        0.67098523417081        2.46801761709965
H           -0.88293444392508       -0.01835068292391        3.87368882201530
H           -1.67676541514079        1.27048332523800        2.98553255771173
C           -0.69654708053272       -0.28459701634629       -2.04739920941450
O           -1.00081423676701       -0.52537522657528       -3.12602264177427
H            0.62951839402031       -0.27690714196360        0.80234776886235
