49
 energy: -71.169017425993 gnorm: 0.000272378984 xtb: 6.7.1 (edcfbbe)
Ru           0.07701507881933       -0.02012008310985        0.01250626266843
C            2.34455475939982       -2.17974524945401       -0.20672674498759
P            2.33477877441318       -0.36799151429639        0.23602097521490
C            3.16652282984308       -0.39369761275728        1.91759061391737
C            2.61003625242832       -1.52036261491063        2.78709702009003
C            2.92729449010546        0.94052377085695        2.62176394592277
C            3.74455760649745        0.19202746580468       -0.86989439093260
C            3.26612496403560        0.28948876660164       -2.31486779807179
C            4.28955963547642        1.55082085071481       -0.43799560623009
C            1.04954029926359       -2.79569047464407        0.22554899642188
C            0.95572540479128       -4.13124691075032        0.56380288188110
C           -0.28490614684652       -4.67157044875686        0.90214141852841
C           -1.39400577238626       -3.85536125717361        0.85663525392544
C           -1.24438993033892       -2.51032548155849        0.50543584580492
C           -2.33708558734154       -1.56426283700824        0.37010535939115
C           -3.68526716020392       -1.89471622912458        0.53231205056817
C           -4.65220697458462       -0.93533798578885        0.31647958772458
C           -4.25766714370087        0.33288909884420       -0.08862747186058
C           -2.90108573563908        0.59990094627388       -0.23236508835084
O           -2.44740627745478        1.79038133105993       -0.65897715447106
N           -1.95204912555602       -0.30787103197832        0.02031760902398
N           -0.02517062308376       -1.98533650519014        0.22567828553192
H            3.21417556817324       -2.71504840743165        0.18234086310674
H            2.38456540778161       -2.21908726465603       -1.30304725773187
H            4.24153917125466       -0.55286605664859        1.75509505191996
H            2.97753226510277       -1.41294607832741        3.80686411973095
H            2.89994947155861       -2.50608951845710        2.43036190850694
H            1.52147982433618       -1.46139400383545        2.81464109061020
H            1.85468403794122        1.10599820783576        2.71339962303882
H            3.36975701862795        0.92838963686812        3.61731258594462
H            3.34243337061091        1.77717729326772        2.06851508869120
H            4.53445738582753       -0.56838957203315       -0.79257108080869
H            4.09390394702476        0.56315870004882       -2.96802336206575
H            2.84899850767429       -0.64774920058535       -2.68085069361841
H            2.49798563302077        1.05928445824690       -2.39039380804097
H            4.96405288812836        1.93942695446829       -1.20029226026325
H            3.46453165201486        2.25397480734355       -0.31949567998887
H            4.84326477230634        1.48422901258586        0.49489358692272
H            1.84007433935964       -4.75018475103213        0.56257780688072
H           -0.37230653154275       -5.70942818306233        1.18261635478776
H           -2.36794434985305       -4.24880209906470        1.09755650873256
H           -3.96737643933357       -2.89218437537146        0.82475575468801
H           -5.69794746266903       -1.16572730753728        0.44582853391772
H           -4.98397645815636        1.10586117904909       -0.28979967210158
H           -3.17271053674898        2.42320874913383       -0.76501758533450
C            0.06071087296486        0.06146585661169       -1.83543863840130
O           -0.10205539364884        0.08585607176549       -2.98209661100717
H           -0.05073711934369        0.10542378295290        1.57717354051723
H            0.08385391555294        1.54161683226484        0.05077527741116
