47
 energy: -70.118979521415 gnorm: 0.000145826825 xtb: 6.7.1 (edcfbbe)
Ru           0.03888768226051       -0.24277494751516       -0.11897905432382
C            2.39600865014354       -2.29146486583896        0.09552034358196
P            2.33644101341920       -0.44827699632841       -0.24336248315542
C            3.64426037599509        0.23079491408559        0.90474157801904
C            2.97853072520356        0.67023872282139        2.20558301347784
C            4.83231371879706       -0.69285171956110        1.16650530067470
C            3.22379108496828       -0.36275941105240       -1.88681780516116
C            3.15564163308948        1.06982053718542       -2.40948664886214
C            2.60559844866717       -1.33495166013874       -2.88799128561466
C            1.12396908423533       -2.97874704030909       -0.31962376791633
C            1.04056484619411       -4.34369679826940       -0.55129348402422
C           -0.20389483843063       -4.92702484676951       -0.76810702671005
C           -1.34401503143694       -4.14552272736863       -0.69112450574543
C           -1.21804029060611       -2.77741936296203       -0.47130618084620
C           -2.30864838214370       -1.81150342927242       -0.30035813480894
C           -3.69646433249118       -1.94342769358369       -0.34216865659375
C           -4.45427115350955       -0.79254615283963       -0.12152572526097
C           -3.88812537293389        0.44997575912195        0.11455703676727
C           -2.47936168104246        0.54141198468007        0.13606563353385
O           -1.68205476786774        1.53223344263620        0.27205339712422
N           -1.80852258807524       -0.60625828944509       -0.04773915146698
N            0.02253642743717       -2.21591270382674       -0.35431060185475
H            3.28448936260025       -2.77495154298324       -0.31691853063038
H            2.43555239630051       -2.35907667413553        1.19124919731896
H            4.00423385011409        1.13212040659034        0.38868567536569
H            2.63618085820584       -0.19200501291619        2.77507362167613
H            3.67350549025731        1.23889908824316        2.82100767964120
H            2.10779521166423        1.29285426195333        1.98591980582100
H            5.26141981318110       -1.07260565324585        0.24201144439010
H            5.60669288128692       -0.13682236632975        1.69251057952200
H            4.54439253991371       -1.53434161566834        1.79167681105284
H            4.27321878480060       -0.63475933635212       -1.72028776583161
H            3.63543154341484        1.76676616491593       -1.72413657088969
H            2.11667324235900        1.37854732656201       -2.52813997288044
H            3.64945566449517        1.14903028712089       -3.37668549196819
H            3.01438915290347       -1.15644021799415       -3.88133128841463
H            1.52463932329580       -1.19498228884756       -2.93827842469719
H            2.80376464368969       -2.37063237983495       -2.62141706329669
H            1.93496130463606       -4.94694359406539       -0.54398569126688
H           -0.28081374778783       -5.98562350343936       -0.96014794342247
H           -2.32606301628313       -4.57822827052015       -0.79555948942189
H           -4.17228019625239       -2.89007045872226       -0.53741352346620
H           -5.53195001711230       -0.87283097672325       -0.14497231521661
H           -4.49794824305986        1.32667880014496        0.26405104346437
C           -0.25127649649418        0.29033268836144       -1.87323619151519
O           -0.64791989339493        0.68936411492362       -2.87598227350244
H            0.11720784529066       -0.47048660184080        1.41922856112492
