58
 energy: -81.945800432016 gnorm: 0.000071943201 xtb: 6.7.1 (edcfbbe)
Ru           0.11697890263413       -0.11609563665187       -0.31738380330744
C            2.36022147407564       -2.24485529836878        0.28828913487499
P            2.28944747269144       -0.61896337040040       -0.62688178059531
C            3.76540175756109        0.20431813544571        0.05372711360344
C            5.03809409872021       -0.34550812488485       -0.07684839639819
C            6.12612523901202        0.30653196516353        0.47350154849831
C            5.95053843460363        1.50504562057091        1.14956920091183
C            4.68521092834123        2.05568629981435        1.27529712404191
C            3.59180015788188        1.40705484825597        0.72681450304910
C            2.87621062006917       -1.07397754258251       -2.29402467508562
C            3.54838972343398       -0.11659208948602       -3.04967618365178
C            3.92175218903378       -0.39178089613261       -4.35174767590277
C            3.61652393475780       -1.62078145485445       -4.91604740490560
C            2.92668136248644       -2.56869066981053       -4.17798135028402
C            2.55120275992176       -2.29612293910676       -2.87445135140942
C            1.00926902337608       -2.88706144212166        0.21976065212816
C            0.83272776177879       -4.24838560098691        0.40694919071652
C           -0.44650635855103       -4.78761115429169        0.38746185622503
C           -1.51687692474603       -3.93169125729797        0.16636424620331
C           -1.27269964185676       -2.58529268472359       -0.03912289507246
C           -2.36820581626629       -1.61138624243344       -0.38899670483226
N           -2.10079770969627       -0.27955253860173        0.17712348706617
C           -2.89961126006723        0.77654714489620       -0.48863389996747
C           -4.33541099453215        0.43498996883726       -0.90271557418399
C           -2.30216876650295       -0.28919258334709        1.64343502944776
C           -3.72938991425934       -0.42605142452690        2.17873919916707
N           -0.03313214713598       -2.06544978743563       -0.01221187922358
H            2.55913657154863       -1.95372983046593        1.32940250272529
H            3.15936019293278       -2.91126662311971       -0.04945582523898
H            5.17234377890899       -1.27454895590067       -0.61560596148509
H            7.11522918770257       -0.11779498484203        0.37438926643007
H            6.80510334171576        2.01074802466314        1.57586665743839
H            4.55199570782678        2.99144507864261        1.79885208225293
H            2.58805075989958        1.80633250887757        0.80436135279753
H            3.76911361236785        0.84492888419859       -2.60306982227238
H            4.44660648368884        0.35403378178811       -4.93157679763706
H            3.90666336178095       -1.83603021656097       -5.93428666579344
H            2.67556041732854       -3.52201950291965       -4.62192107590714
H            1.99629983497408       -3.03593517316975       -2.30986588981024
H            1.69310070100781       -4.87847868104549        0.57530459684746
H           -0.60427195806991       -5.84333220917912        0.54024771500715
H           -2.52897982525826       -4.30604337665334        0.14083851171021
H           -3.34121252670921       -2.00900597812699       -0.07080536019038
H           -2.38212753679794       -1.51468083473517       -1.48449209519915
H           -2.36213857472161        1.07840278745492       -1.39480864765811
H           -2.90240515691963        1.63942624935711        0.18257201514753
H           -4.35403544076819       -0.29473493752807       -1.70944506104296
H           -4.94214855307826        0.06173764794248       -0.08490607178121
H           -4.79842176018288        1.34605427023610       -1.27581026499849
H           -1.87458031849862        0.64214580755753        2.02667665992865
H           -1.70384422760179       -1.11494230406459        2.04505132478760
H           -3.66917996284831       -0.53197177209348        3.26000175222357
H           -4.32353234121012        0.45850557794904        1.96708752439311
H           -4.23722525736249       -1.30616304750510        1.79059469674339
C           -0.20357632065169       -0.21047369619714       -2.13077390925281
O           -0.32385483028678       -0.30036825282780       -3.28258689892301
H            0.44887149127223        0.06772269799693        1.21514401864543
H            0.14354696424952        1.46213546273451       -0.40078365404673
