55
 energy: -70.195237530674 gnorm: 0.000114245453 xtb: 6.7.1 (edcfbbe)
Fe          -0.07352482712837       -0.46403361319635       -0.78462389416022
C            2.27843512954886       -2.45493407191477       -0.87945139364354
P            2.01197676375381       -0.64797255565960       -1.18941436686352
C            3.15192836802143        0.15938510675609        0.03020614619047
C            2.91759989877287       -0.37982933869039        1.43696758817113
C            2.89623307111607        1.66350360083513       -0.01351071234791
C            2.72703303265817       -0.43659453526757       -2.90026792179826
C            2.19828906633245        0.85214200312653       -3.52573170473519
C            4.24651071236294       -0.53128036153347       -2.96249616101597
C            1.11080229005794       -2.95950317560647       -0.09680681507947
C            1.12296763236826       -4.15290622340923        0.60424116615071
C           -0.03725883322166       -4.60231215039707        1.21230966136195
C           -1.20183755537366       -3.86059536755004        1.07042440307056
C           -1.15413785136256       -2.67548350042155        0.36823677266966
C           -2.32334110475582       -1.78531279838443        0.08371556258764
N           -1.83717756187575       -0.39638309243768        0.16161126086265
C           -2.63644298829267        0.57171082498016       -0.61243055519689
C           -1.72706901024605        1.68623469228716       -1.14951498514916
C           -1.77568500978847       -0.05253640690863        1.60651714282494
C           -1.27373080564856        1.33878665336523        1.93425023659808
N           -0.00710854957855       -2.21894109645786       -0.17301034021596
H            2.27788609769905       -2.96442055034399       -1.85240263872829
H            3.23048479179142       -2.66903161882402       -0.38627103152885
H            4.18289243814745       -0.06260969345989       -0.27553623464203
H            3.52994657385597        0.17894137049068        2.14327188953571
H            3.18038925989586       -1.43149389681047        1.52456091522175
H            1.87677737645943       -0.25794275313459        1.72052428219988
H            1.83913652526081        1.85710106945869        0.16479116740357
H            3.47387389246518        2.16971641762293        0.75840364528307
H            3.17335785674583        2.09022549606619       -0.97544791321920
H            2.29098605879945       -1.27963503699983       -3.45659841613149
H            1.11839586259378        0.92469976108877       -3.38266088460677
H            2.66606331697571        1.72964486801778       -3.08598416005799
H            2.40611288598744        0.86398454247892       -4.59466872325859
H            4.71125708826657        0.34617302042145       -2.51810585438825
H            4.56837668115909       -0.58638827903081       -4.00169456751790
H            4.60812837424136       -1.42067330913495       -2.44931479731717
H            2.03588626149238       -4.72476331264065        0.66518937079137
H           -0.03989861503766       -5.52340424923019        1.77368685684717
H           -2.13232143050278       -4.19613116620633        1.50000346145199
H           -3.15644295551910       -1.96507883405244        0.77074034844553
H           -2.66011109261382       -1.98659585660572       -0.93888772771257
H           -3.07870500680366        0.03601604887951       -1.45496254005928
H           -3.44626612239269        0.98086787251379       -0.00131262976563
H           -1.70442563142467        2.54921536689381       -0.49026907027717
H           -0.67270361093196        1.33723390455332       -1.27150118171993
H           -2.07406458029993        2.01392763773629       -2.12705862291499
H           -2.78167383025163       -0.17688536859484        2.02568624916552
H           -1.11124115749465       -0.78542084324157        2.06565320408598
H           -1.99391054289648        2.10805819336273        1.67019680760873
H           -0.32659170418919        1.53637960974643        1.44466233217001
H           -1.11313768523035        1.39297556423950        3.00924841121109
C           -0.55894139890947       -1.11208989537224       -2.34286697579639
O           -0.74584161052408       -1.68289849045959       -3.31899650764974
H            0.46499889789696       -0.04494526399702        0.41416557101761
