53
 energy: -69.994229775534 gnorm: 0.000114223491 xtb: 6.7.1 (edcfbbe)
Co           0.05312554689590       -0.22790594350044       -0.46480780540100
C            2.31222067495279       -2.26388152550957       -0.19375041624837
P            2.17787152035554       -0.62926855362960       -0.83371318108653
C            3.54823883381945        0.31143066946689        0.01338341379210
C            3.17457744630883        0.39134849990673        1.49187729905229
C            3.80982635789099        1.70641507034473       -0.54238858542157
C            2.65895002252730       -0.77474565904201       -2.64478071946826
C            2.21653785923969        0.42175579083436       -3.48098836375536
C            4.13146059949773       -1.11683230785606       -2.84683093295093
C            1.09026028687375       -2.84569350637656        0.04971150257858
C            0.92392211106801       -4.20363638671553        0.47109376204755
C           -0.31855568985707       -4.72404560061625        0.64710966439615
C           -1.44933565313851       -3.91988693417996        0.40334786986917
C           -1.24406178116227       -2.61596146022740        0.01844344230585
C           -2.37536875930635       -1.68017551276644       -0.30608419719114
N           -1.98335594206528       -0.31492413273843        0.07914114959773
C           -2.89028303774851        0.66460440140755       -0.53776838639007
C           -2.75846015300069        0.71413742493593       -2.05786662071342
C           -2.06425367241425       -0.21862303497033        1.55085254345853
C           -1.14582833162164        0.84608079764320        2.13354113192730
N           -0.03410672541721       -2.06663936389631       -0.12670753490740
H            3.24691229137635       -2.78931057309383       -0.07333118044152
H            4.44949543853298       -0.30701534694344       -0.09357677133717
H            4.00227892944282        0.78426036483214        2.08089026538808
H            2.91298171604507       -0.59590525501816        1.87171388262423
H            2.31590124049976        1.05001190199168        1.61969856626487
H            2.89035531061883        2.28685510354663       -0.56416904934471
H            4.52614205988462        2.22796136664178        0.09277374662667
H            4.22064456022060        1.67022186779781       -1.54791296951574
H            2.06132217457151       -1.64378417115398       -2.95988456298935
H            1.15767628559263        0.61783283864156       -3.31473716974397
H            2.77297640461329        1.31845249797460       -3.22225061306964
H            2.37045579565541        0.21754389812975       -4.54045287275310
H            4.77206921990514       -0.26749481610119       -2.62145978011465
H            4.30830511696546       -1.40715564784178       -3.88231818479242
H            4.41893131327084       -1.94958335078565       -2.20690665777543
H            1.81286394770828       -4.79595298135230        0.63244736202837
H           -0.45090486529116       -5.74968371358054        0.96461001361549
H           -2.44738810073200       -4.31384567269813        0.51237647746995
H           -3.30852991161530       -1.98121282294995        0.19220847561239
H           -2.53845529138892       -1.71354430201122       -1.38620002721085
H           -3.93021168607291        0.43262425720210       -0.26186623141440
H           -2.64178298097565        1.64560353610797       -0.12926832105891
H           -3.07338593267349        1.68646277885528       -2.42755795238381
H           -1.71203340316720        0.55995946492441       -2.33546689964208
H           -3.36573275901647       -0.04420401354942       -2.54644714704197
H           -3.10503286402526       -0.03119418559498        1.85200300437363
H           -1.76215870549245       -1.18338802764181        1.96666909663891
H           -1.40812416076360        1.84309484111555        1.78867773433173
H           -0.11472839810596        0.62585879777808        1.83637876991694
H           -1.20764923125653        0.82909299929578        3.21940115887794
C            0.15709760399545        1.46473298954140       -0.77242020030871
O            0.26374134528129        2.59849486810129       -0.98300436850353
