57
 energy: -81.803662322286 gnorm: 0.000172809307 xtb: 6.7.1 (edcfbbe)
Co           0.33547999447395       -0.47780240333024       -1.02774607820387
C            2.46267361720080       -2.25004248353436        0.06945493447039
P            2.15995361474445       -0.41454744765055        0.22231293702619
C            3.78924101778155        0.17953093669497       -0.34839610790629
C            3.88075660877601        0.73752814263506       -1.61756876884746
C            5.10789833929945        1.14231553096080       -2.11386350241816
C            6.24983055749927        0.98914218354704       -1.34481933439564
C            6.16389490422334        0.42783470241353       -0.07988379552486
C            4.94004493094577        0.02130201821274        0.41909118516334
C            2.30394614845623       -0.12440675593677        2.02054102740590
C            1.92454995866886       -1.06177116305459        2.97642957679913
C            1.93043917540927       -0.72902281293049        4.32023766020819
C            2.29854649570161        0.54359441530990        4.72398055600001
C            2.65299010214701        1.49202700963930        3.77594702661725
C            2.64520779197476        1.16369721507967        2.43463246075416
C            1.12470748280168       -2.87712936966457        0.27087000535352
C            0.95066648795560       -4.09531606144014        0.90715056843223
C           -0.33527595410757       -4.55224242228874        1.15882694403908
C           -1.40198241567374       -3.74554869992535        0.79464967231449
C           -1.15529149492915       -2.54702530259053        0.14382861382503
C           -2.25808127371343       -1.62221978809209       -0.27717698364229
N           -1.88209709342267       -0.22164110204064       -0.03442524866288
C           -1.88223831297878        0.02829446943779        1.41488852142540
C           -0.94734777851048        1.15914122169081        1.83683027876433
C           -2.83934418214953        0.63114902487609       -0.74892655844476
C           -2.51073847724536        2.11697567101981       -0.73395367617296
N            0.08568335719249       -2.13444395795039       -0.14264154561396
H            3.22394449584992       -2.63573520795256        0.75275407922021
H            2.80154273456438       -2.39801660217910       -0.96308091190806
H            2.97748963643053        0.84838669644537       -2.20346839530654
H            5.17340959342908        1.57762051883229       -3.10077805913460
H            7.20845556596253        1.30634427888553       -1.72971771505090
H            7.05554100111097        0.30588737426205        0.51879333976868
H            4.87598355109511       -0.41195845644640        1.40835122178550
H            1.62494158279824       -2.05712452615149        2.67841715777113
H            1.64410571543778       -1.46775965195541        5.05600903092283
H            2.30254631408388        0.79834805109653        5.77387085901810
H            2.93089511935779        2.48919286749227        4.08604972991963
H            2.91112992219221        1.90197548117077        1.68829277428185
H            1.81288535490021       -4.67108082020616        1.20879676046181
H           -0.49880450686578       -5.49949853403161        1.64906678906997
H           -2.41783650135956       -4.03990646309668        1.00960842404088
H           -2.40729103858236       -1.75043859486490       -1.35595677590202
H           -3.19935044218488       -1.88501801059115        0.23382512505362
H           -1.53307798468347       -0.88746925742114        1.90226322158605
H           -2.90696285440264        0.22214556235296        1.76938377565815
H           -0.56811217563094        0.97788880843305        2.84070218265002
H           -0.10391698896658        1.19158298860494        1.14657061374138
H           -1.43374434315186        2.12872992578446        1.82811498017093
H           -3.85474395957928        0.47515088024773       -0.34336750236742
H           -2.83507335104262        0.30296957840580       -1.79172106662360
H           -3.09190122928002        2.61605905623748       -1.50633252094089
H           -2.75177202181778        2.57830852092981        0.21867702395097
H           -1.45477007280205        2.25472744888789       -0.94941656936534
C           -0.03413370483386       -1.02999023278835       -2.63097410585770
O           -0.12419961279860       -1.34181673716612       -3.74593044677866
H            0.50415048464207        0.82902615295540       -1.63485711053084
