64
 energy: -92.363558225241 gnorm: 0.000274947512 xtb: 6.7.1 (edcfbbe)
Ru           0.14566863140807       -0.35095296134371       -0.17012065882647
N            0.17081368236737       -2.49112871171952        0.21747890127091
C            0.54118366064895       -2.69120259855334        1.63984292718152
C            1.85801659707408       -1.98199818667294        2.01381989949826
P            2.07690121328090       -0.45705508033255        0.97360018211959
C            1.90885534131517        1.12246074651355        1.85016283086370
C            2.41344365836781        1.49413334413325        3.08711310638954
C            2.13142367268245        2.75954355831417        3.58161654961075
C            1.35852768716651        3.64181886581427        2.84597994247538
C            0.84487412630885        3.27373690414159        1.60662840173978
C            1.11943355333457        2.01576014628605        1.11101751720914
C            3.81842890976933       -0.54285021769237        0.46638068895708
C            4.17982342924069       -1.61965714200275       -0.34259758128720
C            5.47686773025097       -1.74071059076428       -0.79984075879188
C            6.41892795518535       -0.77993365321819       -0.46129504648585
C            6.05779319056030        0.30189376098677        0.32483192941250
C            4.75841267014013        0.43025982319866        0.78609470701062
C           -1.09907003278326       -3.14880724403762       -0.16623618852755
C           -2.31677130874445       -2.26967861758298        0.13956452819321
P           -2.04955550366250       -0.62936007296299       -0.67507689364162
C           -3.33657527740105        0.44142563412296        0.01003711547521
C           -2.94616750897839        1.62887397129787        0.61798781568826
C           -3.90247121970419        2.48793125806606        1.12921416034153
C           -5.24544637465819        2.16108006725873        1.02741433408408
C           -5.63586922611188        0.98077004950271        0.41092649186224
C           -4.68594496029754        0.11937710810327       -0.10537138212140
C           -2.59856469182556       -0.80218333402636       -2.40073383652621
C           -3.16589946506415       -1.92822497032584       -2.98272361232130
C           -3.52175433895713       -1.89938761310279       -4.32149216182984
C           -3.31643652504875       -0.75835664422549       -5.07869808517660
C           -2.74705959665251        0.36749950388659       -4.50131006303803
C           -2.38572112388115        0.34173939052316       -3.16954096439571
H            0.91808348096864       -2.91500923955989       -0.34652720881348
H            0.64563362073152       -3.76599001451167        1.83474690040484
H           -0.27631731526776       -2.30224794389912        2.25126178657552
H            1.85273682404896       -1.70931747020797        3.07329562550970
H            2.72058028326203       -2.63327089062827        1.83097650471880
H            3.01224162520803        0.79877124992506        3.65905170388880
H            2.51470214208556        3.05533514029481        4.54676608439448
H            1.14394094277179        4.62509550850586        3.23654280034078
H            0.23857532125648        3.96978856954055        1.04511498601541
H            0.71803349371693        1.70876887438225        0.09135459389734
H            3.43305525874442       -2.35554495068534       -0.62071982305927
H            5.75601198647616       -2.57657052307054       -1.42418191249145
H            7.43352134144437       -0.87175922536516       -0.81892889812907
H            6.79060550772192        1.05362449517816        0.57830226332572
H            4.48136176929720        1.28218201643514        1.39066506961442
H           -1.05935971503525       -3.32718105383623       -1.24790191542715
H           -1.18841211460548       -4.11267201185175        0.34969955939605
H           -3.23599776666304       -2.75467887843791       -0.19918225721283
H           -2.40937483346035       -2.07137127954289        1.21259156472228
H           -1.88666157598493        1.86176885871118        0.69153079881618
H           -3.60493969356137        3.41084018246536        1.60520618438012
H           -5.99335168559353        2.83056719292280        1.42603380474454
H           -6.68486552304857        0.73638877124787        0.33051795884331
H           -4.98411972356001       -0.79443981974227       -0.60088048649640
H           -3.33468144881642       -2.82875986420975       -2.41023296310656
H           -3.96132866684622       -2.77531439889665       -4.77596247878886
H           -3.59641747607268       -0.74534950973944       -6.12156553821323
H           -2.58324514802526        1.25663508984755       -5.09237995783774
H           -1.92858373047354        1.21002103703501       -2.70115843507207
C            0.76171883864597       -0.39910316133516       -1.92836866421403
O            1.10588644587062       -0.37965097942998       -3.02022035684990
H           -0.42661013300746       -0.22316460639817        1.24971445038544
