64
 energy: -93.100092768606 gnorm: 0.000216011947 xtb: 6.7.1 (edcfbbe)
Co          -0.70527844372850       -0.63368829164701       -1.68844251314510
N           -0.89139064400419       -2.50719966601186       -0.66375219188026
C            0.36444116377568       -3.26130847355560       -0.77626302515910
C            1.56945710162894       -2.47439242951202       -0.26549206202709
P            1.54247932502900       -0.79768600694237       -1.08043556605710
C            2.85019648137544       -1.04299865681077       -2.34164733609462
C            4.16897844287421       -1.31641546344112       -1.98898776872001
C            5.12250319652200       -1.50883488646600       -2.97103394762285
C            4.77058846966668       -1.42778505055863       -4.31006329049469
C            3.46192867149930       -1.14776223236491       -4.66584940358056
C            2.50574378895950       -0.95264791217468       -3.68387844447201
C            2.49067006704935        0.26297013297191        0.06874437729436
C            3.10170055934070       -0.11878172130819        1.25704357851301
C            3.74371577288629        0.82467525483880        2.04217779790340
C            3.78565587335465        2.15167984690228        1.65204351798188
C            3.17982805251461        2.54113862299893        0.46709742891395
C            2.53275638754749        1.60413904778220       -0.31211356232829
C           -1.44557001702674       -2.43938169285391        0.70029123728924
C           -1.02308799569034       -1.17213564981948        1.44026741759552
P           -1.27023551781247        0.22609635993236        0.24789828966562
C           -0.52360066715967        1.65617602261030        1.09355481807998
C           -0.62657413968818        2.86603450759742        0.40944084226095
C           -0.08071908456031        4.02055363485084        0.93509802201940
C            0.58404151729885        3.97781589420597        2.15079983073551
C            0.69733624112292        2.77849125303574        2.83235804534734
C            0.14814320222468        1.62021735455653        2.30962034998651
C           -3.04241246783756        0.57024990179729        0.55052583053445
C           -3.94631688658259        0.24920903625707       -0.45410654317904
C           -5.30224012930617        0.44946416194895       -0.26360042016943
C           -5.75877468437526        0.97715723422660        0.93318483176682
C           -4.85935656922010        1.30575588141888        1.93649640268172
C           -3.50425791342813        1.10338740005006        1.74978013995789
H           -1.57287224138461       -3.01194665899352       -1.22803512450660
H            0.52004780447283       -3.48074288144428       -1.83747341791176
H            0.28797526042041       -4.21770856214461       -0.23444285402171
H            2.49100367865145       -3.00847152360646       -0.50998667079848
H            1.50756093301124       -2.36232900441722        0.81751808054463
H            4.44930141712222       -1.37078171034143       -0.94538334618032
H            6.14571549972228       -1.72052430192537       -2.69374809389735
H            5.51935438505231       -1.57885279091828       -5.07446206779451
H            3.18609468664877       -1.07818211319780       -5.70850312527655
H            1.48057252392209       -0.72327979860116       -3.94508514198702
H            3.09803843013584       -1.15082676513842        1.57918485086946
H            4.21796261464497        0.51793511013861        2.96437466303427
H            4.28825751933577        2.88172501070649        2.26980649885801
H            3.20681496788532        3.57637252958751        0.15898246531685
H            2.03799986089633        1.89601668398204       -1.23066366143068
H           -1.16030110696796       -3.33452855534450        1.27229842792662
H           -2.53777326774750       -2.42378860251920        0.61614370216686
H           -1.62258075434016       -1.04215400702654        2.34540601747328
H            0.03362221390980       -1.20211065579767        1.71162467458970
H           -1.13766241597399        2.88051022065773       -0.54518088364912
H           -0.16876680348234        4.95424860331225        0.39794662290158
H            1.01491953498685        4.87784575858461        2.56528704419351
H            1.21694542868749        2.74263960795365        3.77947101493243
H            0.24721894507452        0.69745973105862        2.86227072101968
H           -3.56017137834160       -0.14707591362668       -1.38840850384950
H           -6.00227042325824        0.19896976793710       -1.04804824856836
H           -6.81649332981693        1.13855116014424        1.08464736652351
H           -5.21810067222157        1.72308021676643        2.86693601577012
H           -2.80182424392367        1.36734047248995        2.52971457901525
C           -1.08591884181514       -1.31393660079122       -3.22270363791177
O           -1.35958756258458       -1.73810057038923       -4.27224756740981
H           -0.83679289870288        0.64944231919140       -2.36463494204756
