54
 energy: -69.979648667072 gnorm: 0.000359204134 xtb: 6.7.1 (edcfbbe)
Fe           0.14158090304405       -0.21662021549691       -0.28601974881703
C            2.19984938772671       -2.43304447488477        0.07703908912936
P            2.28509518483405       -0.69613021907512       -0.22657648523367
C            3.35667991636063        0.06808721226151        1.13603185690981
C            4.40511680072417       -0.91230376594416        1.65294232003258
C            2.49164325296220        0.58002492655123        2.28248403219156
C            3.49980556139926       -0.43947478478245       -1.63880749463620
C            3.37120394183936        0.97718218558375       -2.19115911476704
C            3.32154606918869       -1.48137392517463       -2.73778840424650
C            0.93064219036279       -2.96992451267971        0.04737903188062
C            0.64496236161504       -4.35597172267804        0.24646767253351
C           -0.64075825586992       -4.79944936125878        0.26455234093032
C           -1.69817028279457       -3.88802159910980        0.08280639368363
C           -1.38009257839719       -2.56652616714712       -0.13291902297646
C           -2.43495994640717       -1.52884686996013       -0.41429353707374
N           -2.02908707399772       -0.17300821535203        0.00369858031973
C           -2.16989088272598       -0.01413784949233        1.46674686927237
C           -1.01703775435822       -0.62778315172750        2.25478379573962
C           -2.90851951677222        0.82060397942220       -0.64482938168637
C           -2.59956703062034        1.07790118513929       -2.10984562363006
N           -0.12610396963417       -2.11180649274960       -0.15600792679674
H            3.07494521759876       -3.05863684370797        0.16903173746272
H            3.85955590068312        0.92676464612050        0.67520562533187
H            5.01253797054862       -1.31308485726572        0.84358282910770
H            3.92408284490524       -1.74482567657064        2.16352019844817
H            5.06738353105179       -0.41254983605488        2.36031118638505
H            2.02839499728860       -0.25468968340624        2.80938503338027
H            3.09651860145808        1.13586234697712        2.99947383116355
H            1.71768768729260        1.24154212518616        1.89237062298269
H            4.50391176965889       -0.56415059603198       -1.20781868226790
H            2.39218997491713        1.11412699748290       -2.64146604051684
H            3.47464624791168        1.71752245728616       -1.40063119053886
H            4.13537014081495        1.16481422947117       -2.94561116610046
H            4.08457179168021       -1.35205602970846       -3.50575796557717
H            2.34666413134654       -1.38615619086362       -3.20732002588493
H            3.40644694211716       -2.48800722967045       -2.33220041077531
H            1.47603344150621       -5.03198732886322        0.38431755935767
H           -0.86185558350824       -5.84702934752727        0.41814003275579
H           -2.72510287274266       -4.21683622557713        0.09195898792778
H           -2.58379858113123       -1.51232602186029       -1.49773711034396
H           -3.38815891788327       -1.81032491313765        0.05750105701521
H           -2.17493900646888        1.05845214220530        1.67883219589311
H           -3.12997255365318       -0.43557194460617        1.80260197889852
H           -0.05487722206624       -0.28794534823126        1.82797178313210
H           -1.05096819786391       -1.71602686745259        2.26121681983857
H           -1.05931407136714       -0.27920075378194        3.28606385556104
H           -2.77544165902797        1.76959605607586       -0.12252114472589
H           -3.95577162772657        0.50392889158852       -0.52713794394231
H           -1.58160066570628        1.44983033533038       -2.19359003401746
H           -2.70074804802574        0.18805053854282       -2.72526510233496
H           -3.28453660924263        1.83269317694753       -2.48983203820829
C            0.17224039202609       -0.22505151966419       -2.01355668803006
O            0.20351472840428       -0.24289404279751       -3.17053572797813
H            0.31561938734076        1.23805768105716       -0.25082078505645
