49
 energy: -80.898849969788 gnorm: 0.000155106648 xtb: 6.7.1 (edcfbbe)
Ru           0.05280391639300       -0.27769342634905        0.02282136467412
C            2.36113144035984       -2.40638175423585        0.08690712251537
P            2.29065892478942       -0.54941690886887        0.41004769316401
C            3.04890946461455       -0.47136373342624        2.06234074638846
C            4.03449613022137        0.45941615150506        2.37307595177068
C            4.54852115282594        0.51764345140075        3.65717096731050
C            4.07743125857040       -0.34163515261523        4.63615750903788
C            3.07988601770802       -1.25669022490034        4.33480757278299
C            2.56261252336897       -1.31935447591250        3.05473508509334
C            3.61678313363033        0.07834083674640       -0.66388891550517
C            3.34457624472635        1.25167277390497       -1.36028287020057
C            4.30390225591562        1.80817789926337       -2.18769058637351
C            5.53746272869037        1.19055413984585       -2.32112963711437
C            5.81515782017591        0.02515278129945       -1.62181238283144
C            4.86157460498307       -0.53163323768932       -0.78899391085329
C            1.01974621414488       -3.05067794576274        0.32083410682420
C            0.87024060138205       -4.40456283653127        0.58160668165446
C           -0.40726326180000       -4.94067361703190        0.70961971823849
C           -1.50920481019988       -4.11606563337789        0.56159108097978
C           -1.31854201999416       -2.76012585696841        0.31488242820628
C           -2.36543195897248       -1.74672874495413        0.14441980760294
C           -3.75728628320039       -1.82329900047694        0.14016493659415
C           -4.46194993634487       -0.63146930129159       -0.04234977175138
C           -3.84093084646377        0.59520553993548       -0.20908065751040
C           -2.42853330320289        0.62766232451037       -0.20065247549642
O           -1.58531615703874        1.58074581797512       -0.32221571151871
N           -1.81126597467000       -0.55237638702382       -0.03625492098902
N           -0.05285422819276       -2.25319831750772        0.21687069423590
H            2.60600915488266       -2.50509854056900       -0.98025397975912
H            3.14436829674682       -2.89827954665363        0.67055307308125
H            4.39531193782930        1.13672471348495        1.61074932972631
H            5.31654899195611        1.23948401748604        3.89453988072517
H            4.48061971166039       -0.29294076923720        5.63703282379674
H            2.70269792253762       -1.91792011147202        5.10156809894879
H            1.76590545086080       -2.01397773283209        2.81792566155060
H            2.36736885195486        1.71558692854082       -1.23688437047706
H            4.09040111265984        2.71882786357527       -2.72828390184277
H            6.28663209018917        1.62007763556209       -2.96994914093115
H            6.78068983968758       -0.44812924081847       -1.72559149520638
H            5.08090214559186       -1.43089208541788       -0.23098769992873
H            1.74229365501531       -5.03254440806083        0.67665206592736
H           -0.53597917685906       -5.99171341218484        0.91471460556530
H           -2.51191723722264       -4.50427824910513        0.64152641467325
H           -4.27680396120729       -2.75752202559143        0.27365536861624
H           -5.54214533569909       -0.66842013419437       -0.04816891333421
H           -4.41088682322868        1.50161621367268       -0.33658526379143
C            0.28891407444722       -0.23668123471911       -1.81728102969832
O            0.41688880350465       -0.06969465342432       -2.94749802864550
H           -0.15206551315214       -0.02474556019548        1.55251396788880
