63
 energy: -92.270487030746 gnorm: 0.000155418110 xtb: 6.7.1 (edcfbbe)
Co          -0.00861461029985       -0.55118085573720       -0.16769268510607
N           -0.05807348811372       -2.52070734161062        0.02393517308599
C            1.21459953254557       -3.21655039753666       -0.24263263503969
C            2.34086258841558       -2.52898434952466        0.52043306680366
P            2.14661719456745       -0.71982020210874        0.18153828774258
C            2.91398975169281        0.06898889691599        1.62492388505880
C            2.14483706292516        0.88245543861324        2.44874893955628
C            2.71396195269887        1.47301400600471        3.56362739732260
C            4.04966064707598        1.24990879012614        3.85640816882769
C            4.81928990859034        0.43883121522504        3.03488947018692
C            4.25712489355467       -0.15206437705944        1.91880081188885
C            3.31371047214241       -0.30814248198058       -1.14733513050538
C            3.67031131687696        1.03410794446342       -1.27544003144022
C            4.52830952737733        1.43202756949268       -2.28230554608824
C            5.02797078624696        0.49724289171119       -3.17690017525626
C            4.66152099085431       -0.83351997814107       -3.06456556570283
C            3.80169610979795       -1.23911727626893       -2.05792510629691
C           -1.17750170044123       -3.17501776058416       -0.68016540333856
C           -2.48829339280599       -2.51191858545629       -0.27354953491626
P           -2.18420991272750       -0.68386902451100       -0.37501352609047
C           -3.01410935308001       -0.06358090620747        1.11319468191430
C           -4.39050721737243        0.10564537740550        1.21701970805197
C           -4.93413447361218        0.53140289611183        2.41639264758288
C           -4.11504286715513        0.78216978112578        3.50716270656561
C           -2.74324540297218        0.60501384003393        3.40807415195958
C           -2.19506753107274        0.18145022279342        2.21207711782819
C           -3.15325904032717       -0.04928339768543       -1.76638700351757
C           -3.41725727753452       -0.81737044490986       -2.89659639201711
C           -4.10939359617122       -0.26393991113033       -3.95959229328744
C           -4.52518822562788        1.05667395515254       -3.90943327518320
C           -4.23810920153452        1.83360378193116       -2.79699165078777
C           -3.54679298958125        1.28827110198777       -1.73191623323554
H           -0.24287755337881       -2.61406511352931        1.03060660982999
H            1.14223389704495       -4.27372013987580        0.04474035572410
H            1.40101541591117       -3.16543647670849       -1.31969789649709
H            2.21657169188245       -2.67122323145680        1.59940235712787
H            3.32378386905167       -2.90832410518905        0.23531375934555
H            1.10430794413358        1.05575065559207        2.20067811069872
H            2.11881639237377        2.10892381300767        4.20206754789733
H            4.49524743286416        1.71116726355607        4.72515096552371
H            5.86080066557013        0.27038315162457        3.26559043321950
H            4.85601189577539       -0.77666787094703        1.27013394291963
H            3.27553268819522        1.75979871829969       -0.57592238047677
H            4.80829013984837        2.47111841753077       -2.37220750525687
H            5.69949707707840        0.80773056193859       -3.96335190170695
H            5.04620055332287       -1.56023542289974       -3.76505376728562
H            3.52416005709298       -2.28087864845495       -1.99043480326707
H           -1.01209547823747       -3.05685645932324       -1.75554278359434
H           -1.20125864604005       -4.24819751895097       -0.45011789121937
H           -2.72960409905614       -2.74661944318634        0.76844131703761
H           -3.32293389896870       -2.83201531070881       -0.89897802694221
H           -5.02719099457860       -0.08808295433170        0.36505986907803
H           -6.00188195834640        0.66874300739900        2.50188827798122
H           -4.54834022833146        1.11772897256328        4.43753306185664
H           -2.10883955886948        0.79972730337014        4.26001425566411
H           -1.11922489579633        0.03840095841974        2.10349178420880
H           -3.08557903279695       -1.84431309250640       -2.95485247007478
H           -4.32224776440819       -0.86401908522889       -4.83203666832301
H           -5.06656222302568        1.48360709106015       -4.74037409466567
H           -4.55123939317970        2.86656748100932       -2.76289495736038
H           -3.31352274030179        1.89286087310352       -0.86514751358580
C            0.02248379201946        1.15552828529106       -0.46989004017814
O            0.03566044529507        2.26533739269734       -0.74453931060170
