59
 energy: -70.720286198431 gnorm: 0.000110817319 xtb: 6.7.1 (edcfbbe)
Co           0.12080107139264       -0.54704109090388       -0.40861636683424
N           -0.04603651075985       -2.39163255042244        0.29287895680936
C            0.45649567417053       -2.42104890796893        1.67796800750891
C            1.94226317538631       -2.06564233607817        1.65612173448193
P            2.12387092484743       -0.60704191639231        0.52024346448367
C            2.81283727114220        0.71246205874858        1.63022509713710
C            3.37099078751380        1.88518619142153        0.82901526582570
C            1.69626782709478        1.18377578067562        2.56092358440450
C            3.48875539314873       -1.03625278596098       -0.66200889173009
C            4.78420545263700       -1.49732115288572       -0.00162404317954
C            2.94763191861281       -2.06267038492820       -1.65887583981565
C           -1.34257790024869       -3.07398492212939        0.11300886577789
C           -2.48651507678884       -2.09803985542921        0.35752249518129
P           -2.06905587427035       -0.60965809220251       -0.66251957060232
C           -2.88940211252165       -1.01216785380425       -2.28392301651215
C           -4.40426467247177       -0.82840645424112       -2.26802354573439
C           -2.21961064654230       -0.23718070826879       -3.41688998668494
C           -2.98881860058752        0.76057214096381        0.18639803714595
C           -2.93422025725284        2.05631502248764       -0.61915966150831
C           -2.31102800983993        0.96049455471217        1.54538430808882
H            0.63386999358622       -2.92205672469229       -0.25850963577032
H            0.30991063426569       -3.41422269355479        2.12262007877108
H           -0.10269776165988       -1.69243418645307        2.27099080759896
H            2.31381213377997       -1.83837597254000        2.65644378902268
H            2.51802859184310       -2.90642019658682        1.26030518298186
H            3.61466548969920        0.25296103823688        2.22360060764637
H            4.25463987651389        1.60386602589165        0.26083099447365
H            3.65282304802330        2.69025457575500        1.50561147140562
H            2.62128351271315        2.27198301505501        0.14040230291016
H            0.91722747604883        1.67817756529445        1.98177526164748
H            1.25493919819549        0.35484993983370        3.11204960026140
H            2.08576857405808        1.89835772140911        3.28347892493032
H            3.67463802353793       -0.10445294593484       -1.21171941328278
H            4.64221705694947       -2.41340599416576        0.56816724958929
H            5.53139080871424       -1.69588086084864       -0.76847499059419
H            5.18395408307771       -0.73600019714676        0.66428222588111
H            2.85087336300502       -3.04650145078576       -1.20058901418039
H            3.62496711637003       -2.16137282192997       -2.50493947386283
H            1.97282817698320       -1.73625799887980       -2.04075269277175
H           -1.39554539162856       -3.43346440234763       -0.91899328905724
H           -1.41723568009862       -3.94269180447962        0.77822033095493
H           -3.44604282164661       -2.53208615934000        0.06952427304661
H           -2.53315873367139       -1.82051144551301        1.41093139984385
H           -2.67265698406093       -2.07989137395313       -2.43508617427810
H           -4.67756797748639        0.22238389718217       -2.22061040509997
H           -4.82897418646483       -1.24098791606382       -3.18183667275358
H           -4.86166905230561       -1.34294657451267       -1.42456516800860
H           -2.40170470985699        0.83124203922873       -3.33039363848585
H           -1.14123421791020       -0.40064628867724       -3.40125950146783
H           -2.60469576020724       -0.56909239689981       -4.37940698894447
H           -4.03254896962385        0.45257329525526        0.32189003974106
H           -1.90281146204671        2.36836490731089       -0.77071249492659
H           -3.45132199112677        2.84805239124837       -0.07912241286900
H           -3.41043799398361        1.95317734749572       -1.59065455330684
H           -1.22288890986568        0.92407037350842        1.41866068954985
H           -2.57391402922701        1.93108630384197        1.96057689347752
H           -2.60983272379140        0.20348728594900        2.26629612432781
C            0.38408890123892        0.95789303312882       -1.21763303463652
O            0.62326683120390        1.89330656467616       -1.83512996455790
