60
 energy: -70.811455911299 gnorm: 0.000218283253 xtb: 6.7.1 (edcfbbe)
Ru          -0.02790129791433       -0.27805715931839       -0.50748948587826
N           -0.23454846298104       -2.39798869159426       -0.37175349787360
C            1.03557913080838       -3.08953050349480       -0.65832882122183
C            2.19970427878849       -2.39077585131773        0.06230127120835
P            2.21122738025402       -0.64012157817985       -0.56275554100604
C            3.21207959170167       -0.75852206086413       -2.12889506830019
C            4.59375380088428       -1.38104170470373       -1.94461804568149
C            3.30631395362917        0.63117377073368       -2.75861576568433
C            3.15724464728821        0.51633985457659        0.53935016890610
C            2.44318935836180        1.86781477665018        0.36861218893277
C            3.16030075333568        0.05304638914808        1.99223072816106
C           -1.37946839585297       -2.87614796520044       -1.17075421372499
C           -2.66952420385487       -2.05704987883132       -0.92912874091143
P           -2.26127106474736       -0.40705049471839       -0.15535756461604
C           -3.10454238842613       -0.55052710703649        1.49558303570742
C           -2.97846795530068        0.75902356662955        2.26999454081208
C           -2.49440972005781       -1.69024599007800        2.30950857009344
C           -3.14451552492728        1.01356247116954       -0.97399122943303
C           -2.16514779065557        2.18954451797589       -0.80338379345385
C           -3.48085556358107        0.76034238327986       -2.43988037859189
H           -0.45217185028540       -2.54480228880848        0.62624422355354
H            1.19540455469396       -3.06164542517113       -1.74434522006280
H            0.97179343029329       -4.13877301310422       -0.34432060628164
H            2.00805886643486       -2.36354064152463        1.13957957060848
H            3.13775762955984       -2.91872210744516       -0.11816917384110
H            2.61660899026364       -1.39738505347223       -2.79790017188850
H            5.16807494851561       -1.25270160680740       -2.86059476037332
H            5.14428727385883       -0.90262314880644       -1.13711117451552
H            4.53439597531242       -2.44723602433762       -1.74141661385889
H            2.33505594218098        1.13284291905630       -2.74524272241875
H            3.63066788231036        0.55450018532252       -3.79508815860557
H            4.02719561118948        1.25062558807272       -2.22822265288849
H            4.19197436671056        0.60367362212086        0.18767464880844
H            2.65439870139841        2.52357948382427        1.21145803023134
H            2.75617373726032        2.37503437503325       -0.54258900695722
H            1.33744379164993        1.72616123202991        0.32302382747319
H            3.63882011233946        0.80517252525706        2.61716726678001
H            2.14231679696648       -0.08760858689926        2.35056701326757
H            3.71216990271843       -0.87859612179173        2.10208832294504
H           -1.56494006468827       -3.93398899376695       -0.94770187561930
H           -1.08489921563888       -2.80181929487687       -2.22395106402522
H           -3.37169300683004       -2.59750917100410       -0.28835060357811
H           -3.16553554388580       -1.88182134482485       -1.88585413765076
H           -4.16252472675031       -0.76467893639621        1.28226233067723
H           -3.55761690757728        1.56040261244318        1.81645344612828
H           -1.93108879790777        1.05914152709728        2.32333424917705
H           -3.34312830486586        0.62436333473608        3.28685430959516
H           -2.58728148250269       -2.65421069176058        1.81109119394369
H           -3.00433612513473       -1.76683186583871        3.26817587166284
H           -1.44343213936000       -1.47909859483224        2.50793033728027
H           -4.07373819130390        1.23035494267176       -0.43238604032569
H           -2.44126255335738        3.02231369336454       -1.44866774477303
H           -2.15283855738568        2.54515662813185        0.22655364468936
H           -1.11946288184630        1.88945749286317       -1.06931372659704
H           -2.60612426670144        0.43973572367507       -3.00203056002722
H           -4.26001254517421        0.00696992362461       -2.53741444162357
H           -3.85111404955203        1.67857402030750       -2.89337147162428
C           -0.14801392146119       -0.25071310933117       -2.35805151602882
O           -0.11443225483954       -0.19334039477941       -3.50407459776101
H            0.16400092882898       -0.21417150977647        1.01860969895436
