50
 energy: -76.459375944427 gnorm: 0.000707744541 xtb: 6.7.1 (edcfbbe)
Mn           0.02727836107309       -0.10594775998581       -0.10604626019335
C            2.30118559985039       -2.20715422136773        0.18244366572801
P            2.23133561466428       -0.47269507702988       -0.45387283579982
C            3.71333495616923        0.36625429653074        0.32693037946455
C            4.79941520453657       -0.57580833581979        0.84463895067749
C            3.24017385773587        1.29528768061638        1.44297466313752
C            2.74560758731974       -0.66932080218238       -2.24353631971283
C            4.07774712343432       -1.36018086073736       -2.51998500251176
C            2.71039054430579        0.70594903415226       -2.91233815326114
C            0.99781288640554       -2.83545290806622       -0.19965869028154
C            0.90452770160845       -4.18308330492366       -0.48564402063067
C           -0.33871567598600       -4.73610096963174       -0.79111240663873
C           -1.44350815642910       -3.91529155250632       -0.75387615214695
C           -1.28640419411101       -2.55886372730690       -0.45457913361773
C           -2.38238330456609       -1.62731950650957       -0.29538873402398
C           -3.73357163030578       -1.95472064428076       -0.43401821383289
C           -4.69150593837737       -1.00010881265551       -0.16918147820045
C           -4.28348912247933        0.26012557726159        0.24919600742089
C           -2.92306500018463        0.52675748854085        0.35096080422551
O           -2.45833421251940        1.72170414001395        0.75498824601018
N           -1.98145095303985       -0.37883597800150        0.06135722345696
N           -0.06405044246883       -2.01055424514317       -0.22802137087837
H            3.16096892106861       -2.78639499054656       -0.15629804981371
H            2.34062079963748       -2.11728815712400        1.27633821459750
H            4.12739405587330        0.98860247039176       -0.47669227455514
H            5.12437293036639       -1.28773621752435        0.09083822937844
H            5.66415628227691        0.01315753210446        1.14835377140620
H            4.45168805851024       -1.12547949528796        1.71698258518587
H            2.42544645745474        1.92614519457900        1.08607860383314
H            2.87598670872544        0.72119391110155        2.29323717696325
H            4.05854050691014        1.92768170423828        1.78355980752643
H            1.93480881978369       -1.28426394192470       -2.66668472946291
H            4.20466594556331       -1.46049465487528       -3.59768578604997
H            4.90899871404289       -0.77078029559273       -2.14065462405083
H            4.12046744246860       -2.35801027103614       -2.08907345758832
H            1.84681388081136        1.27676383581717       -2.56497886698219
H            2.64785460602974        0.60324925309140       -3.99454119695042
H            3.60911228159383        1.27347037583024       -2.67827377791895
H            1.79078208098759       -4.79917774422809       -0.46706885696346
H           -0.43119147739392       -5.78339353954608       -1.03379301905021
H           -2.42459467832645       -4.31296192565433       -0.95768543806072
H           -4.02334026859523       -2.94366968678527       -0.74825938191934
H           -5.74118387461542       -1.22604087296852       -0.27466385466788
H           -5.00284863639520        1.02949136988512        0.48616833762098
H           -3.18476080162038        2.33996923615349        0.92016958931975
C           -0.40098862680010        0.14968183744517       -1.81282176511767
O           -0.86829459708746        0.29313297651753       -2.86263998852305
C            0.19248169894885        0.00156818915225        1.66395569574837
O            0.23194062995792        0.06973093175128        2.81896199387363
H            0.06035857650411        1.43818530055487       -0.07072606983018
