57
 energy: -81.804170519089 gnorm: 0.000300300829 xtb: 6.7.1 (edcfbbe)
Co           0.40602671036480       -0.32833406205256       -1.06735475426369
C            2.42235832346651       -2.25650396871206       -0.05971725701959
P            2.15891247515420       -0.44370992717846        0.30721561174847
C            3.80605682939660        0.17459495824869       -0.18367795036703
C            4.94887505233951       -0.11006547974925        0.55908720188666
C            6.18498371760270        0.32651493017203        0.11911037408601
C            6.29140041707286        1.04462316646164       -1.06210294833211
C            5.15749428226463        1.32376892392146       -1.80724717952827
C            3.91825955042553        0.88871912114251       -1.37011537403144
C            2.32316166687339       -0.37840425673746        2.12857583016315
C            2.67483467608486        0.84777124245021        2.69334037446836
C            2.72006751314482        1.00204692605772        4.06505588078596
C            2.39288754463654       -0.06106127311660        4.89369880820618
C            2.01033345640028       -1.27209109203878        4.34145892760171
C            1.96677084412717       -1.43079227252160        2.96721197133522
C            1.06312458642660       -2.86797020090491       -0.00930460215786
C            0.82318958392765       -4.13466297399398        0.49582044809999
C           -0.48474594486995       -4.58825265804605        0.59565196292109
C           -1.50684694956601       -3.73504723402933        0.21313118125416
C           -1.19501104121421       -2.48228042042525       -0.29466619427585
C           -2.26211610477156       -1.52100337471503       -0.73412304297897
N           -1.92551948182268       -0.13434784462019       -0.38990445501229
C           -2.56183642905964        0.81093748213191       -1.31929142451343
C           -4.09363165265232        0.81845221994181       -1.33673152234849
C           -2.29795276806074        0.17906390796341        0.99182847292620
C           -1.35974129279685       -0.42994978733261        2.02420377612596
N            0.07047275357394       -2.06821647058434       -0.43068565263964
H            3.13989042281349       -2.74507738507154        0.60408516211853
H            2.80878738032885       -2.28197315202551       -1.08569503272214
H            4.86985382461477       -0.66597629824532        1.48372771816231
H            7.07025196864285        0.10542311194083        0.69859059715207
H            7.25939065417697        1.38548739379941       -1.40035854155570
H            5.23831256125287        1.88169212619423       -2.72910677409462
H            3.02100343510886        1.09564773667742       -1.93874032488677
H            2.92138248908159        1.67469482922013        2.03883177541901
H            3.00798651477193        1.95227965322459        4.49195640881443
H            2.42897601875443        0.05729992238007        5.96691933041290
H            1.74329871147509       -2.09907985207135        4.98445971269828
H            1.65292556021215       -2.37850455378439        2.55195900160534
H            1.65022047054787       -4.75302256986598        0.81134016266404
H           -0.69979534685682       -5.57254189392437        0.98220717139569
H           -2.53997920674493       -4.03319970210972        0.30870705973120
H           -2.32520278940719       -1.58704687373494       -1.82717184339272
H           -3.23146825342734       -1.82680833714824       -0.31034448003783
H           -2.19227998865272        0.58263590798867       -2.32190388454225
H           -2.19976956745767        1.80907916891720       -1.06387774496918
H           -4.50454796078102        1.12425270850159       -0.37764652521286
H           -4.49445439033375       -0.15873328584213       -1.59664829032283
H           -4.42930988727081        1.52943805466041       -2.08781740720353
H           -2.25833422236808        1.26579038321376        1.09921557873136
H           -3.32700577378839       -0.15290439334766        1.20437986793489
H           -1.57449673516993       -0.01700220978770        3.00765414797184
H           -0.33134049700012       -0.18089363793408        1.76555724349587
H           -1.46039670071087       -1.51180843290702        2.07897946170371
C            0.33961807469303       -0.69505329369973       -2.76466637822535
O            0.47738753549942       -0.88159845700863       -3.90286541800060
H            0.56295254949511        1.06543672896757       -1.44395033215654
