56
 energy: -75.592340331804 gnorm: 0.000248877739 xtb: 6.7.1 (edcfbbe)
Mn           0.13846138851140       -0.16435198258223       -0.15285984937316
C            2.26952302646433       -2.25398587125298        0.70270373171772
P            2.35769919478451       -0.60478750417463       -0.16597604508086
C            3.59739298725419        0.44594581071441        0.75292420487298
C            3.85085976364139        0.02780454623496        2.19758751369234
C            3.07862064484103        1.88393386337911        0.66682905438585
C            3.35248470755985       -1.09210472898457       -1.66378561814081
C            3.60661135163634        0.11305917913305       -2.56687725048147
C            2.69600868944359       -2.23550748443241       -2.43489488446022
C            1.01822079572938       -2.93973013763299        0.23950800774222
C            0.87314899664557       -4.31748755471406        0.18374869488941
C           -0.33562256994366       -4.85751149896941       -0.22785498675033
C           -1.38083523319205       -4.00538031397412       -0.55523475008996
C           -1.18005160971662       -2.63864207176703       -0.48181923903787
C           -2.23371614834021       -1.61404984004170       -0.82258836779476
N           -1.98890800784953       -0.38266799750946       -0.04059592357320
C           -2.70313936588258       -0.47736215744360        1.25444112736944
C           -2.35816081557443       -1.69198494420723        2.10510235453602
C           -2.42376010681195        0.86127938559035       -0.71275671000438
C           -1.54379692304730        2.03342006323889       -0.26201878963179
N            0.00724919547616       -2.12474427277643       -0.11043106346393
H            3.16302771843257       -2.86341579443424        0.54466217270767
H            2.17150290842399       -2.04474672930943        1.77508331580255
H            4.54360581230332        0.37305441876704        0.20176725323445
H            4.28914488391465       -0.96634367600049        2.25102616024929
H            2.93931604643843        0.05019854951254        2.78953840037658
H            4.55372994050377        0.72656109029264        2.64904058209525
H            2.16407190253582        1.99365204290313        1.25247695901287
H            3.81603296187962        2.58392354730582        1.05439629452660
H            2.85685230200133        2.15316440961431       -0.36769257678357
H            4.31425938883038       -1.44322767575897       -1.25868560106510
H            2.67526637959272        0.49843262073797       -2.97451908657035
H            4.10753458874567        0.91674805560297       -2.03107650610254
H            4.24209645433351       -0.17797751183597       -3.40166940680638
H            3.22896082694254       -2.39491830137747       -3.37089347138537
H            1.65896621444673       -2.00931756852565       -2.67631804650746
H            2.72083035097126       -3.16697193815468       -1.87417262290662
H            1.69649539182723       -4.95682366793998        0.46161805424382
H           -0.46523756908946       -5.92680645804252       -0.28399897921510
H           -2.33772711126063       -4.39573847187791       -0.86464921314200
H           -2.14962192164618       -1.38723595996392       -1.89247109457232
H           -3.24064320556580       -2.00990145906492       -0.64542742696284
H           -2.47544574036610        0.42562049072606        1.82522993421117
H           -3.78405425484273       -0.48665254038236        1.05413400423616
H           -1.28362418179468       -1.79496730125355        2.24473237819241
H           -2.74257526939592       -2.61497458241533        1.67877880160860
H           -2.81242832376884       -1.56335931107411        3.08546188308204
H           -3.47590864467275        1.08243616473835       -0.49226926854274
H           -2.33213702375805        0.73871611103979       -1.79600242793123
H           -0.43938551192375        1.81983998611383       -0.37887214585391
H           -1.75215413478005        2.90578984055763       -0.87983833525737
H           -1.74079149958157        2.30411782286074        0.77550679272006
C            0.13210218731479       -0.07603552526916       -1.94651780526873
O            0.14974123709220        0.12066682815969       -3.07621067592516
C            0.29898347654705        0.07464364490830        1.61014718981946
O            0.43191516220198        0.34101802394701        2.71798542662795
