59
 energy: -70.642811247428 gnorm: 0.000266788125 xtb: 6.7.1 (edcfbbe)
Ru           0.07181264523687       -0.09972952100245       -0.01765115701543
N            0.10702992008248       -2.04093156483890       -0.00491493027774
C            1.24375140532118       -2.88101451739585        0.34053035562683
C            2.37645015049241       -2.10575198824247        1.01491935326453
P            2.27831339939563       -0.35063832597961        0.44856071256835
C            3.18605537638544        0.57389436173255        1.78918678629556
C            3.29557085960850        2.03353708776338        1.35263388390755
C            2.39954157527651        0.47730737453141        3.09493131393037
C            3.44751916627840       -0.24162762765732       -1.00632712366382
C            2.92019095877237       -1.13862428621610       -2.12540812273520
C            4.91464877967152       -0.54166386775803       -0.71014473396679
C           -0.97582160604732       -2.90623705703520       -0.44950138349419
C           -2.06423755060524       -2.13042281471994       -1.18984225431996
P           -2.14182090079776       -0.48428946233022       -0.36773352236542
C           -3.10427421409461        0.55928655893285       -1.57690459464079
C           -3.17862839278667        1.98928740533777       -1.04513019724736
C           -4.48134472835115        0.05297341013810       -1.99451515937329
C           -3.26272663052084       -0.72141203051698        1.11667188920002
C           -2.39877038872665       -1.01310678342330        2.34474432293855
C           -4.34975803438411       -1.78656732946690        0.98023304371527
H            0.90751212822654       -3.69055875261813        1.01810518713888
H            1.62104934920075       -3.38321360275933       -0.56997603510633
H            2.20802066251769       -2.09088568415909        2.09575639473205
H            3.34965675686882       -2.56347336941819        0.82009401099375
H            4.18223266805268        0.13554099567867        1.92656717785767
H            3.68554924497313        2.64808700067238        2.16281792973703
H            3.95212155591738        2.14973206512385        0.49293951696741
H            2.30335210972997        2.40006353415896        1.08161370200760
H            2.48521240931995       -0.50740028163368        3.55015353507179
H            2.76731241986234        1.20951772124134        3.81203784406942
H            1.34500393271622        0.68462128371536        2.89686338082523
H            3.34982224282884        0.80099522411375       -1.34163926851037
H            1.83949969388020       -1.00184671558517       -2.23417902486186
H            3.12454992603899       -2.18658464233885       -1.91151034438368
H            3.39354251300615       -0.88727041055973       -3.07411243840707
H            5.48137530837745       -0.51761358970939       -1.64070763635048
H            5.03685827800981       -1.53037369421297       -0.27116861844127
H            5.34794430938365        0.19360217802557       -0.03683557264687
H           -0.57101604607953       -3.69046090136700       -1.11781965315490
H           -1.41882504728410       -3.43772320188438        0.41447996914498
H           -3.00758787707412       -2.67891967169580       -1.21385901099648
H           -1.73946120711926       -1.93151471298082       -2.21940239129189
H           -2.44234022277943        0.56015484351199       -2.45819518674275
H           -3.90150230786025        2.06688000117456       -0.23487093471732
H           -3.47976589179700        2.67477856240232       -1.83573419854843
H           -2.20098045497297        2.29638052772699       -0.66855507375744
H           -5.19343540748561        0.15260153482895       -1.17845967788496
H           -4.84705043999693        0.65132533253317       -2.82863932650461
H           -4.44553320447846       -0.98594365943206       -2.31645041466828
H           -3.73156161478801        0.26216968435953        1.25704631777376
H           -1.99530453135669       -2.02451729644656        2.30154282263105
H           -2.98581224606625       -0.92001616272370        3.25786793427121
H           -1.56115136414482       -0.31095540576362        2.38947567702724
H           -5.01621796514386       -1.72834201420757        1.84077150656366
H           -3.91270722712586       -2.78372799952043        0.96803382754036
H           -4.94672633270931       -1.65930171860689        0.08192601075458
C            0.30320586194932        1.25732913034288       -1.23489163990010
O            0.47264738949406        1.96263632297252       -2.15022646773579
H           -0.18911234084734        0.99517552632975        1.06279440199769
