55
 energy: -70.311339492613 gnorm: 0.000298666661 xtb: 6.7.1 (edcfbbe)
Ru           0.17167884759711       -0.03271088709418       -0.80066743923734
C            2.38368763986795       -2.20736539002586       -1.47407987284962
P            2.39566000518897       -0.39177682276796       -1.08343150654056
C            2.91738664573949       -0.21342988562384        0.69645994576788
C            1.61141571180596       -0.20027852964184        1.51584183505745
C            3.92316292237637       -1.23922227106012        1.20781534662824
C            3.73325190677466        0.26453880176057       -2.17999737330866
C            3.11708925765084        0.40507368909187       -3.57269448475574
C            4.21601074776767        1.62017184846778       -1.67150232138630
C            1.19385754590401       -2.84299007444562       -0.82752419935696
C            1.10805733321652       -4.20770981796277       -0.59455981658698
C           -0.02310931096271       -4.72301872928378        0.01820280151454
C           -1.01976248717535       -3.85348266705859        0.43846519252594
C           -0.86444615960004       -2.49899152856849        0.20182045999982
C           -1.79676236960696       -1.45713722869972        0.75964079582688
N           -1.90272417516757       -0.27443737157941       -0.11535431036343
C           -2.34041919082335        0.92729092339888        0.64363070609700
C           -3.40541481783837        0.74285378360933        1.72508623883536
C           -2.77153248686214       -0.56451295208062       -1.28682891658497
C           -4.26612230092063       -0.76218838740157       -1.04301605942475
N            0.20296978884401       -2.01982670053270       -0.45218500279359
H            3.31522448732088       -2.70977627149100       -1.19603609966779
H            2.27755560380598       -2.27420166288494       -2.56544413824666
H            3.35730445026214        0.79138458561774        0.75536881925658
H            1.75976657545911        0.32890985232083        2.45915789931828
H            1.29340723550073       -1.21907262321861        1.75932320331668
H            0.80204757736135        0.36852315636622        0.95331704688857
H            4.81137558987090       -1.25082050782820        0.57826310653125
H            4.23082873900458       -0.98426634748890        2.22090743920806
H            3.49340815624986       -2.24003732192097        1.22757066174963
H            4.55868523427288       -0.45964541845652       -2.19818595365716
H            2.27567346523660        1.09863583486625       -3.53055025031615
H            2.75917256410206       -0.54766675709600       -3.96114680459862
H            3.85362723916758        0.79564279085601       -4.27182435707566
H            4.82944295213824        1.52254639725997       -0.77829965363141
H            3.36097162798169        2.26238932416098       -1.45587933847938
H            4.81902746701415        2.10541793545492       -2.43642658472023
H            1.91633017752303       -4.85398297240047       -0.89859457850571
H           -0.11908643897272       -5.78440182361539        0.18454201861414
H           -1.89609763336484       -4.21769425121473        0.95055799428986
H           -1.37863265049021       -1.13269226030051        1.72540433748665
H           -2.77843064004072       -1.89960445051148        0.95878400661601
H           -1.44937895445347        1.35230684141054        1.12851975378268
H           -2.68402152982802        1.65198561150405       -0.09781442553566
H           -3.67236813182143        1.73054987374224        2.09522967041492
H           -3.03530428540756        0.16811198973058        2.57156677054435
H           -4.30981932635435        0.27188687699814        1.35676923864643
H           -2.37282091655277       -1.47062121293824       -1.75950111305341
H           -2.64764352831096        0.27070882864092       -1.98415995482111
H           -4.75101138645693        0.16650681785205       -0.75662900138705
H           -4.47665657406421       -1.52715644722678       -0.29965951058069
H           -4.71180427777971       -1.08759295890148       -1.98064039273231
C           -0.17716623719975       -0.14691628254123       -2.59361639698844
O           -0.33861452670649       -0.20680506697988       -3.72816968410038
H            0.09617458218021        1.50592383932236       -0.94460059236825
