49
 energy: -75.585421662926 gnorm: 0.000229167846 xtb: 6.7.1 (edcfbbe)
Mn          -0.03009662477498       -0.26042489373834       -0.17577175710584
C            2.31983927551443       -2.33403331472297       -0.06354289803616
P            2.18902123640551       -0.53490495271432       -0.55978734614251
C            3.56060487532369        0.37697352379804        0.32048976684546
C            4.58313521819773       -0.51322744867866        1.02078534254977
C            2.93300008801571        1.38257988379351        1.28663026156028
C            2.73515310873304       -0.55859695908107       -2.34108996378372
C            4.12355783695564       -1.14133239876749       -2.59205244081716
C            2.63798152326793        0.86490571755760       -2.89438423497826
C            1.00505502585118       -3.02050149306172       -0.29568495631595
C            0.88552644876852       -4.39189810023259       -0.46496378490580
C           -0.37800000759799       -4.96444707167373       -0.55127529480598
C           -1.49814850212831       -4.15979041054213       -0.43523244349980
C           -1.32798711984698       -2.78848353563388       -0.28476013260547
C           -2.38024863342545       -1.79254579121727       -0.12360259851940
C           -3.76356531129196       -1.94191375063010       -0.06321407641988
C           -4.54587038422926       -0.81059326590020        0.11145903846026
C           -3.96859585670827        0.45539902813709        0.21549636713120
C           -2.59124418618649        0.52315818975650        0.14172374094256
O           -1.77304653133261        1.60422143977358        0.18508941086916
N           -1.84663177467391       -0.56367615752672       -0.01126405781240
N           -0.08339026913771       -2.23458468344773       -0.25514719216753
H            3.14557363352745       -2.85462737731890       -0.55178915317099
H            2.50199775878583       -2.33520634428020        1.01915499053986
H            4.06419564360957        0.94213354299397       -0.47377853359580
H            4.99414630223009       -1.26137079067319        0.34756554900035
H            5.40394275124189        0.10474512261500        1.38134798625574
H            4.14528636013604       -1.01288784209336        1.88182745668549
H            2.06274359871506        1.86238487492044        0.82271522378505
H            2.61248041299331        0.88906390092009        2.20167613285355
H            3.65123036045893        2.15454339632927        1.55521157283220
H            1.98303871187809       -1.19217531007213       -2.83657017813071
H            4.34840591744572       -1.06521543175734       -3.65469459986630
H            4.88959028706313       -0.59048380895148       -2.05176368632520
H            4.18386240016631       -2.19150408906639       -2.31947176716850
H            1.74643856209007        1.37178311418564       -2.51769652677931
H            2.59132030311304        0.84834010917454       -3.98130531674877
H            3.50638016483063        1.45443022536880       -2.60754443957868
H            1.77015365785574       -5.00724116521792       -0.51540551815053
H           -0.48378498039914       -6.02933118331360       -0.68738250890334
H           -2.49000100556371       -4.58105312151632       -0.46332463094498
H           -4.21804642413784       -2.91471524458387       -0.14988640802347
H           -5.61922885715675       -0.90417099734828        0.16319245168080
H           -4.57337290257305        1.33937485402225        0.34326808394836
H           -2.24331463950082        2.43971947476128        0.30843425228561
C           -0.39014570330804       -0.00384332651980       -1.91644887447238
O           -0.81751215930640        0.17313050901448       -2.95944209953567
C            0.16970700154771       -0.21816109737121        1.60526100310899
O            0.14145065188095       -0.15297371298044        2.74528282430558
