56
 energy: -75.582109365007 gnorm: 0.000223624101 xtb: 6.7.1 (edcfbbe)
Mn           0.15104183729235       -0.35295263787462        0.31383546172050
C            2.36348468122925       -2.57919428058871        0.09082075013909
P            2.33700150347752       -0.73305247143980       -0.15827278171781
C            3.11587897335993       -0.65166070546747       -1.84868756086682
C            3.20507013043053        0.79128266073576       -2.34105079385293
C            2.39286679781219       -1.55549465698263       -2.84886173698787
C            3.69964154608116        0.00753704896731        0.88633746511914
C            3.16712833614151        1.35836365662905        1.37343937707828
C            4.16895772520752       -0.85782886186002        2.05061248982239
C            0.99025062052178       -3.13566379068750       -0.15498137989374
C            0.75625386645272       -4.45810992985951       -0.50138539286204
C           -0.54446990274957       -4.93817400816459       -0.50737714194514
C           -1.57033400513388       -4.11045576340217       -0.07083101031089
C           -1.27814196186003       -2.79838619569395        0.25628427565889
C           -2.26008702707604       -1.86075806139808        0.91621140865300
N           -2.01858018431006       -0.47186464716235        0.48399486323034
C           -2.23531739241089        0.55915541601364        1.51739575188678
C           -1.39683737150412        1.79880915725374        1.18131489470744
C           -2.83254289403033       -0.19968677162762       -0.72650175987933
C           -4.34673487607131       -0.10718016054696       -0.52728744283562
N           -0.03245883469854       -2.30695127640917        0.11930930711683
H            3.13537213278914       -3.07062496819585       -0.50516625783106
H            2.58303125746778       -2.75603462043552        1.15166847698663
H            4.13765149772739       -1.03413189040693       -1.70030082163338
H            3.74503407506678        0.82686877746648       -3.28590981524546
H            3.73591754232596        1.42095093536436       -1.62910989012752
H            2.21677843389906        1.21366329691548       -2.50402799884694
H            2.67406574739691       -1.27696185779019       -3.86272528582102
H            1.31155810627979       -1.46694690782380       -2.76475530340452
H            2.65517457125314       -2.60117508985820       -2.70822661311622
H            4.55139681993106        0.18049202729536        0.21652363170394
H            2.71755996602293        1.91604812036784        0.54759013225817
H            3.96849353856005        1.95880659147970        1.79938179743664
H            2.40821971437482        1.21038755458724        2.14289300831741
H            3.34902264223560       -1.11010213588621        2.71941637807340
H            4.90684941462270       -0.30320518012331        2.62853007648737
H            4.64158593520882       -1.77280555042172        1.69957404727957
H            1.58380042738417       -5.10516155742815       -0.74612331592869
H           -0.75060466702356       -5.95613007348448       -0.79842919018649
H           -2.57867616152287       -4.48155289134785        0.02294654809596
H           -3.28751368214825       -2.18307783828575        0.72491887743681
H           -2.08395820176525       -1.93754612457993        1.99695518718691
H           -3.29080141760568        0.83474226379140        1.60529469714990
H           -1.91544772296101        0.15938863911591        2.48447995690849
H           -1.82098156974262        2.34952344244270        0.34199508933235
H           -1.36809585851430        2.46738385457787        2.04014272321296
H           -0.32127138171999        1.54367533391032        0.93542079459204
H           -2.50215687177556        0.74385295797870       -1.16498268411576
H           -2.61371006314282       -1.00023585756195       -1.43886983381725
H           -4.63754990197921        0.81520237749876       -0.03066699960057
H           -4.75346075119413       -0.94486476560876        0.03338033581751
H           -4.81488177194032       -0.10843011939028       -1.50888539600839
C           -0.06689274394760        0.11966603846216       -1.39827583481454
O           -0.20161522600073        0.54772866438263       -2.45248393245230
C            0.51624747271998       -0.70435459381631        2.03142881335317
O            0.79032573288791       -1.02970395198091        3.09705833090488
