49
 energy: -71.170514035256 gnorm: 0.000244979333 xtb: 6.7.1 (edcfbbe)
Ru           0.06424211028534       -0.07894738291789       -0.17385405678643
C            2.35859009063237       -2.21044367782499       -0.30003349590952
P            2.32829983323319       -0.38397088342402        0.06162111315845
C            3.16714438488871       -0.29153337213867        1.73120688976713
C            2.53812676765753       -1.26129525705905        2.72669873879759
C            3.04891263212678        1.14399658531946        2.23707602872827
C            3.71688011438124        0.26575429900198       -1.01901399477689
C            3.16090450883032        0.71098080932309       -2.36760502026985
C            4.89201113860803       -0.69291555018884       -1.20354620505365
C            1.07754030829950       -2.81753659383369        0.18641829368037
C            1.00741690277672       -4.13701844544254        0.58748032513935
C           -0.21960957446731       -4.67617540413806        0.97478979966638
C           -1.34006597391203       -3.87692542267277        0.91243851967067
C           -1.21465271648178       -2.54759105458847        0.49742214115141
C           -2.32234923042056       -1.62457644946644        0.33034433579470
C           -3.66114754552238       -1.95550015722904        0.55707777040831
C           -4.64512380645768       -1.02229771281056        0.30616294665585
C           -4.27807599328126        0.21799515178871       -0.19870291413908
C           -2.92954444635633        0.48710590345896       -0.40302681865509
O           -2.50272859978466        1.64855458843512       -0.92618790947323
N           -1.96300600023667       -0.39132494783584       -0.11636700203328
N           -0.00740356845445       -2.02110760192315        0.17180276350059
H            3.23659069243869       -2.72392881232065        0.09824595449589
H            2.37446426548761       -2.28577417354893       -1.39648303201073
H            4.22592103479662       -0.54857377167369        1.59553443446697
H            2.95390664753325       -1.09685415685677        3.71987591533555
H            1.46243438069491       -1.09284168277233        2.77741928719594
H            2.71691187044352       -2.29947226945200        2.45236426418953
H            1.99653941808512        1.42513830891446        2.27526929472155
H            3.47869439389702        1.23703427218116        3.23328620816363
H            3.55912991605741        1.84206629152135        1.57564866675868
H            4.06900172407472        1.16113956161135       -0.48979612102315
H            2.81009577127312       -0.14315873310419       -2.94651568777062
H            3.92832274696867        1.22103529519539       -2.94821956141613
H            2.32250279406332        1.39278644739765       -2.21604555393280
H            5.25304725389184       -1.08257448296962       -0.25419953960422
H            4.61752574447865       -1.52959983736446       -1.84240000201163
H            5.71447092012523       -0.16413004976619       -1.68335841371785
H            1.89931280079011       -4.74510838114479        0.59662189835946
H           -0.28822850775977       -5.70138810907352        1.30296272655382
H           -2.30487593970448       -4.27155659147455        1.18592643187886
H           -3.92228688378678       -2.93209951931502        0.92876838305969
H           -5.68359748065378       -1.25236435451695        0.48521369125028
H           -5.01897268502639        0.96844088518490       -0.42974296518023
H           -3.23784242540728        2.26623850177880       -1.05218542821151
C            0.05802002196023       -0.15577957520613       -2.02191900922495
O           -0.07026059467306       -0.23968756535107       -3.17002918998063
H           -0.05409342050255        0.17939425738340        1.37508085580782
H            0.04895067328142        1.48127116274803       -0.26374826594644
