55
 energy: -80.733815100359 gnorm: 0.000245698646 xtb: 6.7.1 (edcfbbe)
Co           0.36542093624352       -0.61824699728282       -1.70361978432041
C            2.28050531646891       -2.26291082990348       -0.06590357156677
P            2.11543079244377       -0.53407177434127       -0.29475501343193
C            2.38922961907304       -0.11516112989169       -2.07050325342983
C            3.11838776170660       -0.88831178337629       -2.98496941732466
C            3.17022735429604       -0.52422638413982       -4.31108913300162
C            2.46815443497380        0.59381965796795       -4.76794070134486
C            1.72783408498567        1.35785959586265       -3.89221122729530
C            1.65875895272187        1.00703258493964       -2.53892622385920
C            3.56534902565276        0.20765306563876        0.52262786721040
C            3.81522030837901       -0.15989892458069        1.84217701674098
C            4.89130241211748        0.37502996415726        2.52457550053998
C            5.71885358113066        1.29486571952800        1.89910674122423
C            5.46479100841942        1.67660924245214        0.59166545208870
C            4.39008280741517        1.14120348890045       -0.09609718426039
C            1.08453749887146       -2.95645399190368       -0.22134268117499
C            0.88622660231778       -4.32132449604117        0.13218055502703
C           -0.37859190354269       -4.82918277908713        0.18125462020972
C           -1.47662426529169       -4.00275198747085       -0.11340567998537
C           -1.22716033951646       -2.72711099627830       -0.56758968217766
C           -2.33478446888614       -1.77614349289138       -0.95823756626973
N           -1.90184513026304       -0.37876250512247       -0.83899239210961
C           -1.78310490514145        0.02543965858697        0.57172768253533
C           -3.08787369248994        0.21565750406139        1.35270812043170
C           -2.76687540584276        0.50739066401794       -1.62077748177423
C           -2.15755608973894        1.89339959781586       -1.77696459310893
N            0.00924188667316       -2.24506904386118       -0.68222672331489
H            3.16334799236934       -2.71982847093006        0.35566660695349
H            3.66066199851961       -1.75263292071881       -2.62199669599942
H            3.75929623146962       -1.10339080972922       -5.00849820980140
H            2.51838915979747        0.86347787879347       -5.81289258716010
H            1.20175450475908        2.23359151826697       -4.24817968704077
H            1.26791564427321        1.72559120207030       -1.81678161270847
H            3.15908458925917       -0.87451650580190        2.32297610989249
H            5.08532324149347        0.07939510438845        3.54613444477601
H            6.56023843216923        1.71472484511468        2.43146940103260
H            6.10925090979180        2.39464027615421        0.10412038659433
H            4.19942590114513        1.43829831251706       -1.11870440378604
H            1.74754093132337       -4.92435633250851        0.37858008595286
H           -0.54738335845312       -5.85685133045159        0.47154451169688
H           -2.48686042132872       -4.36311167777964       -0.00200196221160
H           -2.58523466166875       -1.96691680658072       -2.00740886223868
H           -3.23095897101478       -1.99097305835872       -0.36022073072877
H           -1.21690259165150        0.95845892595903        0.60385947793554
H           -1.18401960585915       -0.73862706949232        1.07185445269754
H           -2.84273144104817        0.39232049066750        2.39739632162861
H           -3.65229429294017        1.07213900213492        0.99191613046436
H           -3.72110316858471       -0.66695270003800        1.30317543409875
H           -3.77345689874629        0.57776290579125       -1.18542255747415
H           -2.86567168300411        0.06734786741168       -2.61661164903034
H           -2.70342767850440        2.45627400469369       -2.53025268552552
H           -2.17954297053629        2.45452604378702       -0.84652525345602
H           -1.12352800469188        1.77804392296112       -2.10415808979169
C           -0.20301389211508       -1.10520258868152       -3.26715938413439
O           -0.42852660823163       -1.35866334109086       -4.36950015230101
