58
 energy: -81.807852027597 gnorm: 0.000094551099 xtb: 6.7.1 (edcfbbe)
Fe           0.14964070993291       -0.04172013210572        0.17909411486801
C            2.22806486821044       -2.25756590774580       -0.15959290582326
P            2.20006344983836       -0.51435046493374        0.51532014786759
C            3.64026929811605        0.21241550605126       -0.34099394120082
C            4.87544281678792       -0.42959779486262       -0.37648496866128
C            5.93414339661169        0.14884611466437       -1.05207241348581
C            5.76976341064419        1.36995035813873       -1.68890599556429
C            4.54644256990370        2.01875206107706       -1.64302572051121
C            3.48357169441281        1.44201505403655       -0.96878855205300
C            2.89004448299857       -0.74978453355505        2.18793474306040
C            3.75343937910317        0.19441403039112        2.73570790396901
C            4.20509577609539        0.05314709577164        4.03573096802179
C            3.79040418527781       -1.02316233130946        4.80346960000134
C            2.90920741082736       -1.95208884518857        4.27233615224638
C            2.45371097555374       -1.81247568666876        2.97437157764739
C            0.85628346468096       -2.80932241891268        0.07298248552424
C            0.59676523848893       -4.16636954341866        0.09921104292703
C           -0.69918077993963       -4.61979869190258        0.31016690109719
C           -1.69609491768040       -3.67420598771556        0.51291593184476
C           -1.37178871242718       -2.33253988831104        0.49188502542026
C           -2.35459773405259       -1.24063219694885        0.78919674771733
N           -2.06219106397458       -0.06569971096796       -0.04859878096722
C           -2.37272535481365       -0.36270065644478       -1.46564737738191
C           -3.84246915560767       -0.58836092908770       -1.83577751344196
C           -2.86229021334691        1.09583579129936        0.38378908485293
C           -2.48377477721262        1.66625690252015        1.74311227794842
N           -0.11784055363103       -1.88843759910845        0.25539080504521
H            3.00910996150152       -2.89844472450230        0.25892984060771
H            2.40147423277846       -2.14785860156851       -1.23885882087170
H            5.00633776756833       -1.37527416308205        0.13226063638597
H            6.89228005267232       -0.35111094243727       -1.08313117340392
H            6.59969504764586        1.81696646422178       -2.21778957052798
H            4.42224892072941        2.97364719811978       -2.13411771433061
H            2.51787912298264        1.92720784322407       -0.91259353607193
H            4.06748620839573        1.03936480914619        2.13678078717278
H            4.88003433545465        0.78683043965055        4.45407031000154
H            4.14561115494317       -1.13322908032044        5.81831444655809
H            2.57372876020634       -2.78445685051018        4.87562683289492
H            1.74877641005827       -2.52657584776623        2.56873352469402
H            1.40725100167968       -4.86482317601795       -0.04842990091925
H           -0.92201457450096       -5.67492350090100        0.32349600894556
H           -2.71566060293377       -3.97712863660168        0.69793049941144
H           -3.39090136721795       -1.58663787015017        0.67506634776053
H           -2.19441017956303       -0.93851337997376        1.82993749300576
H           -1.80991729080015       -1.25678548662130       -1.74772053100622
H           -1.99058313264856        0.47116062418321       -2.05944347992062
H           -4.43498969751773        0.31456501932092       -1.71570063157541
H           -4.29395525932423       -1.38943325822556       -1.25566960952835
H           -3.88355102197425       -0.87626461267774       -2.88412367551516
H           -2.70761761608215        1.87403761123507       -0.36789790530129
H           -3.92702426626943        0.82179878834626        0.39958264969284
H           -2.96530577906132        2.63341285957151        1.86922680487731
H           -1.40541112973709        1.79066837222847        1.78787282318210
H           -2.79918889517610        1.02191865020022        2.56014926922823
C            0.51319737659899        0.09186311174797       -1.51707536805832
O            0.83857754168441        0.22459132762857       -2.62372123780161
H            0.00680194166762        0.06594320122390        1.63672339947888
H            0.26630628158969        1.41639719544566        0.20709002656489
