60
 energy: -71.522719673340 gnorm: 0.000201298016 xtb: 6.7.1 (edcfbbe)
Co          -0.03014665946699       -0.43693925533267       -1.55562510736045
N           -0.25939633466116       -2.29476805866208       -0.75379381298193
C            0.89391489961816       -3.17356552087328       -0.91526351396627
C            2.08139924125742       -2.49828934438922       -0.22990425195519
P            2.05067303066615       -0.67751753479786       -0.67684546234651
C            3.39597565069287       -0.71287590840715       -1.98523099755192
C            4.81658037294083       -0.95049116865375       -1.47787202374864
C            3.33246062635377        0.51229874106562       -2.89239753075041
C            2.87832704036689        0.07840480573779        0.83111382388758
C            3.17536412811987        1.54694898162885        0.53854794005791
C            1.91871722391846       -0.01064753655066        2.01509589256781
C           -1.56793698342794       -2.89117395946104       -0.99830519379842
C           -2.66246715213080       -1.81787456416216       -0.84628890798895
P           -1.96051429530887       -0.18893301319257       -0.22652140449881
C           -2.51892037494909       -0.36342770920688        1.57942266146711
C           -2.29308609433704        0.92806284023822        2.35949909189455
C           -1.79494051843218       -1.51410561683852        2.27546075313421
C           -3.25482982963144        1.05407493199363       -0.78787669371459
C           -2.58787615092930        2.43088717454366       -0.78115763688334
C           -3.79758236244670        0.77929440882455       -2.18728083092809
H           -0.26193900911411       -2.02806648068720        0.23347702673467
H            1.08919784858681       -3.31098090560487       -1.98347141797776
H            0.70514083565987       -4.16354239598017       -0.46967530651283
H            1.97978832884833       -2.60219142980445        0.85345040594899
H            3.01971942001024       -2.96640819656921       -0.52968952486507
H            3.09123639208943       -1.57795973914903       -2.59388823434956
H            5.46902809697139       -1.16294653698502       -2.32430711245763
H            5.20572524732600       -0.07053932505341       -0.97181801128681
H            4.87211119392111       -1.79424187316262       -0.79238677936744
H            2.30518399482002        0.67710026380248       -3.21425851405392
H            3.95476456865166        0.36072659021722       -3.77361249280140
H            3.67678459793548        1.40778723213382       -2.38176742295648
H            3.80186727784878       -0.46274573760622        1.06287479401831
H            3.47262384068356        2.06602028344444        1.44955562562743
H            3.97551597819642        1.65915097618154       -0.18790412945321
H            2.28209550345564        2.02954756155055        0.14090815122865
H            2.30682615954567        0.55284791093357        2.86263945931436
H            0.95576524463023        0.41834315078971        1.73273299089161
H            1.76805768059056       -1.03805544669904        2.34397667344050
H           -1.74371673276117       -3.72812649985566       -0.30366847199775
H           -1.57719013073704       -3.30036678602164       -2.01357985331470
H           -3.47572165374382       -2.16391810476380       -0.20370506047772
H           -3.07389161728697       -1.60527362244155       -1.83164954741781
H           -3.59378567363951       -0.58702563901930        1.55874328255366
H           -2.96433908846500        1.71496182112850        2.02574229123245
H           -1.26656856044840        1.27347864147309        2.23922077038576
H           -2.47288413308432        0.76301560757637        3.42184282063329
H           -1.97397255163301       -2.46523017304867        1.77673474635975
H           -2.15222061778944       -1.61028190363001        3.30103273073044
H           -0.72351110003423       -1.32061354695806        2.31958461484065
H           -4.08576629005269        1.04145485769528       -0.07086934409086
H           -3.31565797979641        3.21185681087057       -0.99811301619033
H           -2.11904052423909        2.64983141827726        0.17510191574369
H           -1.81168512458300        2.45250973730468       -1.54415158593693
H           -2.97613166726882        0.57646264564360       -2.87439764569278
H           -4.49510262650326       -0.05570841145906       -2.19971758628469
H           -4.32837457762180        1.65887375272164       -2.54975638095006
C           -0.46115897165066       -0.83248264368176       -3.19391417887375
O           -0.68574891823360       -1.00286831212066       -4.32275016951263
H            0.12095246288167        0.92627240420656       -2.01781500531649
