54
 energy: -70.214957310490 gnorm: 0.000161484067 xtb: 6.7.1 (edcfbbe)
Co           0.16151617657030       -0.34515602171588       -0.13068363798707
C            2.43338061842119       -2.44606797849907       -0.39508088552704
P            2.31018858698014       -0.64590528172550       -0.00000692920734
C            3.57948360561319        0.17486993807166       -1.07124922490794
C            4.96410489372132       -0.45613506579945       -0.95110566246452
C            3.07202688967310        0.17870223227618       -2.51312166534960
C            2.90560053081560       -0.54533361871389        1.75161683936564
C            1.80347932575601       -1.14190890853444        2.62711499628254
C            3.17311947361238        0.90732864786120        2.13672080469492
C            1.09196016501641       -3.05151359522071       -0.13126656673722
C            0.92471456911351       -4.42714021676452       -0.06036111668355
C           -0.33949380889282       -4.94932505788467        0.15865529674590
C           -1.40127539666944       -4.07407011420917        0.31086371228428
C           -1.16303332897783       -2.70918502040328        0.24097815185956
C           -2.25088957013878       -1.70970465622695        0.47658221846199
N           -1.90567783744886       -0.38542666598926       -0.06886898815247
C           -2.50614923187225        0.67571592012182        0.77287714610287
C           -4.02832850939499        0.63425850474896        0.90373988493197
C           -2.35900478327410       -0.25681957805198       -1.46926916216796
C           -1.46181287133018       -1.00904840690288       -2.44482998389178
N            0.05854545012797       -2.21023750280449        0.02039850922907
H            2.66549181821900       -2.55003059851749       -1.46061091565728
H            3.22071409751089       -2.94901789141943        0.17430024374026
H            3.62055694324872        1.21486630991528       -0.72336476826162
H            5.67197341777005        0.10465570475249       -1.55920804626183
H            5.32150518910407       -0.44096590310187        0.07620317710727
H            4.96198063942356       -1.48434996421841       -1.30666578266580
H            2.05981007485167        0.58310255531391       -2.55868521325100
H            3.06754819751474       -0.82399251234930       -2.93673683871584
H            3.71504467249909        0.79882660217689       -3.13439721279624
H            3.82460857160534       -1.13574162932506        1.85588890072562
H            1.68926144127939       -2.21066953872480        2.45120071752904
H            2.03391344098418       -0.99638323743810        3.68092356227878
H            0.85276645343673       -0.64150016859510        2.40799603774820
H            3.40778873429915        0.97344424083051        3.19771509534178
H            4.01314883165286        1.32134865495131        1.58351047769521
H            2.29180150626923        1.51872102829570        1.94506484250120
H            1.77766086681830       -5.07649021188651       -0.18081628430730
H           -0.49250566588824       -6.01596870962019        0.21087309006877
H           -2.40106500046141       -4.43792756990998        0.48752059345375
H           -3.20025452833480       -2.07690957919009        0.06774112372852
H           -2.36819522390422       -1.61958034564204        1.56285842521015
H           -2.05518845195808        0.60297525998845        1.76673174202137
H           -2.22293001435773        1.64143793556243        0.35001874239024
H           -4.33981559341058        1.45353475275272        1.54731560735749
H           -4.37949098416981       -0.29102812039202        1.35305886596195
H           -4.51664068718704        0.76658497302342       -0.05802499339769
H           -2.33780576222168        0.80491983503751       -1.72438290069572
H           -3.39033321178093       -0.61508652259590       -1.57145176956683
H           -0.40984869846727       -0.72739213119885       -2.28177582584321
H           -1.73012761632490       -0.73885688537169       -3.46365787168051
H           -1.56798775684379       -2.08716416339406       -2.34272342429565
C            0.31295776167591        1.37862200505281       -0.25988128978604
O            0.49951323666539        2.50458115151131       -0.35232322886807
