49
 energy: -80.944007161127 gnorm: 0.000269370206 xtb: 6.7.1 (edcfbbe)
Co          -0.06308159633934        0.03718460326891        0.14456394742796
C            2.89003588645161       -1.62474205928247       -0.08541123687254
P            2.92239265519819        0.00023913108814        0.82357405739682
C            2.01053059417630        1.03216606959434       -0.41950004135155
C            1.39467155040711        0.55785874281295       -1.60363088077279
C            0.93716872063534        1.47397362942467       -2.55792603590859
C            1.08976312214550        2.83337006904027       -2.37048965110513
C            1.71873085674110        3.30596517283113       -1.22351841861066
C            2.16848868358756        2.41998664082759       -0.26675111342219
C            1.55637117449134       -0.25961355513540        2.04741559792083
C            1.39209749011402       -1.49425547084458        2.68440230449621
C            0.44110491646105       -1.65248320501765        3.67424717021960
C           -0.33278211096839       -0.57626105906451        4.08224130610829
C           -0.12631642609727        0.67014641576951        3.51787739304834
C            0.81105079370571        0.83745644894124        2.50717973669855
C            1.60661569013467       -2.37213778050037       -0.31000637426510
C            1.73199703506022       -3.68796582329021       -0.75896680993630
C            0.60531510203105       -4.46171863908142       -0.95436755628747
C           -0.62357509811565       -3.92791749679585       -0.60471740696723
C           -0.68281250383300       -2.62119529765996       -0.13771335796243
C           -1.89522914924804       -2.01854881554511        0.40479624226799
C           -3.06240237635882       -2.71687657049607        0.68158634284171
C           -4.10165750548996       -2.06007770354180        1.32424113782472
C           -3.93731994503332       -0.73983201410309        1.69156596748850
C           -2.73920553804235       -0.09595094942595        1.37694070871985
O           -2.49679683820888        1.17218342177051        1.70559556607016
N           -1.75371147949790       -0.71732580371684        0.72730714929072
N            0.41208248638167       -1.82968372318478       -0.06263942972910
H            3.38577336084869       -1.43062754925603       -1.04517278727168
H            3.57017787169416       -2.29130563708952        0.45928106637585
H            1.45530532108161       -0.47798988114483       -1.91412743003345
H            0.49586355944413        1.10224089771576       -3.47155366958987
H            0.75170679356995        3.52659535741438       -3.12554222809806
H            1.87606349818076        4.36613252504614       -1.09276183726184
H            2.69878586000611        2.79114790448259        0.60111029718152
H            2.01145227957959       -2.33673749731983        2.40912414936922
H            0.31294450059976       -2.61825436293294        4.14142871881398
H           -1.06889603120681       -0.70662332085157        4.86165747718214
H           -0.68259967420434        1.52577982000008        3.87001909147953
H            1.02684413382621        1.83557855738144        2.14876875963369
H            2.71515408588553       -4.08503888719480       -0.96023226833568
H            0.68342054092678       -5.46629910661454       -1.33979459581967
H           -1.51967111371437       -4.51710164597631       -0.70125202640593
H           -3.16458864146510       -3.75525601515783        0.41643990139720
H           -5.02119503731751       -2.57823128959631        1.54716581173523
H           -4.71632557017350       -0.20419045646441        2.21303885669167
H           -3.25348366062151        1.58795911593293        2.14640484767315
C           -0.72009090958968        1.64939891626420       -0.01376105337052
O           -1.10689912048237        2.69394807471341       -0.24755421110262
