57
 energy: -76.452782646348 gnorm: 0.000098043319 xtb: 6.7.1 (edcfbbe)
Mn           0.13512625092047        0.13903829246238       -0.13278188735754
C            2.39846139834011       -1.96714410376093       -0.02140484958838
P            2.27237414175054       -0.25290874169385       -0.71338189269577
C            2.61981550152109       -0.51605318422758       -2.53677413889292
C            2.61123879565759        0.84784436727049       -3.23158758817108
C            3.87880762662680       -1.29317250603229       -2.91033075942913
C            3.84904795676285        0.58269963095677       -0.12857802982167
C            4.94613915430793       -0.35425540765569        0.37475636565325
C            3.51319782995142        1.62842533296157        0.93301984413812
C            1.05763715882417       -2.60701786545231       -0.19471883884342
C            0.93497454797062       -3.98488056129848       -0.25879065522492
C           -0.32261382139805       -4.56116628644757       -0.36334363393735
C           -1.41781800538140       -3.71278821977327       -0.40855057524338
C           -1.21918629555014       -2.34290934371424       -0.36721665000102
C           -2.37314713697620       -1.39357330277083       -0.50990621556521
N           -2.21780317543897       -0.19674906900164        0.33871452348382
C           -3.24837743763523        0.77588802796593       -0.09064431877119
C           -3.01202395863487        2.23211047403695        0.29273418222578
C           -2.46343073924424       -0.64065263909478        1.72722861466918
C           -2.31678607711476        0.43593434888281        2.79619500698473
N           -0.00341890588237       -1.77934715841721       -0.26131711229936
H            2.59075656331943       -1.83405853782124        1.05088736326347
H            3.20027169336339       -2.57609115550894       -0.44173789287620
H            1.74147207978758       -1.08685775493864       -2.87740151884327
H            3.58325125426713        1.33064106865711       -3.15057030019599
H            2.37773956375319        0.73808445966790       -4.28942504612545
H            1.86661392546213        1.50373860012575       -2.77685915125574
H            3.88080395126605       -2.29792216241955       -2.49321600081834
H            3.92568829085653       -1.38667173625856       -3.99521960588445
H            4.77350980384760       -0.76924988698514       -2.58254861509197
H            4.21419557672987        1.11545222604175       -1.01551855093973
H            4.66258164200715       -0.81254693497823        1.32000555016782
H            5.85357486575392        0.22352660355488        0.54782608469992
H            5.17778006959265       -1.14057230678296       -0.33898206286791
H            2.67427435621431        2.24133908564909        0.60132456629613
H            4.37327273243130        2.26966945502627        1.11977279419733
H            3.23339408946100        1.15206797565228        1.87030434687843
H            1.82138039521064       -4.60016056761126       -0.21517885740609
H           -0.44389812741246       -5.63217704089688       -0.40475874754617
H           -2.42078085087491       -4.10475712648113       -0.48714752338918
H           -2.40611819653636       -1.07795489193890       -1.56132856579661
H           -3.32245325458398       -1.91086095615828       -0.28976737533073
H           -4.22951481226410        0.44432328249033        0.28402660232387
H           -3.28389074777960        0.74782606573141       -1.18381265161644
H           -3.66149793248205        2.85898488202140       -0.31498938610967
H           -1.97657675799245        2.49418516465743        0.08306899723369
H           -3.22320627370628        2.43746965094793        1.33530594829524
H           -3.47716299962917       -1.07421060251071        1.79200199036820
H           -1.75200493524055       -1.44556906081083        1.94334164366076
H           -1.49995289926882        1.10844349571840        2.54167216386021
H           -2.09361709647233       -0.03412056354583        3.75192835265689
H           -3.23138683856610        1.01061079777835        2.91162662438726
C           -0.38541794266528        0.50195027961989       -1.79301169647939
O           -0.75210348129506        0.76504633980386       -2.86265178693669
C            0.63713265721149        0.03492217803488        1.56508504165832
O            1.02619024378081       -0.06802730917345        2.65441645057694
H            0.15102845534254        1.67387788875020        0.06231794458284
