57
 energy: -76.459588821577 gnorm: 0.000152142025 xtb: 6.7.1 (edcfbbe)
Mn           0.30399763283176        0.00671935442432        0.12754325833679
C            2.27487083197002       -2.27704562057679       -0.61815305202959
P            2.45199432756946       -0.62092303703199        0.20169855118972
C            3.75601447129102        0.15608572769088       -0.89488047964868
C            5.13677039509325       -0.49287413198665       -0.86425927033416
C            3.82944667916337        1.66207561108498       -0.64839344751806
C            3.39630294114507       -1.12856424836746        1.73577723378205
C            2.59974480419950       -2.12832098115281        2.57218512316278
C            3.74697605042679        0.10513080498075        2.56319836974401
C            0.92355705199285       -2.80727643246325       -0.24765075546183
C            0.66419322250375       -4.16808013710112       -0.26330747645244
C           -0.60478673295844       -4.63170931958404        0.05118048270640
C           -1.57580997305085       -3.69382159763774        0.36668374899371
C           -1.24364965002614       -2.34984613421162        0.37770141621570
C           -2.25301367753802       -1.30108490073481        0.74887679466407
N           -2.08348652873352       -0.09220355600210       -0.07527574480355
C           -2.99693798204840        0.96421526522386        0.40600251230317
C           -2.71970626613264        1.51886816148910        1.79611622414546
C           -2.50841035239411       -0.44284328342284       -1.44994577480449
C           -2.44759876215137        0.70898374551422       -2.44991692709082
N           -0.01094249393144       -1.89723994746714        0.08640355960440
H            3.07175511600624       -2.98152708090769       -0.36427893336182
H            2.30497147289618       -2.09389911544592       -1.70007609017491
H            3.32832732626915        0.01194101827393       -1.89828960107053
H            5.07609651789690       -1.57056531807516       -1.00665403362033
H            5.74238283622314       -0.08057123158384       -1.67054323755615
H            5.64865841317549       -0.28782439569566        0.07308108026075
H            2.81880470300948        2.05977782814550       -0.53281185351880
H            4.39406761810415        1.89183660098104        0.25135591773277
H            4.31129348112464        2.15939458567073       -1.48862973730200
H            4.31448393742475       -1.62399512041603        1.39394713733535
H            2.34444447913148       -3.02232286011094        2.00456692997738
H            3.18992375060321       -2.43652581132422        3.43525923048419
H            1.68063650536470       -1.68024360924281        2.94170791188329
H            4.12161953147295       -0.18795312813851        3.54349323735336
H            2.86285353199170        0.72736758595844        2.70083245131161
H            4.51036600951882        0.70403102440141        2.07338818645644
H            1.45328698158539       -4.85653805606964       -0.52766778994449
H           -0.83008587683101       -5.68656579312818        0.04336901635987
H           -2.58270093635670       -3.99811721996084        0.60999733553642
H           -3.27615395307761       -1.70395824931294        0.65286377743670
H           -2.09201645866220       -1.03215413126561        1.79974414679442
H           -2.91639696058337        1.79911788246970       -0.28965732570651
H           -4.02894009438884        0.57541245011202        0.37156284879065
H           -2.86419326904026        0.78340713776828        2.58437631172253
H           -3.40599219773963        2.34274262074165        1.98091633147865
H           -1.70254114103327        1.90215893112190        1.84457759382787
H           -1.86535333404091       -1.25364489490377       -1.80675949733843
H           -3.54090759234172       -0.83298827027944       -1.41766254088024
H           -2.37477204503544        0.30716939025026       -3.45818620080616
H           -3.33580745153035        1.33419791726214       -2.40116842135317
H           -1.57073293255115        1.32596069067570       -2.26113483407477
C            0.58185500870748        0.10790277036522       -1.61968547078446
O            0.87052152218721        0.16237689517311       -2.74399541737227
C            0.20371085543058        0.18396098500646        1.89191768516446
O            0.18505161069166        0.33657229790758        3.04356795386217
H            0.32074407716625        1.56591933611498        0.10950302568231
