63
 energy: -92.045716040443 gnorm: 0.000277877810 xtb: 6.7.1 (edcfbbe)
Fe          -0.05073957884580       -0.38296668895662       -0.27969413571196
N            0.21585425479708       -2.40166579937391        0.23005889660976
C            1.59940407183018       -2.81706429117346        0.31548745807966
C            2.45001272672938       -2.13329112265595       -0.75279185996223
P            2.08102767108001       -0.34801908071325       -0.46893656967997
C            3.31348677522414        0.04612940500605        0.83169755305727
C            2.86638056691531        0.20193852617753        2.13810285571666
C            3.76748573250693        0.44549096560350        3.15984746115209
C            5.12077348877753        0.54213213297984        2.87973861924808
C            5.57097197121672        0.39591947228980        1.57657865141228
C            4.67373385559536        0.14759460872850        0.55351708798045
C            2.77319689834371        0.53367352295961       -1.90798813260170
C            2.22138547084742        1.79336257215187       -2.13049423240243
C            2.63836956518549        2.56640851030861       -3.19680685413463
C            3.60719139058523        2.07653540508879       -4.06001246451261
C            4.14538773167804        0.81632667223914       -3.85731587163685
C            3.73193703820683        0.04254461238533       -2.78549817143828
C           -0.46305836274562       -2.74217714721978        1.46068801482730
C           -1.94567155734789       -2.35729136540708        1.38563004900484
P           -2.04066780737211       -1.04788635062346        0.08615041465850
C           -3.22503056188266        0.18508166860163        0.71032805550429
C           -4.43617137223810       -0.10324940327421        1.32963868227395
C           -5.24705633201643        0.93214847098396        1.76128861512139
C           -4.85681791719093        2.24960138554537        1.57327350086179
C           -3.64970319322649        2.54141451122728        0.95587724386160
C           -2.83622314484524        1.50857921019491        0.52767064576544
C           -2.98896056391136       -1.89498864959664       -1.22127862612484
C           -2.42186506985028       -3.06249114185464       -1.72903171969237
C           -3.04022846306909       -3.74600832490987       -2.75763717377962
C           -4.22590656785765       -3.26540849920476       -3.29477010608911
C           -4.78017909107978       -2.09345738652714       -2.80862424943592
C           -4.16269422224965       -1.40274917935506       -1.77856901267471
H            1.65480822262019       -3.91311537510043        0.20686348690846
H            2.02813734981707       -2.56105606704172        1.30771266621957
H            2.09623658420221       -2.39934211600830       -1.75259796069962
H            3.51025099741012       -2.38006108103974       -0.64180852131113
H            1.80492409241517        0.13231582018330        2.33225709131726
H            3.41598006704997        0.56296520260494        4.17543943122248
H            5.82675179422158        0.73525664297870        3.67521185186178
H            6.62689688003569        0.47620225984932        1.35809352812430
H            5.02973499190793        0.03994717355493       -0.46192778018198
H            1.44556047198733        2.14283841820105       -1.45038181966903
H            2.20879181841895        3.54419589460195       -3.36465404934410
H            3.93476912212677        2.67449854344858       -4.89849275195801
H            4.88979450338662        0.43291869423913       -4.54128414579330
H            4.14812959465336       -0.94477947521558       -2.64088174893056
H           -0.36245283032692       -3.82515917776255        1.63575713311465
H            0.00809089642276       -2.23143866670084        2.31984472449556
H           -2.57302677419122       -3.20953902272073        1.10911634294138
H           -2.29323299232132       -1.94442899927768        2.33595565054691
H           -4.73833418449802       -1.13315068507028        1.46579467193362
H           -6.18863239794908        0.71428021147927        2.24567744834839
H           -5.49531057701839        3.05275455187155        1.91296584369397
H           -3.34910248842910        3.57038345880154        0.81569520902325
H           -1.86750292329441        1.69677382823100        0.05433716687980
H           -1.48307041967045       -3.40156219099670       -1.30952891287631
H           -2.60005131296716       -4.65283809558853       -3.14878303438498
H           -4.71238424519905       -3.79989668298929       -4.09869886065052
H           -5.69686609092622       -1.71131278110183       -3.23662172798177
H           -4.59676252251025       -0.48217673201055       -1.41143303662925
C           -0.13873634227520       -0.69849181575979       -1.98470853822611
O           -0.21950223838859       -0.82831401896691       -3.13215542672109
H           -0.04387943972692        0.01008652858718        1.14355789402050
