47
 energy: -70.000744434711 gnorm: 0.000356105873 xtb: 6.7.1 (edcfbbe)
Fe           0.03340372887861       -0.25208896265184       -0.31033868711475
C            2.29366281158924       -2.25409698270749        0.17479790350011
P            2.19040272811774       -0.47426474645389       -0.37893850378491
C            3.36825850543071        0.48878938248785        0.71464953517956
C            4.40710323101735       -0.33364699357506        1.47451669024747
C            2.52524567242597        1.32581684944923        1.67604185579483
C            3.09351369503692       -0.55501211757268       -2.02616839485722
C            4.60078607623715       -0.79383152202442       -1.96568725752321
C            2.43164640157883       -1.61478273382571       -2.90697983452048
C            1.01624315373574       -2.95321309608610       -0.19234011394708
C            0.90869665148529       -4.33218272487601       -0.27099330733395
C           -0.34211127837882       -4.91306044236734       -0.45353341594368
C           -1.46288770624640       -4.10324839096782       -0.47961864980681
C           -1.30324883979558       -2.72433951862163       -0.40351953998525
C           -2.34772748269066       -1.71165094006657       -0.31016600701098
C           -3.73783540144755       -1.77659675626419       -0.28678487655713
C           -4.43032478075573       -0.57560064002097       -0.12312728415123
C           -3.79352735022456        0.64560416488520        0.00742766303325
C           -2.38039865727520        0.67149857115051       -0.03231691867314
O           -1.53316988479172        1.61639112664018        0.02614185547217
N           -1.76581200838114       -0.52043708127077       -0.18344380649236
N           -0.05920442874446       -2.16488593833134       -0.34095993919823
H            2.31853907697616       -2.21133846615037        1.27010857177471
H            3.18062560033136       -2.78593717110291       -0.17579786199720
H            3.87696890390313        1.17846673417153        0.02559571480651
H            3.93260197207942       -0.92167568709544        2.25691872197851
H            5.11898649473719        0.33893918498191        1.95189350075065
H            4.95838333744120       -1.00264545584592        0.81940631657393
H            2.05443129002814        0.68993079708931        2.42193517805898
H            3.14206221522637        2.06449717788210        2.18600112938566
H            1.72692731594770        1.83793785816438        1.13400040501139
H            2.91132840633324        0.43300074886174       -2.47343751416221
H            4.83030118052935       -1.74844038180588       -1.49730719166371
H            5.11696433269687       -0.00341813214756       -1.42794997055808
H            4.99680402838763       -0.81931648904658       -2.98047663467753
H            1.34582419163581       -1.55185927305251       -2.84684705278436
H            2.73169997860648       -2.61595308295214       -2.60333986109438
H            2.72243421724880       -1.47566985171171       -3.94724924043328
H            1.78994289816327       -4.94736181610413       -0.17284950757629
H           -0.43784375994524       -5.98502743259619       -0.53248655038858
H           -2.45489389280059       -4.51994969878231       -0.55102531356643
H           -4.26380236479766       -2.71191653674095       -0.38649039523259
H           -5.51144205464881       -0.60273067653802       -0.09825675649066
H           -4.35327851212322        1.55962853869901        0.13093538808080
C           -0.19903658644301        0.09817400734697       -2.01061694646516
O           -0.49502131752689        0.39571623783326       -3.08219805298380
H            0.17498440991143       -0.40221238737153        1.14534194939333
