66
 energy: -98.535767295865 gnorm: 0.000183255070 xtb: 6.7.1 (edcfbbe)
Mn           0.37908615148591       -0.31579484350313       -0.70504136420188
N           -0.12320669823410       -2.47360062422475       -0.39567141203464
C            0.72741890643464       -3.10010386182824        0.61545740409022
C            2.19398784632837       -2.87910936311514        0.26042355940606
P            2.40631797302228       -1.07973626475718       -0.21337633855059
C            3.68452438861745       -1.16818693951413       -1.51796757256481
C            3.60675853659605       -2.09259388442753       -2.55607941417379
C            4.53197918754679       -2.07461395913509       -3.58351057372894
C            5.53385819024045       -1.11870944815956       -3.60039813751709
C            5.59578651458709       -0.16986862104921       -2.59272353340336
C            4.67401569470408       -0.18817343700509       -1.56255829702246
C            3.43733000421711       -0.47574860029337        1.16974858145963
C            4.58222236146804       -1.16604467144289        1.56451555122549
C            5.35101298302453       -0.69000167733126        2.60945662842073
C            4.99068516207103        0.47943117841535        3.26281746468620
C            3.86786548096397        1.18149273499354        2.85800088174556
C            3.09470653573069        0.70809862788027        1.81113806563724
C           -1.54792909753286       -2.68350878709894       -0.14643652245222
C           -2.35560868512916       -1.97072674624379       -1.22409836889182
P           -1.77135667860254       -0.20248575424513       -1.24584318428878
C           -2.34935938446740        0.38131171069278       -2.87849314146187
C           -1.72991582669454        1.53016482614080       -3.36411365459010
C           -2.12154375403268        2.07926963414570       -4.57041912739066
C           -3.13852718601496        1.48579432255956       -5.30172257417851
C           -3.76269172911607        0.34715330643291       -4.81984618204786
C           -3.37653938756841       -0.20461659578933       -3.61035891188259
C           -3.01452200944896        0.69662579819780       -0.24391803616551
C           -4.37102358370328        0.38657885613625       -0.22983590776310
C           -5.24885807943480        1.15427251407728        0.51408918319136
C           -4.78804862184896        2.24533646393146        1.23348711621851
C           -3.44395183710156        2.57864687363227        1.19626337715983
C           -2.56230114335453        1.81035784053484        0.45779516595129
H            0.09618217931802       -2.91496563537432       -1.29384117124463
H            0.50658638136535       -2.63846924637074        1.58499477307820
H            0.51244329819447       -4.17846791990124        0.69866932476281
H            2.83332360770506       -3.12915359593010        1.10949050219707
H            2.47649861717648       -3.51073441859464       -0.58682270732536
H            2.81401901622263       -2.83001755645752       -2.57966033924636
H            4.46522173257196       -2.80352794980033       -4.37919839834111
H            6.25499899771310       -1.10543959793224       -4.40478790180743
H            6.36252761682680        0.59136385116887       -2.61297123229631
H            4.71320445617495        0.56326321631197       -0.78550319236321
H            4.87997553494640       -2.06539549994663        1.04017654272896
H            6.23732212481469       -1.22842826209141        2.91429418368137
H            5.59348847868631        0.84649419456776        4.08103174725211
H            3.59470548481911        2.10082964711162        3.35578118720931
H            2.22449323047785        1.25451312882254        1.46786390822151
H           -1.79375961435058       -2.25927801392936        0.83555616571043
H           -1.79217833012820       -3.75864220448805       -0.12415050027358
H           -3.42442895803476       -2.06769456726406       -1.02804557550451
H           -2.12925077908874       -2.39906336162055       -2.20880460094203
H           -0.92684558348096        1.96897817679301       -2.78181176219036
H           -1.63174555047633        2.96706894393917       -4.94390321551971
H           -3.44410599671822        1.90889087241287       -6.24791495064628
H           -4.55621732308897       -0.11579024313172       -5.38987065550441
H           -3.87782136415412       -1.09233484016670       -3.25154604669729
H           -4.75646804693047       -0.44509343802755       -0.80267917050648
H           -6.30007441598854        0.90253263418951        0.52863349282342
H           -5.47905887701108        2.83923020661196        1.81426032336117
H           -3.08250948541663        3.43752423546962        1.74322707942639
H           -1.50805116359184        2.05965859521979        0.41134070367456
C            0.72218198689379       -0.48469587915114       -2.43694430339391
O            0.92556627042984       -0.58748265762185       -3.57345712681989
C           -0.00158004369985       -0.04550942160203        1.00283166928125
O           -0.27850270429395        0.08819373331878        2.12233525049209
H            0.78704876041609        1.20900015829046       -0.85150902599770
