55
 energy: -70.297185654642 gnorm: 0.000503535141 xtb: 6.7.1 (edcfbbe)
Ru           0.01726694945385        0.00744059210021        0.05548595088294
C            1.59003177155102       -1.93941888510924       -1.82504173786251
P            2.00884347890705       -0.27458472992293       -1.07768049727289
C            2.28244308894590        0.80475629035982       -2.56776165614123
C            2.30932881872749        2.24836671267282       -2.06269821663099
C            3.49883028908956        0.47585461871515       -3.42499430432554
C            3.70410606773939       -0.44962368472667       -0.30041401514513
C            4.52558000837307       -1.61654394981732       -0.84700609988204
C            3.60426109703166       -0.55247948638964        1.21835825724209
C            0.70659898053696       -2.69441854427027       -0.87841669498357
C            0.61698707887875       -4.07770715898263       -0.83469595982957
C           -0.26117757205464       -4.67526843605477        0.05751824661911
C           -1.00878049589402       -3.87869743554819        0.91561254340250
C           -0.86207599177634       -2.50434802056048        0.85348158257417
C           -1.48970093573871       -1.54143941506073        1.83138755950749
N           -1.77087582732607       -0.24026955068062        1.18114494352563
C           -3.11962109697463       -0.34233216645582        0.57629119603111
C           -3.62829583312457        0.89501930078916       -0.14876103982900
C           -1.63157738285947        0.94994820885529        2.05039247179840
C           -0.93336717997310        2.07635346302139        1.26224160557268
N           -0.03667867554264       -1.94397239186475       -0.05124844345210
H            2.45826805631678       -2.53195681093387       -2.11677570667562
H            1.01537392260451       -1.70763587889352       -2.73355293666332
H            1.37950695177314        0.66927357771107       -3.17964170654925
H            3.19806365578797        2.43579395211434       -1.46159122513755
H            2.31184667398092        2.94655784500515       -2.89746390151532
H            1.42526059472571        2.44873064524279       -1.44525579242287
H            3.46234940140449       -0.55092186185907       -3.78310880482585
H            3.51006804209842        1.13199698811073       -4.29424811115915
H            4.42630219634527        0.63300870213892       -2.88022205519406
H            4.20827066889017        0.49471458108004       -0.54648048325871
H            4.11741807273421       -2.56611746545670       -0.50563867977933
H            5.54175817397671       -1.53741077103754       -0.46338658477034
H            4.58207724007687       -1.61618219597445       -1.93247865121460
H            3.10453237025158        0.31923583406642        1.63383669001695
H            4.60260053258351       -0.61583414474446        1.64781843541663
H            3.04667666942909       -1.44162387058641        1.50723037824729
H            1.22432697618113       -4.67568007086462       -1.49590009085321
H           -0.35263405074486       -5.74914131942337        0.09449321207511
H           -1.68121979302277       -4.31847420351566        1.63501785125845
H           -2.39379841023855       -1.97195137761137        2.27968939680820
H           -0.75047330217144       -1.38222423838500        2.62763654390084
H           -3.83373594796414       -0.58773349220353        1.37502910762436
H           -3.09066283810548       -1.18261065234602       -0.12597026482404
H           -4.56112217906047        0.63481883347959       -0.64461341581888
H           -2.93534698618257        1.23650573266349       -0.91409871095354
H           -3.83812116696775        1.71418171653006        0.53438642980461
H           -2.60540241209394        1.28551658634387        2.42349102830442
H           -1.00975906469333        0.68766157407575        2.91165725449812
H            0.01310982600223        1.71836130445984        0.69256336594326
H           -0.56512944572293        2.82777776158026        1.96360554857022
H           -1.61249409094802        2.57199992805698        0.56512256920832
C           -0.83044533465776        0.19413372578524       -1.59469894438743
O           -1.24178410872504        0.17588332771222       -2.66577893297523
H            0.77973634043251       -0.19761660305107        1.37024001657284
