49
 energy: -80.784228313290 gnorm: 0.000684470217 xtb: 6.7.1 (edcfbbe)
Fe           0.02699781160399       -0.32909231980122        0.06154107407658
C            2.27977630090626       -2.27452613248615       -0.72132091219613
P            2.04975991036851       -0.41290333146497       -0.67691599912911
C            2.44989964866407        0.02105574412624       -2.40700861918491
C            3.21259991739069        1.14286916427081       -2.71552149587373
C            3.41977719934193        1.50021335548664       -4.03626850528503
C            2.85636387698434        0.75136454492422       -5.05663659808013
C            2.07536775006067       -0.35352274351760       -4.75488547277319
C            1.86727534530545       -0.71422891887018       -3.43670159761320
C            3.55729677351865        0.11132447787904        0.19988712243561
C            4.83224201868843       -0.27322820071196       -0.20964299205957
C            5.93828178767349        0.16127996785158        0.49726380302908
C            5.77872806795193        0.98024261882584        1.60586989554588
C            4.51116850968068        1.36610988008597        2.01250441432472
C            3.39939447869537        0.93258979297778        1.31027602105509
C            0.94454478004635       -2.96278009403888       -0.69402077329188
C            0.79412576716588       -4.30849025915318       -0.99052090900462
C           -0.44649105675572       -4.91372949653695       -0.82031192252146
C           -1.49411146311962       -4.16964242794249       -0.30882645901821
C           -1.29647963615924       -2.82108521172706       -0.03525118912964
C           -2.24435237235449       -1.88791619012208        0.56187000765043
C           -3.55109281273259       -2.01453259361788        1.02413572304430
C           -4.14059161968340       -0.88208683043173        1.58950848886940
C           -3.48538005469150        0.33212596820993        1.69792400212030
C           -2.16272205891935        0.42199542966024        1.20842744191221
O           -1.32364764093686        1.37566713522602        1.14139117710770
N           -1.64483959642830       -0.70508667365695        0.67806244208067
N           -0.09516815986599       -2.22110441327254       -0.28686819060782
H            2.90296473874050       -2.60777053006679       -1.55674606276438
H            2.79423500207603       -2.52041949020414        0.21708150607199
H            3.64197991482821        1.73409749096145       -1.91743136161008
H            4.01737927359975        2.36973819475949       -4.27013219929843
H            3.01713600789347        1.03349731592412       -6.08703638665819
H            1.62485747311329       -0.93077864810528       -5.54972494606886
H            1.24134472467535       -1.56597360023968       -3.19849425347491
H            4.95195809861813       -0.90061777277150       -1.08268452571468
H            6.92918698356812       -0.13503609341594        0.18339277292867
H            6.64720183893149        1.31883628683149        2.15257152526529
H            4.39085614886692        2.00461014612602        2.87586118797268
H            2.39547953754658        1.21040168053395        1.60913474661293
H            1.64202493622998       -4.87941221064647       -1.33648340911988
H           -0.57910863116272       -5.95813705454316       -1.05721794971022
H           -2.45716568025163       -4.61479410664236       -0.11587167154449
H           -4.08968576414236       -2.94533830816817        0.95595616541449
H           -5.15420651339976       -0.95889930117240        1.95873630521856
H           -3.96583149234340        1.19115174510391        2.13962511074652
C           -0.59469752898981        0.20664162125259       -1.48452030609414
O           -1.02592094761462        0.55455251710830       -2.49184065458545
H            0.60581085277105       -0.69018745630164        1.36967927677146
