64
 energy: -92.259484014471 gnorm: 0.000172879512 xtb: 6.7.1 (edcfbbe)
Fe           0.12303224440239       -0.78098038889599       -0.61864960830125
N            0.12889547105945       -2.67908025823365        0.17459727013402
C            0.51888997126869       -2.56308493570091        1.59604595912875
C            1.86886583852046       -1.86712739680924        1.70353080576130
P            1.87457164055654       -0.39874057660877        0.57873655846419
C            1.44146346771961        1.03476913406890        1.59568146025034
C            0.50174450431294        0.93302334052590        2.61495293659010
C            0.05780361986732        2.07338493346913        3.25554108438999
C            0.54460540172929        3.31777862238929        2.88683235554592
C            1.47719544605131        3.42356533788138        1.86779766996052
C            1.91510656385115        2.28729968142638        1.21182601339683
C            3.64150596160283       -0.16684970020792        0.22675723452059
C            4.12022707701697       -0.32306953634677       -1.06722901266343
C            5.47182101381601       -0.16734964843543       -1.32409430627945
C            6.34087340884770        0.14314599753354       -0.29061997712678
C            5.86217404505516        0.30017069983845        1.00205914508669
C            4.51412249221745        0.14674509209602        1.26507562567889
C           -1.17095119409864       -3.37770821938673        0.02736358571553
C           -2.33834341143188       -2.40117615447604        0.18407518588452
P           -1.98450155427489       -1.04706297175633       -1.01496165214735
C           -2.42181816959136        0.52818048176384       -0.23642879623369
C           -1.45612541780846        1.51687858521673       -0.43802494967501
C           -1.52843144827187        2.70512194695970        0.25413695606464
C           -2.56590102920908        2.90563324902923        1.15670274678949
C           -3.52303832777884        1.92715617101482        1.35775699513979
C           -3.45527065383968        0.72934798880234        0.66178275022747
C           -3.13830076673431       -1.24662316280203       -2.40148912505040
C           -3.41232754977465       -2.51075417969934       -2.91535319411165
C           -4.27784987662522       -2.64600918837582       -3.98524099398141
C           -4.86074282056788       -1.52489594123600       -4.55539181567488
C           -4.57460175570031       -0.26390221899245       -4.05621060723206
C           -3.71079907072566       -0.11989217080543       -2.98575773144681
H            0.83765020450431       -3.27134884173278       -0.27047365723511
H            0.57636165801166       -3.56171947587753        2.04465214359429
H           -0.25501723935754       -1.99054309600821        2.10479037067471
H            2.08972608888638       -1.57336192140714        2.73407703614808
H            2.66712207205842       -2.53289784609024        1.35190323344513
H            0.11343423139516       -0.02788291575753        2.90876116264327
H           -0.67372355193066        1.99418779320436        4.04646836001820
H            0.19450193978766        4.20643748937317        3.39223096769893
H            1.85610494355991        4.39320693905330        1.57676325542112
H            2.63293109996669        2.36361690873751        0.40443030769422
H            3.42984872440421       -0.56150629190056       -1.86439859857690
H            5.84873567378042       -0.28560646501324       -2.32953948036173
H            7.39514361611644        0.26688552844559       -0.49206629756669
H            6.54418520442342        0.54472588642570        1.80353104844975
H            4.13175180718051        0.27759242101493        2.26796009240477
H           -1.19213601846878       -3.81222289923616       -0.97566100335911
H           -1.24198361216550       -4.18429438670678        0.76461657966821
H           -3.29407362102805       -2.89503467703409       -0.01267947708357
H           -2.35766157074044       -1.95689614218443        1.18336403469029
H           -0.63236365429528        1.32411866468032       -1.15055134554202
H           -0.78050235587807        3.46947914016163        0.10785985742977
H           -2.61555950240594        3.83089497457915        1.71155133879602
H           -4.31911948945007        2.08849949014177        2.07015068926287
H           -4.18857891074132       -0.04806438559350        0.82487440770218
H           -2.95670123218299       -3.38883306746893       -2.48121274462750
H           -4.49832430508821       -3.62741658076383       -4.37923452324622
H           -5.53632433181515       -1.63401732336443       -5.39119468966319
H           -5.02629565105859        0.60946650736961       -4.50371557479382
H           -3.48760662907184        0.86371285263349       -2.59494990177707
C            0.76873301146061       -1.21197068564982       -2.18532386372545
O            1.12938680951896       -1.45194689011372       -3.24572563767257
H           -0.44502964334526       -0.36994765838828        0.60677788145972
