59
 energy: -70.716822115166 gnorm: 0.000196329656 xtb: 6.7.1 (edcfbbe)
Co           0.01767956221451       -0.55952969540954       -0.33455692673414
N            0.08829876075423       -2.38326485633793        0.43349590584095
C            1.36582558176881       -3.12072554916450        0.36523699933841
C            2.53510039489874       -2.17932295681407        0.62481659228703
P            2.21384205602276       -0.65971274932914       -0.38523712783836
C            3.21483432766084       -0.84925080205909       -1.94416016954811
C            2.66957969328028        0.12144014903911       -2.99267985109938
C            3.15104542066256       -2.26927506896174       -2.50349368074091
C            3.07704188271198        0.62632294264615        0.64375888320801
C            2.18102934299624        0.89592603318729        1.85637787592202
C            3.34740448717689        1.92348913741426       -0.11189217851015
C           -0.46081923327600       -2.26676824924312        1.79771376041660
C           -1.94254572422337       -1.90430427184291        1.69526096916075
P           -2.08764594268064       -0.65601502490658        0.32344167085606
C           -3.27049179306506       -1.49366875926784       -0.84562868853144
C           -3.13814321522290       -0.88134241168543       -2.23855639542371
C           -4.71091175903341       -1.54104278529328       -0.34598642421962
C           -2.95667628532507        0.76938054197500        1.13710993181046
C           -1.97595076243102        1.40580102550918        2.12239075034016
C           -3.42804046355726        1.81438943995726        0.12933014355137
H           -0.58773307901166       -2.94194903506758       -0.09403657621406
H            1.45791518314161       -3.54284278324607       -0.63788486511411
H            1.36720288036763       -3.94981409763805        1.08379179422452
H            3.49131692775854       -2.64178320136507        0.37462329087832
H            2.56537900012729       -1.89250962610653        1.67745930834918
H            4.25438635089660       -0.59812096624440       -1.69591578408196
H            3.27718915672769        0.07896402462799       -3.89486017178642
H            2.66028215827790        1.14868951503178       -2.63915686323197
H            1.64829002839911       -0.15583498928259       -3.25497143681901
H            3.69895742351906       -2.30892637023670       -3.44368461213014
H            3.59694520904839       -3.00109061985789       -1.83424609772462
H            2.11878978166938       -2.54828655379306       -2.71208926505529
H            4.03396975633355        0.19546069826703        0.96845248955039
H            1.14895190115522        1.04942017462908        1.52369107750143
H            2.50883345022332        1.79232237579345        2.37867422975070
H            2.20335600045522        0.07558542926375        2.57022932605566
H            3.79623603930023        2.65118758385984        0.56275040816608
H            4.03915108788660        1.77051434385577       -0.93684614813522
H            2.42136479161840        2.34871798013890       -0.49487443316388
H           -0.33563121165537       -3.20830281108280        2.34818350635976
H            0.08472711329823       -1.48171707077620        2.32887418351280
H           -2.53082361474331       -2.79015297296271        1.43818167376290
H           -2.31812821231431       -1.51086836164170        2.64049375363483
H           -2.89722161448215       -2.52791302204896       -0.90579421761554
H           -2.08709596461479       -0.85353025160384       -2.53589512839105
H           -3.52570762763600        0.13344982739870       -2.26785353886139
H           -3.68875908420478       -1.47473647868616       -2.96634199511531
H           -5.29957635548594       -2.18945158524498       -0.99322694752758
H           -5.17069147139003       -0.55673722152382       -0.35757580910554
H           -4.76570196072242       -1.93621208885838        0.66762874883217
H           -3.81833976474533        0.36045036047192        1.68112936548341
H           -1.13905276069649        1.84310724728048        1.57813878870049
H           -1.58861103207663        0.68406918182870        2.83922797317711
H           -2.46870766991530        2.20036147048139        2.67939353950457
H           -3.81451263711677        2.68373070003760        0.65922071402595
H           -4.22217280903397        1.43805799783508       -0.50986384670243
H           -2.60266776536703        2.14369052825436       -0.49895021076457
C           -0.08835120974937        0.96816416110460       -1.13535152678855
O           -0.16416206204818        1.94975211708080       -1.72189811741843
