55
 energy: -75.372855876199 gnorm: 0.000172538385 xtb: 6.7.1 (edcfbbe)
Mn           0.07453390193558       -0.06209317193991       -0.31248632559000
C            2.12366529145367       -2.33503436101627       -0.70989673139273
P            2.27661207657571       -0.58475076675713       -0.52228920147848
C            3.41830760424760       -0.33575801580130        0.95693972913577
C            3.66943684689251        1.14306467802426        1.23390845286781
C            4.71906091703787       -1.12805291354739        0.87038099221467
C            3.36418241585694        0.10228833329831       -1.89701032146621
C            2.84515920201169        1.48178530808785       -2.30616767653170
C            3.47615925931347       -0.83484619947840       -3.09361466003264
C            0.88678239085198       -2.88156599371308       -0.40793609435265
C            0.60284328950237       -4.28233248147882       -0.38821321051383
C           -0.63943599270454       -4.72972963288854       -0.05299887671740
C           -1.65407718596335       -3.81547946654233        0.28547716895449
C           -1.34841034144251       -2.47248236089627        0.24685631822991
C           -2.32821755284441       -1.38167738039448        0.63659280149544
N           -2.10819739427604       -0.20281357708657       -0.22353846394827
C           -2.42484063527712        1.09553382505480        0.38825140149200
C           -1.56720383848099        2.18968457796806       -0.26390216415253
C           -2.81266109747304       -0.39510278661794       -1.50721921878701
C           -4.34291342669527       -0.31550430247293       -1.47678501569975
N           -0.14127242439898       -2.02426563398243       -0.10550631435853
H            2.96879017997800       -2.96634709419557       -0.93869284973166
H            2.83146642228651       -0.75757450969558        1.78435705930895
H            4.31522541947308        1.57966203018036        0.47438285576082
H            2.72460676846944        1.68856453037842        1.24202662696483
H            4.14932877307099        1.27226356248518        2.20357748369396
H            5.25042530570165       -1.06359422975345        1.81955435706262
H            5.37770796898449       -0.74669763872672        0.09302061316101
H            4.51100444716500       -2.17591498441162        0.66708254342516
H            4.36454916793850        0.23143286732466       -1.46904744834609
H            2.60067186119354        2.07365953536160       -1.42196049656318
H            1.94748436064955        1.38839139829491       -2.91446000666165
H            3.59310028447283        2.01869067810554       -2.88932008691155
H            3.96304370283015       -1.76453551573752       -2.80945186215759
H            4.06557802392222       -0.36378911093553       -3.88047785048721
H            2.49548776829473       -1.07514685537740       -3.49556057300783
H            1.39725962945387       -4.96872920465479       -0.63972856265024
H           -0.85528443420255       -5.78899932825664       -0.03884476570023
H           -2.63735377349373       -4.15441765308072        0.56918188655239
H           -2.12368416711140       -1.10753656841845        1.67849548468840
H           -3.35802063056580       -1.75272383318448        0.58476343625969
H           -3.48776576200321        1.35146991541699        0.29977702721810
H           -2.18518084317006        1.04685542318084        1.45555711685877
H           -1.62196876831426        3.10553133581769        0.32275844588066
H           -1.91192347402025        2.41219764724152       -1.27380664532198
H           -0.47765713176895        1.89537388791163       -0.31147555331860
H           -2.51910389208426       -1.37977560623231       -1.88282637751116
H           -2.45152504591946        0.35146759913414       -2.21991884637959
H           -4.77368226149335       -0.95255635359556       -0.70844149518198
H           -4.71900749801647       -0.65392141098271       -2.43936486491882
H           -4.69614551803967        0.70181519420350       -1.32450991039871
C            0.09257341957327       -0.28518433736345       -2.07304397073981
O            0.13017687626882       -0.52491003536498       -3.20252000640344
C            0.31218323088177        0.09229407487567        1.44118080989193
O            0.52401730688400        0.14701349210339        2.57810215118505
