58
 energy: -70.509292663590 gnorm: 0.000250751823 xtb: 6.7.1 (edcfbbe)
Co           0.11696185745698       -0.36469603285200        0.45515909658352
N            0.16912262527138       -2.16962085815053        0.77936806040269
C            1.29776066046055       -3.03993778714233        0.50474275063702
C            2.61290846915694       -2.26818310684855        0.45777356179125
P            2.20881118159886       -0.56609634617042       -0.11262115777930
C            2.65241138235333       -0.57232390908199       -1.93080497143822
C            2.10008636336879        0.68716315202130       -2.59591185227622
C            2.03307390167391       -1.79703476838241       -2.60142393343913
C            3.61889136196548        0.35671844962400        0.70393554782337
C            3.23354739300884        0.58100908648433        2.16563331826667
C            3.97554618736704        1.69204599704225        0.06052577224812
C           -0.99208202712568       -3.00777824441858        1.00694589733734
C           -2.21080898125509       -2.17509832019248        1.38926578537078
P           -2.04111753377650       -0.64378222171945        0.39287441941944
C           -2.73057422169521       -1.20944455546475       -1.25294927534103
C           -2.20370205214773       -0.32049730183996       -2.37684921537593
C           -4.24512821063355       -1.37811669311136       -1.31208465015442
C           -3.32414033365738        0.48947369967883        1.13769200745359
C           -2.90008242442876        0.83272388690568        2.56487650343063
C           -3.45651246804054        1.76984993951153        0.31689887934491
H            1.14409831877715       -3.58785388538312       -0.44532054681731
H            1.36138413055169       -3.81572426912455        1.29149435759586
H            3.36273168902024       -2.75544908336303       -0.16940443495158
H            3.01543628585023       -2.17899095217823        1.46912568641836
H            3.74575185712480       -0.60567119389369       -2.02299001608811
H            2.30992755834258        0.67483860899203       -3.66501638904291
H            2.52221566693528        1.59435268119463       -2.17510045169054
H            1.02006476835974        0.72731743074132       -2.45352377703171
H            2.11598587160845       -1.71493862553799       -3.68468929678401
H            2.52153072605394       -2.71925924399169       -2.29641429225284
H            0.97520279658306       -1.85807867900257       -2.34235505871283
H            4.49182464076233       -0.31013287869118        0.65176008919256
H            2.41866580956953        1.30169491560149        2.22282759844474
H            4.07911420842056        0.96958913482250        2.73205989504497
H            2.89511085806240       -0.33944890937447        2.63904459004138
H            4.72495592087724        2.20034705184811        0.66732655256670
H            4.38751633235820        1.56006781696514       -0.93700730585633
H            3.09776509402817        2.33359691729276        0.00549858535813
H           -1.22202495731104       -3.61469688622571        0.10681329900577
H           -0.77331621680053       -3.73664066539457        1.81068704217229
H           -3.14812106104475       -2.70972892496212        1.21788048517356
H           -2.14113469353016       -1.89805576182870        2.44249235285465
H           -2.26790774624753       -2.19891818516576       -1.37411968895426
H           -1.13144331730690       -0.16746163574003       -2.23912143852677
H           -2.68633740195925        0.65378989209144       -2.37585508280126
H           -2.37212550553578       -0.78522883537778       -3.34757355293742
H           -4.51939107461176       -1.87388358009992       -2.24302620826562
H           -4.75354378691255       -0.41758884884318       -1.28296242411009
H           -4.60907538636104       -1.98780801307165       -0.48691613217672
H           -4.28497143506460       -0.03934500635835        1.15937936011845
H           -1.86036403326360        1.16458155225115        2.57344640470681
H           -2.99394058897775       -0.02284142109062        3.22978056332057
H           -3.52005198078338        1.63576927856818        2.96132221963473
H           -4.14342404222774        2.46069334404008        0.80518027124656
H           -3.83439361267223        1.57114776659834       -0.68241951584993
H           -2.48842221228026        2.25858072195437        0.22683355168385
C            0.14958257638270        1.35418271792683        0.47143568055870
O            0.22088976325369        2.51816961468402        0.51438650963890
