63
 energy: -92.165752776495 gnorm: 0.000109153440 xtb: 6.7.1 (edcfbbe)
Ru           0.21718278965157       -0.11730774201056       -0.28865925528398
N           -0.15984025315654       -2.06017364796141        0.57411282007147
C            0.96862740375692       -2.94999614787464        0.39796630246742
C            2.36034420166248       -2.27220493705287        0.47349423099104
P            2.31085924097378       -0.84935603432952       -0.70809368228766
C            2.93440452558955       -1.62848236170212       -2.24378628690382
C            4.24365342141376       -1.49292058228132       -2.69345170031803
C            4.64655428385922       -2.12529029230324       -3.85725681840642
C            3.75155009032795       -2.89568124808248       -4.58087428772018
C            2.44321937863979       -3.02746966637058       -4.14253277786846
C            2.03584243064880       -2.39156254008596       -2.98462659885161
C            3.69382194208467        0.22857423949390       -0.22964552835424
C            4.87034450933872       -0.18923324346949        0.38086076428324
C            5.84041652710857        0.74308008564046        0.70890078402295
C            5.64387129450653        2.08579553378913        0.42747441476515
C            4.46971273872757        2.50773707417544       -0.17853404885840
C            3.49855975165012        1.57947277349382       -0.50100203347939
C           -0.45916679038270       -1.81251710859735        1.96888169335785
C           -1.76661876356095       -1.01313447441206        2.09292834680434
P           -1.69816755203347        0.31402865742298        0.80926769165144
C           -1.66258323579138        1.97167113235045        1.56384553048978
C           -0.90768285649002        2.88368006501601        0.83003352370964
C           -0.82966310820765        4.20511014570378        1.22230491122145
C           -1.50841448727424        4.61866355073849        2.35989709514508
C           -2.26327387182645        3.71576315943428        3.09118115067714
C           -2.35279894529553        2.39257824820806        2.69126287402969
C           -3.41556030971845        0.41682438394535        0.18714267703504
C           -3.59403474430197        0.90668978504307       -1.10206342282350
C           -4.86510181264032        1.07799871210716       -1.61889583775391
C           -5.97111589541318        0.76768119145696       -0.84409298325901
C           -5.80079435347462        0.29515458239387        0.44733131508024
C           -4.52959065202543        0.12378641433003        0.96621122198705
H            0.87257954881389       -3.41932748429168       -0.58976010263449
H            0.92733842826900       -3.75150710424457        1.14981117903526
H            3.14814287334635       -2.98932855857076        0.22494862261288
H            2.53453731752836       -1.85718439712068        1.47132507295455
H            4.95004918603349       -0.88913567458791       -2.14126736799595
H            5.66509282444520       -2.01316201017631       -4.20140350270198
H            4.07063357729060       -3.38635966722817       -5.48908047561314
H            1.73836230436227       -3.61961075239663       -4.70880108552099
H            1.00960774733785       -2.47062742469926       -2.64932605686580
H            5.02518017617591       -1.23730269063037        0.59852041533053
H            6.75452718747375        0.42147213432697        1.18781529587207
H            6.40499582098487        2.80743768045569        0.68728639458555
H            4.31561268710020        3.55658945749037       -0.38966055748566
H            2.55287517051448        1.88338013927103       -0.95598982291769
H            0.35453176013111       -1.26550470514853        2.48355028293249
H           -0.58393882287435       -2.77812865958070        2.48307934393123
H           -2.60435166345544       -1.67041348753364        1.83999768938075
H           -1.89329260182208       -0.61384903049786        3.10293648652241
H           -0.36227629209933        2.51614578131518       -0.05430868197188
H           -0.24267225935791        4.91323763960501        0.65424681507133
H           -1.44575987828255        5.64966752102468        2.67701161041175
H           -2.78809592352214        4.04670864144730        3.97610819794397
H           -2.95198447112826        1.69160168672890        3.25588948682567
H           -2.72162490782980        1.14560420392305       -1.70002495665228
H           -4.99480516039990        1.45132124033484       -2.62490293019519
H           -6.96579295281294        0.89662566108945       -1.24579381154485
H           -6.66442415467932        0.06069476860945        1.05353190170150
H           -4.40870254747335       -0.23929421178115        1.97693415570044
C           -0.51543421650610       -0.49447525018446       -1.93215629860517
O           -0.93289979432536       -0.52286775693147       -3.01310807421577
H            0.89901865895425        0.47883260195449        1.01042270334487
