61
 energy: -71.685728306265 gnorm: 0.000136429376 xtb: 6.7.1 (edcfbbe)
Ru          -0.03215202235309        0.03746822065320       -0.09699600467528
N            0.12327978141548       -2.17995230753738        0.16975894206732
C            0.82997003735503       -2.47210911571389        1.42272546794725
C            2.20142790030089       -1.78605046206952        1.45128786405724
P            2.16304818425437       -0.17751724228205        0.47840620269884
C            3.51457749627761       -0.52776302583525       -0.78463180998380
C            3.75778560509001        0.74863650777465       -1.58477378371082
C            3.13015133708696       -1.66469962523839       -1.72861028635155
C            3.07087451838486        1.02136159192855        1.59798245384304
C            2.20830712272827        1.36356203922556        2.80981240963479
C            4.47256003329443        0.59349109601934        2.03572777768621
C           -1.14330883823596       -2.91148660832506        0.01168382580522
C           -2.32715746577488       -2.13018939840043        0.57923521631063
P           -2.27409194664001       -0.35561568411176       -0.01769339724483
C           -3.48858330457309        0.37580261027503        1.21836119037216
C           -3.88656178275536        1.79466715377586        0.81534204452040
C           -2.92120646630536        0.41658875803125        2.63363085731124
C           -3.39756253724094       -0.38590998315967       -1.53108103386652
C           -3.19178896400412       -1.60344689152643       -2.42811969447795
C           -3.14165065376398        0.87824970488427       -2.35437379132423
H            0.74571680047141       -2.48617178507718       -0.58108618410040
H            0.95769592336170       -3.56092059291655        1.54422366934471
H            0.21542984805684       -2.10312138660699        2.24865737705993
H            2.47091629241872       -1.56854077907014        2.48666351380877
H            2.97081875971906       -2.44289514212538        1.03536934689135
H            4.42544478272696       -0.82197398469430       -0.25078966774634
H            2.80286965452173        1.14519485704908       -1.93713869499495
H            4.38848318453559        0.54844798876733       -2.45051796993351
H            4.24202101594131        1.51384988823740       -0.98225716930704
H            3.92075951487027       -1.81804641245194       -2.46324448224171
H            2.21977049169850       -1.41781086032520       -2.27270898066414
H            2.98860600675967       -2.60770986324888       -1.19979153231642
H            3.14362817145251        1.93181408112467        0.98661940092058
H            2.09829252372183        0.50747536538222        3.47382146451016
H            2.66093651669957        2.17742217764844        3.37474322294959
H            1.22015084640851        1.67599510358654        2.47765329657217
H            4.46520136006116       -0.39344217338532        2.49444387553717
H            5.17458308517092        0.58774184997595        1.20574818849518
H            4.84518819893720        1.30197461438005        2.77492374046900
H           -1.07671370389389       -3.89643793168156        0.50022992808269
H           -1.30283074876037       -3.07808367011477       -1.05776370224502
H           -2.24830194973111       -2.09727090585571        1.66835628483061
H           -3.27220271360818       -2.61430593679185        0.32044812816125
H           -4.37401749947692       -0.27759501583878        1.20313932563137
H           -4.50399080666811        1.80692229848318       -0.07931946274504
H           -4.45335154926250        2.26545937812437        1.61824178794599
H           -2.98698343059504        2.38580310587787        0.63918400698470
H           -2.66219316020575       -0.57103660317251        3.00849401967886
H           -3.65663146026044        0.84740382576050        3.31243130643359
H           -2.02747594485588        1.03685026624738        2.64926166139353
H           -4.43347059671237       -0.38727675645420       -1.16696791035047
H           -3.48829048717423       -2.53169328931356       -1.94386349337879
H           -2.14780498222950       -1.67320556944616       -2.73438340183749
H           -3.79229928669852       -1.49255597754925       -3.33108816883462
H           -2.23150582306058        0.76144859139820       -2.93835847050125
H           -3.96566740798617        1.06360650382822       -3.04298790547028
H           -3.00357346503913        1.75247200980272       -1.72229427526211
C            0.13309366123702        0.00066122167289       -1.92151241680087
O            0.22408690732631       -0.01937991053749       -3.08520675736163
H           -0.20183652960309        0.14600498979240        1.45355862715349
H           -0.09285369261257        1.60746188779767       -0.14345631837098
