63
 energy: -92.270087697667 gnorm: 0.000126349349 xtb: 6.7.1 (edcfbbe)
Co           0.38165733098106        0.04714592747031       -0.08260526657173
N            0.01359828411310       -1.71344120405013        0.75746049911787
C            1.06208051652136       -2.75160139856600        0.68898429846446
C            2.44132611722310       -2.12807369612075        0.87699350004995
P            2.43812561765296       -0.68335067298440       -0.27073502057059
C            2.52521661690835       -1.47238569462469       -1.90297399930110
C            3.68082530956824       -2.06809775117463       -2.39647432765509
C            3.65589883445593       -2.67495411015870       -3.63968925732771
C            2.48780093151178       -2.68955562998072       -4.38749575513339
C            1.33507444147187       -2.09312706038601       -3.89892530943619
C            1.35616579421758       -1.48301712922559       -2.65879249424612
C            4.04276096197623        0.13826642093893       -0.11042743499650
C            4.95763916260544       -0.14304908944854        0.89852600363251
C            6.16156499094880        0.54003018849617        0.94198724717762
C            6.45317370748710        1.50479678230674       -0.00813282973345
C            5.53799394012508        1.79421866145477       -1.00993119275458
C            4.33471951066484        1.11791112143336       -1.05946869813041
C           -0.39399680803347       -1.38191239538966        2.13731072525774
C           -1.72664130470566       -0.63394001793850        2.09213474475037
P           -1.62254675011847        0.54912497118439        0.65654988174958
C           -1.93833754265671        2.17451870769722        1.39587707325294
C           -2.94454102453197        3.02908200577741        0.96043413159674
C           -3.08772634879430        4.27403684642820        1.54964996784171
C           -2.22678993950837        4.67407987657128        2.55832047952765
C           -1.20536367787341        3.83337913163406        2.97587077258750
C           -1.05555270524409        2.59101301491387        2.39167499192164
C           -3.09636412981065        0.17034292390849       -0.32889481528230
C           -2.93754612196966       -0.06589738765557       -1.69025226315088
C           -4.03765528523328       -0.37344770507399       -2.47162270032689
C           -5.29481239432238       -0.44595715036499       -1.89317435958822
C           -5.45577431245243       -0.20933777661882       -0.53522526074531
C           -4.36097693523793        0.09792219068459        0.25125306132414
H           -0.81483089365741       -2.10975133070223        0.30347224634115
H            1.01866733396506       -3.21413323713232       -0.30199384816965
H            0.87932208233746       -3.53025847341526        1.43925767233504
H            3.23858093326470       -2.83542253594488        0.63550621241569
H            2.57316986220963       -1.77108506449776        1.90161222192557
H            4.59169543563732       -2.04805321836702       -1.81386190057798
H            4.55060300414360       -3.13721135638162       -4.02970909584764
H            2.47797329636374       -3.16376805781688       -5.35753330358582
H            0.43000281788596       -2.10217323917693       -4.48800605180678
H            0.46654636739476       -0.99010511862087       -2.25552277283342
H            4.74346084251353       -0.89218117402784        1.64625582635433
H            6.87507280472899        0.31766331551393        1.72183035012428
H            7.39364125415866        2.03382463281857        0.03199341498764
H            5.76474151780274        2.54831805217977       -1.74885357499737
H            3.61227394901232        1.33682702100280       -1.83567771611768
H            0.37846294239489       -0.74961944681002        2.58642618512754
H           -0.49151298652282       -2.29273940140137        2.74209273514022
H           -2.55096952455256       -1.33087242684414        1.91205224481237
H           -1.91605117420137       -0.10228972927221        3.02653415426431
H           -3.61291177632009        2.72707604368943        0.16653279985676
H           -3.87326073848447        4.93593288904794        1.21602067558153
H           -2.34447783603286        5.64631460471630        3.01313924116744
H           -0.52492570945137        4.15285789451223        3.75125900376337
H           -0.24613770080559        1.93851099517558        2.69591782719063
H           -1.94685161729203        0.00249642850942       -2.12574379444029
H           -3.91753803977707       -0.55568617336690       -3.52916633961216
H           -6.15462745054707       -0.68532752136437       -2.50098353657343
H           -6.43866958727508       -0.26347477747502       -0.09085737838308
H           -4.48251618780676        0.29104942356298        1.30878105213859
C            0.68156072488005        1.61529685023975       -0.75546719634066
O            0.86714818417850        2.66425082081769       -1.17015160664030
