48
 energy: -75.422569164660 gnorm: 0.000559024014 xtb: 6.7.1 (edcfbbe)
Mn          -0.00359512745599       -0.24261794541568       -0.23174664567272
C            2.35553506113486       -2.31324439440783        0.09878357258327
P            2.20837889154153       -0.52030419381508       -0.42823338126091
C            3.10898016116902       -0.59404662092100       -2.05853513503604
C            2.39900646311918       -1.56591640239008       -2.99854291119831
C            3.18875222071652        0.79914995852551       -2.67542132766997
C            3.37919891770460        0.30265717073962        0.76936644867055
C            4.85481869046095       -0.04291444215481        0.60122706094027
C            3.12650663375993        1.80997452032821        0.76148773321979
C            1.06065474661324       -3.02224112487940       -0.19031730370166
C            0.97296874811173       -4.40090267882963       -0.29960815500341
C           -0.27299831433221       -4.99973892444511       -0.45755523557730
C           -1.40393293166501       -4.20485152306612       -0.46140847470353
C           -1.26317870060496       -2.82502343565391       -0.35978399330898
C           -2.33841407008870       -1.83785700363633       -0.29812504411491
C           -3.72780306710304       -1.94346546785568       -0.32460911306887
C           -4.46020625322232       -0.76108738235215       -0.22204083052282
C           -3.86221612562984        0.48366866629893       -0.10789406215293
C           -2.45269292057015        0.53576524213883       -0.09503599985346
O           -1.62737812164588        1.51694678303440       -0.03514190126017
N           -1.79656846382195       -0.63004402471655       -0.17500003369295
N           -0.02988049966328       -2.24276196636278       -0.27138437927376
H            2.49194133019046       -2.30058411265030        1.18819969834400
H            3.21188564881217       -2.82026263099252       -0.35217503181759
H            4.11857109430855       -0.97191204705798       -1.85382897699158
H            2.89590156285182       -1.57298899450590       -3.96731974682747
H            2.40115423064481       -2.58128030824955       -2.60818004202968
H            1.36451740939276       -1.26256779605687       -3.15122459190719
H            3.85430537908546        1.44515626964519       -2.10868715290695
H            3.56003833291228        0.74191227258648       -3.69751709600636
H            2.20021718653067        1.25849539607250       -2.69270270800272
H            3.02909181549524       -0.08536286169645        1.73896435948047
H            5.00595824205879       -1.12007790980600        0.57370979773702
H            5.41606740770105        0.35792948168345        1.44379491888534
H            5.25976042777255        0.39529312220105       -0.30753574480036
H            2.04963468754606        2.00223406304960        0.69349503628221
H            3.61143127510697        2.29124983134356       -0.08393014168457
H            3.50404486345490        2.26661043194918        1.67452369066873
H            1.86732719580960       -5.00233826380440       -0.24868457472428
H           -0.35471343740014       -6.07136939322450       -0.55192552749010
H           -2.39036817663956       -4.63320064403087       -0.54168754219275
H           -4.22325663293202       -2.89579600136217       -0.42020445685307
H           -5.54006449626463       -0.81709473914934       -0.23755798796129
H           -4.44757800866903        1.38717222379565       -0.04098369277315
C           -0.27399102235754        0.19787536411623       -1.94553937755922
O           -0.63292185748274        0.61630798752682       -2.95589391270456
C            0.15912427394532       -0.03119946413840        1.53164181950822
O            0.19154329033815        0.24487950077774        2.65045089047829
