56
 energy: -80.738713022928 gnorm: 0.000156968415 xtb: 6.7.1 (edcfbbe)
Fe           0.16482743233131       -0.44435512867159       -0.51041051421091
C            2.03948008284606       -2.84884727702807       -0.50254723020059
P            2.17037619548641       -1.13606681056318       -0.85924081375636
C            3.06675452802324       -1.02256654077199       -2.45883645758121
C            2.63540566184329       -1.87344593762081       -3.47312679848343
C            3.22811612497397       -1.83887692677806       -4.72016991390478
C            4.26270330860984       -0.94916598001369       -4.96870047400210
C            4.69288551547627       -0.09409470655130       -3.96753133986599
C            4.09600143645814       -0.12412103903400       -2.71870610034297
C            3.35568270758839       -0.26692541025046        0.22685733786784
C            3.00104936062510        1.03631593870997        0.56289558926543
C            3.80507717978071        1.78920716135409        1.39603234830178
C            4.97185069699788        1.23409458322647        1.90282879715396
C            5.32576517274997       -0.06579474554598        1.57824700580517
C            4.52085823504164       -0.81867210728699        0.73904506002763
C            0.73720439351661       -3.27490932213874       -0.29989609846285
C            0.37149041327411       -4.62355901659698       -0.01377855663996
C           -0.93222506545506       -4.95539886071478        0.20034673786571
C           -1.92632155614043       -3.96411261352013        0.13290743433271
C           -1.53715532262962       -2.67555160393121       -0.16139066008788
C           -2.52025953656685       -1.54364434470155       -0.33048715188620
N           -1.92319664840109       -0.26325024153254        0.09961338814203
C           -2.03205528949371       -0.14201824274371        1.56495241831705
C           -1.36775953296514        1.12302611961386        2.09222643728891
C           -2.53788781363841        0.87784760830446       -0.60258683482082
C           -4.00434918714251        1.16311316361132       -0.27128570359709
N           -0.26424167837646       -2.33819905180749       -0.38146735634132
H            2.87755890835084       -3.52995838323241       -0.53282868570506
H            1.82725932151082       -2.56343052249763       -3.26127442127427
H            2.88759683114904       -2.50374517329674       -5.50211825150873
H            4.73158848228348       -0.92164055800188       -5.94241084605990
H            5.49774872290046        0.60199092950344       -4.16171398041153
H            4.43555215028667        0.55033252045378       -1.94350188419101
H            2.06486469542218        1.43369807582518        0.15517139469615
H            3.53145030261096        2.80226866749195        1.65776530955162
H            5.60352403600252        1.81676815148403        2.55869860371094
H            6.23309972168485       -0.49284623811153        1.98292388521065
H            4.78820313776396       -1.83434896615553        0.48158751961182
H            1.15572398748836       -5.36426753673610        0.03422758216569
H           -1.21069187864145       -5.97556157300330        0.42535233605536
H           -2.96377744834653       -4.20389814175803        0.30094129562970
H           -3.44889529637732       -1.75583691081570        0.21397151610216
H           -2.75113131599700       -1.46729208800089       -1.39875452624859
H           -3.08451142037143       -0.17903977331335        1.87570523843530
H           -1.52021771401531       -1.01073651945064        1.98199299833722
H           -0.39106236333117        1.23991887290426        1.61383701967464
H           -1.20880180852446        1.02975242832743        3.16344434812692
H           -1.96843856562028        2.01160720780724        1.91121015265311
H           -1.93298938576923        1.76632023863675       -0.38998893550816
H           -2.45547306248819        0.67911487999484       -1.67385651082624
H           -4.62215791799585        0.28514293287181       -0.44320860618427
H           -4.36031483272521        1.95850812992674       -0.92230541388349
H           -4.13297271141145        1.48985204187528        0.75712663516938
C           -0.14007310156890       -0.30826985716749       -2.21912431067466
O           -0.24687157830474       -0.22606088106330       -3.36860230576957
H            0.61342185341988       -0.63215300394564        0.87761896670606
