59
 energy: -70.715738132765 gnorm: 0.000304233535 xtb: 6.7.1 (edcfbbe)
Co          -0.15411603408796       -0.31852623603084        0.01989995199683
N            0.14772561520108       -2.21092363020157       -0.45013753764385
C            1.54869833390192       -2.62729627673627       -0.62732042382734
C            2.37137132594812       -2.12369468419555        0.55029850405729
P            1.94462962945927       -0.33152058687215        0.72537362325360
C            2.24867838432105        0.01615373483735        2.53319903737930
C            2.14150664307589        1.50872527454265        2.83744216191979
C            3.52131350682271       -0.57504294343768        3.13774896245954
C            3.19181544733088        0.48447752243811       -0.39410302499411
C            4.61258140044818        0.56735309160155        0.15390303904514
C            2.67418556327758        1.85318316837909       -0.83180809944877
C           -0.70168890601159       -2.72434617705428       -1.53859264001479
C           -2.16587331036868       -2.44239291017806       -1.22093324972188
P           -2.25124401917448       -0.72208854565203       -0.52905835478469
C           -3.48499739048613       -0.91916202504678        0.84982292163589
C           -4.91192391399828       -1.13775592806136        0.35647715945588
C           -3.37109918371687        0.23459975295631        1.84383997879419
C           -3.01140669492571        0.23658930072383       -1.92419495877982
C           -1.96030726076677        0.27570997075861       -3.03635838215926
C           -3.41047382027095        1.65281779229420       -1.52095935182824
H           -0.18233202529646       -2.65082073305342        0.41772087814360
H            1.61962087513041       -3.71990896333997       -0.71075735259598
H            1.91597134864482       -2.19279004439164       -1.56196883631488
H            2.07413331269069       -2.64476710581665        1.46522321299931
H            3.43847180587566       -2.28092480274325        0.38428060925365
H            1.38597647472177       -0.48590986452072        3.00045885660947
H            2.99202175420500        2.05354924245039        2.43448707519208
H            2.12668151449356        1.66471912330840        3.91483577019076
H            1.22895267227237        1.93133872099163        2.42335317383598
H            3.66402678530774       -1.61779860521919        2.86576218082361
H            3.44706876964655       -0.52307857998206        4.22328118093941
H            4.40255687408473       -0.01405404759379        2.84383671276451
H            3.20185521226074       -0.16942993211677       -1.27872897150037
H            5.28675214755401        0.87987702466688       -0.64253444394006
H            4.95918227855076       -0.39458013799382        0.52572955519034
H            4.68300041004975        1.30313412818575        0.95079267744671
H            2.60050867178811        2.53605598496642        0.01161694561530
H            1.68655158201838        1.75657276064900       -1.28561706101330
H            3.34820194250757        2.29157396506008       -1.56563195581710
H           -0.54181115210160       -3.80258068876056       -1.67310296919502
H           -0.40293930386916       -2.22085522512202       -2.46151585644249
H           -2.52385870273252       -3.13851539102224       -0.45648767116718
H           -2.79094856918433       -2.55612903820560       -2.10802712715591
H           -3.15316226650983       -1.83101678567931        1.36903775645807
H           -5.31710557483678       -0.23765283519211       -0.09845253024036
H           -5.55129398089959       -1.40248012430118        1.19714871982956
H           -4.95816685668995       -1.94721218642925       -0.37055027243053
H           -3.67295020125377        1.17979474848056        1.40043692655384
H           -2.34080149594199        0.33165972137856        2.18955164312754
H           -4.00750152259933        0.04767133419563        2.70696804524017
H           -3.90071335956027       -0.30853702784007       -2.26559961252345
H           -1.85033672665920       -0.69315949804732       -3.51851897649282
H           -0.99317051055265        0.58101061311997       -2.62205054030262
H           -2.24490036718544        0.99616004163358       -3.80063632258639
H           -2.54837943084930        2.21278504023079       -1.16696745093943
H           -4.17062985089346        1.65440583076192       -0.74399527446510
H           -3.81937634584387        2.17564528507665       -2.38447520634810
C           -0.43606080953935        1.34486795692328        0.39462870226266
O           -0.62858008184884        2.45333479847955        0.61227322466952
