57
 energy: -80.964575403444 gnorm: 0.000121340592 xtb: 6.7.1 (edcfbbe)
Fe           0.12787145519906       -0.39808528029616       -0.50268758391117
C            2.16086443157922       -2.60928224684894       -0.07152385426879
P            2.15858918743213       -0.92727981176778       -0.84465790587297
C            2.97750886111448       -1.22938772569854       -2.44052185834254
C            2.48481367092009       -2.26409831518608       -3.23380841884650
C            3.03133880650449       -2.49771619809199       -4.48103803611441
C            4.06242293736911       -1.69476328524334       -4.94639380271829
C            4.54068415319313       -0.65383138653637       -4.16697088284863
C            3.99572353245082       -0.41182264265416       -2.91786094835473
C            3.32184548589515        0.06518270792429        0.11787355613687
C            2.85328568168039        1.31776042051117        0.50388629357383
C            3.64962542780694        2.14807164795167        1.26927694985750
C            4.91547806342412        1.72358686264299        1.64687758975959
C            5.38514582030626        0.47784491775132        1.25878887621422
C            4.59246103167202       -0.35757616905864        0.49072976882417
C            0.77339670089405       -3.15108600409235       -0.18011370740000
C            0.46988545585026       -4.49466791070345       -0.04098092591185
C           -0.85460637908591       -4.90119812598467       -0.04270257272124
C           -1.85265213519193       -3.94269699246183       -0.14637533595332
C           -1.49397542382941       -2.61926336572679       -0.30344707021789
C           -2.45742346216578       -1.47979997373678       -0.42060344725876
N           -1.81239310063425       -0.26708857639981        0.12763061605331
C           -1.90583205782330       -0.30073399174995        1.60885819051444
C           -1.23727606810693        0.89160586165495        2.27054335061423
C           -2.38335499059412        0.97040409115975       -0.44302681443194
C           -3.81870788037634        1.28437901279807       -0.03414290193917
N           -0.20207382968053       -2.24063416962445       -0.36799141437002
H            2.91162346324969       -3.28909777266295       -0.48584757733834
H            2.37394671344634       -2.43511664232806        0.99184163517897
H            1.67125751872560       -2.87908920348307       -2.86826185801619
H            2.65425187486536       -3.30214885701319       -5.09552675652495
H            4.48939018571067       -1.87805843561115       -5.92157432291032
H            5.33867606565992       -0.02575816466943       -4.53570187872000
H            4.36323660256143        0.40477482228434       -2.31171758751503
H            1.84765596775055        1.61382098288477        0.19474669542442
H            3.29237212248800        3.12008124123723        1.57594982794723
H            5.53966736665849        2.36812572355083        2.24841375534091
H            6.37242647565392        0.15776614098742        1.55859070399936
H            4.95294368943848       -1.32831436663233        0.17947260574148
H            1.26820174234029       -5.20981158890293        0.08274370462415
H           -1.10647999225848       -5.94479037088043        0.06243321295424
H           -2.89475945506591       -4.21750895084261       -0.10668659094785
H           -3.39506777008312       -1.70533061794503        0.09749592755141
H           -2.67405367372402       -1.30752394799307       -1.48033987361533
H           -2.95681474337140       -0.36210955789560        1.90760070607598
H           -1.40086971785267       -1.21324593182117        1.92740216847479
H           -0.23890180643608        1.03767555182782        1.86036038861660
H           -1.13338631276417        0.68847997604264        3.33350581371872
H           -1.81276546790743        1.80666414268176        2.15782636591414
H           -1.71754261771095        1.79429789611447       -0.15677745626860
H           -2.34253331437961        0.87175588126993       -1.53088411794085
H           -4.48540897934135        0.46273135419379       -0.28312301665907
H           -4.15154077497115        2.16232836826881       -0.58332149236478
H           -3.90611604647416        1.50388922641146        1.02581011230863
C           -0.22879643839484       -0.36380153143984       -2.22175051103834
O           -0.30465576036443       -0.44970755757389       -3.36137466343340
H            0.64046840217738       -0.52938484449372        0.80640847708412
