50
 energy: -86.201237567917 gnorm: 0.000188175334 xtb: 6.7.1 (edcfbbe)
Mn           0.04557218820267       -0.37337794525127        0.22887317692787
C            2.35305047343182       -2.51842356397959        0.30614444225030
P            2.18796854409336       -0.68863662032056        0.70213422676468
C            2.77610659482324       -0.65295892899590        2.42620820473449
C            2.28057427959857       -1.59336468309256        3.32722260858588
C            2.65987724697030       -1.54768034193263        4.65571052534008
C            3.52465073678457       -0.55767587277690        5.09680379069435
C            4.00275415857213        0.39193071932988        4.20850516213866
C            3.62717163521021        0.35091695136141        2.87709041114698
C            3.60677725240559        0.01976993722387       -0.18805088533088
C            4.87055021798250       -0.56533568702870       -0.17065403306776
C            5.91117313294341        0.03462738271431       -0.85577134735802
C            5.70079997867541        1.21781476830326       -1.54889523584378
C            4.44782150636682        1.80982676492211       -1.55494135479705
C            3.40155416034782        1.21213196329273       -0.87398449857114
C            1.00667189465491       -3.18087339145043        0.41128876334468
C            0.86329186239192       -4.55278022844904        0.55114043075242
C           -0.41003919312236       -5.11287134651635        0.55318771200823
C           -1.50801712528440       -4.28830854071733        0.38971509418454
C           -1.31366104096273       -2.91690195473360        0.26824270588766
C           -2.34262844365185       -1.89704650159876        0.07377699927121
C           -3.72967921031806       -1.95243840022221       -0.03972381497720
C           -4.40443515969927       -0.74412891743637       -0.21937906585765
C           -3.75374101396664        0.47733424199239       -0.27475837373486
C           -2.34802237266795        0.47812969788399       -0.14862146886468
O           -1.48246352633908        1.42485504715247       -0.13157025973123
N           -1.74696623085579       -0.71052413637334       -0.00150841235372
N           -0.06075413169752       -2.37282515116130        0.31262285322382
H            3.10302212549714       -3.01436186920823        0.92829552330848
H            2.67811479870448       -2.56125188109487       -0.74253957592536
H            1.58985514284631       -2.35369985269408        2.98212876590588
H            2.27697248320608       -2.28079261780330        5.35107042662937
H            3.81843422955814       -0.52195321235660        6.13563285207934
H            4.66660230061565        1.17081327570768        4.55481547471611
H            3.99038448710275        1.09677651590758        2.18305189501036
H            5.03548373006331       -1.47923621751966        0.38238212774592
H            6.89193024386721       -0.41847719888182       -0.84861526826473
H            6.51775097996134        1.68090869192339       -2.08278101483007
H            4.28685314094833        2.73502486194621       -2.08927465857600
H            2.41031742964926        1.65659118458420       -0.85920060455326
H            1.73826868407716       -5.17674275951836        0.64658813512395
H           -0.53586785270996       -6.17854426788703        0.66499236037025
H           -2.50940032679832       -4.68715493977490        0.35768216986288
H           -4.26697043951779       -2.88527303032647        0.00904679800316
H           -5.48147566867439       -0.76184299324526       -0.31252251850188
H           -4.29601379870247        1.40096400142822       -0.40180217817559
C            0.43350317995802       -0.24009133400488       -1.50817134107718
O            0.67905168302260       -0.04936679982987       -2.61817252741859
C           -0.20587808277821        0.05427567916661        1.95045406186248
O           -0.36018752362608        0.44143107638889        3.02229469185175
