49
 energy: -75.586206373837 gnorm: 0.000103514518 xtb: 6.7.1 (edcfbbe)
Mn           0.01504336254997       -0.14236434248618        0.09913215788291
C            2.36591015123577       -2.21201744876989       -0.17622928854589
P            2.27978701118207       -0.39107058105853        0.25252874175222
C            3.09972514536310       -0.38724283934438        1.92723821091236
C            2.55585693551512       -1.51723694717749        2.80257168343579
C            2.89227623236550        0.95599919753065        2.63014802828400
C            3.61622850378157        0.23764317444391       -0.88738099677002
C            3.07596368328675        0.33155687319766       -2.31156222709754
C            4.15650531005532        1.59922216981711       -0.45836216280094
C            1.09203751868332       -2.90645501568453        0.19769418360354
C            1.00432036286118       -4.27369548635224        0.41538951818703
C           -0.23669550335362       -4.85287596139335        0.64915242668381
C           -1.37073668860431       -4.05936947314741        0.62663174027032
C           -1.23112716595877       -2.69224470492328        0.41848755010511
C           -2.30726324975856       -1.71312366261202        0.33024805734926
C           -3.68749609480786       -1.88188229610057        0.40359530967352
C           -4.50115914879606       -0.76842517665053        0.26194851263665
C           -3.95544800579870        0.49919180192833        0.05782967806067
C           -2.57877550154138        0.58806429708979        0.00208321771894
O           -1.79076280595170        1.67979900828571       -0.16107525639232
N           -1.80328001696617       -0.48191232994147        0.12709830984128
N           -0.00185246075870       -2.12810774633075        0.24669681561351
H            3.24766677071218       -2.68722329023980        0.26073296904971
H            2.45983068803745       -2.26781924587127       -1.26826085259354
H            4.17079785899862       -0.54534287143635        1.74236276021282
H            2.84631508961151       -1.34486902182344        3.83732681340290
H            2.93946577085892       -2.49035758535350        2.50929125429989
H            1.46519581194040       -1.54471037325654        2.75784720055522
H            1.89658136176961        1.00601075959101        3.06260084483231
H            3.61147849001055        1.06860435938892        3.43945821169506
H            3.00460565807193        1.79745070031354        1.95134895599691
H            4.42286190453200       -0.50765449903870       -0.84406280077102
H            3.88215265718329        0.58268131951006       -2.99841548664912
H            2.62886519594629       -0.60234810492891       -2.64815488083265
H            2.32562911996288        1.11962226995939       -2.36993000963110
H            4.84121283091366        1.97364266760742       -1.21780775562480
H            3.34215129652811        2.31685235319373       -0.35941196814887
H            4.70229681334747        1.54202716894755        0.47954631255331
H            1.89613842773909       -4.88014452810941        0.38991796368647
H           -0.31734062677653       -5.91387540174037        0.82651948367692
H           -2.35000766290003       -4.48651892030277        0.76983674409579
H           -4.11586518663640       -2.85680402076011        0.56591704064749
H           -5.57305355296898       -0.87707895118880        0.31297367486961
H           -4.58268526967543        1.37038468935464       -0.04769180177158
H           -2.28796132630864        2.50261582395089       -0.26156327487829
C           -0.02463532137672       -0.10065878500646       -1.69522988202846
O           -0.28470092251099        0.03328310404143       -2.79835365088036
C           -0.23768010693578        0.24931090420838        1.83447382818896
O           -0.69100796876418        0.58703768672143        2.82652699341722
