61
 energy: -71.688207532459 gnorm: 0.000437660036 xtb: 6.7.1 (edcfbbe)
Ru           0.08526420173321       -0.01602131115293       -0.20033539199264
N            0.10633209788520       -2.24873691025738        0.10028467655770
C            1.43973543510157       -2.78111474339793        0.40651750496014
C            2.50113728655907       -2.20073985833060       -0.52382920400424
P            2.32490855309540       -0.33809911828458       -0.54765474072060
C            3.19041084468891        0.11808872543433       -2.16296008668238
C            4.71582221609360        0.02106728743520       -2.18645372237864
C            2.62628744731604       -0.68454351135341       -3.33654339129864
C            3.61445501843589        0.20379206151625        0.69867499313862
C            3.41523557945136       -0.41822235859783        2.07661476355970
C            3.51830333185775        1.72463534012857        0.78443303513056
C           -0.86828064134631       -2.66948255807222        1.11480393749206
C           -2.25409822415997       -2.10554693203034        0.81885493800703
P           -2.09655245674953       -0.27708189374797        0.44169030625419
C           -2.78591184640675        0.51419959714056        1.99039558904223
C           -2.74492253397171        2.02414169767611        1.76963935110039
C           -1.98739996815177        0.14187086712549        3.23445753420685
C           -3.53706589862868       -0.03078976296157       -0.75431853694621
C           -4.94247953171295       -0.10914125184829       -0.15900054462775
C           -3.44166985356045       -1.00205966231622       -1.93384673744158
H           -0.18973224888066       -2.63940076547531       -0.79898387276858
H            1.66767671926284       -2.50324524776506        1.43969934084991
H            1.43765850992040       -3.88186421575724        0.33787276526126
H            3.50084119255547       -2.50649186564727       -0.20491536850086
H            2.33160263112385       -2.56924148320315       -1.53951720667884
H            2.89429565599822        1.16801728281467       -2.30314247780135
H            5.06315164856980        0.19188209564128       -3.20536338199725
H            5.04987154832210       -0.96917578170820       -1.88080710313080
H            5.18470794365229        0.76847790997442       -1.55214587268523
H            2.80670803547145       -0.15487460638395       -4.27116294349006
H            3.10686740450145       -1.65925092745410       -3.40855998217592
H            1.55219001883412       -0.82762507946706       -3.24006475489507
H            4.60048759905156       -0.09850819070304        0.33007441450947
H            4.08912895088999        0.05337052363964        2.79109487191089
H            3.62983140677588       -1.48569217957449        2.06929182406215
H            2.39379399618237       -0.25581777687038        2.41614489769775
H            2.50040244752779        1.99747815078363        1.06690123011470
H            4.21151591493093        2.11917424419802        1.52639969673901
H            3.73591538333768        2.18999254153688       -0.17612371371798
H           -0.51743214623957       -2.28666635751437        2.07894078760297
H           -0.91160038052290       -3.77018595439999        1.17120369911196
H           -2.92529510122554       -2.27921032290129        1.66347670148006
H           -2.66902748359433       -2.60600564923458       -0.05973166360770
H           -3.81775648786898        0.17098926697783        2.12734733911468
H           -3.38654144544634        2.32399267628920        0.94218126147484
H           -3.06252682142228        2.55806174260245        2.66429360599045
H           -1.72156636447481        2.31591907130234        1.52642841683727
H           -2.36474301963002        0.69557498543399        4.09335700635734
H           -2.06312196518329       -0.92115057414745        3.45774496128125
H           -0.94027104542203        0.40083380634860        3.09247357334212
H           -3.36287652402529        0.98345792032880       -1.14108771840779
H           -5.08250054408281       -1.03997699769718        0.38853929209394
H           -5.15519242175486        0.72717616426177        0.50122632191651
H           -5.67187284554841       -0.08224767610989       -0.96850872144966
H           -2.40543162065149       -1.19186018506905       -2.21068043957418
H           -3.92150842695164       -1.95151271549110       -1.69964620377159
H           -3.94455655746648       -0.58376031110125       -2.80472744481491
C           -0.32909484406825        0.13957684943977       -1.98150270166214
O           -0.60999503596202        0.37654548716704       -3.08826527492629
H            0.42548994258308        0.05817764932680        1.32414278208716
H            0.11702401531072        1.54934071575727       -0.19322111911392
