54
 energy: -70.213422024603 gnorm: 0.000155560685 xtb: 6.7.1 (edcfbbe)
Co           0.18229852771638       -0.27790592873717        0.01493592631269
C            2.23034127848455       -2.54765374622497       -0.55439674426899
P            2.31107122922490       -0.77112923678917       -0.03763149490019
C            3.59816844384055       -0.11237210178046       -1.21063888101067
C            4.99579374650548       -0.64657170984308       -0.90567161436205
C            3.56922323371716        1.41181197033208       -1.29188386610230
C            3.01906471943825       -0.87903243605347        1.67365504519417
C            1.95170111383710       -1.53620621525505        2.54944212320130
C            3.36119846386738        0.50728485301776        2.21356535581813
C            0.86171483434863       -3.05479725206851       -0.23680827790053
C            0.58607832186101       -4.41491860697885       -0.19116056402702
C           -0.69853528062390       -4.84083741328816        0.10164116189967
C           -1.67360627180380       -3.88840433492140        0.35049017480527
C           -1.32925411404009       -2.54766949395397        0.29502985764690
C           -2.29954265228894       -1.45094523824065        0.60070361839465
N           -1.87781376376367       -0.22185043867222       -0.08904754136219
C           -2.59217617714141        0.93741532184760        0.47848757414031
C           -2.21374235885552        1.21602022517326        1.93026006473671
C           -2.19595196937634       -0.35083024646773       -1.53175676456253
C           -1.25929089928510        0.46504072153549       -2.41301201927554
N           -0.08782251304276       -2.13975901395942       -0.00120387265480
H            2.99947230447615       -3.16143777650628       -0.07646479963788
H            2.38756940334698       -2.59382955854315       -1.63821853504977
H            3.27953257489147       -0.49950949733435       -2.19007325843570
H            5.00192814928199       -1.73273974150441       -0.83451575630129
H            5.67546440249395       -0.36004620191047       -1.70651646982693
H            5.38325357725333       -0.23232020891739        0.02170590216324
H            2.57898463475812        1.76021087145287       -1.57942834583596
H            3.83507617375248        1.87257281933806       -0.34436891696749
H            4.27971387288950        1.75281217616210       -2.04298355602754
H            3.92058032497157       -1.50365492847280        1.64929305481293
H            1.78824346689793       -2.57708846249591        2.27477541829430
H            2.25168972728171       -1.50831837932567        3.59540780027423
H            1.00670880905211       -0.99006095352429        2.44807119217281
H            3.65258491400128        0.43576936967749        3.26031351993350
H            2.49638274752304        1.16606810142148        2.14591549370074
H            4.18743752771014        0.95918158708954        1.67090495389964
H            1.37346826955338       -5.12625453158174       -0.38556687727248
H           -0.93412667403842       -5.89296386467168        0.13827597944358
H           -2.68501431265950       -4.17564265266201        0.59012295791871
H           -3.32459819636435       -1.73197481237526        0.32429926170165
H           -2.27583822464045       -1.27763780221121        1.68059648110828
H           -2.34270088701993        1.80628008424171       -0.13190972475285
H           -3.67520488591042        0.77055256770899        0.40512987556784
H           -2.79375260964172        0.61701435819705        2.62836655856738
H           -2.39649291228920        2.26158333206726        2.16328783712935
H           -1.15223357664308        1.01206416733377        2.08817558147011
H           -2.09783339424371       -1.40229985952357       -1.81371019637283
H           -3.23667224077021       -0.05229266186783       -1.70676017298143
H           -1.50229925117442        0.29148895112960       -3.45891219619818
H           -1.34701605936795        1.53085702491079       -2.21804264754920
H           -0.21969864772600        0.15124831153418       -2.24316576261492
C            0.42560556001195        1.43649848136751        0.16293847750340
O            0.60965455175280        2.55927901631580        0.28246907970911
