56
 energy: -75.572234132285 gnorm: 0.000382400683 xtb: 6.7.1 (edcfbbe)
Mn          -0.04406963123969       -0.03645400484336       -0.48985382950360
C            2.22087141150765       -2.03730254865932       -1.27678022588931
P            2.20502967850375       -0.29201886900191       -0.60885199650839
C            3.24024745033188       -0.45820323260563        0.94026147200946
C            2.69775787158197       -1.59846025881096        1.80631131069914
C            4.73245450157874       -0.67064307872354        0.67263240791850
C            3.23582070442859        0.79166604124178       -1.71739473251239
C            3.26544602199477        0.35882263032298       -3.17908834288109
C            2.63610940065204        2.18835987261171       -1.53533916511166
C            1.06264479487651       -2.75618416578752       -0.64550914544412
C            1.01686892938006       -4.12674890115555       -0.44213961258497
C           -0.10696379973954       -4.69161192731365        0.14276717075047
C           -1.16523899901465       -3.87294488344167        0.51538394613794
C           -1.06481072993743       -2.51194556424863        0.29695236130462
C           -2.11325797769887       -1.49172473849196        0.66862199464782
N           -2.09121142010275       -0.45730004062915       -0.38527813894489
C           -2.41274838851659        0.94780590292433       -0.06969305937183
C           -3.04906361808594        1.22412226474704        1.28634577415280
C           -2.85140689538985       -0.93980404304557       -1.55759153632442
C           -4.36088207462915       -1.06119780577914       -1.34981688744719
N            0.03297772373010       -1.97306012989116       -0.27307782591815
H            3.16698128190672       -2.55935557877219       -1.11676872246639
H            2.03927500313319       -1.95692441964386       -2.35551289344369
H            3.10446360490345        0.49023969992555        1.47686257696184
H            3.09149277336024       -1.50915579864822        2.81728551777062
H            3.00495563915062       -2.56370835916229        1.40977377812486
H            1.60931103959890       -1.58204207030004        1.86785269082762
H            5.23885259608576        0.25855410736650        0.42513689660595
H            5.20047518182277       -1.06150630352028        1.57430060859148
H            4.90062771015592       -1.38712368995512       -0.12904897304025
H            4.26224284872606        0.79454274455024       -1.34111095902556
H            3.82880496527482        1.09245741339835       -3.75391866095517
H            2.26881724637274        0.30041139220342       -3.60619063659791
H            3.76047566818578       -0.60325371476203       -3.29269042885464
H            2.72947856206331        2.50866605814486       -0.49655840238626
H            1.56996797259576        2.17867225260650       -1.79536641057637
H            3.14143281132989        2.91615086258696       -2.16663104894143
H            1.84991040300437       -4.74377107300955       -0.74061798607423
H           -0.15935777571642       -5.75648149884934        0.30577664730385
H           -2.05109813790539       -4.28577519574433        0.97173604026585
H           -1.83343094457147       -1.05127173593751        1.63129208379501
H           -3.09643812945497       -1.95747239900186        0.78079097166783
H           -1.45679507865015        1.56633101621456       -0.17388507816571
H           -3.08395660953405        1.32806817050671       -0.84599578233564
H           -3.34140509722883        2.27148967735426        1.33270723992104
H           -2.37379042460978        1.03682770695279        2.11825833163869
H           -3.94277373202530        0.61626096981071        1.41484379700069
H           -2.44414651170945       -1.91495296248062       -1.83982844225162
H           -2.67068545432508       -0.24884501769828       -2.38546213633236
H           -4.79813804898954       -0.12970468335915       -0.99744179646266
H           -4.62000457888131       -1.85338567827309       -0.65205130329021
H           -4.82024273376366       -1.30457654414647       -2.30485272077536
C           -0.09765937941210        0.00176628561992       -2.27356787773817
O           -0.14176921867344        0.11075716668459       -3.41564411475228
C            0.21857518358058        0.40546873924321        1.23777119843140
O            0.45407815039466        0.90679566222595        2.24311921166695
