57
 energy: -81.103047831719 gnorm: 0.000235062533 xtb: 6.7.1 (edcfbbe)
Ru          -0.15511460233741       -0.07727514200069        0.51090999932012
C            2.10922677377303       -2.22220107478952        1.20802852271748
P            1.98573236596138       -0.36051337079590        1.27944643888706
C            3.35447114136465        0.17528844512520        0.21832326278449
C            3.53541903078680       -0.44032233150380       -1.01937612474487
C            4.53085839605114        0.00238689176178       -1.86967218714939
C            5.34013654564315        1.06499154986852       -1.49680527657066
C            5.14829533867066        1.69143107405470       -0.27579095558175
C            4.15359608832640        1.25522993277873        0.58155568329031
C            2.55212225404522       -0.00546246040576        2.96583458033111
C            3.76344518155017       -0.50817462499217        3.43736999770943
C            4.15679587643731       -0.23227507141522        4.73337937145651
C            3.35161992155595        0.54226420396113        5.55673737488486
C            2.15148582108077        1.04943494237401        5.08507034787691
C            1.74900265338098        0.77727251195659        3.78863828610626
C            1.09204021413473       -2.78951314535573        0.26766684044134
C            1.17878317742721       -4.08895700991569       -0.21020882023305
C            0.15708707714976       -4.59329138653432       -0.99924942407433
C           -0.93614157360563       -3.78890264747805       -1.28227032070654
C           -0.95185791249209       -2.49054270925410       -0.79945108198012
C           -2.06576091428711       -1.53265280721509       -1.11539130406694
N           -2.12824072915698       -0.38799995699938       -0.18489273342042
C           -2.80882623939178        0.76116028423466       -0.83043791313698
C           -4.25545035638960        0.50148871821115       -1.23954900311511
C           -2.76590172720497       -0.73907981457838        1.10419226557090
C           -1.70821294432275       -1.19097568570476        2.12140674639152
N            0.05165205895892       -2.00692570874238       -0.05735279375629
H            3.12054129483484       -2.54803331582455        0.94564222799851
H            1.89300731045542       -2.58753921352013        2.22291931583120
H            2.89403227781935       -1.26132272397275       -1.31737733676028
H            4.67500241832229       -0.47729674198641       -2.82656165341485
H            6.11684304396816        1.40902700678585       -2.16340487192097
H            5.77261280987277        2.52568363429378        0.00780369233637
H            3.99315121370760        1.74775350008370        1.53055725721348
H            4.39387659855328       -1.09949453139548        2.78724550372294
H            5.09511335030642       -0.61784344475426        5.10406537853171
H            3.66582337492782        0.75454305267202        6.56787138356641
H            1.53207736608835        1.65867611192467        5.72658748542912
H            0.82264322671310        1.18086048511003        3.39419645841434
H            2.03374665617111       -4.69537202183620        0.04394225602712
H            0.20656993837421       -5.60182606798304       -1.37859019288397
H           -1.75827878620506       -4.15437501413820       -1.87679568933396
H           -3.02151724415501       -2.07239624676073       -1.13695757232176
H           -1.87823687014260       -1.13460604311797       -2.12177340542447
H           -2.76518935887605        1.59650843128926       -0.12651510569733
H           -2.21820768197619        1.04302078335330       -1.70799414662749
H           -4.67019130010271        1.42469517839982       -1.63595450009526
H           -4.33026316145161       -0.25399621525572       -2.01752029661682
H           -4.86659883542253        0.19959093131878       -0.39258675982653
H           -3.25096427674371        0.16357170078334        1.48985695953604
H           -3.53057219372531       -1.51590596100528        0.97519251675015
H           -0.80136826059989       -0.49025101748963        2.12896758032020
H           -1.41727583693388       -2.23928910153732        1.98593945258693
H           -2.12678540337941       -1.10773384731206        3.12736213563301
C            0.48248481816430        0.65212348926223       -1.04655374146711
O            0.86559298400091        1.12402274110670       -2.01850633107026
H           -0.40009474102925        1.36914467522382        0.99467696910453
