50
 energy: -81.088819485538 gnorm: 0.000279845656 xtb: 6.7.1 (edcfbbe)
Ru           0.30428736503345       -0.05184880865945       -0.22721477364640
C            2.47057133487732       -2.29264458535942       -0.81996626300299
P            2.53704664786109       -0.50746201538779       -0.32841413832623
C            2.62982952103325       -0.67862333699126        1.48917105730276
C            3.66179497961067       -1.24915315226195        2.22293869812877
C            3.50707011374673       -1.43157219481852        3.58838418211592
C            2.32820620063673       -1.06181009346134        4.21543812790882
C            1.29434792844876       -0.47913527651849        3.49207795380604
C            1.44768854455051       -0.28395587251918        2.13187695968684
C            4.09431685631297        0.17142239108583       -0.94061176176764
C            4.05860009447114        1.50387922006652       -1.34828691579621
C            5.21329496523763        2.11120120548383       -1.80713091799914
C            6.39732790191212        1.39176782854377       -1.86097220302903
C            6.42943131023693        0.06417202962162       -1.46034796373853
C            5.28148707256339       -0.55455325110461       -0.99960164710971
C            1.25899247951479       -2.87540373203480       -0.15974250583148
C            1.21696107872557       -4.19900341798881        0.25162698946843
C            0.08124837883496       -4.67332663724939        0.88955376116518
C           -0.98588062493028       -3.81719460833973        1.09519983827484
C           -0.89712693031690       -2.49952753130629        0.65295559682883
C           -1.98528619450262       -1.52330011399256        0.76867761435223
C           -3.24651176621420       -1.85075825846073        1.24030474989939
C           -4.24597383389803       -0.88303139521706        1.25070116993588
C           -3.96619583254937        0.37699910062846        0.77919015876454
C           -2.67196194568208        0.65901310173312        0.31438683134779
O           -2.42706435663495        1.86786663115053       -0.14282954579092
N           -1.70339624875050       -0.26534111272271        0.33209864814691
N            0.22218321324525       -2.05082995746522        0.04867598595669
H            2.35711487493247       -2.31213356277468       -1.91332839643815
H            3.37171209175653       -2.85152635142718       -0.55197949270193
H            4.57981065464338       -1.53513519228299        1.73027645523200
H            4.30911598616973       -1.86736647437926        4.16484779992884
H            2.21073354297518       -1.21552307312270        5.27731128413110
H            0.38607365776264       -0.17576321295230        3.99286894494200
H            0.64930695578705        0.28973258600511        1.55672888544395
H            3.11839498409135        2.04099416368987       -1.30576551695849
H            5.19073489259299        3.14243026540641       -2.12553024404982
H            7.29891439483443        1.86450437415523       -2.22076838502806
H            7.35396298451792       -0.49181623456401       -1.50981348387200
H            5.31640728710478       -1.59155129141709       -0.69893634689494
H            2.06278147556325       -4.84377561837626        0.07308503205013
H            0.03015486075707       -5.69761269276038        1.22393954172888
H           -1.86966617924371       -4.17070155709529        1.59827484286909
H           -3.46429667273949       -2.84585213069911        1.58789275213409
H           -5.23157554589410       -1.12525234688203        1.61582063817887
H           -4.70006463968899        1.16488355186882        0.74461312409162
H           -1.49426854311515        1.97668157320246       -0.42757382991598
C           -0.04481540362747       -0.06978147743335       -2.03430620233367
O           -0.24274652227494       -0.07140556269657       -3.16145425977859
H            0.38910301405494        1.49447588309671       -0.24847515816094
