64
 energy: -97.448708866132 gnorm: 0.000069649310 xtb: 6.7.1 (edcfbbe)
Mn           0.36238346752521        0.23169944174648       -0.06521597636963
N           -0.20050644550866       -1.72880496521881        0.53257990689045
C            0.72460961082556       -2.78782785683646        0.17130311758251
C            2.19923442153131       -2.33555885667610        0.27181602008738
P            2.26604308683171       -0.71875791663406       -0.63420913449603
C            2.70770019090580       -1.29487201949538       -2.31466403879847
C            4.01064513225875       -1.29609457614902       -2.80217604040708
C            4.27358814099224       -1.78031664066191       -4.07231311401005
C            3.24569614436521       -2.26803682739162       -4.86229874339192
C            1.94516122992961       -2.26613752825524       -4.38249017240803
C            1.67733247108899       -1.77618998690108       -3.11782674974760
C            3.82142839330094        0.05857972779400       -0.09402408786027
C            4.88557292043057       -0.60692791904926        0.50420608662218
C            6.00744627313659        0.10320032936837        0.89745401884438
C            6.07717820873171        1.47217197222673        0.69491145153505
C            5.01976802874487        2.14159619613729        0.09795829604127
C            3.89740814776881        1.43545645316640       -0.28958763005363
C           -0.53962955283058       -1.75584229977485        1.94144862484497
C           -1.65452339802602       -0.73922656043040        2.24138231325061
P           -1.56560484425564        0.55726004098440        0.91746716026498
C           -1.86725026631406        2.12167025336027        1.79330725791687
C           -1.08591164736259        3.20558446781897        1.40765206663330
C           -1.24053408672803        4.43556784396573        2.02037169843111
C           -2.18162246459328        4.58352710375021        3.02692981762034
C           -2.96730765325543        3.50766721748528        3.41347925286136
C           -2.81614633469758        2.27775171241141        2.79888072436814
C           -3.13220543883498        0.29744505586235        0.02737535107385
C           -3.31016104905033       -0.96090991599973       -0.54670635602787
C           -4.44503420979547       -1.23009525981708       -1.28656266742085
C           -5.40494107886422       -0.24451981993771       -1.46781809646648
C           -5.22000195876591        1.01235056970300       -0.91704465447197
C           -4.08377871893955        1.29007650063453       -0.17481980568721
H            0.52648214994757       -3.08650960296218       -0.86542146106148
H            0.56961522387582       -3.66625327252390        0.81198912460502
H            2.88180170890809       -3.07295151288775       -0.15935212812042
H            2.46385731560143       -2.13894404492768        1.31594718022883
H            4.82037042926405       -0.91595244826476       -2.19514849026458
H            5.28749463779163       -1.77528980789937       -4.44687799833028
H            3.45694438179057       -2.64425980352030       -5.85287612301639
H            1.13989253604451       -2.64079023369958       -4.99826103586687
H            0.66265328115164       -1.75244879198999       -2.73940881401813
H            4.83916503588424       -1.67533724158263        0.66028312025340
H            6.83261823004544       -0.41400488535632        1.36635500303047
H            6.95437638560612        2.02036448610211        1.00710582862577
H            5.07171622575782        3.21036802480242       -0.05595636115012
H            3.04981481843289        1.94389283072938       -0.74658608807617
H            0.34198137899828       -1.52380190057752        2.57404569142241
H           -0.88220603261585       -2.76538026616451        2.21555203249862
H           -2.63942730278871       -1.21321087751730        2.21478032672156
H           -1.50718586761679       -0.26674688030282        3.21633385861150
H           -0.34775158308868        3.06328422483440        0.61569498416911
H           -0.62992885708937        5.27560064584859        1.72007062050430
H           -2.30301113774654        5.54092924448469        3.51283918783976
H           -3.70077157899545        3.63171778611575        4.19749770617007
H           -3.43272222895364        1.43765765511696        3.08913921405929
H           -2.53238842714972       -1.70339274886904       -0.40886695937135
H           -4.58437698568554       -2.20650659600548       -1.72864114328982
H           -6.29338664246431       -0.45366207506041       -2.04646209229124
H           -5.96177344941871        1.78412964037067       -1.06868189700968
H           -3.94117675311776        2.27766837259239        0.24389624134662
C           -0.35531919862477        0.36042396409363       -1.69283715062520
O           -0.79929557446033        0.69712999502169       -2.70639927545447
C            1.17089595468005        0.75155826877240        1.41996206474148
O            1.72659172594682        1.28943191418386        2.28693295061742
