58
 energy: -81.947456780970 gnorm: 0.000125106327 xtb: 6.7.1 (edcfbbe)
Ru           0.08593497704543       -0.21945932270377        0.30625721023670
C            2.29856213693069       -2.42768888168399       -0.13478561333271
P            2.20657812703162       -0.80780367808536        0.79517170762504
C            3.64762819071059        0.10970108841652        0.14381693046431
C            4.75276879588558       -0.44750014270589       -0.48928518386959
C            5.78906455950185        0.36727541837592       -0.91392903134338
C            5.73586426980631        1.73505691621329       -0.70505028052906
C            4.63802399699569        2.29582246027252       -0.07072081840600
C            3.59998718479411        1.48639009464776        0.35028447262964
C            2.89103068725776       -1.23173277387141        2.44263760072616
C            4.08851852253420       -1.92729651362376        2.58771383721596
C            4.58229754425726       -2.19669677741587        3.85077873896116
C            3.89515523319642       -1.76473433500645        4.97495548700838
C            2.71434139187952       -1.05450246153968        4.83421957808237
C            2.21464566886941       -0.78637995047466        3.57148161159695
C            0.91618994848102       -2.99867450583105       -0.24972858124959
C            0.71443330021654       -4.33557099320968       -0.55121420909873
C           -0.57544014513254       -4.81948991192604       -0.72116474297051
C           -1.63241977639946       -3.93475348399808       -0.56041802839399
C           -1.36571420081607       -2.61782421332935       -0.22958144074100
C           -2.45902397347063       -1.63265078981258        0.08329377095214
N           -2.09803740589234       -0.25985388179710       -0.31628780439074
C           -2.92015874509659        0.71995651890735        0.42711426716550
C           -4.43367791869101        0.64082259373627        0.21444273805088
C           -2.30858626529034       -0.14274216706847       -1.77339970523537
C           -2.06453304226279        1.25744281459734       -2.32583853912684
N           -0.11412353778569       -2.14753163959950       -0.08628835362420
H            2.98774656102668       -3.15311096976482        0.30612701644706
H            2.65030263325767       -2.17276618753532       -1.14478187811102
H            4.81545641461543       -1.51244967355251       -0.66550280491656
H            6.64295647429877       -0.06981833199977       -1.41248994497016
H            6.54773714594413        2.36390843570167       -1.04102730791865
H            4.59128059433844        3.36346812335477        0.08910662985117
H            2.71894202680775        1.90036354667732        0.82908137438647
H            4.64299187726371       -2.24880843815160        1.71663207027146
H            5.50994267462872       -2.74073034978029        3.96031002408841
H            4.28622683561061       -1.97767113059342        5.95951725195055
H            2.18354932083751       -0.70782844422761        5.70931335169307
H            1.29468852346417       -0.23384227559455        3.43378653384639
H            1.56571190924297       -4.99040194603712       -0.66151148367456
H           -0.75042728690867       -5.85430239462163       -0.96873387965706
H           -2.65369267162160       -4.26437852376620       -0.67601030341110
H           -2.59334493906809       -1.63708790493066        1.17447566704199
H           -3.39992668377474       -1.95489789900933       -0.38776123280846
H           -2.69811661137900        0.57985098397048        1.48894513205614
H           -2.56364221630366        1.71661464497966        0.15961652976429
H           -4.90229504805227        1.39304342538044        0.84449575360007
H           -4.83457793869735       -0.32866705262365        0.50085908251955
H           -4.71532968825392        0.84911382153926       -0.81472081398396
H           -1.62533284742206       -0.84685206915253       -2.26401957970546
H           -3.33320652132574       -0.45705222150037       -2.02576521516113
H           -1.16579372325108        1.68506386550789       -1.88029824701159
H           -2.90278299881434        1.92038420284442       -2.12682784517049
H           -1.92264880542169        1.20195470852966       -3.40291425724488
C            0.78348615281624        0.15575268332859       -1.35688365955947
O            1.34336869597315        0.32079384218860       -2.36172749252458
H           -0.43427973204300       -0.47997836627901        1.77278720953792
H            0.08814602890193        1.31374141468616        0.68883549666520
