63
 energy: -92.268795735776 gnorm: 0.000165707564 xtb: 6.7.1 (edcfbbe)
Co          -0.10532576600782       -0.21104331151193       -0.08459919866827
N            0.07104665149575       -2.04794659992269        0.65753666121112
C            0.37316051819611       -1.90591140347700        2.09617768660149
C            1.72906388707138       -1.21762104023766        2.25749308263603
P            1.80480954449237        0.09577536998729        0.94049738312317
C            2.41112857642909        1.58910928943348        1.76627751987368
C            1.77315886039980        2.01186584764460        2.93143608291108
C            2.16582764141635        3.18380632588778        3.54963777970583
C            3.18341667000616        3.94960068274101        3.00117815255828
C            3.79721983369334        3.54910704628161        1.82511213048421
C            3.40885850008585        2.37747730143292        1.19977278622904
C            3.15093623107127       -0.47347789252173       -0.13149137349527
C            2.81186633338491       -0.81841251013860       -1.43690097648735
C            3.77896636794337       -1.30194587285072       -2.29954239374478
C            5.08504442817390       -1.44237267689460       -1.85625213154545
C            5.42448263203077       -1.10412918431079       -0.55392306599423
C            4.46164834322583       -0.62133724481886        0.31377013876309
C           -1.04128616050800       -2.98159054398361        0.38655840545326
C           -2.37388343782017       -2.24826628821362        0.48564926634610
P           -2.15009420171184       -0.76960536948748       -0.60413107952512
C           -3.46203867021018        0.36082027601621       -0.07082767488585
C           -3.17984942961386        1.05849567363299        1.10310403600561
C           -4.10241026835912        1.94273636155902        1.62557629625921
C           -5.30788480725430        2.14410623689224        0.96862222716799
C           -5.57914880132397        1.47242612780247       -0.21225018056737
C           -4.65846414090261        0.58200823241529       -0.74022528084119
C           -2.55461680699243       -1.35475238600809       -2.27057468740173
C           -3.68884332904082       -2.11086698057407       -2.55629948669261
C           -3.92642726249835       -2.52475037304141       -3.85468415236526
C           -3.03867333487417       -2.19369122813373       -4.86757770971242
C           -1.90591897138283       -1.44649084736566       -4.58544141092930
C           -1.66389961699396       -1.02795544254068       -3.28954426764402
H            0.90732498352881       -2.45945813675110        0.23246410103406
H            0.38536505976582       -2.88775931578582        2.58643716213478
H           -0.41230672382099       -1.30077384870110        2.55819957471688
H            1.84142447719390       -0.78981756002705        3.25480850948072
H            2.54771274694187       -1.92449625235401        2.09077797185098
H            0.96487978999823        1.42581206242863        3.34877635512312
H            1.67630047277429        3.50598128142074        4.45684023793213
H            3.49070781218620        4.86443927749328        3.48538741872084
H            4.57910689032668        4.15416523274390        1.39038761213020
H            3.88106032141789        2.07531953820268        0.27534446094938
H            1.77771777702056       -0.69398163420874       -1.76261279565264
H            3.51994947725286       -1.56819471404418       -3.31347217220119
H            5.84345968382329       -1.81736992531312       -2.52715253298259
H            6.44388276301648       -1.21765124875706       -0.21585402083545
H            4.72077839457091       -0.35312389831467        1.32920817250380
H           -0.92866719623437       -3.35919473166836       -0.63507523087105
H           -1.00619326756077       -3.83386874524964        1.07548279401855
H           -3.20502832068780       -2.87965825352609        0.16659737371687
H           -2.57012514211451       -1.90202100309603        1.50387116177407
H           -2.21686386644523        0.90846864560735        1.58490053045301
H           -3.88587509983277        2.48182003496615        2.53595551177352
H           -6.03180272250671        2.83631345381189        1.37210596033029
H           -6.51162692494953        1.64578383958083       -0.72892682309120
H           -4.86927076179251        0.07524096059478       -1.67075911435563
H           -4.38600085095795       -2.37223628444719       -1.77192510709385
H           -4.80730050174407       -3.10826911711345       -4.07906058680652
H           -3.23138012136116       -2.52091092248942       -5.87842241446442
H           -1.21521842177931       -1.19166740814738       -5.37544837053733
H           -0.78381408818387       -0.44092902062917       -3.04959590721862
C           -0.22121219249616        1.39950687382015       -0.71223706429798
O           -0.29034357335717        2.46857090273414       -1.11130079253352
