62
 energy: -76.958180222330 gnorm: 0.000296707784 xtb: 6.7.1 (edcfbbe)
Mn          -0.03268252308157       -0.03642991647017        0.07675558848694
N            0.16451108256865       -1.99526102844765        0.24593610433039
C            0.72769442592121       -2.21785139185454        1.55927528031409
C            2.09127395482780       -1.53219987053700        1.70584633523811
P            2.14689552714155       -0.12145295700696        0.50015289173897
C            3.44098730827585       -0.70580511439727       -0.74463468150382
C            3.61240516329436        0.35380680457893       -1.83293333221468
C            3.10951596926703       -2.04257507066749       -1.40623899959978
C            3.23072143327776        1.14857886797645        1.36065015703372
C            2.41538562845134        2.21320710938984        2.08844550212540
C            4.29691443637823        0.56302630776003        2.28771080352697
C           -0.98606259289720       -2.86017926624825       -0.04813785572009
C           -2.27107707690127       -2.25954043802841        0.50283389386237
P           -2.22329331562906       -0.46092443734303        0.04288359758430
C           -3.56774469220053        0.16779879214184        1.19755178866439
C           -3.93327759748106        1.61649029517607        0.87859515929178
C           -3.22707332014854        0.07087490339286        2.68266795682319
C           -3.23919100374832       -0.39513317970843       -1.54258708758844
C           -3.00787006272807       -1.55003388481801       -2.51396351451152
C           -2.95614199596752        0.93199847997792       -2.25606800108679
H            0.89467792292924       -2.29046039174507       -0.40533487055132
H            0.86202734981123       -3.30370512932166        1.74498809385639
H            0.03201391201092       -1.86369122601938        2.32494257859135
H            2.19177320836556       -1.12501098508798        2.71388530521346
H            2.91628993250498       -2.23089618540947        1.53818721430736
H            4.38458803848408       -0.81820989956239       -0.19368264265968
H            2.65180028217117        0.58121426082739       -2.29199945709380
H            4.28721321188069       -0.00998378841402       -2.60725915130607
H            4.02211336388408        1.28216510204252       -1.44267187653747
H            3.93309708515531       -2.33751602729652       -2.05717712235300
H            2.22346300812267       -1.94995177491686       -2.03519214375667
H            2.97031146754288       -2.84493875242949       -0.68066760654549
H            3.73318917969342        1.65014290213036        0.52408684936970
H            1.98667680072570        1.82302066215702        3.00873831411093
H            3.05275292117004        3.05833197663453        2.34566173102627
H            1.60431837391051        2.56552855332919        1.44944403458318
H            3.86116116214506        0.23824730793877        3.23051085762021
H            4.81953850279570       -0.28017382321219        1.84004539463084
H            5.03333394608475        1.33268834100523        2.51509031872991
H           -0.82099623853362       -3.87207561609553        0.35565610237497
H           -1.06974244472007       -2.94346484807057       -1.13609721476002
H           -2.28625678189519       -2.33689246816051        1.59255055039941
H           -3.15750021380427       -2.76334853494985        0.11248994520998
H           -4.43034979866761       -0.48708417767528        0.99870078123609
H           -4.43545469078318        1.70916550792544       -0.08014952936107
H           -4.59919837106515        2.00734941484520        1.64731202597130
H           -3.02840183479250        2.22544996271093        0.86477013715793
H           -2.80059003663061       -0.89126471271812        2.95995184342273
H           -4.13511054606735        0.20927063079296        3.26948399916158
H           -2.52686937612958        0.85228554953963        2.96276318048912
H           -4.29057883117801       -0.42502585702972       -1.22617219858758
H           -3.30137326300200       -2.51152129214238       -2.09669456171555
H           -1.96485177805740       -1.59493377603690       -2.82099419058303
H           -3.60552039632664       -1.38176419596549       -3.40975534736125
H           -2.13066795020069        0.81520692557434       -2.95345652450091
H           -3.82812931281849        1.26426543265581       -2.81725241757329
H           -2.66565469106262        1.70776940360322       -1.54850303486150
C            0.11541757305044       -0.11186374268303       -1.68276465726591
O            0.23436455759436       -0.12072860550057       -2.84113510313365
C           -0.14936473477231        0.37654774148077        1.78723060499909
O           -0.17246339306866        0.69978630497591        2.90399670703459
H           -0.14332152284403        1.44729762202538       -0.14911884684553
