59
 energy: -70.640013093721 gnorm: 0.000150512639 xtb: 6.7.1 (edcfbbe)
Ru          -0.20227589718477       -0.13015148547731        0.26002346561570
N            0.28386549821112       -1.78132290776659       -0.64797749974999
C            1.52302928543752       -2.51791295560013       -0.45661991720536
C            2.29758599483050       -2.01976627827151        0.76220426953867
P            1.99206895266256       -0.20753599297973        0.85977075254357
C            2.49204632868860        0.20695405628690        2.60972330342608
C            2.42792825119319        1.71844111375498        2.81315060830258
C            3.78196554117831       -0.38880377110883        3.16817442588701
C            3.24257492564077        0.44374077723033       -0.37495217301598
C            4.70474579168958        0.41258379193642        0.05605272173279
C            2.83236054414266        1.83704413493866       -0.84596513571685
C           -0.55061796681277       -2.51254636536805       -1.58795674956665
C           -1.70516333839344       -1.65492736557275       -2.09965825968750
P           -2.23882870072510       -0.60567105344799       -0.67493505795803
C           -3.38001794313058       -1.80973361453995        0.19964711329735
C           -4.69519601266096       -2.10178913879066       -0.51875939316803
C           -3.62561761702429       -1.40994436085900        1.65247755137800
C           -3.36096898398518        0.64431341723815       -1.48798644349325
C           -2.55796238196597        1.48254967076211       -2.48138299124373
C           -3.95564219756903        1.53939099585508       -0.40330874657025
H            1.29774395442997       -3.59390757309171       -0.32963028087066
H            2.15543510744882       -2.44105923444046       -1.36204890084567
H            1.86477533670135       -2.44986741018211        1.67301771662778
H            3.35547924751122       -2.28766430445017        0.69781135864235
H            1.64329174616771       -0.23748257501825        3.15557702672279
H            3.27834668919149        2.21416034484068        2.34888292025052
H            2.43382511050737        1.95993656738974        3.87501975563266
H            1.50794689564783        2.10919701863398        2.37488641397254
H            3.86446688758598       -1.44954435359113        2.94242387811875
H            3.77830506903649       -0.27726584325425        4.25223493910159
H            4.66133414573828        0.12157262162471        2.78772023874763
H            3.11608053606413       -0.24519389614660       -1.22539971502227
H            5.34168660420650        0.60828237974247       -0.80690560045004
H            4.98146054142358       -0.55616923133358        0.46658108934526
H            4.90431534437608        1.18280196374252        0.79692826324600
H            2.91980814582758        2.56601032516363       -0.04282106903342
H            1.79193609235791        1.82545674607157       -1.18126954213985
H            3.46050198031704        2.16085346832232       -1.67569094168427
H           -0.94409455529439       -3.42992638949044       -1.11017444674400
H            0.06252413389944       -2.84960321005819       -2.44589640101622
H           -2.50796958152400       -2.26722431858349       -2.51885235281526
H           -1.32878589781985       -0.98186385999770       -2.87679807046218
H           -2.77367093657393       -2.72847862968021        0.21422909211157
H           -5.36912152135752       -1.25017216588957       -0.45808910698249
H           -5.18602533977900       -2.95018361651622       -0.04258192341978
H           -4.54171292549842       -2.34928617894442       -1.56772033178120
H           -4.32825777984419       -0.58379182206435        1.72599789392507
H           -2.68573923331955       -1.09980716682278        2.11178783470595
H           -4.03135197059519       -2.25226784988399        2.21161098401013
H           -4.15997966737222        0.11689439603152       -2.02240174369002
H           -2.32313598215676        0.92370982042541       -3.38527374009716
H           -1.62461402513924        1.81464433561137       -2.02024233658047
H           -3.12478141918951        2.36567378267082       -2.77314600134841
H           -3.15634836605368        1.94277777915558        0.21955898675708
H           -4.64017048536470        0.98720572831656        0.23540280783644
H           -4.50260736963877        2.36969164267835       -0.84891639903043
C           -0.37194236327020        1.69750079995201        0.33537968334044
O           -0.44569714911854        2.86152560423456        0.28089430604767
H           -0.67739217488236       -0.17585261788238        1.74794489603379
