54
 energy: -70.200032349797 gnorm: 0.000252285256 xtb: 6.7.1 (edcfbbe)
Co           0.21230241301065       -0.34868441154386       -0.61938464084803
C            2.35866843201105       -2.40417232217937        0.33810187650888
P            2.29724033966621       -0.58479500234991        0.01846960049553
C            2.48723461613612        0.24075444890997        1.67958273369155
C            1.80778887007396        1.60677468201485        1.57094435819092
C            1.84435713686030       -0.57463035503386        2.79890894963321
C            3.88451178081933       -0.29487862593401       -0.90835091092188
C            5.09089635191560       -0.97075953706523       -0.25609727687177
C            4.14166128053700        1.19767857048268       -1.10451637543168
C            0.95534318745400       -2.88125323437038        0.52483557808140
C            0.66661527198638       -4.10790294753213        1.10748639951454
C           -0.64677724602031       -4.54512327693587        1.15783754992792
C           -1.63624113456816       -3.75586303516921        0.59142906071688
C           -1.28008568085596       -2.53927595995339        0.03441261251042
C           -2.24908769436805       -1.63717906948625       -0.66069866102887
N           -1.84255698107027       -0.23207341925051       -0.49344800293897
C           -2.03058255596771        0.20053564077099        0.91406554573932
C           -3.45602435891801        0.13787204967534        1.46621621611962
C           -2.63916333787306        0.58438446289194       -1.43968189851568
C           -2.51934652781016        2.09092880528382       -1.25285326782881
N           -0.01592871351215       -2.09701344802090        0.03869397939435
H            3.01031461786107       -2.68500201645703        1.16769957927187
H            2.75020264333442       -2.87088170344118       -0.57476754248471
H            3.55409279323893        0.37261744145380        1.89151663975659
H            1.86609091119337        2.13975816243181        2.51818019547735
H            2.27061458858970        2.22302541344898        0.80363273899618
H            0.75566874963661        1.46698600005772        1.30778505733702
H            1.84053391152116        0.01157024709202        3.71639533533187
H            2.38560407779512       -1.49576268232112        2.99992433057899
H            0.81131655545201       -0.81908480046336        2.55432065615702
H            3.70819737366700       -0.74908661839838       -1.89391755731491
H            5.98564999676482       -0.72170093012001       -0.82417734589530
H            4.99957123877383       -2.05377729716342       -0.24517874810609
H            5.24067279034997       -0.62120382618990        0.76313698274545
H            4.97185224852323        1.34048881365024       -1.79399497678471
H            3.27009380123759        1.69723371046258       -1.52172986151101
H            4.40575879811223        1.67382013905671       -0.16254743318861
H            1.46554580024919       -4.71295788104202        1.50621170898790
H           -0.89311067461777       -5.49137748072267        1.61368228335628
H           -2.66540938838534       -4.07744534227273        0.57845072791027
H           -3.27618293376787       -1.80908841423775       -0.31986874021947
H           -2.21286748668821       -1.87567884563996       -1.73081510254473
H           -1.67003580706294        1.22772748024846        0.98727655197793
H           -1.39561937242446       -0.42643216416608        1.54777763081985
H           -3.45355289622053        0.57997521543102        2.45995477175006
H           -4.15831498278976        0.69874982069019        0.85641386833336
H           -3.81469431204521       -0.88374230407023        1.56596302171856
H           -3.69668738076817        0.30247147977659       -1.36040587644655
H           -2.29947529202576        0.32486774155501       -2.44585709223324
H           -1.48033290555083        2.39832813262997       -1.16595970639545
H           -2.94447684952871        2.58293749070444       -2.12445420678671
H           -3.06107324789270        2.44022579039407       -0.37810168148608
C            0.50155762438119        1.02814866311310       -1.64066203124934
O            0.80422839376042        1.75726914909758       -2.47054184737676
