55
 energy: -70.304037020589 gnorm: 0.000300577144 xtb: 6.7.1 (edcfbbe)
Ru           0.13361478311493       -0.22009831684324        0.02941667118867
C            2.28800884654490       -2.46884043736058       -0.39428707439714
P            2.35238790974726       -0.72350950955538        0.26774923981075
C            3.59310694292057        0.09324816591649       -0.85370363839491
C            5.04404194745809       -0.29701971637296       -0.59923304821020
C            3.37891892835768        1.60668885614279       -0.80514112202493
C            3.14703476917053       -0.96156223753788        1.92572716604897
C            2.36082773045859       -1.97817145280417        2.74992025221925
C            3.20272636326703        0.38767791096487        2.63753559468971
C            0.94352118580036       -3.05193994078480       -0.07128981425993
C            0.69066114237091       -4.41169879986914        0.02954966539779
C           -0.59508724045184       -4.84726766732478        0.31481807557139
C           -1.59964159219106       -3.91227420933946        0.52958022511910
C           -1.29302140119057       -2.56617757130050        0.44076792228634
C           -2.25089778825832       -1.45430992829696        0.79451806571767
N           -1.99253772942000       -0.25653532417590       -0.03762189241680
C           -2.24350713278221        1.04616936397772        0.61891626477478
C           -1.11894782768612        2.03130352840795        0.24048017683251
C           -2.77636550395374       -0.41941357373666       -1.28415771036343
C           -2.65552688275166        0.70206033924467       -2.30535936313613
N           -0.04803651198093       -2.16661934305116        0.11677260714700
H            3.09975571628800       -3.09648777922731       -0.01506288261862
H            2.39371368876738       -2.39815716462487       -1.48563214332180
H            3.30371031843529       -0.25615574915587       -1.85626043341757
H            5.16563083026955       -1.37873113518450       -0.59054822892503
H            5.67114713971124        0.10608290590756       -1.39287272745500
H            5.40163285295061        0.10765944890477        0.34474265016936
H            2.30961619136404        1.84042887851297       -0.87952627587001
H            3.75820837630490        2.03123754521271        0.12123918180752
H            3.89461499410137        2.08898751455744       -1.63338682983062
H            4.16098566609377       -1.34389753663702        1.74995977659557
H            2.39819128112810       -2.97475505206862        2.31396266579872
H            2.78104024511471       -2.03424261788003        3.75259554074492
H            1.31977715461330       -1.67181965670971        2.83543864092358
H            3.56079623956724        0.26238842622723        3.65769829727992
H            2.20475077989181        0.82518485752940        2.67307786414615
H            3.86997022024826        1.08018288396121        2.12915934855070
H            1.49321113078499       -5.11747455649034       -0.11778300572941
H           -0.80972976380531       -5.90180369134775        0.38374395494923
H           -2.60204716606362       -4.22287302708777        0.77826150826534
H           -3.29130213686288       -1.79103724897814        0.70484153029860
H           -2.05898745849303       -1.19908630940759        1.84526151779146
H           -3.22205382235810        1.45084818779951        0.33767232278732
H           -2.23444601147086        0.90257282574879        1.70373296953620
H           -1.12405393845358        2.86709567544448        0.94311813362921
H           -1.24909524769611        2.43654725235687       -0.76513565630840
H           -0.05597403010902        1.57426758755869        0.33472531666392
H           -2.45155605159954       -1.35894818177312       -1.74440833618236
H           -3.83595200841711       -0.52047108048996       -1.00978574578037
H           -3.17346699144516        0.39098379661033       -3.21029644580178
H           -3.12133607507112        1.62229938063074       -1.96161183571671
H           -1.62050343801838        0.90271154884585       -2.57297832879338
C            0.38729276116712       -0.27572038686974       -1.81640555948189
O            0.67786037364011       -0.44347622894668       -2.91304514158763
H            0.02610427287260       -0.21395244401436        1.56496156456226
