56
 energy: -75.573718247350 gnorm: 0.000296986447 xtb: 6.7.1 (edcfbbe)
Mn          -0.13246019253595        0.05949343819895        0.38011753216194
C            1.81724585037212       -1.86415894568504        1.86287846221289
P            2.00864603649384       -0.19099852313604        1.05423977350445
C            2.62720854210525        0.89863088382990        2.42720271720126
C            4.04790052073453        0.66126267845748        2.92376446090079
C            2.38490975573367        2.35169915436397        2.01300504056923
C            3.32837397481222       -0.50906976223287       -0.23040582242556
C            3.81772647273582        0.82768837055176       -0.78805262639245
C            4.49366893245724       -1.41108806886043        0.17243817829140
C            0.86490996523592       -2.65272673052448        1.01422331966768
C            0.90969972461164       -4.02999698924362        0.86953845395124
C           -0.04940694179882       -4.66412792325685        0.09341021160535
C           -1.04347562902280       -3.90511078554045       -0.50775279498328
C           -1.03668910202041       -2.53165762232537       -0.33839121064442
C           -2.05089764152683       -1.60262951684426       -0.95923548549789
N           -2.14481631839674       -0.37195564912430       -0.14490390971829
C           -2.44364881999077        0.84794344743466       -0.92617120672645
C           -3.88906718992894        1.03998369096961       -1.38643475740633
C           -3.16572860094319       -0.55543866962996        0.91188094444839
C           -2.88576249835770       -1.69614703463208        1.88206282404161
N           -0.08378463182863       -1.92048684783292        0.39410529181056
H            1.34205813637955       -1.66913605689765        2.83437093613496
H            2.75982605177402       -2.38587493060121        2.03351284737249
H            1.93320149490487        0.65774115064853        3.24692132652603
H            4.78488706099629        0.95077914513372        2.17965907257529
H            4.21950881992366        1.26909241009851        3.81126808971985
H            4.19905523679332       -0.38093688263454        3.19659304642816
H            1.41377141464835        2.44261996085288        1.50484631895893
H            3.15849311337170        2.70523564095837        1.33582699175253
H            2.37600373177103        3.00183381205035        2.88573833849166
H            2.76284116060191       -1.03260926492541       -1.01853765728869
H            2.98599467315373        1.51731049196453       -0.93744358226003
H            4.53397058904170        1.29078925765207       -0.11379149831393
H            4.31008916537497        0.67804484923119       -1.74745944433755
H            4.16636431400127       -2.43349515570582        0.34208205394483
H            5.01180179396272       -1.04957196413029        1.05423923830019
H            5.20902826072995       -1.43033780063846       -0.64873704256769
H            1.68190722121869       -4.59842496593497        1.36371013120864
H           -0.02835038864869       -5.73495957532772       -0.03398092874530
H           -1.81200072710113       -4.37233310025984       -1.10354139216556
H           -3.02319251439519       -2.09939289449101       -1.05668853876889
H           -1.70228204638934       -1.34322423565177       -1.96612130680739
H           -2.14552293584443        1.71398711331484       -0.30023449603995
H           -1.81987039650743        0.84062062233030       -1.82612582518673
H           -4.24418748460515        0.15903053526213       -1.91710957079309
H           -4.56203826207476        1.25831384583748       -0.56173146828926
H           -3.92494786778470        1.88224431879536       -2.07411810588514
H           -3.23041295239358        0.38225702948141        1.47078876074118
H           -4.13885780898623       -0.74401005404726        0.44401083911062
H           -1.88456684423100       -1.62867860131738        2.30621770494612
H           -2.99847352891430       -2.66844110150194        1.40931172898389
H           -3.60326266674589       -1.63571096925717        2.69765094447092
C            0.44960295874702        0.21880634012657       -1.31268442950423
O            0.85639561200734        0.51320867418878       -2.34318539846955
C           -0.55436072088489        0.46975592684044        2.06970431689988
O           -0.77241092492707        0.94214490407165        3.09207058341106
