55
 energy: -70.191974795939 gnorm: 0.000362469962 xtb: 6.7.1 (edcfbbe)
Fe           0.25439475199564       -0.40999878916497       -0.22868018475992
C            2.32493948332536       -2.52046181921648        0.40908134734618
P            2.33269579091702       -0.84643709339672       -0.37106818454530
C            3.41848899779153       -1.12703531268362       -1.85479019943116
C            3.60627449190150        0.17033091874494       -2.63452468758882
C            2.80221059064972       -2.20738902234102       -2.73957243577328
C            3.25511561241502        0.36970399095883        0.69030882120938
C            2.49166126949594        1.68016544433054        0.44993447796093
C            3.25415062129188       -0.00553844763229        2.16644634771777
C            1.00528625237604       -3.12792355534502        0.06174110817080
C            0.75853175582956       -4.48920859474000        0.09597544221087
C           -0.52923210392831       -4.95743919557441       -0.10870381462505
C           -1.55683457318133       -4.04304678515466       -0.28953844293578
C           -1.25179504480582       -2.69799823857491       -0.33238050123161
C           -2.25219150825742       -1.59557655922108       -0.47827698585505
N           -1.73673533616342       -0.40594613519411        0.23530064937660
C           -1.95916273421950       -0.59632380602692        1.69063608768897
C           -1.45436338772122        0.56343738325220        2.52937742804456
C           -2.34814278178710        0.84277367213067       -0.26474660072511
C           -3.83730374338056        1.00945492081658        0.01776521180706
N            0.01577327326080       -2.25901839869979       -0.22171938560568
H            3.17272746780031       -3.15518283732681        0.13707699665779
H            2.32999541741432       -2.36033663935076        1.49356604093588
H            4.38871343763929       -1.47048158812850       -1.46750576224806
H            4.18813022845189       -0.01736128949639       -3.53599106183869
H            4.13580288881160        0.91840215371295       -2.04798651870878
H            2.64119604095458        0.57584315963757       -2.93495957096996
H            3.43040035183859       -2.37215467914852       -3.61404819257721
H            1.81808835054103       -1.90083395856616       -3.08684416904636
H            2.70014347596586       -3.15591194731923       -2.21634163850044
H            4.28948311349686        0.46776955516183        0.33728240561696
H            2.63784701884819        2.04372457337123       -0.56636492417113
H            2.81627176978763        2.45485629013742        1.14261713188055
H            1.40827072573035        1.51125256473175        0.60127455787003
H            2.24054701026912       -0.20361538032706        2.50667876782715
H            3.65553448637989        0.81943360741025        2.75356451798762
H            3.87694704584653       -0.87894908924381        2.35089423535381
H            1.56858722011217       -5.17244684092913        0.29901644266703
H           -0.73528229433731       -6.01613814484595       -0.09212524054476
H           -2.57989636185542       -4.36786548292747       -0.39361868114964
H           -2.35913869123818       -1.34408017433540       -1.53849181719592
H           -3.22854890212805       -1.90374273502377       -0.09090723170440
H           -3.02464034392251       -0.76196229483501        1.87780189169920
H           -1.41687804083939       -1.50021974634145        1.96933087827079
H           -2.08340790933809        1.44508947988629        2.44012219498416
H           -1.44684200266725        0.26097914420266        3.57383518702089
H           -0.43618105449092        0.81902626699829        2.24608803696518
H           -1.78527809314096        1.67406677097377        0.17242394396972
H           -2.19199391114246        0.86690884899319       -1.34609146241496
H           -4.04662809399752        1.09545393780521        1.07995083304212
H           -4.41160802052582        0.18239346408553       -0.39159776763781
H           -4.18042289920585        1.92305079852496       -0.46276841095046
C           -0.01547889788023       -0.23354112410845       -1.94854522289847
O           -0.11863766956180       -0.13914182831503       -3.08758197030332
H            0.62095406189731       -0.58774079072354        1.11265885520433
