48
 energy: -70.309139812527 gnorm: 0.000147544639 xtb: 6.7.1 (edcfbbe)
Ru           0.17792653883115       -0.16855730641773       -0.10494751308482
C            2.47189001745186       -2.33343331304865       -0.48474866356346
P            2.41648968117525       -0.50774236643908       -0.16577017807084
C            2.71084272205613       -0.35293062454048        1.66714774206200
C            1.31454291013477       -0.56397297858844        2.29180032567684
C            3.22303933779169        1.05244795801384        1.98149333082768
C            3.85291397998271        0.19103852347738       -1.09123614711054
C            3.45959347777143        0.25253702630778       -2.56698376016134
C            5.15006285791093       -0.57584798716768       -0.84903610255365
C            1.18389618281040       -2.96945877636199       -0.05943413899843
C            1.11622808888947       -4.32450628691146        0.23375743051282
C           -0.09152506344277       -4.87394119442260        0.63596643666686
C           -1.20110067036778       -4.05415253386675        0.74547567855053
C           -1.07949402769515       -2.70290176418319        0.43358367561351
C           -2.18318929919581       -1.74270490764473        0.50850944527789
C           -3.50460614224200       -2.10204435533963        0.74025637099878
C           -4.48297330428565       -1.11765914610856        0.74694851236205
C           -4.12623036562874        0.19464577645092        0.51140927754058
C           -2.78116497157976        0.49430695213704        0.28030268005844
O           -2.32995945801478        1.71570259970097        0.03066507373769
N           -1.83721742034684       -0.45063120324773        0.30006806743557
N            0.10089907864345       -2.18511604750019        0.03308501116577
H            3.32848359377513       -2.81372458116913       -0.00086131810396
H            2.57906694651976       -2.45218884252189       -1.57154362167338
H            3.41092606847832       -1.10625196653633        2.05209011564719
H            1.29283507318637       -0.15282268389084        3.30419664835840
H            0.51551513690921        0.01512628190844        1.70992913595268
H            1.06273100882786       -1.62628087191291        2.37234523326710
H            2.57784465991340        1.79754429919618        1.51077926899862
H            3.22243395707727        1.22251655439140        3.05723569672044
H            4.24068155918628        1.18985534380750        1.62356934491262
H            3.94740724460076        1.22013833590113       -0.72142337463601
H            3.39963213968345       -0.74186684215626       -3.00676262486772
H            4.19734551156425        0.82214359784156       -3.12794961931245
H            2.48892967271340        0.74320672200767       -2.67271880659773
H            5.35212784020346       -0.68779991571392        0.21500003576588
H            5.11472939411877       -1.56182566520562       -1.30700275121897
H            5.98074073948584       -0.03213402359856       -1.29489635940307
H            2.00052829194709       -4.93623774146243        0.14836073003115
H           -0.16386556991292       -5.92456011821857        0.86940325614029
H           -2.14154214120548       -4.45826480835307        1.07986358440749
H           -3.77728270438167       -3.13106127432661        0.90028846876070
H           -5.51434723928836       -1.37869940493237        0.92495008943156
H           -4.86360065826777        0.98263653409864        0.49644241191810
H           -3.03717060499999        2.37847110462867        0.00665500431835
C           -0.16415705873012        0.01223786216202       -1.89972104979163
O           -0.40962098460097        0.15771474250873       -3.00987294242466
H            0.22081044172274        1.36192965908650       -0.01689162029002
