50
 energy: -76.469953447350 gnorm: 0.000103930189 xtb: 6.7.1 (edcfbbe)
Mn           0.05457102488839       -0.10062303463576       -0.08294847165100
C            2.30473024299434       -2.22940682786043        0.11771907924495
P            2.25405515905783       -0.47847629669076       -0.46958377406107
C            3.74997307237447        0.32009762129350        0.32549798615987
C            3.30057417897563        1.21904357408228        1.47552950029307
C            4.82953451171101       -0.65100293594075        0.80187401491009
C            2.75247337711959       -0.62683612525474       -2.26725582447325
C            4.08292680328757       -1.30925061839275       -2.57117419244800
C            2.71302217334723        0.76618321214511       -2.89808701379962
C            0.98561837331551       -2.83335077112194       -0.24816227867172
C            0.87733549540556       -4.17653371565521       -0.55464606365993
C           -0.37492271254748       -4.71576721045575       -0.83556115350927
C           -1.47326140086621       -3.88779385764411       -0.75354430151490
C           -1.30057554341402       -2.53781555804194       -0.43845440725235
C           -2.40172844290062       -1.61006672691379       -0.24656757872362
C           -3.74548726568459       -1.96149113329410       -0.36193706479454
C           -4.72006346962369       -1.02364925646999       -0.07761199005620
C           -4.33270778648828        0.23925372366489        0.32717604135105
C           -2.97055543005070        0.53741575156529        0.40712154231949
O           -2.63021262143897        1.76330232121827        0.80079489931267
N           -2.01847628432660       -0.35672794897050        0.11151116401641
N           -0.07148300717530       -2.00318136682890       -0.23650390570440
H            2.37140683703808       -2.17113142353251        1.21233104923757
H            3.14744257616244       -2.81243582006604       -0.25591305747730
H            4.16350571489500        0.96277588490430       -0.46222968840659
H            4.13261742870503        1.82578292851107        1.82906369954369
H            2.49531066521037        1.87631423742172        1.14676872909311
H            2.93465843945059        0.62391697102863        2.31034477125795
H            5.13446059513625       -1.34633282901830        0.02484347663251
H            5.70630470819426       -0.08214627304891        1.10912267445294
H            4.48670703371288       -1.21920453658541        1.66408769104591
H            1.93995125749421       -1.23138653903679       -2.70179787213924
H            4.13096795141879       -2.31703535923617       -2.16435049486014
H            4.20051707115049       -1.38390312257176       -3.65195323816408
H            4.91688961831114       -0.72783497884528       -2.18558636659515
H            1.84737258602959        1.32540531185706       -2.53823801755176
H            3.60916695782929        1.33023371858245       -2.64661936236293
H            2.65336077443094        0.69238081520836       -3.98276597561567
H            1.76082881302951       -4.79659987841498       -0.56928116774653
H           -0.48229754346131       -5.75793087597430       -1.09328771444975
H           -2.46040399274752       -4.27928960332668       -0.93627314560317
H           -4.02541441852992       -2.95454623185673       -0.67087687756109
H           -5.76594137711751       -1.27430682540543       -0.16391176895219
H           -5.04033760860319        1.01122811332825        0.57798323510382
H           -1.65397733485879        1.86170549551751        0.76821539340729
C           -0.36889905889418        0.11987706774660       -1.79832628524907
O           -0.79934923722284        0.20096822064547       -2.86775775277631
C            0.27200566169046       -0.13471004575315        1.68466007503591
O            0.36670018435044       -0.20041974289461        2.83694862431150
H            0.14530758935365        1.46229445878238       -0.02297592680456
