51
 energy: -86.357518287047 gnorm: 0.000153862939 xtb: 6.7.1 (edcfbbe)
Mn           0.15761376214291       -0.34711565211728        0.22089907478183
C            2.36970087643683       -2.56768025087536        0.36283841718784
P            2.28008884908279       -0.74523285219371        0.75881639606719
C            2.86574735323184       -0.71102538965519        2.47581477659601
C            2.25117729878753       -1.57118745288184        3.38615337807406
C            2.62868396240290       -1.55020705827858        4.71482267236916
C            3.61028500086397       -0.66733710032263        5.14223439449381
C            4.21021670387941        0.19778688731164        4.24159772414873
C            3.83763439997617        0.18510384194598        2.90807462056231
C            3.60478069570796        0.03073346756700       -0.19280818797718
C            4.86881563291942       -0.52685618393945       -0.35791636617098
C            5.81728599223850        0.15767644782304       -1.09715713399488
C            5.51362877366109        1.39013689959680       -1.65733872649156
C            4.25780249941248        1.95255441623612       -1.48249653656029
C            3.30389900175292        1.27078382549381       -0.75086124353784
C            0.99356020002697       -3.16349644303814        0.47558578211271
C            0.77695120908517       -4.52196143713972        0.64833079307087
C           -0.52377092937616       -5.00942429685824        0.66221457373682
C           -1.57893144706212       -4.13391522981601        0.47280675387784
C           -1.31357619533627       -2.77710883920987        0.31378811649768
C           -2.31069709371461       -1.73759458935431        0.06192152375363
C           -3.68153587673524       -1.92802797104045       -0.04298453395665
C           -4.49636220968606       -0.83558061365090       -0.31228527852760
C           -3.93704168997408        0.41834029802041       -0.47094098376165
C           -2.55401487658074        0.53995057914455       -0.34936785249102
O           -1.96850898121770        1.73723364836218       -0.47987904182031
N           -1.76985466753462       -0.50299490900476       -0.09307909654260
N           -0.03960882254130       -2.30878648337088        0.35334765680019
H            3.09471867087803       -3.08841670021578        0.99621790159585
H            2.69752552134905       -2.63891545133978       -0.68400625848868
H            1.47596950959840       -2.24883156166619        3.04545423676429
H            2.15762172255220       -2.21807040665730        5.42072335940158
H            3.90322114118584       -0.65111490132786        6.18133532432593
H            4.96880900484875        0.88850879629184        4.57865977899796
H            4.30037145201471        0.86460577870529        2.20577702244100
H            5.10366685640596       -1.48212760306670        0.08950018716169
H            6.79912244025215       -0.26917081781906       -1.23763786788295
H            6.26006651342843        1.91638490763706       -2.23326719468941
H            4.02865000217434        2.91410260288259       -1.91741137795347
H            2.30499912784040        1.68731362743927       -0.59589925849315
H            1.61705262042423       -5.18939204057582        0.76132323415233
H           -0.70820354903224       -6.06309335453281        0.80184816632766
H           -2.59290106958424       -4.49765185657408        0.44902212179741
H           -4.11179729652040       -2.90711056335087        0.08279378038605
H           -5.56392159538952       -0.96325398056060       -0.39754273502075
H           -4.52570846590711        1.29605834412195       -0.67937033986387
H           -0.99029190649459        1.68178528756997       -0.41304164931609
C            0.62625780125912       -0.42691031670196       -1.51020235260939
O            0.96941309829372       -0.44958777190971       -2.59977446050025
C           -0.15009046539276        0.07831505609802        1.94582005781940
O           -0.29385610093568        0.42140106612850        3.02348446886305
