50
 energy: -76.457471592432 gnorm: 0.000184269223 xtb: 6.7.1 (edcfbbe)
Mn           0.03628725655540       -0.05330323594489       -0.06315878711422
C            2.27681836996657       -2.15009409689411        0.47740964016819
P            2.25967957634913       -0.43247416337931       -0.20281371659059
C            3.60985685476840        0.47076664114097        0.73498424522724
C            4.65595913084466       -0.42455772500676        1.39882042554852
C            2.98782066883129        1.39832619518791        1.77681943137781
C            3.03909624102198       -0.64257217502425       -1.89985081477410
C            4.52519598267775       -0.99641311622980       -1.93805423069564
C            2.25830309628862       -1.66711217524011       -2.72333329946247
C            1.00408714271801       -2.78871628243272        0.01115485771102
C            0.92672807174609       -4.15068277055913       -0.20162935306170
C           -0.27984249198278       -4.71703940592857       -0.61160873048553
C           -1.37320926811614       -3.89166725046285       -0.74427644399273
C           -1.23790672129410       -2.52163068410993       -0.50029907749805
C           -2.34066173639820       -1.58480637816481       -0.50036286157376
C           -3.66756894078930       -1.91393346309651       -0.78984853952741
C           -4.64548521415908       -0.95058021894692       -0.66906907678540
C           -4.28394801957409        0.32133156328954       -0.24362682208977
C           -2.94416076482419        0.58866901488696        0.01255156620740
O           -2.52488432728061        1.79462578876215        0.43257706490030
N           -1.97947409636687       -0.32743893900875       -0.13307420503844
N           -0.04308144675592       -1.96293053455584       -0.17322060702698
H            2.23936767557698       -2.04380409514127        1.56916828294594
H            3.16012966972935       -2.73149721085672        0.20626322680441
H            4.08719896747815        1.10182160176803       -0.02716380707891
H            4.22350557329935       -0.95430137252587        2.24505962179534
H            5.46619550829443        0.19711042392755        1.77779974599073
H            5.08119077455103       -1.15215060714232        0.71439473721607
H            2.53775271769353        0.82507978475373        2.58521661960771
H            3.75021263932262        2.04823277810457        2.20347642591388
H            2.21090700208948        2.01242030299025        1.32141328032007
H            2.89901325281513        0.34999744260953       -2.35548149883323
H            4.71294907861136       -1.96196096530857       -1.47223914810016
H            5.14044303272819       -0.24159096218969       -1.45747131819513
H            4.84030530069499       -1.06702929017982       -2.97885686973136
H            1.18633682827353       -1.47912436299754       -2.68093822829067
H            2.44706392757586       -2.67876076869159       -2.36566999133199
H            2.56227319540935       -1.61537122875883       -3.76824509723281
H            1.79945737198028       -4.76809771721984       -0.05005247553563
H           -0.35463202524133       -5.77624370247969       -0.80271187168376
H           -2.32981803333801       -4.29653370604237       -1.03225284739676
H           -3.92297647544032       -2.91100284244516       -1.10806338435476
H           -5.67638302795743       -1.17817799439332       -0.89156592912476
H           -5.02234462201684        1.09888872335180       -0.11794462690376
H           -3.26333764748729        2.41757020443557        0.49497848221789
C           -0.21071156580820        0.35161484890740       -1.78012485384910
O           -0.55253219172915        0.66898316558876       -2.84134240930366
C            0.00669886113914        0.02080241035768        1.71420882391335
O           -0.09030792818835        0.07791892058669        2.86703995708675
H            0.07879805902890        1.48382611998081        0.02210243356057
