50
 energy: -81.082953485552 gnorm: 0.000334696661 xtb: 6.7.1 (edcfbbe)
Ru           0.27606154645547       -0.17254440809757       -0.56275018766761
C            2.57855401196593       -2.30999070327940       -0.12903268618905
P            2.48385832575271       -0.45641559451871       -0.07463843025624
C            4.12797804647974        0.18085607367750       -0.46961347884530
C            5.31447319047092       -0.42181283010672       -0.05926090795503
C            6.52154514320752        0.16428182903674       -0.39473702653455
C            6.54897730157515        1.33766848972509       -1.13396689676675
C            5.36700124586900        1.93263368768496       -1.54794082211108
C            4.15357246679857        1.35671253660944       -1.21781401349334
C            2.15866481544665       -0.21597316359612        1.71011518454235
C            0.85054258250929        0.22624533559025        1.95829944128531
C            0.38004268424572        0.31422836765234        3.25590370133362
C            1.21810042841270       -0.03137770768751        4.30932333183608
C            2.51756165824539       -0.44666462399770        4.06866658936438
C            2.99177921193480       -0.54900194861497        2.76983811212927
C            1.27858912543974       -2.80956930711000        0.42035327615819
C            1.19314461172690       -3.96431426812919        1.18295175783235
C           -0.03336913321661       -4.33798328510987        1.71288569544761
C           -1.14522375791837       -3.55273995420829        1.46495529612744
C           -1.00725938758022       -2.41137375668953        0.67969487521599
C           -2.11614558347285       -1.53904104209296        0.28651787810887
C           -3.45359284699705       -1.81919273286221        0.53815225105395
C           -4.42953981517133       -0.97535178974946        0.02650740831688
C           -4.05687139090415        0.10813704737923       -0.74500714041224
C           -2.69709793246274        0.34094560962821       -0.96310062939931
O           -2.21886498005931        1.33197650142454       -1.70231581497322
N           -1.75775633766273       -0.44359657329224       -0.42601565684580
N            0.19639172304907       -2.05498921012469        0.18210398695256
H            2.67931373534828       -2.58271096987751       -1.18884860138647
H            3.42759000720614       -2.72267806480785        0.42216829918850
H            5.30537153409959       -1.34092970225865        0.50841855748698
H            7.44632384824408       -0.29662740638385       -0.08034101928734
H            7.49702751691718        1.78565411130321       -1.39174642654797
H            5.39268649866243        2.84199160645066       -2.12916827563096
H            3.21442593730066        1.79529063997081       -1.53517467128122
H            0.20864521678822        0.61595534309770        1.09992795037590
H           -0.62610445636331        0.65572688641798        3.45394198451409
H            0.85190259480752        0.03580975159829        5.32249461561833
H            3.16398065424688       -0.69766119809963        4.89617052621581
H            4.00426232898147       -0.87418549071634        2.57992827471064
H            2.07587343426679       -4.55821676205862        1.35952433760723
H           -0.11850064900601       -5.22832079600668        2.31586517442285
H           -2.10151971527983       -3.81929291464902        1.88259975990221
H           -3.73708342055808       -2.68512478824159        1.11159391360460
H           -5.47250190367112       -1.17547646813349        0.21558450892311
H           -4.79309401652011        0.76746043738830       -1.17868752121003
H           -2.91682255637326        1.89239177963110       -2.07572309990421
C            0.32172696027086       -0.52464502931797       -2.36705332060160
O            0.34780581987642       -0.70497614514216       -3.49709236327708
H            0.28562945793102        1.32296826298023       -0.91601599009093
