57
 energy: -81.075151261500 gnorm: 0.000211367980 xtb: 6.7.1 (edcfbbe)
Ru           0.03792952963547       -0.28229730926667       -0.15154789111327
C            2.06614067883241       -2.74549845464822       -0.29229232956934
P            2.19507824240901       -0.90366527742669       -0.57947321798340
C            2.84944035049767       -0.80194966877699       -2.27398741573700
C            2.40476708496006       -1.67296881319774       -3.26558136712987
C            2.86006158027638       -1.53211001425460       -4.56363129572590
C            3.74830421877786       -0.51700796028774       -4.88324555892947
C            4.17581635427946        0.36555934789703       -3.90372553783848
C            3.72404495192888        0.23039392769018       -2.60363094614880
C            3.63314501954617       -0.43706660021338        0.42059746910771
C            3.52693951560676        0.64651538596219        1.28369155816160
C            4.61896830833541        1.03513004214839        2.04030878639020
C            5.81455197712053        0.34332359397409        1.93152699506261
C            5.92392661044880       -0.73410010378375        1.06353521583004
C            4.83850927441532       -1.12607514312670        0.30294019062021
C            0.63931370999700       -3.17783480207530       -0.11544858930305
C            0.25827049434603       -4.51191947968039       -0.05282358129418
C           -1.04648479225758       -4.83323366201411        0.28746962014026
C           -1.92240670343850       -3.81597356841021        0.64864994091962
C           -1.49503892365420       -2.50338764513225        0.56819315043411
C           -2.27224250276106       -1.32323936948691        1.10559954334654
N           -2.04486403856908       -0.13732956947529        0.25805500063010
C           -1.99627375070535        1.18071198498805        0.92470502271161
C           -0.93319842307487        2.04101121580756        0.21357222792568
C           -2.98143955766624       -0.14232479768864       -0.88947680927371
C           -4.46637204985998       -0.03440771871503       -0.54335463964645
N           -0.26102236638881       -2.20991616403263        0.10530298632205
H            2.58187451810844       -3.31865876069887       -1.06917464589438
H            2.57887262386854       -2.93561029050768        0.66200372777089
H            1.69502013909657       -2.45525014782490       -3.02680894590383
H            2.51797535962983       -2.21253591585544       -5.32967485088666
H            4.10230020319652       -0.41058444779561       -5.89785923277499
H            4.86034627991033        1.16236030124857       -4.15468179489533
H            4.05062421732388        0.92039587475003       -1.83648752791750
H            2.57984639709652        1.16866436560581        1.35820045286035
H            4.53995425609733        1.87581286348267        2.71376315423848
H            6.66693262183455        0.64460238964988        2.52231427752179
H            6.86029061495323       -1.26570884222895        0.97917696395277
H            4.92244040085726       -1.95550345225841       -0.38633891789902
H            0.98330535214364       -5.28466194219852       -0.25492247039242
H           -1.36514696339094       -5.86304904888745        0.31757828112573
H           -2.91677802421101       -4.04152181023056        1.00006550228965
H           -1.86391819027633       -1.11838488321373        2.10561942172646
H           -3.33450588279827       -1.56170211770359        1.21042714723104
H           -2.96533697455455        1.69001065146886        0.90124486059253
H           -1.70494448690549        1.03701448319651        1.96974554323703
H            0.09808293370376        1.51345409557994        0.09054731136773
H           -0.71941120795956        2.92209364097770        0.82190443662934
H           -1.28503099067922        2.38837786500420       -0.76314620654347
H           -2.71580205212143        0.69532419882131       -1.54007157775749
H           -2.81652899378990       -1.07141042448073       -1.44544459156250
H           -4.84775602381621       -0.93433473919292       -0.06847230300188
H           -5.01860185791823        0.10375524138565       -1.46985574331086
H           -4.68005054597106        0.81562370758257        0.09931739493234
C           -0.25459553974301       -0.29068676492593       -1.99551503924428
O           -0.35916928832301       -0.33380100307833       -3.13383969365244
H            0.36291700712055       -0.29500814829782        1.36178864591438
