64
 energy: -92.378247112549 gnorm: 0.000175151898 xtb: 6.7.1 (edcfbbe)
Ru           0.07795244488599       -0.51439715615404       -0.60403119846560
N            0.00739838038981       -2.60321558661087       -0.16826605229323
C            0.42839990599108       -2.01932252804265        1.10142265708185
C            1.95758372132350       -1.92273439292776        1.17091489028936
P            2.36574306704049       -0.84386400713984       -0.31108021675320
C            3.34972590976442       -1.95670922425947       -1.35465263018935
C            4.46527243353810       -2.60963257678777       -0.82966429126606
C            5.19475708137022       -3.46640033120859       -1.63206302896519
C            4.81868623928190       -3.67492484658951       -2.95184118534558
C            3.71122178741283       -3.02619863782046       -3.47404321080220
C            2.97382344701053       -2.16632448117833       -2.67751615545285
C            3.53520617569561        0.37826807472586        0.34351744821054
C            4.79831341648837        0.58507144478049       -0.20073670470184
C            5.61587624155621        1.56856498613813        0.32977339697681
C            5.17571349256035        2.35141201970387        1.38455880911553
C            3.90353087215273        2.16707945570071        1.90652430632242
C            3.07989570616624        1.19052405506469        1.38210784424012
C           -1.29038400539112       -3.30732334055677       -0.15392544782454
C           -2.42844609238739       -2.37593605019597        0.26155325857938
P           -2.21077671947058       -0.72213862818943       -0.55794884263837
C           -3.04237859383120       -0.79629444015623       -2.16678687304259
C           -3.04190095024136        0.41593553824282       -2.85975672493182
C           -3.63065576461582        0.49981098001252       -4.10559624887781
C           -4.21339371207887       -0.62615853468043       -4.67035276825228
C           -4.20431234738823       -1.83160684668187       -3.98893661309654
C           -3.61839286484255       -1.92507576884873       -2.73689570515983
C           -3.32388686281265        0.31829483314982        0.42580552837882
C           -2.78621735006793        1.29301717663552        1.25891020863538
C           -3.62612253035430        2.06906675209425        2.03848003110034
C           -4.99681611007617        1.87282453675368        1.98423956760116
C           -5.53340370186440        0.90463652347456        1.14741749349176
C           -4.70233034665740        0.12542861530252        0.36492967308645
H            0.71366137659152       -3.25170917737724       -0.52843688474981
H            0.01040073909298       -0.91347234096182        1.15910774185668
H            0.00748328352355       -2.55775558343231        1.96535608724434
H            2.42522340820167       -2.91284570666803        1.12163975116631
H            2.27454944328450       -1.43552217500019        2.09939403845506
H            4.76099269449560       -2.43434791562243        0.19662620822862
H            6.06062783550292       -3.97125134320577       -1.23018065814698
H            5.39395515095632       -4.34387278235642       -3.57407129592504
H            3.42207311477207       -3.18703187778060       -4.50170969694292
H            2.10874574336865       -1.64915125876938       -3.07524400145104
H            5.14085116794964       -0.01283693390654       -1.03342155534897
H            6.59918231925881        1.72695143790417       -0.08742045135683
H            5.81887519380208        3.11668285610959        1.79240432394606
H            3.55422292626391        2.79189363143321        2.71501191508334
H            2.07104826148023        1.06523570540735        1.76179456212975
H           -1.46252651513763       -3.67279996985634       -1.17092372776048
H           -1.24219286847997       -4.17017211499058        0.52567811706637
H           -3.40130304182518       -2.81046035080219        0.01785997852444
H           -2.41762476185827       -2.18915228511591        1.34404044743881
H           -2.56749959681459        1.27879818594051       -2.40363765375638
H           -3.63258704241890        1.43763105030710       -4.64028300618575
H           -4.67185764689927       -0.56371699406852       -5.64591977347751
H           -4.65458214956929       -2.70691400136517       -4.43378914712167
H           -3.62073212166591       -2.87517787587370       -2.22199809664904
H           -1.71283215492388        1.44827825371734        1.27220414156495
H           -3.21333015680169        2.83016553586546        2.68385519244922
H           -5.65192318811885        2.48072379936819        2.59030873358633
H           -6.60281493573755        0.76160015168989        1.10304495206367
H           -5.11531528392599       -0.62215105528872       -0.29896831413759
C            0.07580966724055       -0.12925880765105       -2.40304457446248
O            0.05246148568347        0.10650143791200       -3.52589884243290
H            0.13960405134378        1.00346117130536       -0.37428562985323
