56
 energy: -80.985197693971 gnorm: 0.000208386856 xtb: 6.7.1 (edcfbbe)
Co          -0.06396162553846       -0.22168246807686        0.56632334638592
C            1.92263179743419       -2.20771442737135        1.82817947355736
P            1.96585597642128       -0.43519232852637        1.30326337961899
C            3.26786967649295       -0.34091643106155        0.04602518806853
C            3.57149882953815       -1.41962665405059       -0.77980502347855
C            4.53304978570407       -1.28311323464741       -1.76570205094033
C            5.18295224221104       -0.07227402632546       -1.94343944406501
C            4.86283682650271        1.01245352699150       -1.14081034575499
C            3.90296315685367        0.88413529197724       -0.15459831371881
C            2.66133712204118        0.39288312654146        2.75919969998378
C            4.01725086875060        0.31278703521286        3.06573255478986
C            4.49478185216578        0.91631790892663        4.21480520232261
C            3.62823963740219        1.59464230558751        5.05891475643702
C            2.27704264565181        1.66809570852248        4.75938083298582
C            1.79258424375262        1.06743167115025        3.61107427570350
C            0.90956283877159       -2.88113477672770        0.96049287791339
C            0.88922374302792       -4.25640381606711        0.78337546333847
C           -0.10427421721533       -4.82582756166567        0.00232221236998
C           -1.04999820141995       -3.99854977103577       -0.57913500148585
C           -0.96283406016050       -2.62885217866018       -0.37407316430705
C           -1.91098971976206       -1.67022104587199       -1.02127981593301
N           -1.90980489863009       -0.35880847291654       -0.34772008960149
C           -2.18399002734770        0.70887859887087       -1.33887540507334
C           -3.51220647749929        0.58976252777696       -2.08555564552089
C           -2.90436482633537       -0.31788170666113        0.74536883460225
C           -2.41775779384593       -1.02281661034830        2.00637864059577
N            0.00179673720925       -2.08424477915748        0.37500672830673
H            2.90216638684689       -2.69306607322923        1.79567673591456
H            1.57388747620592       -2.21637951195070        2.86860575201144
H            3.06209102532492       -2.36570034377558       -0.65887699611995
H            4.77555781755750       -2.12401042322444       -2.39878438505442
H            5.93481994191863        0.02846492653933       -2.71181154911078
H            5.36147087458479        1.95919440858830       -1.28657245796800
H            3.64537163148311        1.72817363968681        0.47159127509060
H            4.69315652256724       -0.21230046708371        2.40499691345996
H            5.54636848250398        0.85904843747201        4.45374367060059
H            4.00855241881596        2.06726763590790        5.95215758669588
H            1.60427423733282        2.19531088026973        5.41919258192635
H            0.73927797351818        1.11956028819858        3.36262643900477
H            1.63896728008777       -4.86885234507127        1.25926890930835
H           -0.14160231127951       -5.89388851698328       -0.14521491875048
H           -1.84254540871099       -4.40248417857729       -1.18897720058527
H           -2.91928961413878       -2.10084477290919       -1.05830467299190
H           -1.56842942036228       -1.53044597777505       -2.05307636989060
H           -2.16811370089615        1.66616451707133       -0.81466176437161
H           -1.35981037459391        0.71047430998575       -2.05792554646469
H           -3.59478626858622        1.42807280075664       -2.77317672524004
H           -3.57792452895549       -0.32415025005525       -2.67001845465842
H           -4.35898802434874        0.63582027263507       -1.40599592778729
H           -3.08455109789035        0.73246459026053        0.98391969188614
H           -3.85085440741749       -0.76459051233000        0.41893812516446
H           -1.41763212574664       -0.64755173410652        2.28444889356720
H           -2.37853566504129       -2.10254662162386        1.87758905305240
H           -3.09869319889495       -0.80622960643801        2.82649176490993
C           -0.01133231204383        1.51315643658760        0.66521470805893
O            0.13966790662587        2.64556459923314        0.71793244967448
