50
 energy: -80.966135668100 gnorm: 0.000150204912 xtb: 6.7.1 (edcfbbe)
Fe           0.13388035596891       -0.46599059856919        0.10388117015420
C            2.43331966230761       -2.48692921196960        0.23714541407330
P            2.20419135820839       -0.68039877747439        0.65368797341812
C            2.68304525915567       -0.63204012390061        2.40540846189316
C            2.04073946703371       -1.51256591445988        3.27319129797098
C            2.32722308340839       -1.47986881212198        4.62420764858361
C            3.24151644585768       -0.56020625188922        5.11770534452476
C            3.86413979782395        0.33049169808179        4.25897928894050
C            3.58461193088954        0.30237607618219        2.90297985811400
C            3.60877642896611        0.09802467524667       -0.20044096028104
C            4.90202552795704       -0.41161335858277       -0.11434898919646
C            5.93161214144933        0.22055210579279       -0.78675466314775
C            5.67897694067467        1.35960960738736       -1.53746548474044
C            4.39482250898542        1.87505657043327       -1.61492621929501
C            3.35941666169031        1.24549168318030       -0.94627268975439
C            1.09725510996813       -3.16132049408987        0.25829815418803
C            0.94999512865872       -4.53182864977967        0.37965551245793
C           -0.32030586478714       -5.09427928736478        0.35251656665678
C           -1.42029217588538       -4.26870530013548        0.21446522159632
C           -1.22591718321586       -2.89769021807766        0.11220136144401
C           -2.24993674703012       -1.87907279226451        0.02067072003637
C           -3.63873824835749       -1.96455879772506        0.01979467822636
C           -4.37290835332254       -0.78975004760171       -0.00246631420788
C           -3.74347970335317        0.45627654185474       -0.00960105317563
C           -2.36515090582210        0.46645309233787       -0.01756382211183
O           -1.49608192324085        1.49888044383454       -0.01536943619645
N           -1.66592021521151       -0.66719275632535       -0.02426906443707
N            0.02753486687789       -2.35617838589309        0.12535987272097
H            3.14246817724247       -2.98144593286983        0.90915577576779
H            2.83773329116084       -2.52603246602216       -0.78377471629914
H            1.30837259705216       -2.20690884239371        2.88391625250261
H            1.83545801768932       -2.16609604785594        5.29803877786062
H            3.46257048795619       -0.53331953051232        6.17477798286125
H            4.56711837169843        1.05361595551892        4.64646383709268
H            4.06630584841620        1.00319991114507        2.23508034562468
H            5.09788006487056       -1.29148546907104        0.48199600576174
H            6.93591792001637       -0.17242222549130       -0.72573854525262
H            6.48758625069313        1.84819037562985       -2.06098803152446
H            4.20405602226173        2.76511311938960       -2.19634566871464
H            2.34714794261344        1.63412827447312       -0.99217932088545
H            1.82509947008256       -5.15318802452222        0.49109870640381
H           -0.44367874796933       -6.16215390032864        0.44312985571209
H           -2.42060156371445       -4.66994961436512        0.19595959466454
H           -4.13203275851354       -2.92194123446289        0.04614477365441
H           -5.45095684618808       -0.83289094743851        0.00027678519402
H           -4.31613669458357        1.37056956423841       -0.00013235998212
H           -1.93069752850157        2.35635042853248        0.10129908795159
C            0.49521966640645       -0.46323048778440       -1.61924335159067
O            0.70756825184800       -0.55938970702641       -2.73596460776425
H           -0.04608514111080       -0.47414021553619        1.51229679006602
