63
 energy: -92.272292732763 gnorm: 0.000146364771 xtb: 6.7.1 (edcfbbe)
Co           0.03032935055361       -0.75762401614212       -0.91128853753059
N            0.24223672578031       -2.70016253714383       -0.52798391076976
C            1.51474128123924       -3.03727893611887        0.14002325013259
C            2.67195521687032       -2.48083795429647       -0.68350653686150
P            2.22728069922357       -0.71506662310787       -0.99268403372964
C            2.69934184684295        0.04967987140695        0.58950066226668
C            1.69037432915544        0.34450330126802        1.50208645254894
C            2.00631852697874        0.88110848476405        2.73682726268769
C            3.33128567590760        1.12728034702826        3.06190009515814
C            4.33858910562700        0.83681318496631        2.15396742325227
C            4.02849686471592        0.29682779742924        0.91872629028459
C            3.44332578471488       -0.04070833969471       -2.15370231680941
C            4.38195413416547       -0.80758697108038       -2.83522049707304
C            5.26645490156873       -0.19366996191223       -3.70641097575678
C            5.21576553012274        1.17601383702340       -3.90600309890430
C            4.27520371715449        1.94248339235949       -3.23334582977303
C            3.38874497906495        1.33719285604402       -2.36418390753101
C           -0.91904776647445       -3.41644911240947        0.04961930783422
C           -1.69711101369586       -2.49302440402937        0.98262151057887
P           -1.95469909424696       -0.96760674238049       -0.02248892928905
C           -3.13739393826726       -1.50247606471922       -1.28810652780162
C           -2.65462905300863       -1.64536688644911       -2.58575111383856
C           -3.49464868504933       -2.08109555979765       -3.59401703023210
C           -4.81959907127255       -2.37022694750325       -3.30510356271559
C           -5.30419111592408       -2.22326166492518       -2.01348375159718
C           -4.46787514879241       -1.78971329306126       -1.00055658725516
C           -2.89359498898527        0.19880659011240        0.99373320493667
C           -2.95743842767340        0.12315789914569        2.38143353873128
C           -3.67419491888991        1.07428451522547        3.08770293378588
C           -4.31675141337593        2.10398819780981        2.41993541153610
C           -4.24187399902793        2.19047186761419        1.03732514979332
C           -3.52825665378464        1.24601578435161        0.32545080428174
H            0.34467247342799       -3.02661399113886       -1.49560218896644
H            1.51716202441467       -2.59213600639604        1.13975669661694
H            1.61658361812133       -4.12515200992825        0.24365351856006
H            3.62504177344170       -2.56879013396278       -0.15675290142704
H            2.73850108692048       -3.00750835446085       -1.64074340083581
H            0.65001324654522        0.16150874497832        1.22568083795413
H            1.22322418207099        1.11366502109531        3.44332114813857
H            3.58073692584596        1.55048331332758        4.02351440896975
H            5.36913921624841        1.03356653789151        2.41021645957612
H            4.81287116481869        0.07543261740979        0.20763825457287
H            4.43749734014334       -1.87610251754810       -2.68910167830719
H            5.99903130999729       -0.78885368466191       -4.23171366173813
H            5.90834364044608        1.64741855305630       -4.58717733504355
H            4.23453150623133        3.01014690881846       -3.38982721302225
H            2.65009912721690        1.92548352896456       -1.83437151926382
H           -1.58267204819128       -3.72958603808158       -0.76248431438440
H           -0.58727305296412       -4.31360203282785        0.58236026711554
H           -1.09578526555069       -2.24228262849071        1.86090966130162
H           -2.64220304567057       -2.93853198515351        1.30300735464264
H           -1.61292878160662       -1.39339940620362       -2.79232557636143
H           -3.12381065225887       -2.19064805543801       -4.60239169223416
H           -5.47973084727540       -2.70698366306607       -4.09049631280888
H           -6.33867278412080       -2.44611846868766       -1.79784448779994
H           -4.84278646831267       -1.66572724509468        0.00629780813726
H           -2.45907432994837       -0.67332985742717        2.91396881567852
H           -3.73122362173930        1.01166273789988        4.16449910073097
H           -4.87450589947604        2.84227704281950        2.97649403991910
H           -4.73925972796850        2.99572578655426        0.51746555248831
H           -3.46121196751556        1.30674012497876       -0.75340367178554
C           -0.20503999197898        0.87302655229715       -1.45194181641883
O           -0.38612925261158        1.92864357189567       -1.85207497916598
