55
 energy: -70.301240698288 gnorm: 0.000217601804 xtb: 6.7.1 (edcfbbe)
Ru           0.04003552267765       -0.14968175979050       -0.11811220235676
C            1.96566057792648       -2.50182469653591       -0.83514697460965
P            2.25172770462007       -0.70142463034338       -0.42113558373750
C            3.22945697478087        0.10446063359700       -1.79021627487128
C            2.70095677568981        1.54003150310121       -1.85612649741870
C            3.12727964598914       -0.59889357880033       -3.13785036549030
C            3.50276280380239       -0.78819527348217        0.95465405389377
C            2.87424635518547       -1.27629829955706        2.25621113838187
C            4.71346746711670       -1.65609935045662        0.59736858395484
C            0.81992514789438       -2.97922039476560        0.00826350296216
C            0.64622833378395       -4.29190044046866        0.42073007835043
C           -0.47138192639498       -4.62692720771232        1.17146530113370
C           -1.38578956584397       -3.63897206593548        1.51498721920174
C           -1.15819062951505       -2.33926324505349        1.09900803855925
C           -2.00368991127310       -1.15633823823363        1.50777784667092
N           -2.01001273512889       -0.14203874654294        0.43297105132074
C           -2.10936893437284        1.27424903085554        0.84387879970441
C           -1.19070722181900        2.10917206443448       -0.06723715050335
C           -3.01125848462147       -0.48940780722408       -0.60008499081263
C           -4.46505292275172       -0.54516448780908       -0.13031375558278
N           -0.08044840263122       -2.04268499380006        0.34721972247767
H            1.66084817344714       -2.53621960735124       -1.88938915154575
H            2.85040497720562       -3.12941240093423       -0.71157764680903
H            4.27974408778070        0.14035548365698       -1.47976391690644
H            3.29875266119603        2.13950523431957       -2.53991590607201
H            2.73771247454884        2.00366956782259       -0.86692487218397
H            1.66460877340635        1.54911632451622       -2.20762352761461
H            3.66567511056148       -0.02203391942856       -3.88825374764533
H            2.09235809757419       -0.68034808784128       -3.46394430302617
H            3.56757183785477       -1.59322039856351       -3.09950902197073
H            3.82388554132825        0.25544130580771        1.08302270580475
H            2.06226069167383       -0.62426631926511        2.56495548075325
H            3.62518172349919       -1.28519271786450        3.04399876978300
H            2.48493649862761       -2.28804399416177        2.14343006325457
H            4.50134708049563       -2.70663119205193        0.78425015040222
H            5.55465646397988       -1.37578159557419        1.22851604496711
H            5.02243644973584       -1.54451798802992       -0.44025768586827
H            1.37635915754911       -5.03959629168523        0.15317276466611
H           -0.62530176409558       -5.64491330030098        1.49240470825677
H           -2.25436871134047       -3.87224581493447        2.11026962463293
H           -3.01415640938241       -1.47251497149899        1.78315696560364
H           -1.52740663422276       -0.71651265337362        2.39393901123745
H           -3.13682322923972        1.64716758358261        0.78044767075958
H           -1.77069771346888        1.36826048731555        1.87982796257891
H           -1.60065173692334        2.19728277787967       -1.07848160548943
H           -1.09308801579612        3.11641243828858        0.34139186573718
H           -0.10802682917419        1.69876133354860       -0.10900820575565
H           -2.93022814896399        0.25300019195809       -1.39895785597415
H           -2.73825015422440       -1.46653610890317       -1.01378523851149
H           -4.75102024932943        0.34125327311950        0.43002438962435
H           -4.66683723013066       -1.42267500590880        0.47821765204424
H           -5.10377772746030       -0.60413383831097       -1.00824731321603
C           -0.32079221590988       -0.45369730912078       -1.91904892457667
O           -0.53114349523647       -0.63267026214455       -3.03250091469640
H            0.37052249263631        0.16042838151657        1.35283124035943
