56
 energy: -71.024072713220 gnorm: 0.000559622370 xtb: 6.7.1 (edcfbbe)
Fe           0.00126389634228        0.00533050322226        0.25405789878071
C            1.90980952978052       -1.91531890739339        1.70550940261807
P            2.00671481515324       -0.19879772030093        0.98647598404209
C            2.57970831480170        0.77323210871653        2.47577068492268
C            3.95712677389251        0.44042390900838        3.04012655538469
C            2.40914095830135        2.26660578806229        2.21878303110677
C            3.40867925028124       -0.36209472720731       -0.26071118636329
C            3.69872304643940        1.02679065926391       -0.82560770589866
C            4.70010757177585       -1.08544207616071        0.11110280031210
C            0.85782769491272       -2.64177069252457        0.93018970755678
C            0.81574441489774       -4.02061989380430        0.85332884701391
C           -0.22972248907357       -4.64592136321581        0.18678502717395
C           -1.21958261859369       -3.84277076495351       -0.36417226382672
C           -1.11427203114849       -2.46997540715569       -0.26532251025132
C           -2.12768721905289       -1.54103615114904       -0.87697197391034
N           -2.15809724286968       -0.25590295686106       -0.15887194017644
C           -2.60304975652726        0.83967614546367       -1.04499663060042
C           -3.99987737769356        0.71204800539514       -1.66132956473377
C           -3.07210941227965       -0.32729742421426        0.99819404187747
C           -2.74879020519150       -1.39632008018529        2.03280330587782
N           -0.07586916381152       -1.85783804511598        0.34361305723880
H            1.54169968709133       -1.77298951209061        2.72970989535395
H            2.84908541832641       -2.46924641163064        1.74550726006089
H            1.81154397849966        0.48432216597636        3.20803954891947
H            4.74236366261479        0.87811870513987        2.42809786309492
H            4.04902881953332        0.85918763659697        4.04242870838776
H            4.11353182129894       -0.63444719787274        3.10521978374193
H            1.44530659159922        2.42749132523478        1.73824012802979
H            3.19168639452731        2.65364579316082        1.57013849200562
H            2.43796531936021        2.81963784796422        3.15708707533169
H            2.91210091541625       -0.95229291989404       -1.04816844476692
H            2.76470564582166        1.57722613577082       -0.94753659419872
H            4.34754581000437        1.58683602536631       -0.15467649341082
H            4.19238159965300        0.95738965465746       -1.79494361381139
H            4.51276278765422       -2.08631027904269        0.49212380264136
H            5.27597381399149       -0.53283004112625        0.84630418790647
H            5.31302687203669       -1.18500573322920       -0.78550441234322
H            1.59407124220186       -4.60412889023908        1.32264214428783
H           -0.27868322954338       -5.72072638665028        0.11137354494110
H           -2.06657900650984       -4.27951622180604       -0.87260960704966
H           -3.11839803856164       -2.01749457634792       -0.90179162757735
H           -1.81483001064728       -1.34328432203122       -1.91013276910216
H           -2.54029565247363        1.76169875964469       -0.46359817941940
H           -1.87308079377895        0.92180946954953       -1.85302518300013
H           -4.11871882956876       -0.22662842333090       -2.19796729537252
H           -4.78836685353302        0.79778298119477       -0.91833063282852
H           -4.13006131396481        1.52268272699634       -2.37466708850220
H           -3.02732333148917        0.64868456427706        1.48599349405919
H           -4.09665016024141       -0.50404676539495        0.64116790742574
H           -1.73062357096092       -1.27079069027666        2.38997633818409
H           -2.86668200953541       -2.40230859209167        1.63626670794630
H           -3.42806591454293       -1.28058810108262        2.87542665589766
C            0.43190021708038        0.10035065696186       -1.42627276046089
O            0.75090173163042        0.21169808612885       -2.53846508748473
H           -0.28527112471099        0.18835761595653        1.68382162519814
H           -0.02512629071146        1.47050107515153        0.20392003891703
