51
 energy: -86.367665842988 gnorm: 0.000170822925 xtb: 6.7.1 (edcfbbe)
Mn           0.00820734189373       -0.27145907377509        0.17547601666410
C            2.28740951013523       -2.31132751494749       -0.56573176041257
P            2.08797037554874       -0.45081920028236       -0.62659614911992
C            2.45164354740636       -0.09929418660127       -2.37129906396157
C            3.28402485476909        0.95093369592509       -2.74437339949859
C            3.49023778213940        1.21818064851762       -4.08705850843082
C            2.86195744345857        0.45167088907593       -5.05520827208433
C            2.01768175073107       -0.58497973078759       -4.68453177004387
C            1.80621086797671       -0.85886470313684       -3.34669369661717
C            3.53853521693867        0.18359084535684        0.24924842601020
C            4.81415808671828       -0.34873667628079        0.08167789556392
C            5.87663418616394        0.20922385474357        0.76957029649149
C            5.67372705256044        1.29467255236595        1.60970640236061
C            4.40593249292655        1.83417928743157        1.76542238379866
C            3.33773412371917        1.27850848591258        1.08484975223320
C            0.93706941748342       -2.97028234725939       -0.60868301676018
C            0.76228099671635       -4.30209757738366       -0.95362627532221
C           -0.50472547714981       -4.86934396317884       -0.88089626995445
C           -1.56725137975083       -4.10122624780583       -0.43803568665275
C           -1.34609768126929       -2.76671553675070       -0.11667188521652
C           -2.33007356011412       -1.82126196015853        0.39668088365128
C           -3.68157610964924       -1.99091696655070        0.68891473273371
C           -4.39031823921620       -0.91245339406578        1.19644366454126
C           -3.77317025624940        0.32111080093641        1.40694304906401
C           -2.43195604239976        0.41162068493803        1.08891496361726
O           -1.58903700569007        1.47139676082523        1.17133783794393
N           -1.75598787598674       -0.62506462801571        0.61162754537658
N           -0.10742272478358       -2.20924562294115       -0.23835331536374
H            2.94669992633751       -2.67591156894913       -1.35945741120810
H            2.75033755651199       -2.53301186219332        0.40649112217740
H            3.76844802956957        1.55204854284200       -1.98740395165911
H            4.14051860541847        2.02987988132856       -4.37804692892880
H            3.02448855998706        0.66541015681654       -6.10109973188948
H            1.52256784452522       -1.17546958218504       -5.44125679443814
H            1.13644505964961       -1.65776535740462       -3.04948082056274
H            4.97047882917189       -1.18568693506738       -0.58377500147308
H            6.86870809743652       -0.20028128165034        0.64998465081485
H            6.50895963296576        1.72369007747679        2.14302969482444
H            4.25494948266346        2.68288650787417        2.41592169822216
H            2.33137760411263        1.68183101661343        1.18517844547710
H            1.61082626139779       -4.89134691415367       -1.26457685299726
H           -0.65301705578935       -5.90337445733173       -1.15017910155728
H           -2.55477731645038       -4.52262434525777       -0.34158914155454
H           -4.16779939563847       -2.93831699504727        0.52623713126640
H           -5.43721661267632       -1.02262749240421        1.43195154870412
H           -4.32198260769242        1.16358888126581        1.79761940076645
H           -2.00861559367282        2.27432152991275        1.50927611043347
C           -0.46595517774350        0.40417949436647       -1.42412323798168
O           -0.74312219132770        0.92966685347168       -2.39825653969810
C            0.66974522475973       -0.52143138274582        1.82499688739727
O            1.10277917503359       -0.60951765640620        2.87871913807527
