56
 energy: -80.867407734544 gnorm: 0.000119684879 xtb: 6.7.1 (edcfbbe)
Ru          -0.03406782897293       -0.24781439522984       -0.84670894227090
C            2.27014916561072       -2.32363064360288       -0.53866659756507
P            2.21374198352748       -0.62536890877836       -1.01935481486451
C            2.94699764818058       -0.43375986161653       -2.68527076205604
C            2.68260973047852        0.75265059648821       -3.36497386527008
C            3.16846383896749        0.95157260369933       -4.64286601817399
C            3.91788532267785       -0.04223564503492       -5.25499343906696
C            4.17658677661677       -1.22824539334586       -4.58747512313685
C            3.69199565519573       -1.42630192210298       -3.30550052811927
C            3.47876134355829        0.20072424555092        0.00856362194044
C            3.40459766284365       -0.03430834174764        1.37922318590752
C            4.31892567299317        0.54033463421417        2.23991870419373
C            5.32130350661327        1.35777286231333        1.73885842217618
C            5.40037969699372        1.59628090629626        0.37719852428762
C            4.48384754321667        1.02280753402333       -0.48856061002563
C            1.05653960718730       -2.92961191211446       -0.26287766734222
C            0.88193014420812       -4.28550850310982        0.15611237179148
C           -0.36942296863229       -4.79504976062714        0.33556326837543
C           -1.50665990225625       -4.00265254237849        0.08472122840033
C           -1.30627957395641       -2.69735756910346       -0.31006429937751
C           -2.43399876017935       -1.76474522959268       -0.72981012588900
N           -2.12860884289928       -0.38070430802229       -0.32173817444556
C           -2.49369236304180       -0.18196531015542        1.09429075139418
C           -3.98882697797682       -0.18515939439350        1.42264185393632
C           -2.62502980767142        0.70049659890868       -1.18530673070175
C           -1.62581906636448        1.87558747743283       -1.14875106685597
N           -0.07840612904360       -2.18686081667436       -0.42995398515603
H            3.20964664113311       -2.83286674703467       -0.37406969459209
H            2.08335726687718        1.51383061831677       -2.86842047524553
H            2.96053399171281        1.87374166006777       -5.16803722845141
H            4.29383861951665        0.10706803462926       -6.25720698315002
H            4.75533133839980       -2.00305860842245       -5.07084856475694
H            3.87948944471375       -2.35358238574774       -2.78240440755444
H            2.61170372334426       -0.67106607829011        1.74952334103554
H            4.25515650697295        0.35287770161130        3.30270734890199
H            6.03986059346485        1.80750362537657        2.40934300364048
H            6.18181122302054        2.23223364576021       -0.01546571981825
H            4.55745608645879        1.21324108025515       -1.55061900444949
H            1.76277273398876       -4.88701405505865        0.32026890572825
H           -0.50139758649058       -5.81817137318230        0.65683077136862
H           -2.50014749385615       -4.40774663344938        0.18529834502871
H           -3.39027500205238       -2.11610013568174       -0.32467207129868
H           -2.50071802626130       -1.80627386528648       -1.82580557178970
H           -2.06509538483174        0.76699466500686        1.42536891896093
H           -1.99937080403107       -0.97735254288925        1.66006910009828
H           -4.51041456278489        0.65747313843566        0.97495422842319
H           -4.09474483006022       -0.10303355498142        2.50149295808679
H           -4.47991912195422       -1.10322374217137        1.11070197719740
H           -2.70108036734328        0.32560035218886       -2.21244653377328
H           -3.62071024388598        1.05135021965292       -0.88493788497866
H           -1.72650152169914        2.44414716088025       -0.22184090662400
H           -1.81021072624350        2.54905646699439       -1.98643507782682
H           -0.53700160566016        1.52633079094129       -1.22829790196818
C           -0.21744544610580       -0.62692170913725       -2.64112473137205
O           -0.24885119708643       -0.77650193972585       -3.78893142780532
H            0.24025411450137        0.19011469383334        0.63676162209358
