53
 energy: -69.990066129799 gnorm: 0.000161557350 xtb: 6.7.1 (edcfbbe)
Co           0.19171703581718       -0.23806041726379       -0.25194829580492
C            2.30698508103092       -2.26000130979105       -1.14646127834692
P            2.29074340799241       -0.54693253151007       -0.75799347537168
C            3.43464401465086       -0.25882981106958        0.69187677377126
C            2.73652410469787       -0.89460073165954        1.89126036882834
C            4.82513848126436       -0.84328077122074        0.47577779404771
C            3.09805945579740        0.30857877703230       -2.20119767181940
C            2.09572773510883        0.22436977595632       -3.34998554550261
C            3.48641357633072        1.75336882342624       -1.91250637188620
C            1.09584913254342       -2.87173094969657       -0.91247262650203
C            0.85733308756348       -4.26642959675754       -1.12197282065806
C           -0.36155843620425       -4.80527876601814       -0.85563835797336
C           -1.39043746866191       -3.98225477495688       -0.35929518693923
C           -1.11925682189574       -2.64691880225571       -0.17167373819202
C           -2.13617021209536       -1.70548058275147        0.41445820011453
N           -1.88556942921691       -0.33777999409684       -0.05685029822102
C           -2.51012374411056        0.66604456406022        0.82818742102679
C           -3.91456299998190        0.37145224364996        1.36580470724516
C           -2.24267414781160       -0.17706943769049       -1.48269880798515
C           -3.72545751346609       -0.20193738102971       -1.86084855249338
N            0.06147937811356       -2.08583173617586       -0.44962258295133
H            3.16813668057666       -2.78456055212534       -1.52964794522276
H            3.50124755169508        0.82304316291640        0.85146601381935
H            3.26344511069379       -0.67817024948455        2.81948532365545
H            2.68560581535583       -1.97531073326250        1.76059601609576
H            1.71201841450760       -0.51138581976470        1.96347941427501
H            5.33095558049977       -0.36384835894319       -0.36008365708085
H            5.43510311970336       -0.70610961632294        1.36840492424025
H            4.75386123767817       -1.91034029857573        0.27200057098408
H            3.99225272763115       -0.27453141823707       -2.45930595444471
H            1.18370043870030        0.75900004739614       -3.07873489176033
H            1.83584444377964       -0.81573418198443       -3.54517726228519
H            2.50225678806895        0.66101361067431       -4.26110230151313
H            4.27253856269938        1.81236425690814       -1.16303846777622
H            2.62428934591803        2.31211204590458       -1.55421213861083
H            3.84920403894505        2.23166299848699       -2.82214476798223
H            1.67272075442869       -4.86985522053629       -1.49340729039296
H           -0.54910321649712       -5.85865035177752       -1.01461570944446
H           -2.36166167494818       -4.38750991728946       -0.12339603782280
H           -2.00800117650419       -1.71511364063637        1.50278114251790
H           -3.15367062574885       -2.04653018852519        0.18877916141842
H           -1.85081696279492        0.79081664365912        1.69371132847599
H           -2.52281166002461        1.61447782144405        0.28616654928156
H           -4.24821022723320        1.24166857883797        1.92752872660403
H           -3.91163990749335       -0.47812665796500        2.04425805953267
H           -4.63733664121963        0.18206907859826        0.57988215708657
H           -1.73682606213199       -0.97759494515129       -2.03149688649129
H           -1.82153516503921        0.77664132694261       -1.81921910449025
H           -4.24536269568051        0.68201128579249       -1.50094729241285
H           -4.22667391622252       -1.09256457268312       -1.48955729247964
H           -3.79867377759617       -0.21051859737295       -2.94657314173734
C            0.36256755504840        1.45599457417718        0.01393798807282
O            0.54062265691652        2.57902503169997        0.23548556468279
