58
 energy: -81.810830393589 gnorm: 0.000147340168 xtb: 6.7.1 (edcfbbe)
Fe           0.04191754104601       -0.01207220713882        0.44745338018433
C            1.91162168059735       -2.02638119882352        1.81296935060756
P            2.00749308235882       -0.26234453832800        1.21595139015201
C            3.46000808013614       -0.31923556799207        0.10703482903924
C            3.63227013283150       -1.39133659519296       -0.76438803705590
C            4.66913120188272       -1.38826156684317       -1.67919491159947
C            5.53395363278615       -0.30732296733755       -1.74501777090277
C            5.35082695603095        0.77655954721156       -0.90098238717362
C            4.31519025602381        0.77525912658051        0.01554734922233
C            2.71811397029031        0.56029706698183        2.67861244217185
C            3.93467151148826        0.16106469050112        3.22640256477106
C            4.42338775729508        0.80006652929629        4.35125048711285
C            3.70603100529956        1.83707183379652        4.92922574623542
C            2.49711398268407        2.23728900936313        4.38268979898890
C            2.00215074459890        1.59974456345699        3.25778683360393
C            0.87708588476787       -2.70222159950579        0.97040941823898
C            0.83341918581784       -4.07453431418294        0.81306370157908
C           -0.18074461082905       -4.65299484643329        0.06144760343778
C           -1.13583792637535       -3.81387948217099       -0.49668704623182
C           -1.03213990558819       -2.44921687627353       -0.31274534269339
C           -2.00002564089452       -1.47665124351147       -0.92961467323409
N           -2.08139095671666       -0.24212832564930       -0.13020343443340
C           -2.46376067858019        0.91159024937602       -0.97225564384755
C           -3.80790304779781        0.82453488117364       -1.70185839991751
C           -3.07503396909132       -0.38634811939005        0.95293320864296
C           -2.82998502811324       -1.52943826536526        1.92819654692976
N           -0.02838411682518       -1.88142948748578        0.38856988114515
H            2.86671113387792       -2.55903340802222        1.82506773153650
H            1.53255267749402       -1.94740486186336        2.84084985398171
H            2.94567206007370       -2.22855167764450       -0.73049141242412
H            4.80128934120063       -2.22758059422798       -2.34826483124868
H            6.34300913308586       -0.30533932367160       -2.46167054356355
H            6.01487072091466        1.62749767812326       -0.96337072917755
H            4.15942471817335        1.62491554596907        0.66811996981576
H            4.49721668481957       -0.64090474486083        2.76604087120565
H            5.36732952146380        0.49225304541279        4.77947477453239
H            4.09429549775026        2.33422346643271        5.80721057782669
H            1.94256403378291        3.04743318700485        4.83489090805030
H            1.06114948936400        1.87778226046855        2.80421251838936
H            1.58798074787341       -4.68756152399841        1.28339441087739
H           -0.23001510671048       -5.72154155546485       -0.07623089692499
H           -1.95361693972602       -4.21561269525438       -1.07639315720655
H           -2.98642961505893       -1.94457945084068       -1.05739830247891
H           -1.61170571335603       -1.21038234741562       -1.92123304976684
H           -2.45240949021100        1.79195873298925       -0.32663662627579
H           -1.67350321206564        1.04898286641085       -1.71369689089137
H           -3.89438205486931        1.69046752873515       -2.35421987096651
H           -3.87308557857092       -0.06715987982155       -2.32125142722041
H           -4.65183644629013        0.84320947236237       -1.01748101722125
H           -3.05994353780168        0.55226192552194        1.51086284155573
H           -4.07249266420722       -0.52742626031888        0.51371577830506
H           -1.83871955626755       -1.44211853539898        2.36421146549038
H           -2.92730068384822       -2.50340858650229        1.45381521828882
H           -3.56528059669704       -1.46603831763694        2.72815743810505
C            0.62525755096039        0.23656811130894       -1.17481349791435
O            1.10226199235744        0.45283694567488       -2.21020002097685
H           -0.32339096505336        0.03224617098312        1.87032822926555
H            0.00718378113950        1.45215034992458        0.54024955040261
