55
 energy: -70.189806195591 gnorm: 0.000130716179 xtb: 6.7.1 (edcfbbe)
Fe           0.00327795821327       -0.11536054269605       -0.75917509082882
C            2.12191757250055       -2.10836707631475       -1.72781581672763
P            2.06215059450426       -0.31313025518382       -1.25427442120419
C            3.31930852454139       -0.19120530268422        0.10015989521522
C            2.97821135273591       -1.18184482812601        1.20878296676632
C            3.30237714380203        1.23501421847854        0.64215297026026
C            2.69981156422839        0.58163215159549       -2.75545485612565
C            4.20976854210950        0.52887837268044       -2.94942569857446
C            2.15198440047554        2.00982159204606       -2.70449730477893
C            1.06078867701046       -2.77163145842461       -0.90664151051497
C            1.04544322465464       -4.12375332013237       -0.61912396069643
C            0.03936787321899       -4.64288346706829        0.18093567079689
C           -0.90689853102828       -3.78171682885340        0.71481832954362
C           -0.83984949425109       -2.43722618542647        0.40596137178638
C           -1.70807624079519       -1.38614264993370        1.01658805419041
N           -1.83629799318226       -0.24392088644807        0.09018723228215
C           -1.99448708486745        1.03675044037012        0.81334462315219
C           -3.31871604513124        1.21782002004444        1.54611426567769
C           -2.95045311758558       -0.50746317006595       -0.84748979897085
C           -3.16398255723525        0.61971969865282       -1.84555703196258
N            0.10145293054868       -1.95295198933862       -0.42718573229104
H            3.10091200620341       -2.57144713662088       -1.57142912479400
H            1.87405653949126       -2.18468253426326       -2.79319862348245
H            4.30174118945489       -0.43447482679797       -0.32700688733266
H            3.06441176469268       -2.21505173090377        0.87864850966877
H            1.96450444109061       -1.00726168860851        1.56077731927811
H            3.65939808422510       -1.03888452907523        2.04622153267698
H            3.66286106915153        1.95138956428436       -0.09294217717562
H            2.28465684128559        1.49952299309614        0.92483555247609
H            3.93642523284739        1.31162392679564        1.52400836316866
H            2.21491863263067        0.06087332313520       -3.59387423732555
H            4.56760102888064       -0.49924349021744       -2.93952245057112
H            4.72778278961354        1.08869029676660       -2.17405823531342
H            4.47237053229308        0.96876198681615       -3.91073430069292
H            2.71524311328853        2.62464229479792       -2.00663071834390
H            2.20769365919611        2.47827197280108       -3.68583722268457
H            1.10225548669710        1.99685561899300       -2.38063689447412
H            1.81907635457668       -4.76137484831502       -1.01819976082482
H            0.00722263581965       -5.69820611170481        0.40184690839547
H           -1.67940282694449       -4.14466940212835        1.37394226532533
H           -2.68497788125568       -1.78719056004387        1.30321413830746
H           -1.18988724339625       -1.03054705377775        1.91337885971657
H           -1.84486145695376        1.84110921412671        0.08051446579001
H           -1.17963683703643        1.09295464554456        1.53599449534551
H           -3.49066742589944        0.40351571243286        2.24547792939851
H           -4.16516836264543        1.28631019123940        0.86875345270888
H           -3.27544370404421        2.14347099436914        2.11557715939963
H           -2.69649026778770       -1.42781533156538       -1.37834741648833
H           -3.87174803152115       -0.68385093069855       -0.28337452140447
H           -3.76987108587324        0.25595836846802       -2.67187221434804
H           -3.67784147375886        1.46796478236271       -1.40158939521711
H           -2.21112363312856        0.96366555440452       -2.25116759214579
C           -0.39482990782122       -0.50249874823580       -2.41991571127474
O           -0.53124007143200       -0.91037347871526       -3.48287524161326
H            0.47001227515452        0.11511513729142        0.53933830994368
