66
 energy: -98.534612792258 gnorm: 0.000121777753 xtb: 6.7.1 (edcfbbe)
Mn           0.23427808665712        0.06153668554648       -0.33918733840608
N            0.01429543854143       -1.92270600779118        0.77550526497080
C            1.23988010573051       -2.72631772586614        0.87974182018066
C            2.47415817251047       -1.82765233921482        0.92041497386816
P            2.30933672969518       -0.66701702537485       -0.51658734651378
C            2.87300613920765       -1.63594839248251       -1.96106181932344
C            3.38875266488888       -2.92609819072679       -1.96308234642806
C            3.77841892429484       -3.51044541480442       -3.15753285428892
C            3.66056594049621       -2.81688037609960       -4.34958372088294
C            3.14725843407362       -1.52816977974779       -4.35338609657810
C            2.75307028202920       -0.94424337294689       -3.16620972089235
C            3.79857366258093        0.36996095759117       -0.31853579547649
C            5.05699096693792       -0.20921854433750       -0.17286575272603
C            6.17439506367407        0.59240600606667       -0.03512250926272
C            6.04723835603619        1.97322486464126       -0.05359331631960
C            4.80075421362186        2.55233616155030       -0.22340375369857
C            3.67824281227578        1.75381367160705       -0.36072908792839
C           -0.67295818025737       -1.69678738602339        2.04719908188416
C           -2.02191568755715       -1.04673714735228        1.75645795638930
P           -1.74406931075066        0.39610589375139        0.60500537149897
C           -1.94451112441354        1.84880169960521        1.69329932604143
C           -2.31383073037332        3.04241209962803        1.07523872146773
C           -2.42602178157471        4.20546836347813        1.81197317073525
C           -2.15795956938683        4.19255984298088        3.17236276461302
C           -1.76605695754868        3.01580635477279        3.78722199595542
C           -1.65303387364932        1.84784119927012        3.05263673103503
C           -3.37220447266237        0.46573525790394       -0.22271699987533
C           -3.42119886881895        0.59572818537206       -1.60468687010321
C           -4.64239444024018        0.66040208786973       -2.25404017071945
C           -5.81745134656733        0.59801294323901       -1.52357181417290
C           -5.77238613920495        0.48199467731191       -0.14199644548634
C           -4.55546959486250        0.41993173071794        0.51042854939826
H           -0.64584896323538       -2.44019272782977        0.19006198278511
H            1.30817168478022       -3.36353307159369       -0.00977290506256
H            1.20322266484014       -3.37765249809316        1.76559760856030
H            3.39684386345406       -2.41156732443442        0.89572310093922
H            2.48498364428424       -1.21080244374558        1.82635072515920
H            3.49343753424472       -3.49029135461994       -1.04633618983942
H            4.17619419617732       -4.51588812850887       -3.15468984624336
H            3.96514537158492       -3.28154909622068       -5.27631038810454
H            3.05041570139344       -0.98573784679468       -5.28283730451716
H            2.33187206952375        0.05636371231047       -3.14290508038049
H            5.16397232698711       -1.28572814770294       -0.17879846519112
H            7.14935627560684        0.14090544218031        0.08318965380154
H            6.92347528887699        2.59604254374454        0.05577194347682
H            4.70184903657119        3.62802148143129       -0.25075968163019
H            2.69654757105442        2.18955959487724       -0.50638046442324
H           -0.05682563699733       -1.04318094813000        2.67513470819790
H           -0.82168910802636       -2.64592959918028        2.58985425389984
H           -2.66337751956764       -1.75631217876060        1.21839813610081
H           -2.53258073320586       -0.74701588872435        2.67407371378080
H           -2.50282794550620        3.04289262580503        0.00873694954397
H           -2.71736147469296        5.12593834194183        1.32652053314026
H           -2.24409460781688        5.10112244250169        3.75083452147981
H           -1.54034889593964        3.00697347858172        4.84459101240659
H           -1.32649349388177        0.94372388031558        3.54926984343959
H           -2.48981285436043        0.65477878972986       -2.15565331988993
H           -4.67654150944636        0.76078807298338       -3.32945311246054
H           -6.77152540546313        0.64661377301315       -2.02854156219231
H           -6.69074126284188        0.44391228570832        0.42682955700290
H           -4.52040274957590        0.34600649318788        1.58934167803792
C           -0.26463159080119       -0.72613019233418       -1.84977329945548
O           -0.52050769860312       -1.26427562217499       -2.84532475529319
C            0.88071956112732        0.92767587053355        1.05953229574036
O            1.33132447958361        1.47734923343339        1.97741246154963
H            0.28896518252219        1.42225161705856       -1.15591813238503
