64
 energy: -93.085314097952 gnorm: 0.000142661864 xtb: 6.7.1 (edcfbbe)
Co           0.11799085016016       -0.50783174039596       -1.25690905893808
N            0.01097068999052       -2.40718403324352       -0.52531775943049
C            1.26137404861914       -3.14172166492751       -0.69320769548478
C            2.33813208997713       -2.38351296315474        0.08615403240216
P            2.05068436807956       -0.53510959637223       -0.10683366644297
C            2.55709847438187        0.06716887850031        1.55010931293810
C            1.85714780591066        1.15287799536407        2.06575562890824
C            2.17321447190231        1.66603801131389        3.31153202519378
C            3.19450645948099        1.09361249299055        4.05187187355378
C            3.90654113338743        0.02059793415536        3.53736771385774
C            3.59509823285476       -0.49093132785729        2.29055997502251
C            3.53095286472933       -0.05306162691191       -1.06134903373640
C            4.35690060253492        0.99873587713703       -0.68066644492903
C            5.43693548657959        1.35486004714917       -1.46998782392082
C            5.69881433699069        0.67243796564539       -2.64596613991812
C            4.86574412681289       -0.36249889189499       -3.04206546624963
C            3.78435148939144       -0.71680037219446       -2.25898310374861
C           -1.22796605682364       -3.07430610177086       -0.91796039231021
C           -2.38147936673741       -2.26878939383488       -0.31701719582663
P           -1.95285025599911       -0.43411842603649       -0.32513642366726
C           -2.71901727806187       -0.04136872828334        1.30179413322120
C           -4.09158059612398       -0.10887995454387        1.52440353316790
C           -4.60064334418446        0.14570976055411        2.78421207159051
C           -3.74906899549388        0.46168830552043        3.83278279215458
C           -2.38220092557535        0.51944282172253        3.62028945599661
C           -1.87160975614153        0.26795619553861        2.35834912490418
C           -3.19842388498408        0.26789661919915       -1.45262374821603
C           -3.51517218269772       -0.37269560204082       -2.64632722475418
C           -4.39619955564742        0.20943302448330       -3.53900441918412
C           -4.95506795000920        1.44595687222698       -3.25885693824827
C           -4.61639563988732        2.10613395765783       -2.08860950368697
C           -3.73782894073614        1.52501076438372       -1.19287667965036
H           -0.07653031715714       -2.25010369565116        0.48411179164898
H            1.17114544115668       -4.17127838226479       -0.31237061604657
H            1.50494518986265       -3.19244194592109       -1.75811170907405
H            2.24016726983143       -2.61525314225025        1.15216916057528
H            3.34050758401563       -2.66226705587757       -0.24384652245807
H            1.06832868367226        1.59399315196622        1.46781949942893
H            1.62426194406579        2.51021783096333        3.70415627506783
H            3.44223746793643        1.48676109428606        5.02738084199556
H            4.71225918445896       -0.41605131055509        4.11068480342602
H            4.16852687293732       -1.31370067660952        1.88680879302100
H            4.15639090527917        1.54253713277706        0.23207331074487
H            6.07580228787318        2.17194795096673       -1.16561966137088
H            6.54346032274025        0.95233050102215       -3.25890316162352
H            5.05677517014127       -0.88722302486504       -3.96763951964228
H            3.11488913234777       -1.50235890198985       -2.58376933390261
H           -1.28931578512317       -3.10102619877473       -2.00949907977451
H           -1.25496371712098       -4.11063334930139       -0.54630304129051
H           -2.51393185126926       -2.55326472139398        0.73253813670784
H           -3.32217311144665       -2.45049827261563       -0.83892577365460
H           -4.75737668987369       -0.35464452425211        0.70841030370217
H           -5.66739509462546        0.09725245185339        2.95192446721174
H           -4.15387084427739        0.66203706452049        4.81439810141809
H           -1.71417025001368        0.76160479049965        4.43481339766199
H           -0.80398793516730        0.31326541731755        2.18166533465770
H           -3.05682388210577       -1.32233255837172       -2.88756621773651
H           -4.64257984865409       -0.29881655932371       -4.46079865199940
H           -5.64279390089161        1.89990438851814       -3.95777580039574
H           -5.03540248670352        3.07971487901668       -1.87654426616814
H           -3.46458275256037        2.04563194886787       -0.28434062570273
C            0.10986253681561       -0.88616466031165       -2.96481444693770
O            0.11600443323842       -0.99106716551279       -4.12068269977130
H            0.19225918500693        0.87363993493301       -1.69507138035869
