63
 energy: -92.272297951700 gnorm: 0.000126978091 xtb: 6.7.1 (edcfbbe)
Co           0.02968425900480       -0.75326710135256       -0.93302685083496
N            0.23616544003261       -2.70171343375596       -0.57764555433140
C            1.51388077052750       -3.05576907678671        0.07137634173541
C            2.66552794155187       -2.49124084364070       -0.75445620626580
P            2.22618898692930       -0.71838648176045       -1.02786548933130
C            2.70922643324987        0.01412695490412        0.56635475702219
C            1.70597612372956        0.29785962037920        1.48871899074524
C            2.03021934460819        0.80967962529526        2.73178017891201
C            3.35795209051433        1.04246081151585        3.05548850873230
C            4.35960965870086        0.76308838831864        2.13791065098284
C            4.04113768609469        0.24768959924828        0.89428587921871
C            3.43845895364928       -0.02522327624835       -2.18153643351872
C            3.38855295014919        1.35705762339062       -2.36250428432873
C            4.27204194956283        1.97670033027451       -3.22452288843982
C            5.20496198467985        1.22047837425187       -3.91916433877174
C            5.25107663413062       -0.15328811292964       -3.74866668012397
C            4.36942168468468       -0.78164516640710       -2.88490234318260
C           -0.92298172524847       -3.41863679656510        0.00352448229670
C           -1.68420352246674       -2.50337546540311        0.95820132700203
P           -1.94592953023593       -0.96372041987173       -0.02390943241036
C           -2.86013364130345        0.19731078965967        1.02077693690775
C           -2.92596150394605        0.09215768395523        2.40637174712723
C           -3.62748311019502        1.03937483953811        3.13303233670142
C           -4.25286001260836        2.09373093787835        2.48779327988434
C           -4.17585434146041        2.20932903981538        1.10740693418821
C           -3.47740738415511        1.26902783232903        0.37534403145612
C           -3.15463988153326       -1.47326535770507       -1.27518885871552
C           -2.69502751764711       -1.61051334089046       -2.58176121024830
C           -3.55670338946785       -2.02820021008387       -3.57935670627857
C           -4.88001081527173       -2.30420444653390       -3.27081626434230
C           -5.34163494403552       -2.16184134912462       -1.97031149873172
C           -4.48354951596945       -1.74686800717198       -0.96791839834700
H            0.32574767062257       -3.01546477862282       -1.55073420596626
H            1.61139631882166       -4.14564651221989        0.15635369708321
H            1.52860486563209       -2.62697136173613        1.07813714914267
H            2.71937242081782       -3.00121814915391       -1.72152378323856
H            3.62352651624941       -2.59334680407850       -0.23927329722743
H            0.66336806419361        0.12600640926766        1.21359531830740
H            1.25141426216330        1.03365820359464        3.44576363811419
H            3.61380568894429        1.44700788310485        4.02341902738459
H            5.39236751817934        0.94929305580223        2.39317267252239
H            4.82129401067964        0.03486043634452        0.17598216491031
H            2.65584099160876        1.93714015956913       -1.81569208531278
H            4.23493726060882        3.04758009197831       -3.35840977993743
H            5.89513255710397        1.70327630466692       -4.59478787803845
H            5.97797274923167       -0.74012936827627       -4.29086930670240
H            4.42091569089470       -1.85322715751988       -2.76140700007463
H           -1.59806483296916       -3.71608389088509       -0.80499701012165
H           -0.59085051504669       -4.32515826783794        0.51985349734842
H           -2.62776448978782       -2.94810173757947        1.28418322815934
H           -1.07076633534304       -2.26708828730300        1.83213236796066
H           -2.44124793009987       -0.72395481373163        2.92152289383561
H           -3.68632756363658        0.95398407329613        4.20814995836327
H           -4.79899837928172        2.82854927525923        3.06025564482089
H           -4.65985834792901        3.03372213217820        0.60519453763406
H           -3.40899158786555        1.35152123165126       -0.70198281674068
H           -1.65423851420255       -1.36841645295529       -2.80333091043884
H           -3.20398575982113       -2.13378455951213       -4.59463833354544
H           -5.55701444415742       -2.62653227869380       -4.04785371491927
H           -6.37512777035986       -2.37368128976792       -1.73944067040379
H           -4.84021078229640       -1.62687063964623        0.04603840705869
C           -0.20160567928414        0.88442936068182       -1.45365828324288
O           -0.37834826231340        1.94535155354545       -1.84149155227732
