48
 energy: -70.304602367318 gnorm: 0.000382504487 xtb: 6.7.1 (edcfbbe)
Ru           0.27787123779583       -0.15018490802800        0.21504810570222
C            2.58525449514937       -2.37244029157264        0.13936668581849
P            2.51694228934594       -0.51170366128637        0.24375791499130
C            2.71835899864756       -0.25908471420722        2.08336348899749
C            1.30386150735950       -0.60624217637674        2.59834184721805
C            3.05846386130988        1.18341235906174        2.44755590213408
C            3.95276143767038        0.00256432357603       -0.80646580953731
C            3.48124884420255       -0.22952044934345       -2.24556825618059
C            4.30086858008322        1.47552241975950       -0.61443130142775
C            1.21430856470876       -2.97112424857326        0.01200904422912
C            1.05725572404628       -4.32979797937545       -0.22913638046861
C           -0.21884241071590       -4.85898523089018       -0.33807108032817
C           -1.31059969740955       -4.02238408305146       -0.18076482774248
C           -1.09723769262205       -2.67015946719934        0.06678312354224
C           -2.16709450487117       -1.70173670417904        0.31773680939678
C           -3.51822299846677       -2.02117274200373        0.34832366336407
C           -4.44200198616919       -1.03054000402468        0.65331247153888
C           -4.00150507797140        0.24237726950357        0.95567394987363
C           -2.62928111050932        0.49988779642008        0.91826766999951
O           -2.08153628965479        1.66822445671816        1.23145407184665
N           -1.74762810735093       -0.44121312790719        0.57680030233841
N            0.15366608897938       -2.16549974349465        0.14369720382067
H            3.08686443960000       -2.77517486048846        1.02947668077472
H            3.18927899217502       -2.66978295006258       -0.72399103422193
H            3.46109010945410       -0.93999893516076        2.52123545213672
H            1.19999547361523       -0.29873793380094        3.64203488771036
H            1.10589794429982       -1.68348545076660        2.56038295240430
H            0.51483379692170       -0.00300043758192        2.02541552692788
H            2.43059438848777        1.87407981291478        1.88274208379967
H            2.88499832622324        1.34782102678424        3.51045627241083
H            4.10223884870056        1.40449685486089        2.24798913108055
H            4.81105629898598       -0.63930132590644       -0.56722078150366
H            4.28398604778018       -0.00048775048538       -2.94344939219812
H            3.16324664957320       -1.25643194086807       -2.42467595823900
H            2.63885379898570        0.43165613920515       -2.45914615829792
H            4.89987080039511        1.81961636686911       -1.45550392894476
H            3.38944037110292        2.07291755623532       -0.57917464810135
H            4.87606403914923        1.64300495136960        0.29086510561724
H            1.92806360984363       -4.95800375109171       -0.33350633597984
H           -0.36045986624830       -5.90948006731255       -0.53785028301797
H           -2.30968723232195       -4.41732755088491       -0.25453223602371
H           -3.85491764763886       -3.02072149842943        0.13311387294002
H           -5.49632437433128       -1.25851668325380        0.66485862964455
H           -4.69265095992806        1.03002857890702        1.21401951655076
H           -2.73976211896252        2.36116288742443        1.39107132042812
C           -0.04293728167582        0.05794728411487       -1.57878182016569
O           -0.29432237489787        0.20187949869975       -2.68840375517577
H            0.32514154305158        1.38321180322768        0.27718319811267
