54
 energy: -69.965782643753 gnorm: 0.000597884330 xtb: 6.7.1 (edcfbbe)
Fe          -0.03448822638272       -0.15124833654956       -0.43186891030300
C            2.23378955867140       -2.12025029524327       -0.88211831212982
P            2.01466336563846       -0.38231455329971       -1.07946435860852
C            2.50193676233706       -0.03779591711493       -2.87035220883932
C            2.34311190743931        1.43060256507519       -3.25024829110059
C            3.88264775283581       -0.56373182448270       -3.24747084293782
C            3.32306667770158        0.54593054829643       -0.10134326656008
C            3.65829338574564       -0.23534967199223        1.16192942244482
C            2.76255289118422        1.92316397900197        0.25084335000162
C            1.07807463024695       -2.80540380794425       -0.57288271609484
C            0.98277913271638       -4.22287476892046       -0.41015909837450
C           -0.21503001124546       -4.80745779588796       -0.13433955003272
C           -1.37441437036177       -4.01818431730595       -0.00844836441055
C           -1.24177780134478       -2.65704885912372       -0.16592203263332
C           -2.39064382813001       -1.67910221003751       -0.10064065008369
N           -1.92397914144326       -0.44870530126145        0.57170869987404
C           -2.73181694536859        0.73731622211231        0.24235013235421
C           -1.87534666869798        2.01094189633060        0.22093476879222
C           -1.92165152786479       -0.74311784295400        2.01831270440959
C           -1.40250162578448        0.36405397928015        2.92070728783199
N           -0.07101354575756       -2.07324663729451       -0.42368863168295
H            3.17944293227877       -2.62604116217065       -1.00916277773124
H            1.75386400272759       -0.62302721207612       -3.42415663131262
H            3.14476188448243        2.03079391542422       -2.82314429274219
H            2.37591778928933        1.54903261428177       -4.33375150829494
H            1.38648568767360        1.81285671643495       -2.89216051496719
H            3.98641626416817       -1.60716294933405       -2.95962020759585
H            4.02617812856253       -0.49175483802121       -4.32612863464023
H            4.67261131361857        0.01029934372488       -2.76689383538932
H            4.22609116350928        0.65977189583833       -0.71344605286474
H            2.73966095506986       -0.46650644374206        1.69689449389071
H            4.31106235955566        0.34593831348170        1.81336572324938
H            4.15391126141257       -1.17214436206398        0.91776040949240
H            2.57889613602278        2.52033858667723       -0.64049386223040
H            3.45183855908700        2.46937032685686        0.89511767892622
H            1.81655423221308        1.79441913613192        0.78045917438070
H            1.88262496779399       -4.81030334443121       -0.51830564431128
H           -0.28776847056998       -5.87952819169380       -0.01121460069791
H           -2.33311430447957       -4.46326387681566        0.20332337601119
H           -2.67542964708758       -1.43273603670188       -1.12851617504786
H           -3.26216855850220       -2.11245829495075        0.40829730188567
H           -3.56946054787074        0.84992959995210        0.94304523253098
H           -3.14576736593440        0.59180803946027       -0.75896354331103
H           -2.35555138757672        2.76745852303543       -0.39641101346538
H           -0.87626008153790        1.79989672156619       -0.21900812030676
H           -1.72659796259233        2.42268622293651        1.21434134559520
H           -2.94608865236912       -1.00673199053856        2.32476009986759
H           -1.28531366013456       -1.62053520006826        2.14839932606567
H           -0.44260099715132        0.71646135732708        2.55397532416517
H           -1.25800020490756       -0.04207034544335        3.91955832164583
H           -2.10021972978266        1.19429673966723        2.99527243754559
C           -0.63335737674066       -0.11968601348158       -2.06373927654597
O           -0.97831609592283       -0.09713409846870       -3.16950893409111
H            0.61249491346898       -0.19891773726623        0.87566986718215
