60
 energy: -75.946023892196 gnorm: 0.000260472454 xtb: 6.7.1 (edcfbbe)
Mn           0.03244483602471       -0.26651609731412        0.05144128051052
N           -0.09603047960439       -2.06869923913295        0.38637564022839
C            0.95367346145604       -2.96263663293573        0.86200257598153
C            2.24039469652046       -2.23451163051960        1.24324786616681
P            2.21841665233888       -0.66757575350097        0.29092333469267
C            3.12459173090348       -1.04568054717408       -1.30457875770882
C            2.36343463671072       -2.11875394901671       -2.08315497455427
C            4.59613887387263       -1.42963266394684       -1.16127798134630
C            3.45329264775698        0.40377138290423        1.18673693017782
C            3.53329818222201        1.73986524648020        0.44994888115225
C            3.04068428005540        0.62017371373761        2.64173588290447
C           -1.27095434674392       -2.91117826355854        0.20404303830636
C           -2.39556157463302       -2.21123359315686       -0.55411811717468
P           -2.18779345514743       -0.40891513394154       -0.25741103652343
C           -3.40584535063229       -0.10208133875573        1.12451577408058
C           -3.62358693019438        1.39037359376701        1.35899091783388
C           -2.86983734915444       -0.76318524042435        2.39331566573052
C           -2.98520870536432        0.29089029478858       -1.79577616931532
C           -2.79773768617879        1.80507932077322       -1.90775230441896
C           -4.44314311960359       -0.11129431509385       -2.00280097956746
H            0.57988111795665       -3.52756619707888        1.73700900933825
H            1.16973739708409       -3.71725484296482        0.08442446761581
H            2.20905447149226       -1.96096434668751        2.30124232882110
H            3.12978667741483       -2.84179269281223        1.05880415630865
H            3.05062647683475       -0.10779203956087       -1.87342095983259
H            1.29035860178876       -1.91034066528714       -2.06519302913060
H            2.68774551109481       -2.13389085489105       -3.12327192391311
H            2.54215173208475       -3.10548710007954       -1.65878505194325
H            5.20349968017895       -0.58906007867022       -0.83569779083398
H            4.97368235231920       -1.75532900048075       -2.13028735909500
H            4.72856146064508       -2.25122331023389       -0.45896312740814
H            4.42763003536253       -0.09854135720400        1.16712435673885
H            2.53781843879068        2.18356555296435        0.38809693178222
H            4.18925150735632        2.43019011367533        0.97844943138364
H            3.91338598878429        1.61626601667263       -0.56217075351325
H            3.62222677160120        1.43318508894848        3.07408724631879
H            3.21282220019927       -0.26844963257549        3.24586998565939
H            1.98619793204435        0.88842314157855        2.70319617891959
H           -0.98283050604208       -3.82600114566119       -0.34829434850975
H           -1.63377113735171       -3.25669290360814        1.18884913614204
H           -2.26777285291705       -2.36704825441123       -1.63142928845445
H           -3.37874411307547       -2.58125690462870       -0.25191122233189
H           -4.35544435390370       -0.57553539477781        0.83936289120975
H           -4.18497718100655        1.84297395077070        0.54701573579507
H           -4.18410972370966        1.54473440313489        2.28076669510061
H           -2.66846543619410        1.90491136290713        1.44909637849691
H           -3.46507166723585       -0.46910552786841        3.25720524099540
H           -2.90000848053569       -1.84832409120159        2.31939721789280
H           -1.83589418584919       -0.45064299657287        2.56493907330906
H           -2.37290705250174       -0.17580352833988       -2.58511502969250
H           -2.75901663318592        2.10356805198758       -2.95405006298067
H           -1.86536946343806        2.11039468033573       -1.42909098662998
H           -3.61638279317303        2.34333977356785       -1.43794285194599
H           -4.77178226146287        0.21918250592981       -2.98746070102284
H           -5.08671072657028        0.35588170943306       -1.26103656883609
H           -4.57219743593046       -1.19049124056841       -1.94788937796461
C            0.32833082703575        0.65199221738769       -1.42774742131873
O            0.56093329219284        1.21970674483772       -2.42046520125439
C           -0.04242635982946        1.17144792151122        1.07488314111764
O           -0.09491164243221        2.12617721963093        1.74738242478290
