56
 energy: -71.162918738447 gnorm: 0.000313675054 xtb: 6.7.1 (edcfbbe)
Ru          -0.13570582102579        0.07971105728845        0.59468037522075
C            2.24037473127924       -1.98699810503107        0.88028012772060
P            2.09080664014710       -0.12654569825220        0.99042550473761
C            2.77927896253437        0.17524064037834        2.70129333382283
C            4.12336528408947       -0.44730575727455        3.07084956651223
C            2.74505363911962        1.67123788302163        2.99912331881322
C            3.31749476907671        0.43689539291862       -0.31554036645563
C            3.18957644092745        1.94629792915847       -0.51446062909388
C            4.78093283537866        0.03741992703261       -0.15422433690055
C            1.13358697521790       -2.52824100784727        0.02691086095776
C            1.23581465119677       -3.76458008812221       -0.58978360586177
C            0.16376612140259       -4.26665747211284       -1.31395115978207
C           -0.98750849810358       -3.49511818746171       -1.39444347617358
C           -1.01930518532273       -2.25906117626054       -0.77425219460554
C           -2.21117864139699       -1.34250049748727       -0.91060143887808
N           -2.33045644604138       -0.41355431287387        0.22490179032438
C           -3.03354149461727        0.82556932657958       -0.17708858536631
C           -4.45742196308355        0.67721040604577       -0.72604206101161
C           -3.09541483187442       -1.04677723425250        1.32103880073786
C           -2.56814535673732       -2.38780829468955        1.81957586901812
N            0.02410639012145       -1.77159018758019       -0.07967405797123
H            2.08633149802326       -2.34845366092720        1.90599438510885
H            3.21377818972097       -2.33656748583944        0.52800053026342
H            1.99250484423660       -0.29819998418622        3.30749970056951
H            4.95086324650804        0.11853358845047        2.65391075580784
H            4.22912960654128       -0.43612518863040        4.15541524647869
H            4.20225390114133       -1.47924127201653        2.73702590896918
H            1.80108883739063        2.08430155083604        2.64002480031694
H            3.56718303294411        2.18872357141774        2.50964204720882
H            2.82164820441919        1.84775059145482        4.07089783793216
H            2.91410103129542       -0.06175859546159       -1.21341833550198
H            2.14299946382926        2.24803604628007       -0.44542375462234
H            3.74682330471496        2.48629099777221        0.24730046936007
H            3.57535956615307        2.23887295856994       -1.49036831889810
H            4.89706059846610       -1.00368617213703        0.13655676731749
H            5.26958461710637        0.66317143198496        0.58735042626144
H            5.29834080434085        0.18248043291625       -1.10243617862725
H            2.14820335933336       -4.33395327955316       -0.49503960466406
H            0.22168809713683       -5.22857689221656       -1.79782823884751
H           -1.85024024099414       -3.84367997435365       -1.94248006266354
H           -3.12767375677499       -1.93797362170924       -1.04091567505050
H           -2.06449691638812       -0.75072761064772       -1.82609950381650
H           -3.04942807405433        1.48220709936065        0.69833097056422
H           -2.42341599963910        1.31996172051872       -0.93992310718080
H           -4.50066010769023       -0.02298981983082       -1.55731865650910
H           -5.16618843299165        0.36679677494828        0.03702183407440
H           -4.77682373955568        1.64970913464104       -1.09332718882646
H           -3.09336181520870       -0.33917240922159        2.15519190845658
H           -4.13129635579782       -1.20558977182217        0.99086287547320
H           -1.52793617813522       -2.30205769669256        2.12679587543862
H           -2.65512453220729       -3.17037816469494        1.06848439132179
H           -3.15354037846327       -2.68498193531685        2.68752612751331
C            0.05322340411018        0.74458190008287       -1.11028576568613
O            0.18448626911931        1.10205491087116       -2.21061287342580
H           -0.31591226078124       -0.39915399005020        2.08166802384934
H           -0.38141734217724        1.53473734247394        1.16551072752644
