49
 energy: -80.784048627299 gnorm: 0.000161368761 xtb: 6.7.1 (edcfbbe)
Fe           0.08004319020517       -0.35664153513767        0.02984793485248
C            2.38427252960063       -2.38260824767482        0.00715124794605
P            2.20328536745621       -0.54835025920968        0.38674790810623
C            3.54638322432071        0.14388853171727       -0.63929340939115
C            4.82677374582303       -0.40319724452414       -0.67018595373448
C            5.79936823865529        0.16622632382176       -1.47115582663163
C            5.50503306020246        1.28436470596237       -2.23744408471229
C            4.23635030872527        1.83981290649586       -2.19946293953568
C            3.25854227663894        1.27083308010728       -1.40137325576612
C            2.93981146802726       -0.47506481294979        2.05341326037491
C            2.47797551120587       -1.36906680966176        3.01628646839060
C            2.96803414756937       -1.31436869578953        4.30729963374426
C            3.91139526870624       -0.35794269569319        4.65146092850487
C            4.35402850578433        0.54998651572721        3.70383848414305
C            3.86775372615246        0.49811474944300        2.40858718258405
C            1.05759394272728       -3.06674341677275        0.17664629071695
C            0.93921445219466       -4.43618605937236        0.35263746793759
C           -0.32488757219378       -5.00901029102301        0.44330222275406
C           -1.44074670880718       -4.19676565334485        0.35534171937833
C           -1.27113060581940       -2.82650449563240        0.19454825534844
C           -2.31126072925894       -1.80719237782765        0.12289055021421
C           -3.70149140061962       -1.85240674686919        0.16610801153709
C           -4.38171922366691       -0.63394222569053        0.11153020647184
C           -3.73329676536449        0.58566047536677        0.03053622129915
C           -2.32033440462917        0.58843361484471       -0.00898002178489
O           -1.45467482723344        1.51850390363113       -0.06327332499649
N           -1.72071244128460       -0.61947224666446        0.01545245304694
N           -0.02356530261516       -2.27648186279224        0.11035021767505
H            3.16351073078117       -2.86179516219318        0.60697546813189
H            2.67281510478106       -2.44228042230669       -1.05088347015983
H            5.05902113677014       -1.26583046242376       -0.06138707305674
H            6.79212201493917       -0.25967258923462       -1.49837786439533
H            6.26837932811775        1.72504428031078       -2.86229453509190
H            4.00950545885514        2.71467739664721       -2.79167765806231
H            2.25982211136335        1.69103386963550       -1.35573513589633
H            1.72075142620634       -2.09372517997633        2.74710932173792
H            2.61166991641989       -2.01362929884758        5.05023084656151
H            4.29354647340076       -0.31464998201682        5.66117785319659
H            5.07779280632036        1.30535140748677        3.97506968011902
H            4.20781783173047        1.21401115475091        1.67223625879314
H            1.82612155833251       -5.04802488285071        0.41278744004367
H           -0.43041235870217       -6.07425522017920        0.57923027799841
H           -2.43723947736288       -4.60398046149676        0.41827344704393
H           -4.23728919298893       -2.78409890583982        0.24359784111958
H           -5.46272760455363       -0.64546018019357        0.14396628746348
H           -4.28366756780705        1.51323914175109        0.00877033496081
C            0.26980753693902       -0.28206879794414       -1.70926196051099
O            0.37284956242425       -0.24441704052482       -2.85469093827950
H           -0.04541438945548       -0.32138978095566        1.49393178579404
