61
 energy: -71.551827634988 gnorm: 0.000230649291 xtb: 6.7.1 (edcfbbe)
Fe          -0.01131068764687       -0.18251017733428       -0.20153354563829
N            0.11753961834761       -2.26624829510919        0.21832362693881
C            0.75500709450386       -2.45877450476791        1.52825437582776
C            2.09804132128200       -1.72451604785873        1.58570952647375
P            2.02601551631740       -0.22671035851943        0.45320940550103
C            3.46704555506226       -0.61562556486102       -0.69618006671378
C            3.69850545311415        0.59428513771939       -1.59605992884583
C            3.15935265784542       -1.84255675415167       -1.55067459256267
C            2.77646680800168        1.14685846460128        1.47875391226663
C            1.78429093400857        1.59123013438349        2.54828162961049
C            4.14723708832488        0.84933423553670        2.08765483300257
C           -1.15598307771404       -2.98774283221299        0.06944750912500
C           -2.32202461312119       -2.15660173673973        0.59509726605398
P           -2.13440236393496       -0.40937070659851       -0.05515277168600
C           -3.21804374616575        0.46496334583821        1.20821728137514
C           -3.51853214777721        1.89953276375308        0.77976388383160
C           -2.56778005049982        0.50147416017451        2.58711427642131
C           -3.30768502147323       -0.39526138770978       -1.53001812217226
C           -3.17426269321937       -1.64052934191853       -2.40271532655085
C           -2.99860994978198        0.83000580765010       -2.38967738876541
H            0.76397017565844       -2.65024752041836       -0.47081006745745
H            0.89808326929421       -3.53152963660138        1.73159836823498
H            0.08248406711703       -2.04994759900761        2.28412280155390
H            2.28811052008144       -1.39584606101456        2.60920066086155
H            2.91891374513114       -2.38092066069533        1.28407325438757
H            4.36185724613032       -0.82466969822449       -0.09767383452473
H            2.74438939388472        0.92296868618571       -2.01054954059557
H            4.36568155675407        0.34239077656495       -2.42070377392484
H            4.13810262166405        1.42495501733851       -1.04809456677662
H            3.97825402595081       -2.02980936668469       -2.24589269925787
H            2.25748097717777       -1.67362544865397       -2.13613003911071
H            3.03125561715231       -2.74043991682728       -0.94588567908197
H            2.87060599321761        1.97484832821580        0.76270666404245
H            1.61383790747374        0.80533331074679        3.28254513408167
H            2.15763021133323        2.47288208075470        3.06866052438591
H            0.83697034902710        1.83432188460483        2.07444329333567
H            4.12624779480568       -0.04887056792633        2.70173915601931
H            4.91318173577982        0.73117573780363        1.32502137104476
H            4.44392561083438        1.68211094241589        2.72539778934798
H           -1.10942639395342       -3.95710890347680        0.58782659987322
H           -1.30264470497251       -3.17897313109023       -0.99632948088694
H           -2.27309846156490       -2.10500476105378        1.68430159359973
H           -3.28101682486036       -2.60106009398285        0.32001477788295
H           -4.15363611583104       -0.11294389072235        1.26343075102147
H           -4.20467754066894        1.93719082483209       -0.06307012983383
H           -3.97321962357299        2.44991255787100        1.60380087417610
H           -2.58654261112357        2.39517554049294        0.50869360234037
H           -2.33217788813881       -0.49095018835247        2.96467684419334
H           -3.23950848036947        0.97932161964856        3.30037411613721
H           -1.64601941113714        1.07529366159323        2.53729520216887
H           -4.33454853042895       -0.33278879118889       -1.14396873110244
H           -3.51010147077930       -2.54358760871753       -1.89724578602852
H           -2.13707937850992       -1.76666153910470       -2.71206597293199
H           -3.77624232113689       -1.52141816921133       -3.30408898419602
H           -2.04748216367113        0.68936407779357       -2.89566573722247
H           -3.77254053667321        0.97539244099112       -3.14413708626019
H           -2.91124349007200        1.73447046812542       -1.79557411715071
C            0.17429462280871       -0.27334575209895       -1.91888528259217
O            0.29717821195270       -0.26760790393481       -3.07891814638875
H           -0.17594948623836        0.04419952307771        1.23230116500600
H           -0.05655157279941        1.27443618470454       -0.37520101286517
