50
 energy: -76.462735314936 gnorm: 0.000561556049 xtb: 6.7.1 (edcfbbe)
Mn           0.09678856206676       -0.11577708439885       -0.16400376115097
C            2.38190646042409       -2.22791827615779       -0.36567255557788
P            2.31892424755278       -0.42886309505094        0.05164058320625
C            3.13953565158382       -0.38738579772095        1.73192379700187
C            2.44700207711716       -1.33206713255090        2.71040294512907
C            3.11622880524061        1.04415112963985        2.26294741047117
C            3.68867498182702        0.28735194611859       -1.00329425589773
C            3.13726717052459        0.67957263540864       -2.37096481457098
C            4.91523255235337       -0.61179088997509       -1.15469114967825
C            1.10111602858089       -2.82433939810570        0.13126813364582
C            1.03220185893595       -4.15140277300564        0.50726980194358
C           -0.18195127460995       -4.68325278564907        0.93945502443363
C           -1.28864880165141       -3.86471579631123        0.93370257278755
C           -1.16012146566649       -2.53228287327476        0.53079439087537
C           -2.27319208432995       -1.61864751746130        0.38602268392895
C           -3.60409433200611       -1.92916525146000        0.67695447950677
C           -4.58812309499824       -0.99960327815041        0.41830330627360
C           -4.22840856679687        0.21826275967756       -0.14454962332001
C           -2.88506647761431        0.47114870819162       -0.39637889210676
O           -2.46519254899410        1.62452082700814       -0.94398744566438
N           -1.91580888482698       -0.40855413092767       -0.11798081157718
N            0.03864281121677       -1.99973207861407        0.17551712874443
H            3.26414260856555       -2.73935062637865        0.02642417297418
H            2.39330946488686       -2.28110496640624       -1.46248449171594
H            4.17988674400358       -0.71227449577656        1.60344038574463
H            2.88987188640900       -1.23222571854649        3.70090635928212
H            1.38816789533186       -1.08723565523340        2.79291187013432
H            2.53885032807713       -2.37264809075141        2.40349338797609
H            2.09245144347726        1.41900370316648        2.27823168439496
H            3.51569895336839        1.08028873438810        3.27559826458500
H            3.70827666385158        1.71020776634955        1.63890269848817
H            3.97986264988668        1.20860519652789       -0.48267624100317
H            2.83057822230457       -0.20009660018739       -2.93576422305778
H            3.89622187289257        1.20514803734161       -2.94830782592630
H            2.27178914570910        1.33167312538993       -2.25046303974453
H            5.29622376754353       -0.95499991975239       -0.19548867476146
H            4.68977147505349       -1.47894185771138       -1.77178387267653
H            5.70857589231906       -0.05095626725808       -1.64679493974185
H            1.91769591595308       -4.76771658038006        0.46360710686709
H           -0.25200899078538       -5.71287077813419        1.25411935775813
H           -2.25025524222836       -4.24656170659937        1.23611842891914
H           -3.85809248881415       -2.88503212267112        1.10413930346219
H           -5.62211664735392       -1.21297562368960        0.64043805459638
H           -4.97092233334244        0.96612536526960       -0.37895045963691
H           -3.20660171142018        2.22809741153406       -1.09648936568676
C            0.06819743040655       -0.27234300770356       -1.93749161792162
O           -0.06463218498784       -0.38371866118584       -3.08165261530658
C           -0.25113111788760        0.42995080265647        1.49337339804793
O           -0.70183118511242        0.78896330912866        2.49979722833378
H            0.14715233513729        1.40835972121879       -0.42805579154872
