56
 energy: -71.167498203291 gnorm: 0.000135254446 xtb: 6.7.1 (edcfbbe)
Ru           0.21242957512146        0.05783804730702       -0.04682859666898
C            2.34913091910589       -2.13644545614117       -0.66744928436549
P            2.42798914791249       -0.46007204721346        0.15447766833226
C            3.91569962225177        0.33624843980273       -0.66804554914663
C            5.01524058386820       -0.63537796852612       -1.09215406727324
C            3.46936949801094        1.20070494581393       -1.84222346579885
C            3.19510495962253       -0.87533266194552        1.81337911413808
C            2.44040409481507       -2.00193482937209        2.51180203165151
C            3.17854476634339        0.38523047276249        2.67389119706788
C            1.03230882957665       -2.75878024373491       -0.31752587282576
C            0.85300885056407       -4.13155691293944       -0.29323009615885
C           -0.39294774636115       -4.65980462377103        0.01706715443333
C           -1.42720183876295       -3.77744166311987        0.29711008574153
C           -1.18317765827627       -2.41587426846288        0.26361163817958
C           -2.23770820335993       -1.40215138696027        0.62781668240813
N           -2.05849846961923       -0.13806098498770       -0.10906246203649
C           -2.65003309187738        0.99583846006406        0.63944792427354
C           -4.12646649199034        0.88326583500706        1.03212179954024
C           -2.71934438748673       -0.21616811901347       -1.42915784885168
C           -2.35560910077762       -1.41751370489296       -2.29671940138968
N            0.02531450131726       -1.90783416866108       -0.03608501656792
H            2.36430421599120       -1.92412332650630       -1.74551128329393
H            3.18939771763669       -2.79266384354637       -0.42832057181104
H            4.31453094370119        1.00635782121006        0.10498375439447
H            5.89631214729338       -0.07063384042779       -1.39450312928808
H            5.30538433559250       -1.30084425057582       -0.28195263130222
H            4.69816535037210       -1.23652017898408       -1.94160817877000
H            2.64531205580774        1.84571864342349       -1.53288639766254
H            3.13050408975866        0.58511557515438       -2.67413973982968
H            4.29150422699813        1.82264024723810       -2.19422035232676
H            4.23259711955665       -1.18920286778280        1.63778919533677
H            2.53823083591070       -2.94779165180508        1.98150825586495
H            2.82472402488707       -2.13829573623704        3.52208956008064
H            1.38307936304477       -1.74640970766152        2.58181073168487
H            3.56184202064513        0.17495227593660        3.67145466629566
H            3.78164349735669        1.17735541835693        2.23395987520942
H            2.15482992254899        0.74868025198073        2.75440085512005
H            1.68441700375192       -4.78258484273877       -0.51890506095275
H           -0.55218596207777       -5.72606628053516        0.03991815572378
H           -2.41250197863083       -4.14189969824368        0.54636021509253
H           -3.24221589734744       -1.82151269643066        0.47093154726334
H           -2.11438170023027       -1.18057813172180        1.69748260487328
H           -2.05475257310940        1.12403292307715        1.54737991201662
H           -2.50413561566011        1.89239201414675        0.02926116307630
H           -4.37621653493613        1.75478227157870        1.63253508130400
H           -4.31992178397022       -0.00142804055365        1.63402458993643
H           -4.79125147705045        0.87804436231508        0.17184063444441
H           -2.46620811720319        0.70170489346076       -1.97045981460411
H           -3.80859019333844       -0.24268212060297       -1.28597234664339
H           -1.27980067572975       -1.51497427935596       -2.42339645070482
H           -2.79319435971471       -1.27334130304913       -3.28299215129516
H           -2.74412818746355       -2.34832913054483       -1.88887904157964
C            0.36867078112559        0.23817396076170       -1.87090964011776
O            0.48379242458358        0.37856069168965       -3.01919311919835
H            0.06882125171600        0.06523742571778        1.52462772651239
H            0.23617501513366        1.63781887013870        0.05716636621352
