57
 energy: -81.079588629397 gnorm: 0.000690902402 xtb: 6.7.1 (edcfbbe)
Ru           0.01453451270892        0.01755830362815        0.44358917952169
C            2.22080018849126       -2.19769956738424        0.14783135216916
P            2.21736041228474       -0.44105074220761        0.79309620376413
C            3.52517187114373        0.36363020622765       -0.16742778607798
C            3.26189334494577        1.63531087578976       -0.66673418351802
C            4.22168981701751        2.30095891265896       -1.40788803752570
C            5.44494070626774        1.69537493295408       -1.64923588303327
C            5.71350267275412        0.43193097825001       -1.14284990767282
C            4.75970342697199       -0.23684895503791       -0.39760791982589
C            2.92458122815343       -0.63151033549058        2.45083743529731
C            2.39884200930144       -1.61210482675392        3.28957935017641
C            2.88325203492444       -1.74854303257933        4.57648316744445
C            3.88227134295635       -0.90262902583540        5.03547992302426
C            4.39205336563377        0.08556322248348        4.20875165262804
C            3.91285452792033        0.22899640842641        2.91820251394850
C            0.86278252217228       -2.80107318434551        0.35218618780329
C            0.62493257082313       -4.16667148354215        0.41092085123753
C           -0.67094776048558       -4.62489951206769        0.59722709721279
C           -1.70153780487849       -3.70784092751603        0.76302664069580
C           -1.40997580530700       -2.35610184527760        0.72069321777886
C           -2.39990338352134       -1.26203496937440        1.03929840174125
N           -2.09997579421599       -0.04567139797696        0.24888469913855
C           -2.39975275023501        1.24257274778756        0.91448555591577
C           -1.25892952160659        2.23962349467564        0.62529000359411
C           -2.80489050100170       -0.18818285969333       -1.04735064220626
C           -2.62137732721476        0.94922267043663       -2.04116618798888
N           -0.15245314282020       -1.93339507664958        0.48387441545150
H            3.00082725951227       -2.80869295712000        0.61312744363550
H            2.43184132352717       -2.12549010994590       -0.92875171258593
H            2.29474224720013        2.09249462082111       -0.46307865606068
H            4.01907731160587        3.28731455026590       -1.79829077642251
H            6.19383809145461        2.21046120851177       -2.23221152815568
H            6.67106942740304       -0.03112923794900       -1.32995383635369
H            4.97022233487548       -1.21592647027225        0.00922073138579
H            1.60553544096190       -2.25681204986365        2.93232220001663
H            2.48157903890847       -2.51213357605229        5.22629532197711
H            4.25941694800120       -1.01079202698175        6.04164536488135
H            5.16363676946002        0.74899152205801        4.57093845562694
H            4.30509515377426        1.00372372146931        2.27341656454724
H            1.44744784288202       -4.85720589046082        0.31000002911490
H           -0.87427895406081       -5.68343614441620        0.63045257769351
H           -2.71319352475016       -4.03703120943830        0.93998878286273
H           -3.42993411996115       -1.60423221114176        0.87920493535212
H           -2.27195061082068       -1.02764107468793        2.10474039734981
H           -2.45543263037073        1.07751229407038        1.99488904466658
H           -3.36151991336399        1.64777840491260        0.58071223857279
H           -1.31970995121884        3.06585115487940        1.33680220702658
H           -0.19842773276731        1.79196150026994        0.79271774467530
H           -1.32360982976026        2.65755940352761       -0.38182078487910
H           -3.87908820978896       -0.29308029705169       -0.83988649680477
H           -2.45069253891445       -1.11997981006582       -1.50179724091493
H           -3.08537222807103        0.65408465496217       -2.98002082310277
H           -3.10458949555178        1.86538064262832       -1.71104085015318
H           -1.57146241331492        1.14943509728673       -2.24406493676556
C            0.40832571434408        0.01850898372930       -1.38103718691321
O            0.82646519356825       -0.10726442758950       -2.44046207003341
H           -0.15583682144155       -0.02679141066444        1.98068183722442
