50
 energy: -80.966133603059 gnorm: 0.000630026861 xtb: 6.7.1 (edcfbbe)
Fe           0.16494397793200       -0.36291279554878       -0.05457214352182
C            2.41767110822271       -2.44110477669043       -0.00653909751429
P            2.26937812844807       -0.60903374389943        0.32729103091957
C            2.91591683780149       -0.48450087698220        2.02096033010806
C            3.91306924183301        0.41789578169682        2.37419162974655
C            4.33043323188841        0.49650041407082        3.69226417451079
C            3.75169358257251       -0.31229386138530        4.65627755470235
C            2.74267127141958       -1.19861421096229        4.30757290069948
C            2.31888325215703       -1.28155957929843        2.99536233255660
C            3.60060329398116        0.08774613508104       -0.69728083773377
C            3.30852120559833        1.22158226187254       -1.44872637428420
C            4.28460422032935        1.79553272746585       -2.24429871433751
C            5.55239119683320        1.23735692983057       -2.28915313479134
C            5.84848818732414        0.11192267785721       -1.53385835777719
C            4.87861102300306       -0.46427285877171       -0.73430340645080
C            1.07145992500719       -3.07388147162659        0.16002273010625
C            0.90115458198962       -4.43159503879333        0.36614948453736
C           -0.38027129624967       -4.95778194603725        0.47319604254158
C           -1.46738529046808       -4.10915416506599        0.37956406010719
C           -1.24860843374064       -2.75159896383071        0.18725366973239
C           -2.25182101158651       -1.71057368197982        0.12120277955190
C           -3.63846599409190       -1.75802718804111        0.22623080291447
C           -4.34466664462028       -0.56639935974353        0.19539874646195
C           -3.68849965466974        0.65999215789688        0.07717861636430
C           -2.31461893524055        0.63213917206603       -0.03144908246784
O           -1.42432584363141        1.63962716135095       -0.14783627131754
N           -1.64432978747111       -0.51889873360434       -0.03008370618401
N            0.01459544576762       -2.24608119996505        0.07172517159636
H            2.73559318268175       -2.54682485893828       -1.05302172486941
H            3.16655985232799       -2.92004302719976        0.63293222493797
H            4.36141970684463        1.05532747572563        1.62462430220071
H            5.10780394619551        1.19454053682784        3.96741560880433
H            4.08113703392113       -0.24681489009796        5.68302313543780
H            2.28625654439255       -1.82028582989554        5.06393553104728
H            1.51503294780212       -1.95023886773085        2.71826665978861
H            2.30953770990896        1.64332177312379       -1.39807249084569
H            4.06028518472532        2.67514266053683       -2.82960943494999
H            6.31456457911294        1.68175241126782       -2.91223058203704
H            6.84041207050216       -0.31433417470829       -1.56895903741453
H            5.11040042873806       -1.33296211273786       -0.13450446499122
H            1.76702114297869       -5.07136493569858        0.43889140159392
H           -0.52195237042774       -6.01540851950698        0.63177687530229
H           -2.47531848784211       -4.48176732926717        0.46405107211885
H           -4.15062782684186       -2.69909353349723        0.33865204165877
H           -5.42033982374233       -0.58025565261458        0.27784472638739
H           -4.23732496932822        1.58881427797504        0.07925461043220
H           -1.82900180586124        2.51345377662923       -0.04265834940447
C            0.38276624507298       -0.45529475509185       -1.79917395678146
O            0.49399697501704       -0.61518067021020       -2.92317700572427
H            0.10185731782125       -0.29814294677293        1.36286559809364
