54
 energy: -70.218022633116 gnorm: 0.000154184036 xtb: 6.7.1 (edcfbbe)
Co           0.15280888701932       -0.26519246028265       -0.11135494966175
C            2.30128865128393       -2.37162719605721        0.63085273214977
P            2.29014346360435       -0.66038119324717       -0.06189882840764
C            3.49165084330371        0.29639431940505        0.97553977841730
C            4.87002654660341       -0.35297469718616        1.06509672436167
C            2.87498919685188        0.51861403803908        2.35674898054193
C            3.06145639771488       -0.87726927465439       -1.73201939071445
C            3.30391523005978        0.48872848764503       -2.36923065110055
C            2.10097018484714       -1.71162550143421       -2.57857403555223
C            0.95821854698913       -2.96878995181724        0.35568853660504
C            0.74236657143415       -4.33443849036880        0.47026100057639
C           -0.52752488049379       -4.84425557897532        0.25454041810416
C           -1.54771158291076       -3.96625799759858       -0.06784088783744
C           -1.26150086813749       -2.61305582959554       -0.17885786091447
C           -2.31000227985956       -1.62428490298801       -0.57853776485845
N           -1.90573219018579       -0.23973521788036       -0.27356422850280
C           -2.42252783467274        0.16195322194347        1.05042505944257
C           -1.68615425953738       -0.52405593088776        2.19346286937422
C           -2.44224738303877        0.66558486037488       -1.31135776422245
C           -1.69936793182906        0.52692223101083       -2.63500377280702
N           -0.03114050228473       -2.12681977318028        0.02019438928564
H            3.10966600926200       -2.98685303623283        0.22526826202964
H            2.43819882786829       -2.30226588329211        1.71559726492833
H            3.58036400376359        1.27299097995295        0.48232826694253
H            5.32997772251062       -0.45218138887013        0.08458781699109
H            4.81480887881420       -1.33584672386176        1.52865172720174
H            5.52250831242392        0.26771587637367        1.67696796458316
H            2.84820356066264       -0.40405231420845        2.93355988464119
H            3.46299147170656        1.24265764865893        2.91712249781615
H            1.85834998667193        0.90393400348605        2.26364486577602
H            4.01283495824204       -1.41180494188350       -1.61804653926010
H            2.37983495404977        1.06606120036849       -2.39099847276175
H            4.05505367912499        1.05596021393315       -1.82378061613298
H            3.65438699026458        0.36756151521744       -3.39265059206541
H            2.45182075766345       -1.76286774087208       -3.60767555937956
H            1.10939592325746       -1.25210262111692       -2.57515807077916
H            2.01590015070320       -2.72959443093860       -2.20122263479949
H            1.56169561581162       -4.98529474838984        0.73262623027483
H           -0.71758907387581       -5.90262531645833        0.34170514764248
H           -2.55292144165124       -4.31879822499574       -0.23685374382650
H           -2.45052884406873       -1.72560187220478       -1.65881263192922
H           -3.26894539196737       -1.86757270499971       -0.10262647347024
H           -2.28401177279177        1.24087471454262        1.14887547522264
H           -3.49909256703411       -0.04754984379157        1.11187824589092
H           -0.60341666873745       -0.37011339358535        2.08126913645567
H           -1.89670868457493       -1.59076680819302        2.23192759366702
H           -1.99548266659209       -0.08419042081443        3.13873455790832
H           -2.32334186227300        1.69021848959094       -0.95439761619005
H           -3.51475663354754        0.47882039995567       -1.45039362392972
H           -0.62186166653646        0.50774447193372       -2.44585052841589
H           -1.97717611995901       -0.37082401652627       -3.18209425956759
H           -1.92076541560045        1.38161331637412       -3.26858224256059
C            0.36003609856947        1.45794374897690       -0.15344945802284
O            0.56763780550579        2.58369035255711       -0.14127010589486
