58
 energy: -86.371796402652 gnorm: 0.000217300254 xtb: 6.7.1 (edcfbbe)
Mn          -0.00604824045892       -0.11207827123338        0.38358026439427
C            2.20401266922386       -2.26054504313068       -0.06636660490235
P            2.13501486990570       -0.58579432828648        0.75632827333013
C            3.48469567067175        0.33706844618402       -0.02192421222513
C            4.73966231168851       -0.22502687557981       -0.23825379761140
C            5.73426495736894        0.53947593769680       -0.82020150701014
C            5.48579354155596        1.85767154881840       -1.17489526629365
C            4.24077136124794        2.42225716430116       -0.94601725942747
C            3.23993493234429        1.66182728503735       -0.36877085091007
C            2.79473112897986       -0.94596082291787        2.41018962165844
C            3.63049682445187       -0.03142579443639        3.04507907385198
C            4.07636242311979       -0.28405458109354        4.33009846050232
C            3.67997900283767       -1.43628914762457        4.99029339050540
C            2.82914958869219       -2.33748781128153        4.36830339146584
C            2.37958913199858       -2.09308859763315        3.08415953161753
C            0.84728756263382       -2.89603660110292        0.01968666672925
C            0.64291649981645       -4.26428767756259       -0.08223820433459
C           -0.64784843675435       -4.76597803555468       -0.01818397569298
C           -1.70796413456717       -3.88710766418318        0.15782904128154
C           -1.44399939818655       -2.53463468844846        0.27239263669924
C           -2.49200242995586       -1.48392030457538        0.53596467252669
N           -2.06216347146224       -0.22325363180468       -0.10151916545463
C           -2.38809457113721       -0.25835240004159       -1.54958091296343
C           -3.86326629633832       -0.42663375291887       -1.91649237713246
C           -2.56963295519543        1.00937600308289        0.53331628892143
C           -1.54336706530436        2.13437602308796        0.34026167034961
N           -0.18701422210261       -2.05690940489358        0.19852744327393
H            2.98068154566678       -2.90016121821198        0.36381129897719
H            2.45193128866309       -2.07113378424435       -1.11986418176933
H            4.93350298760919       -1.24827433166535        0.05129216864303
H            6.70891452655889        0.10904750523230       -0.99706182941476
H            6.26827782736422        2.44767710282619       -1.62855751948532
H            4.05419901085676        3.45068825946470       -1.21791092795867
H            2.25455108524182        2.08193178808158       -0.17713821458254
H            3.93169239695223        0.87040693379240        2.52923315010643
H            4.73097963231090        0.42193412890806        4.81957488668736
H            4.02866717434882       -1.62969979392539        5.99387246231835
H            2.51276691462765       -3.22948341507131        4.88890955999681
H            1.70224065812702       -2.78916681358452        2.60462955025430
H            1.48645278726703       -4.92359083902368       -0.21493526512061
H           -0.82611698091782       -5.82642210629492       -0.10277820711946
H           -2.72301186464388       -4.24734654972689        0.21525862517969
H           -3.47749695157317       -1.81014689370581        0.19214990647021
H           -2.55058604847325       -1.33540658447685        1.62153976208229
H           -1.82481450761370       -1.08429092476488       -1.99449638165002
H           -2.02506578996742        0.67365668107718       -1.98816490550188
H           -4.50707352458012        0.27254123171623       -1.38904946372533
H           -4.22168019957997       -1.43663408064201       -1.73475921411377
H           -3.96908199493359       -0.23279135904746       -2.98129995351706
H           -3.53409545853680        1.31666631722297        0.11679598734192
H           -2.70831501399184        0.82633058646778        1.60327108552443
H           -1.51515735351425        2.47311669325790       -0.69617507966518
H           -0.49658994500207        1.83455947387539        0.66178909431762
H           -1.81394812188521        2.98654342365676        0.96229222182139
C            0.55722636259950        0.08630044187188       -1.30150418926565
O            1.04036186974069        0.17709430261911       -2.33679179763887
C           -0.21557868649027       -0.23643305427915        2.16643494239409
O           -0.19142971134358       -0.33896711634951        3.30631202207458
