54
 energy: -69.954073078532 gnorm: 0.000106251043 xtb: 6.7.1 (edcfbbe)
Fe           0.03135320564697       -0.08193213592559        0.15351063379167
C            2.03571544651178       -2.05877344454953        1.31746759647040
P            2.05303574555757       -0.35246852226752        0.87620817948025
C            2.40982339290789        0.67554066405819        2.40273164081635
C            3.80666823255994        0.59203210191425        3.00343961032203
C            1.96883312446138        2.11488512006315        2.14074997092535
C            3.49355871156858       -0.16046031120114       -0.33035117825548
C            3.70777584149689        1.28712288588933       -0.75926584384615
C            4.80059519541387       -0.83165073807496        0.07868519399520
C            0.91080745509646       -2.73961911816034        0.89578401272270
C            0.70991904278984       -4.14546192979217        1.05575968079120
C           -0.42266090618121       -4.73911279511274        0.58979936300171
C           -1.41353081909907       -3.96377843251077       -0.03943190558917
C           -1.19376981608751       -2.60936680389274       -0.16172197892328
C           -2.18225986528103       -1.66870561933306       -0.81114213143543
N           -2.11382298189915       -0.34846615086935       -0.15568321312065
C           -2.42572914132472        0.76585925149008       -1.06701127738494
C           -3.87812067311373        0.88583711273896       -1.53893960181723
C           -3.00497331206089       -0.30129646388058        1.01795073069951
C           -2.70373957988755       -1.33159826163574        2.09616879070236
N           -0.08040382276628       -2.01653552686282        0.27601882564313
H            2.85070854935535       -2.55985165965750        1.81803361197133
H            1.69783476388272        0.22616018278790        3.10791155665449
H            4.52867741538402        1.14418318894510        2.40522955958533
H            3.80543030580097        1.02344624066519        4.00520868355784
H            4.12774896477997       -0.44503270963051        3.07928619689215
H            1.02991906821983        2.10310029855706        1.56965813195635
H            2.71438362542441        2.66425719610014        1.57038368191382
H            1.79864878290585        2.64414538604079        3.07812623538987
H            3.09997349843717       -0.71861820915011       -1.19272660755133
H            2.74921772473131        1.76507460226118       -0.96595381313561
H            4.22260530462451        1.85249662071215        0.01490171826841
H            4.31515029892045        1.32911775918174       -1.66402215384888
H            4.61460842168830       -1.84409988889745        0.42906202606131
H            5.31333711289627       -0.27877199750450        0.86001778128532
H            5.46596287568107       -0.88882116787705       -0.78374938566893
H            1.48458253568283       -4.71795899665417        1.54388643535933
H           -0.57290186158679       -5.80394216973349        0.70345479530964
H           -2.32328545061326       -4.41331478383620       -0.40422439643936
H           -3.19734237466740       -2.08363694187380       -0.77714186853549
H           -1.89061101114942       -1.54719095942598       -1.85980400491388
H           -2.12813443695978        1.69328979416079       -0.55368996131661
H           -1.79073903954327        0.65502297275548       -1.94980081753024
H           -4.22854429869445       -0.05830768984577       -1.94953128817277
H           -4.54428203621675        1.19584672377072       -0.73841512326978
H           -3.92853749620938        1.63574350169502       -2.32511112832887
H           -2.90163995168933        0.69621320022860        1.45216247844707
H           -4.04411941407308       -0.44142891987569        0.69115715778327
H           -1.65759629403512       -1.27683673625208        2.38022102702050
H           -2.92341818668845       -2.34263045917216        1.76587977679767
H           -3.31675979308882       -1.11361468880966        2.96849055667646
C            0.51293216198991       -0.13735085607358       -1.51298958378237
O            0.86493317462059       -0.10293998848294       -2.61775736919554
H           -0.23443863474110        0.08055802742864        1.58487034830836
