55
 energy: -70.315524595007 gnorm: 0.000148973523 xtb: 6.7.1 (edcfbbe)
Ru           0.24108231572302       -0.10352398446248       -0.16257453704938
C            2.49551221781102       -2.29356157036692       -0.63840481477937
P            2.47123937273286       -0.53486617228985       -0.03650443542535
C            4.01890948288945        0.20407776884492       -0.72796483104751
C            5.24323362786295       -0.68293450856437       -0.51199559215131
C            3.77908933934596        0.53043490449790       -2.20109266751497
C            2.63082266168001       -0.63763204279570        1.81941362790109
C            1.17927094930217       -0.77379880596169        2.32128733776902
C            3.24937465826813        0.65396034085895        2.35400821088614
C            1.16638336037849       -2.93626601844130       -0.39334606077087
C            1.00495187410706       -4.31387794953956       -0.38244478767222
C           -0.24390684288389       -4.85070877512185       -0.11382565877675
C           -1.29155035925910       -3.99590858269336        0.19614541118336
C           -1.06533859905218       -2.63049166540137        0.18323850008912
C           -2.09206015109238       -1.63534866078037        0.65514922885418
N           -1.92950748671191       -0.30822049758790        0.02718933705187
C           -2.40749091962408        0.76244981903005        0.94140544617784
C           -3.84625462935838        0.64793506279722        1.44373588126343
C           -2.69639678751159       -0.24524312205243       -1.24244856840444
C           -2.39227849396648       -1.36417483556366       -2.23100884295181
N            0.12978833635559       -2.12014827393322       -0.14740062747488
H            2.67459532004582       -2.23659397022805       -1.72084473746594
H            3.30264401155292       -2.87982121142856       -0.18741414195614
H            4.14259402400930        1.15209875977549       -0.19006458682684
H            6.14240277656300       -0.12520924172540       -0.76705790767716
H            5.32728125745524       -1.00242635245799        0.52570244049014
H            5.20721039396220       -1.56293898895452       -1.15036870924360
H            2.89382661529962        1.15905178231634       -2.30556248066930
H            3.64106431872044       -0.37083607946628       -2.79678388454782
H            4.63339419729912        1.06992587402452       -2.60490074549643
H            3.22362441494827       -1.50350941337642        2.14064309158539
H            0.83533096835069       -1.81157746277717        2.28096739088432
H            1.10643159239198       -0.44733211503516        3.36094701897582
H            0.50303596920431       -0.08342151508330        1.72265166975313
H            3.17582662995925        0.68419960639497        3.44033823172783
H            4.30180938280044        0.72837785612088        2.09143388577891
H            2.72080894564536        1.51786536044343        1.94627553889085
H            1.84976640539209       -4.95280744489565       -0.58570960367419
H           -0.39401229785994       -5.91874285394881       -0.12251497541282
H           -2.26574290991113       -4.38082460131409        0.45299773593795
H           -3.10327354456410       -2.02590819887064        0.49093593955266
H           -1.95269617756208       -1.52513376082608        1.74239107512943
H           -1.73837448780773        0.77872884443578        1.81307699408591
H           -2.28690345740084        1.70935137795027        0.40807603734618
H           -4.02386553354661        1.46713402838001        2.13664317404649
H           -4.02680592192334       -0.28214437829420        1.97749710680935
H           -4.57117004051338        0.74103277844739        0.64014494670351
H           -2.46695464044690        0.72163054661626       -1.70019808784606
H           -3.76761074878766       -0.28245824673376       -1.01568068004575
H           -1.32260275531662       -1.47521717007100       -2.41010775959391
H           -2.86045749464694       -1.11589215195125       -3.18083002666434
H           -2.79416082887368       -2.32052450988831       -1.90301104539735
C            0.27492238943512        0.22041487139222       -1.96510893756883
O            0.37375334929861        0.50143458087443       -3.07382422020471
H            0.25774559675199        1.43638384961794       -0.02538268884622
