51
 energy: -81.962516829687 gnorm: 0.000304463667 xtb: 6.7.1 (edcfbbe)
Ru           0.05645897627848       -0.14021225822582        0.34251015816869
C            2.30288819363438       -2.32105322259650        0.03828204124203
P            2.24866837906234       -0.59080092396686        0.72872016011842
C            2.91819279930528       -0.82359570532456        2.40675565681674
C            2.53960141751346       -1.92615104216103        3.16720305544773
C            3.00770737231788       -2.07107340848399        4.46041703703770
C            3.84398240432534       -1.11128780654583        5.00829714869654
C            4.20156627272119        0.00203535198578        4.26451350180366
C            3.73765415410308        0.15036708564213        2.96980099341224
C            3.67798358894549        0.15960914841682       -0.11833755845125
C            4.93139766668015       -0.44747503932315       -0.10288471819623
C            5.98889982876977        0.14047982202166       -0.77140153326616
C            5.80533684341778        1.33602647159805       -1.45059209796909
C            4.56324858380856        1.94935628834575       -1.45648829868104
C            3.50046992112552        1.36278213437126       -0.79016951487112
C            0.94200336443090       -2.94112431297939        0.15221563038981
C            0.78834054825039       -4.31477000992895        0.18581346016177
C           -0.49068797214604       -4.86410656616591        0.21917982304203
C           -1.57330269140518       -4.01123131783307        0.18522608536683
C           -1.36238248993682       -2.63026876297366        0.15689453484554
C           -2.43028135907348       -1.64295950655937        0.08879480675556
C           -3.78056522089536       -1.96883301641627       -0.03073675482748
C           -4.72089060189686       -0.95888986740740       -0.12504257883332
C           -4.29711097829672        0.35572194838823       -0.09110238669557
C           -2.93273308835144        0.62216136947183        0.03922411279886
O           -2.53461259869600        1.88967070634785        0.07711143523007
N           -2.01494489785183       -0.34999590351373        0.11820196778600
N           -0.11358351354097       -2.10607332907649        0.17488472467687
H            3.07535443850933       -2.94437312416912        0.49718829846368
H            2.54246578571785       -2.19982132512161       -1.02837637233598
H            1.86716794066171       -2.66495989957144        2.74940858530338
H            2.71660052775456       -2.93236516288768        5.04474647313891
H            4.20922323939910       -1.22705752372988        6.01834216267140
H            4.84079758888638        0.75860934198082        4.69621039813064
H            4.00445118069006        1.02267712019142        2.38774789933896
H            5.07521088477755       -1.37210840896696        0.43971197395047
H            6.96064744013015       -0.33180543697492       -0.76269739029145
H            6.63467746155519        1.79168659287204       -1.97168387653264
H            4.42222681462215        2.88435435398854       -1.97911162545109
H            2.52083545445822        1.82759745732225       -0.77488802653046
H            1.66009488695172       -4.95109068873410        0.18209437780042
H           -0.62824374761503       -5.93305788878419        0.25785479264350
H           -2.57491381931131       -4.40763799919864        0.19106214779815
H           -4.09175422960989       -2.99928197218457       -0.05548850698118
H           -5.76947402183986       -1.19239927723096       -0.22211198276454
H           -4.97784149445422        1.18754704436695       -0.15628498743959
H           -1.56225703733927        1.90303675231825        0.25703954173442
C            0.34633289821782        0.15134682965976       -1.46066244143507
O            0.52485212963909        0.28875061308261       -2.59598881752850
H           -0.19911055830996       -0.27078361941926        1.89905832877091
H            0.14401578896481        1.41242359346553        0.63547597309379
