47
 energy: -70.001863274623 gnorm: 0.000114281294 xtb: 6.7.1 (edcfbbe)
Fe           0.01535556084948       -0.36496979669777       -0.39049375124990
C            2.32934858124209       -2.38546571472126       -0.35639648081158
P            2.15290259904689       -0.55353327093362       -0.70721305872231
C            3.49760334719970        0.28192220950973        0.30020822774513
C            2.82602717082687        1.06030840767540        1.42948481183496
C            4.60140623458553       -0.62597013284493        0.84005234285035
C            2.81135763641869       -0.44698901771226       -2.46066668011862
C            4.26159504470716       -0.86772242954656       -2.68155743262653
C            2.58278167448407        0.97498362044214       -2.97162814531444
C            0.99208930599675       -3.06595586606043       -0.43861915712931
C            0.86636897022530       -4.44556184820216       -0.49312003309494
C           -0.39676127954464       -5.02281093931742       -0.42508189947955
C           -1.50096382213135       -4.20753618636692       -0.25395327886321
C           -1.32496162364341       -2.82963897109964       -0.21636887414211
C           -2.34235100806795       -1.80923448105045        0.00641329534436
C           -3.71353073019069       -1.85973318475727        0.24068339441106
C           -4.37087383952592       -0.64483964604114        0.44315998897038
C           -3.71998053862626        0.57596252194693        0.41226594583388
C           -2.32857850815597        0.58554532103090        0.16285135231618
O           -1.47568075882147        1.52051764523999        0.04581720623150
N           -1.74741169027584       -0.61915964699982       -0.01411669920164
N           -0.08553558023018       -2.27478309754245       -0.36551794495171
H            2.65610057687020       -2.46491514709684        0.68637864295618
H            3.07073589486351       -2.87979893049503       -0.98815779192480
H            3.94257625559235        1.00968429642157       -0.39214808113768
H            3.54261075042389        1.71303184921951        1.92649284393755
H            2.00487170816647        1.66211424240860        1.03689985118668
H            2.40599530209849        0.37762859592080        2.16438807774840
H            5.01010868400053       -1.27390509130790        0.06877308207474
H            5.41083177689933       -0.01081872996375        1.23208708192200
H            4.23151177537734       -1.24058357559658        1.65796054548760
H            2.15110961355849       -1.12745302020391       -3.02004827810260
H            4.44764020479100       -1.88605271249302       -2.34868499186217
H            4.48934033999582       -0.82016393748199       -3.74600185062718
H            4.94581437665258       -0.19917557459520       -2.16481462703404
H            1.57379812796108        1.31165249238325       -2.73020551946416
H            3.28753222672527        1.67017925076987       -2.51773460925214
H            2.71255561268233        1.02058378282172       -4.05206095578652
H            1.74805789354454       -5.06274216990685       -0.57296403307526
H           -0.50868328460880       -6.09488911896801       -0.47629697618052
H           -2.49185642487837       -4.61950552489399       -0.14774800149217
H           -4.25084353001508       -2.79346149350644        0.26827054383986
H           -5.43612618468002       -0.66006515012813        0.63029174239730
H           -4.25451477959702        1.50002931960542        0.56838339684472
C           -0.40332762859700       -0.24337587264364       -2.08359307992928
O           -0.80850801680737       -0.25219211707426       -3.16102666632852
H            0.32034935429192       -0.45661152415605        1.04441642375666
