49
 energy: -71.026401473380 gnorm: 0.000311738396 xtb: 6.7.1 (edcfbbe)
Fe           0.15780635461644       -0.12785812304440       -0.23344480368801
C            2.39642681455269       -2.21872927832601        0.15172443532170
P            2.29750800251167       -0.41473370440413       -0.28377674147185
C            3.23746367550758       -0.41307406162735       -1.91307919595845
C            3.08251217910702        0.92964573988024       -2.62360752461683
C            2.69584925290880       -1.51421395739722       -2.82422182129405
C            3.57990464499854        0.23340543427608        0.92289134937110
C            4.10684963810973        1.61322477577631        0.53833682130346
C            2.95991832227356        0.30693771876640        2.31454667067757
C            1.09945277067499       -2.84203497396790       -0.25688755711034
C            0.98054514809058       -4.19042205366119       -0.50401031620994
C           -0.27514001878884       -4.73948731953234       -0.77782384534544
C           -1.37171402536540       -3.91055309341749       -0.72624507855020
C           -1.19741877530357       -2.54837373563160       -0.46994666511994
C           -2.26316869523853       -1.58887665443701       -0.32116696625393
C           -3.62748851413380       -1.88811084546778       -0.35913912840356
C           -4.54645782192741       -0.88240170351283       -0.15311634635100
C           -4.08645228537236        0.40669631690973        0.08578150954318
C           -2.71651962779291        0.64242325449689        0.10177816266509
O           -2.21064608214639        1.86773985685460        0.30857410404045
N           -1.81291109018212       -0.32310250906193       -0.09765130710358
N            0.04121438185722       -1.99812768650035       -0.30462939917260
H            3.27151310142817       -2.73148186132895       -0.25514567306062
H            2.44948401315512       -2.26262764479016        1.24622348294541
H            4.29701298693102       -0.60039613141928       -1.69085518260023
H            3.64420266761402        0.92914428500643       -3.55805075019178
H            3.42543230293710        1.76155700268655       -2.01699394021991
H            2.03424650152254        1.10278730197527       -2.85410819116038
H            1.60926907803413       -1.44189208642562       -2.88774936169048
H            2.95413396497780       -2.51135146057717       -2.47578981659383
H            3.09877088020254       -1.39726547350271       -3.83009219922072
H            4.40886537481165       -0.49102532850671        0.92060749143364
H            4.69380445250813        2.02612201492972        1.35865307949091
H            3.27146396146263        2.28517550234787        0.34537606502045
H            4.74827533319222        1.56927475272208       -0.33880521534215
H            2.57866099274692       -0.65676215233226        2.64541368283477
H            3.69720398777666        0.64997114185303        3.03993363743075
H            2.12433106283090        1.00292201920991        2.29595063052835
H            1.85710128633099       -4.82031631357053       -0.47355083504028
H           -0.37947710042844       -5.79111757271223       -0.99484659938500
H           -2.36252007073221       -4.30419731319984       -0.88694006495811
H           -3.95493780591102       -2.89796848308853       -0.54286360327426
H           -5.60582582738966       -1.08696361336921       -0.17530198003506
H           -4.77577829874900        1.22148364752240        0.25148661584319
H           -2.91716682915499        2.50705809749327        0.48018677981967
C           -0.13193906353860        0.32008847967217       -1.89545589646642
O           -0.53670424841198        0.66668910134487       -2.92485388474314
H            0.23116304381483       -0.08180899798242        1.22958220540801
H            0.23388229635791        1.31474392302448       -0.08287207635139
