59
 energy: -70.722737854016 gnorm: 0.000237639759 xtb: 6.7.1 (edcfbbe)
Co           0.05593674001987       -0.42204967906117        0.16057956811546
N            0.16226811856334       -2.38922220878022        0.00834541132117
C            1.46434912069667       -2.95702665783968       -0.38492722628880
C            2.58809799293790       -2.31050053550442        0.41663999535884
P            2.21780142765162       -0.50016590945815        0.51072120799110
C            3.03267280923972        0.01549639442371        2.09527300560098
C            3.24814129546716        1.52551625220524        2.14379465944323
C            2.12025040550793       -0.42709857959903        3.24055298088550
C            3.14196863782904        0.30477509527033       -0.88147821653654
C            2.42112110004992       -0.04694485125336       -2.18483598165409
C            4.63194821123434       -0.01592191970366       -0.94335468193471
C           -0.93246600930460       -3.05685123073968       -0.71849892664173
C           -2.27350172025665       -2.50865454012850       -0.24785841368444
P           -2.08555869716740       -0.66984876054790       -0.26852900924610
C           -2.67118006409665       -0.17822887471970       -1.96493790228589
C           -2.18431865624561        1.23814625137823       -2.26582355350139
C           -4.17085337267279       -0.30510394961640       -2.21131640537226
C           -3.22820927352517       -0.03008246888425        1.05092651918807
C           -2.48267440258146       -0.19668364281136        2.37983248052834
C           -4.60580825456614       -0.68330563338588        1.13791024471704
H            0.03251851278680       -2.59977940445277        1.00632931138589
H            1.46732863937891       -4.04488986790853       -0.23355305433913
H            1.59997592006707       -2.76686931742355       -1.45206236319147
H            2.60349366184369       -2.70490517574075        1.43635154982048
H            3.56178794476423       -2.50477024953113       -0.03458997722861
H            3.99772059715815       -0.50276931611574        2.16794277014997
H            3.61861290991681        1.81310743547616        3.12641740238725
H            3.97475668878182        1.85517100823467        1.40495996753093
H            2.31057578759259        2.05200867826965        1.97117296691524
H            1.99733877771955       -1.50837594111588        3.26711191809168
H            2.53748455319043       -0.11753302858098        4.19672911396469
H            1.13774525731175        0.03482780331355        3.13147093981183
H            3.01089729766271        1.37991798918776       -0.70023504138787
H            1.33348541811508       -0.00286930267614       -2.03739498167711
H            2.69491653599253       -1.04431871419078       -2.52284177846115
H            2.68885123903063        0.65586794724059       -2.97116391402358
H            5.10634388550419        0.60931589490312       -1.69798103327889
H            4.80456561299922       -1.05346616195707       -1.22161164692140
H            5.12340959375950        0.17457227747880        0.00859295704469
H           -0.79880782212920       -2.85599132125830       -1.78578001209991
H           -0.88660136201206       -4.14379056643083       -0.56961971126776
H           -2.47087809987670       -2.82979225859133        0.77847488705746
H           -3.08959000597175       -2.85170065567503       -0.88581243193427
H           -2.14467862845539       -0.87530078355862       -2.63342297271874
H           -2.63085598122188        1.95574412133475       -1.57910706643607
H           -2.46018022734004        1.52372348264395       -3.27910409124595
H           -1.10003312741279        1.30141823108137       -2.17388040391780
H           -4.71472029130348        0.47418929984352       -1.68241921066764
H           -4.37114245903282       -0.18300371839549       -3.27489468439479
H           -4.55417521009965       -1.27779612581600       -1.90978472406118
H           -3.34205790411268        1.04179643152454        0.84258338306649
H           -2.47822627374166       -1.24045940104087        2.68984005757204
H           -2.96905617800981        0.38079140380174        3.16328469054802
H           -1.44742611454760        0.14803659442864        2.29158804054999
H           -5.13000574583273       -0.28144883196874        2.00417636620588
H           -4.52798586449544       -1.76026925068850        1.26940551409192
H           -5.21548848684473       -0.48453007184417        0.26323948844135
C           -0.02700745443397        1.29638639017107        0.33873433894915
O           -0.06974130992740        2.43428893607292        0.46702210388374
