64
 energy: -93.096824739224 gnorm: 0.000261281136 xtb: 6.7.1 (edcfbbe)
Co          -0.01831338849698       -1.12190387336723       -2.02295341652631
N            0.54617608678339       -3.00362703876551       -1.10491313919164
C            1.76581581920525       -2.90976867486999       -0.29491350334650
C            2.74187422242491       -1.91374134900397       -0.90710432947072
P            1.87497912016578       -0.26253245048928       -0.92087578478696
C            2.23021260272277        0.20032362849683        0.82442674468010
C            1.15226916883097        0.42805237716772        1.66929596403636
C            1.34950839057733        0.73852226920485        3.00392856563605
C            2.63706080301067        0.82883479074438        3.50398310863678
C            3.72117021522229        0.61493548833524        2.66487680511939
C            3.52288221050172        0.30293759102027        1.33293587225425
C            3.09233871079597        0.79148911054390       -1.77712654436023
C            3.33312558350464        2.08568076667936       -1.31980404727324
C            4.19203142688780        2.92441116672555       -2.00544136564291
C            4.81107481311600        2.48953787761923       -3.16627664679205
C            4.54878186228690        1.21749634536702       -3.64835249150273
C            3.68764105603594        0.37797854884988       -2.96565067820053
C           -0.55514187756184       -3.64941028719749       -0.37863607966693
C           -1.24512140212418       -2.64799622362917        0.54327516054978
P           -1.63639514392199       -1.18665775727436       -0.53608427396931
C           -2.23925625572916        0.08158373676666        0.62994920024911
C           -2.47643387786787       -0.12281477523934        1.98605506738051
C           -2.91334764054795        0.92548557995739        2.77805999535972
C           -3.11714797418719        2.18065487117063        2.22910562346876
C           -2.87974177575277        2.39151125083297        0.87965107971876
C           -2.43987303445253        1.34865117699477        0.08650540759869
C           -3.24151526640988       -1.76976700476268       -1.20551721660654
C           -3.28376776969449       -2.18596625157358       -2.53014176572907
C           -4.45550133399120       -2.68650358883288       -3.06977122702118
C           -5.59583246066828       -2.76777372421352       -2.28749780267090
C           -5.56123361831424       -2.34725242634296       -0.96683696665467
C           -4.38978749307822       -1.85143983920897       -0.42394361990846
H            0.76935233742114       -3.58600308416848       -1.91157494020750
H            2.23794472439100       -3.89847993403933       -0.18907168482009
H            1.49651564686260       -2.55621158716553        0.70563028701209
H            2.97611631541790       -2.20491580549534       -1.93298455300335
H            3.66696089203335       -1.87172957968481       -0.32778211108436
H            0.15055796981241        0.37001020437918        1.26454037247103
H            0.49848696698175        0.91406381358492        3.64702927660210
H            2.80010812398179        1.07201291926791        4.54413197853376
H            4.72672764759172        0.69526078601319        3.05345752072691
H            4.37359749424484        0.15486039128957        0.68113899742724
H            2.84288594744377        2.43450348560591       -0.42056248535058
H            4.37636058883047        3.92335698864411       -1.63578892654953
H            5.48465711379151        3.14385829745113       -3.70066938328205
H            5.01215434026558        0.88040696688740       -4.56504213013231
H            3.46571119083351       -0.59823134555643       -3.37251015333336
H           -1.28608920383294       -4.00303156300691       -1.11332920837733
H           -0.18847857259403       -4.51682895669207        0.19121852018493
H           -2.14602295025853       -3.08674634166270        0.97873524383236
H           -0.57510596357481       -2.32674745770928        1.34529087442629
H           -2.31950573308093       -1.09428502178132        2.43283445352154
H           -3.09641373367540        0.76030461559414        3.83079906468109
H           -3.45664668002994        2.99457375452040        2.85333816695584
H           -3.03281593936037        3.37061246348857        0.44898210558824
H           -2.23171748295554        1.50111617185815       -0.96494510637602
H           -2.38291532979105       -2.09482231037282       -3.12912297784262
H           -4.48111858030952       -3.00868756438319       -4.10112325167661
H           -6.51397430109620       -3.15400801797872       -2.70649542547570
H           -6.45277829273454       -2.40530567633614       -0.35831381831752
H           -4.37179057183074       -1.51972280606489        0.60550746550630
C            0.59161375381999       -1.51675403126878       -3.58644034991030
O            0.98472527292584       -1.73632357468672       -4.65894961722941
H           -0.61963732356662        0.01257987398180       -2.70965938001450
