63
 energy: -92.076380359789 gnorm: 0.000155850181 xtb: 6.7.1 (edcfbbe)
Fe           0.00591729739658       -0.59084477579276        0.54140562158367
N            0.02937094563087       -2.35530787683082        0.15918963553607
C            1.21736032337738       -3.20020994280558        0.02167889234926
C            2.48009953874002       -2.51305945128202        0.53672504878951
P            2.13841773351530       -0.69929805992145        0.45387607461191
C            3.34553726442258       -0.04933085608731        1.65842025748681
C            2.88554722339422        0.67007673861731        2.75351718794534
C            3.78362547188201        1.16054348691455        3.68647948178338
C            5.14059954133730        0.93095557850842        3.52759614660225
C            5.60283331830730        0.21246547606266        2.43456744642224
C            4.71060461496349       -0.27570324940510        1.49834395828961
C            2.92001459688982       -0.13317990876290       -1.09767465397284
C            3.36706354664318        1.18513932542539       -1.16640717758819
C            3.89170187159844        1.68417481680489       -2.34367512376926
C            3.96712513104268        0.87671573107780       -3.46798152528156
C            3.50474839835342       -0.42799807990820       -3.41318164900082
C            2.97569172010493       -0.92950271670943       -2.23705646359107
C           -1.13451904269821       -3.19603018095186       -0.12887074625225
C           -2.44687495310390       -2.50717987269291        0.23762055468767
P           -2.09611447202004       -0.69599078725381        0.16570937842805
C           -3.45000767994462       -0.02157571151879        1.18701047311102
C           -4.78316133247791       -0.21910245604121        0.83523730257937
C           -5.78816788838343        0.28873680239669        1.63726725952616
C           -5.47008240996220        0.99760064842080        2.78652011228510
C           -4.14459619065847        1.19772165270391        3.13648542197916
C           -3.13446065240670        0.68827598287293        2.33814946800275
C           -2.66568448101551       -0.15641360065964       -1.48485144315637
C           -2.64695414842187       -0.98494630799099       -2.60203724520746
C           -3.02044442968967       -0.49331648450827       -3.84080249708165
C           -3.40021305077681        0.83141385105978       -3.97923122971557
C           -3.39962353307630        1.66924738510910       -2.87450132344919
C           -3.03067063062695        1.18065233808365       -1.63571736690014
H            1.06278414542031       -4.14100059309197        0.57459665424750
H            1.33306100981596       -3.47708642391222       -1.03929076472450
H            2.61533294018848       -2.73122982866454        1.60222787383046
H            3.37947223737408       -2.81479542725247       -0.00704027251805
H            1.81895927338019        0.82764210864921        2.85018329763494
H            3.42682658119579        1.72264809264993        4.53793552453799
H            5.84268989165897        1.31352842418706        4.25485809809328
H            6.66255183566931        0.03657876665039        2.31322085158861
H            5.06774572694313       -0.82615946990483        0.63752590341451
H            3.29863294985191        1.81404650585253       -0.28761788939874
H            4.24059389457119        2.70633693492595       -2.38754352488455
H            4.37932562271009        1.26642036773911       -4.38780079910671
H            3.55373748833818       -1.05536223842354       -4.29254155622117
H            2.60390086693363       -1.94426509045231       -2.20814546822182
H           -1.12254706816265       -3.46173070582043       -1.19879395241423
H           -1.05028020775364       -4.14247803637398        0.42954809009043
H           -2.69216930246067       -2.70877941327070        1.28671998195639
H           -3.28392186044489       -2.82074522902736       -0.39212334183425
H           -5.02716235389921       -0.76270073828167       -0.06838506009793
H           -6.82360956571852        0.13584465958315        1.36676436060880
H           -6.25961862801696        1.39548603543669        3.40823514424293
H           -3.89959416877108        1.75252861510553        4.03111573766080
H           -2.08908272446024        0.82399468869552        2.58432365035662
H           -2.34152044136881       -2.01768868846571       -2.50909349760290
H           -3.01260663224329       -1.14556339310584       -4.70327582040337
H           -3.69072715758542        1.21265479184316       -4.94777456589100
H           -3.68532491871336        2.70617341332137       -2.98206938641122
H           -3.02177268610485        1.83141184102359       -0.77013438946562
C            0.05119753520601        1.04477435615856       -0.04601654475622
O            0.09277292176801        2.09047084850764       -0.55460679473720
H           -0.09262387178052       -0.27155282283408        1.98062536247822
