49
 energy: -71.041588166957 gnorm: 0.000257488578 xtb: 6.7.1 (edcfbbe)
Fe           0.13096312662397       -0.17649761488635       -0.31436237109863
C            2.34619727868207       -2.26128729167414        0.15059541696913
P            2.26046512354875       -0.50372377727383       -0.42932966238648
C            3.10717358768750       -0.58383472879638       -2.10404557752845
C            2.40937032520099       -1.65289213592445       -2.94638497662283
C            4.61411673805742       -0.82484160562679       -2.09825432666901
C            3.37842465333705        0.40129612995455        0.75736397567532
C            3.55014834232827        1.83304776341422        0.25623303383069
C            4.70407346888394       -0.23417400936863        1.17119338280921
C            1.04469809527079       -2.89145305056165       -0.23823831233798
C            0.91477618405930       -4.24824425879952       -0.43948698789941
C           -0.34161894736898       -4.79159601689644       -0.70966721125719
C           -1.43290679933550       -3.95111118273769       -0.69554463194727
C           -1.24818752544983       -2.58548971091099       -0.47868672031013
C           -2.31087036240701       -1.61574273000792       -0.33057895270576
C           -3.67504944155023       -1.89953906085413       -0.36537870455548
C           -4.58195419852325       -0.88704024923382       -0.11478913344859
C           -4.11327002893286        0.37979992882189        0.18829399417984
C           -2.73676627785673        0.60429327189011        0.20149813346744
O           -2.27692577662737        1.81255985619519        0.50966955124029
N           -1.85272397918733       -0.35971181135487       -0.08310807471468
N           -0.00651534623985       -2.04462486354169       -0.32678928349368
H            3.21250166151530       -2.82610026568617       -0.20111928805619
H            2.37254274999482       -2.20063822538948        1.24653159916360
H            2.89842655589051        0.39845996088615       -2.55194102879586
H            1.32636458861058       -1.57463627655641       -2.85896885230591
H            2.70734861888363       -2.65236427080118       -2.63363888342519
H            2.67140365477355       -1.53451194744348       -3.99735538825098
H            4.87467665310071       -1.68813817792424       -1.48981708956019
H            4.95048137627345       -1.01764211385077       -3.11722472569592
H            5.15468175902282        0.04298325994343       -1.73174770904313
H            2.71979770853059        0.43403375784387        1.63802192495809
H            3.97816889484554        2.46292602566035        1.03482019658500
H            4.20280704282981        1.87407173543408       -0.61431875335790
H            2.57495580313291        2.23386649969734       -0.02107972318777
H            5.46345741434939       -0.13105782408937        0.40253562252924
H            5.06952468142711        0.27141504782560        2.06496822844049
H            4.58900851609997       -1.28928115324955        1.40870789577644
H            1.78429475315618       -4.88529826977018       -0.37744097950388
H           -0.45528886210917       -5.84850172819867       -0.89341332356990
H           -2.42589401916212       -4.34099826125187       -0.85009034176210
H           -4.01707223449737       -2.89812151088853       -0.58097366349755
H           -5.64303148427271       -1.08161146569592       -0.14237011542561
H           -4.77300837965543        1.20051501168805        0.41481166810627
H           -1.29182308413159        1.76673442080504        0.47987384571437
C           -0.13465325280636        0.18451383332952       -2.00040252581502
O           -0.41006151743256        0.52540099091779       -3.06983367624943
H            0.30394729389799       -0.12299044273548        1.14819151468546
H            0.24822740619683        1.29113613114363       -0.22343976782463
