47
 energy: -70.003541328609 gnorm: 0.000184940939 xtb: 6.7.1 (edcfbbe)
Fe           0.09332014819230       -0.21499110234576       -0.28439566338780
C            2.39017646271969       -2.22209185201174        0.04400325266696
P            2.26091813933836       -0.39121514595464       -0.33179748606090
C            3.19960643494898       -0.30408912453708       -1.95662331273460
C            2.92336189735454        1.04195310947208       -2.62493563764131
C            2.76505114152298       -1.42865749274296       -2.89603931209906
C            3.52891183929876        0.22278524678844        0.90588993809024
C            4.05400296909008        1.61412142249671        0.55951764027764
C            2.89089949230279        0.25566290719817        2.29166014743496
C            1.10416007195084       -2.91845635944189       -0.28719824621774
C            1.00488192472244       -4.29394052085148       -0.42544636162872
C           -0.24741338296152       -4.87913923320992       -0.57697905269510
C           -1.37463291887540       -4.07898235581787       -0.52868674764132
C           -1.22256770112325       -2.70348402249019       -0.39961114671843
C           -2.27388207082485       -1.70177988854772       -0.27024897820027
C           -3.66310339008491       -1.77591382229849       -0.22938911080198
C           -4.36141930435726       -0.57910828380131       -0.06002503647209
C           -3.73165813280556        0.64746011104406        0.05637582894512
C           -2.31978011368434        0.68238671201594       -0.00022965041919
O           -1.47543740853966        1.63113921581222        0.03943816859303
N           -1.69944568993878       -0.50696361185223       -0.14973239562142
N            0.01783992701911       -2.13565453261968       -0.34538563459155
H            3.26034214989338       -2.69576768046064       -0.41626250857824
H            2.50677183507285       -2.28995501567361        1.13214996705389
H            4.27114743619243       -0.39882826288931       -1.73843521951475
H            3.53055282148682        1.15308967351942       -3.52287169557945
H            3.13080079519341        1.87895340853415       -1.96369191866920
H            1.87581260383268        1.10244954789322       -2.91225084103796
H            1.67746957499011       -1.50152140391320       -2.92084372606579
H            3.16799574453025       -2.39472746455324       -2.60310657062365
H            3.11024643399303       -1.21753170428125       -3.90742265157163
H            4.36248902833571       -0.49496695502300        0.89377344329592
H            4.67683703476430        1.98459166156012        1.37351705985482
H            3.22291956609038        2.30749068806306        0.42969047575073
H            4.65946128421486        1.60494464807752       -0.34394702538872
H            2.49260998688701       -0.71361143824122        2.58304124548632
H            3.62281873966124        0.56406525591686        3.03728493595850
H            2.06403473353086        0.96355432820250        2.29565841130107
H            1.89563113279492       -4.90246281206602       -0.39797138721543
H           -0.33809503672709       -5.94769469216075       -0.69736418334353
H           -2.36535597903097       -4.50071130091104       -0.58702905388589
H           -4.18384701825411       -2.71484708668384       -0.32142432659390
H           -5.44182774160627       -0.61330228100473       -0.02141533662846
H           -4.29676803194127        1.55804206035913        0.18041651841607
C           -0.20530414445312        0.00800992111400       -1.99600814853578
O           -0.63498446669730        0.10244682827005       -3.06032346533855
H            0.20958360533883       -0.34775172571757        1.17119396014226
