47
 energy: -70.006200916985 gnorm: 0.000289769177 xtb: 6.7.1 (edcfbbe)
Fe           0.07232285243639       -0.23376757791664       -0.03229079430012
C            2.39790035033423       -2.21433530062217       -0.18585279350631
P            2.23398889578428       -0.38770804848619        0.21246054739189
C            2.97856724800521       -0.31612942449063        1.92900289831284
C            2.44962882060622       -1.45393719328207        2.80004995195076
C            2.59777291335170        1.01748368476444        2.56946952980197
C            3.64412979919993        0.22959804858585       -0.86625706319798
C            3.17531795873407        0.29195924115476       -2.31699495134483
C            4.13734020343693        1.60966402003885       -0.43970227916664
C            1.11510259813945       -2.91827247344521        0.14119429793516
C            1.03928582378139       -4.27874676526981        0.39201928652230
C           -0.20114035269745       -4.86691878854182        0.61358353056298
C           -1.33701482517185       -4.07921464903281        0.57355736864553
C           -1.20830333280551       -2.71624391871489        0.33335252349617
C           -2.27170841466178       -1.71973901657001        0.30025048020836
C           -3.65326331345265       -1.79043107906958        0.45237629427319
C           -4.36247787296978       -0.58858045317299        0.40661856815989
C           -3.74843795118372        0.63916689354496        0.23393977709458
C           -2.34295462164797        0.66796753923955        0.08504078520249
O           -1.50659186771233        1.61306416671372       -0.06462736599962
N           -1.71722003005122       -0.52662713669056        0.10411026923064
N            0.01640319215674       -2.15027398086033        0.12643274784423
H            3.26314385826396       -2.67770592925387        0.29458713992329
H            2.54172903517552       -2.27797031568294       -1.27113886849101
H            4.07010471921448       -0.39823567035933        1.83194622077982
H            2.73444192786118       -1.28366355667184        3.83743784417729
H            2.83863801840532       -2.42447431082066        2.50196616837902
H            1.36203466161747       -1.47871474937131        2.74775593710877
H            1.51213605244847        1.08911428672465        2.61627691194110
H            2.99669512421170        1.08240716671357        3.58120103337559
H            2.96363453586153        1.86826449732733        2.00062318995626
H            4.46367672715266       -0.49609801170027       -0.77224489538193
H            4.00198713631220        0.57107157696681       -2.96952899226442
H            2.77926178728578       -0.66024016274617       -2.66547521514996
H            2.39117888660700        1.04118719194230       -2.41854728695172
H            4.84893595592620        1.99003970713867       -1.17243823734042
H            3.30160327437284        2.30760442949529       -0.38661460801160
H            4.63817683674855        1.57825355947617        0.52480757246907
H            1.93967455094979       -4.87349716204270        0.40750111340394
H           -0.27390138329067       -5.92537931017065        0.81088207897282
H           -2.31704326685663       -4.49931826610377        0.73443152551582
H           -4.16043140702561       -2.72911130674358        0.60371973719709
H           -5.43754798371732       -0.61965583735689        0.52186918436175
H           -4.31887127756817        1.55482258062427        0.22207801159875
C            0.02805836830355       -0.23151170753153       -1.78403366537266
O           -0.14792871812671       -0.26253216475567       -2.92083161821724
H            0.02243678778159       -0.15189325889095        1.42518204911129
