48
 energy: -70.288157796211 gnorm: 0.000214289554 xtb: 6.7.1 (edcfbbe)
Ru           0.22204137597814       -0.17921832638633       -0.24952392438395
C            2.45459931097665       -2.31615086970013        0.05069055764195
P            2.44267854168280       -0.52494562297407       -0.45405286938593
C            3.44293238437975       -0.57244350976206       -2.01479864910597
C            3.55374505690612        0.82948622569348       -2.60789699252701
C            2.77809437504060       -1.53289914969244       -2.99927899974153
C            3.36896110254732        0.59475573636896        0.70605211051522
C            2.53622066721366        1.88945058150293        0.65178066983286
C            3.46564409092190        0.03696248724405        2.12122374673417
C            1.13004396314238       -2.93631509424359       -0.32691440413466
C            0.96418081042936       -4.30245569252584       -0.48911521667617
C           -0.31285078287828       -4.82779852574193       -0.66450801347358
C           -1.41073029246732       -3.98810120209449       -0.60084392954878
C           -1.20555376993762       -2.61888720174138       -0.44877491428290
C           -2.23800716209204       -1.60477983827211       -0.24889091655351
C           -3.61940301077734       -1.77951627445704       -0.20886761080940
C           -4.42412553121557       -0.68393245165303        0.06667107051638
C           -3.86630198050763        0.57151379129902        0.28817791696332
C           -2.48709636721612        0.67769199702225        0.21831960306859
O           -1.72788471004440        1.78428188535098        0.35319953729121
N           -1.72186050292406       -0.37767738889657       -0.03215725804571
N            0.05826824910143       -2.12207309088102       -0.39761337124608
H            3.30521589664634       -2.88212204287150       -0.33931404366925
H            2.49991562237332       -2.32167317886392        1.14840261108679
H            4.44166346002337       -0.94234414892520       -1.74313030020212
H            4.05025856527853        0.78748807428167       -3.57562880097488
H            4.13161215834758        1.49166464635153       -1.96652018243940
H            2.56150935471735        1.25880173793738       -2.75558869798458
H            1.73077225653129       -1.26227678196564       -3.14716000016373
H            2.82090924143357       -2.56466426143022       -2.65639318107496
H            3.27789850937581       -1.47972716429355       -3.96477870034398
H            4.37765435398676        0.78366031408541        0.31908435102662
H            2.76260868769878        2.53222964791120        1.50056491135395
H            1.43282053705723        1.65798346487029        0.68974401250982
H            2.73068048906786        2.44699899344872       -0.26432433536580
H            4.09770328376590       -0.84863642920313        2.14737016456039
H            3.90604397515113        0.78284062275911        2.78037390374448
H            2.47695111938626       -0.21277127888596        2.50220730579954
H            1.82381042370368       -4.95386268679329       -0.45820625640512
H           -0.44629888538023       -5.88855925464230       -0.80610212094063
H           -2.41226394416241       -4.38156560436688       -0.66036488525597
H           -4.05758498441714       -2.74754820477091       -0.38498900471429
H           -5.49543946820513       -0.80214202285219        0.10842094891621
H           -4.48413820860179        1.42988036240915        0.50074831692131
H           -2.24283461410395        2.56573631878481        0.60171476178761
C           -0.11700365794887        0.34801106749799       -2.01035370592672
O           -0.48807748635942        0.70911442325194       -3.02884682706422
H            0.40401978964472       -0.46164884522796        1.25421636886943
