47
 energy: -70.001857261804 gnorm: 0.000100307854 xtb: 6.7.1 (edcfbbe)
Fe           0.00645354799058       -0.34963211000802       -0.40578167627535
C            2.32754179667872       -2.35822138186123       -0.28599871437785
P            2.14829207746693       -0.53806422374298       -0.69219997664547
C            3.47927370294502        0.33146313391555        0.30437228244978
C            4.58207118818998       -0.55595629718437        0.87922856861308
C            2.79363051431790        1.13749059930736        1.40548672234190
C            2.82477071726494       -0.48019122309167       -2.44109016801214
C            4.27845013224663       -0.90232806729697       -2.63500288974231
C            2.59717855496736        0.92525680350936       -2.99627715016141
C            0.99444561723449       -3.04674142321587       -0.36786836025500
C            0.87490075472739       -4.42781365084193       -0.38739667938819
C           -0.38677648711188       -5.00844467957667       -0.32100198352659
C           -1.49639247152483       -4.19366398062328       -0.18640325176617
C           -1.32629668055798       -2.81451478400415       -0.18275893134713
C           -2.35062540591144       -1.79288121476179       -0.00122480318436
C           -3.72485429615531       -1.84310757062397        0.21448050144906
C           -4.39006344632962       -0.62610513946572        0.37401335930191
C           -3.74379388936232        0.59628401217831        0.31895659503874
C           -2.34893068159931        0.60530506875898        0.08966161695450
O           -1.49851863216394        1.54066901084356       -0.04142265985815
N           -1.76016083957133       -0.60119336853979       -0.04527166476995
N           -0.08718762912374       -2.25852812476793       -0.33015677515076
H            3.08048894250072       -2.86747800432323       -0.89164808134088
H            2.63879343088167       -2.40524068813218        0.76350242017886
H            3.92730090549809        1.04199034375617       -0.40378015171774
H            5.00092293544588       -1.22277153757782        0.12982750823335
H            5.38492799380528        0.07355842556988        1.26183978509536
H            4.20725634472558       -1.14988321953595        1.71008095475728
H            1.97338214509771        1.72412311784790        0.98879663904011
H            2.37002017786145        0.47348321144815        2.15533637835207
H            3.50255897201200        1.80726627265127        1.89064681656525
H            2.17242056952101       -1.17901706876506       -2.98695269407429
H            4.51695931033774       -0.88435968813871       -3.69800862758659
H            4.95521732906896       -0.21693377024257       -2.13067120849573
H            4.46419774533528       -1.91014341842217       -2.27139291875757
H            1.58553217458839        1.26668769219484       -2.77341052805604
H            2.73581495816920        0.93834667048391       -4.07648610873180
H            3.29671579999614        1.63543728009924       -2.55781794286356
H            1.75995685945802       -5.04316996238327       -0.43914487809755
H           -0.49381075134240       -6.08196562091821       -0.34534963278935
H           -2.48700856863327       -4.60692868186011       -0.08266523653425
H           -4.25871866829922       -2.77812315998723        0.25973016915801
H           -5.45785952941013       -0.64099256956450        0.54613669719962
H           -4.28431884151613        1.52191137109400        0.44157911523798
C           -0.39279886796635       -0.27545903475962       -2.10630020085966
O           -0.78632177993644       -0.31375078570903       -3.18736814128082
H            0.29438580088806       -0.40008814530031        1.03475374427020
