65
 energy: -93.121428170838 gnorm: 0.000205943913 xtb: 6.7.1 (edcfbbe)
Fe           0.02780301148192       -0.42348379969209        0.14381672699767
N           -0.00032240333560       -2.54986753285164        0.16388495920256
C            1.25576913476945       -3.13872978393722       -0.30898355943868
C            2.41979536985135       -2.47360715326434        0.42046555185972
P            2.14245115762960       -0.62631637476326        0.30064590920149
C            3.18307606442769       -0.03149617915164        1.67764663448292
C            2.59432575063239        0.76005549231210        2.65454419526897
C            3.35272048450521        1.23572409077903        3.71039427867588
C            4.69970593277642        0.92106024382059        3.79037737597468
C            5.29156212990926        0.13561391827474        2.81209236439695
C            4.53893327328196       -0.33854375492239        1.75357554372409
C            3.20500466278157       -0.10648495762394       -1.09208658191620
C            3.47351049419047        1.25999230958442       -1.15167813143845
C            4.20224019603967        1.78804000995282       -2.19887640466822
C            4.66188699098375        0.95598620203877       -3.20896052649929
C            4.37937753723674       -0.39847518166522       -3.16865302630126
C            3.64875728971810       -0.93014320622032       -2.11889389415242
C           -1.19206755041751       -3.10691055517716       -0.48206681765780
C           -2.43074788264404       -2.41387566881191        0.07917097244077
P           -2.09389021769070       -0.57225111458150        0.02653346328551
C           -3.28778222189634        0.02768193097766        1.27089211927403
C           -4.64655545414248       -0.26121155393017        1.17714942653501
C           -5.51705296188937        0.21323209255508        2.14089279376855
C           -5.03969393335249        0.98169636029075        3.19251975990357
C           -3.68923632045589        1.27866899451979        3.28108879259701
C           -2.81328478515445        0.80217101946339        2.32082505556861
C           -2.95693306990221       -0.00679163365203       -1.48116742648811
C           -3.24230259112189       -0.80257155751000       -2.58363317347790
C           -3.81844059513279       -0.24452306152508       -3.71255861134131
C           -4.10222651806721        1.10969090087487       -3.75589120035958
C           -3.79810757537271        1.91443824917120       -2.66808763176460
C           -3.22363519016968        1.35984163984642       -1.54138376361106
H           -0.07367440492786       -2.75252583867124        1.16461427417774
H            1.26235593385276       -4.22778290712048       -0.14753665482142
H            1.32711386497079       -2.94728260803457       -1.38548272832226
H            2.38268385489164       -2.72191046796541        1.48798013724564
H            3.38719921527616       -2.78997369881831        0.02414104814873
H            1.54109393065772        0.98535136481039        2.55716954868532
H            2.89647412215324        1.85399446858695        4.47076768556088
H            5.29403984166832        1.29169936789970        4.61382327187616
H            6.34435105169879       -0.10260248415887        2.87541833047044
H            5.00061138834267       -0.93932276663984        0.98060361823541
H            3.08997316434414        1.89781804763803       -0.36377098362029
H            4.40961524173807        2.84844925810681       -2.23552183608225
H            5.23109662298547        1.36519794302878       -4.03162698335239
H            4.72555982649189       -1.04578690704161       -3.96297002718419
H            3.42931862652781       -1.98921154840922       -2.11413766991942
H           -1.10642601360683       -2.91494446284240       -1.55732498718082
H           -1.24850741136159       -4.19540306175830       -0.32642058531165
H           -2.55624020089369       -2.67338986964358        1.13727347602082
H           -3.33779705745643       -2.69948326789001       -0.45819849999545
H           -5.01769611561100       -0.84845308588841        0.34712375851917
H           -6.57247156001752       -0.01169547193598        2.07262524487648
H           -5.72572548891394        1.35221961741330        3.94133888888875
H           -3.32175886542533        1.88346681601698        4.09825189000435
H           -1.75319827531743        1.01321584757350        2.35611048659376
H           -3.01687937485147       -1.86045216498544       -2.57538863947834
H           -4.04236052908428       -0.87033068424742       -4.56582614990559
H           -4.55044508533266        1.54015096530229       -4.64022999556731
H           -4.00530422828710        2.97487746249063       -2.70532992559976
H           -2.96255349370436        1.97767239641101       -0.69019153485758
C            0.14068586677023       -0.22284308437894       -1.57276758100743
O            0.21771689659558       -0.05556916589254       -2.71800535583204
H           -0.06596520323040       -0.48657541074793        1.62212242578076
H            0.03535159669195        1.04127450841102        0.29962554245359
