64
 energy: -92.259270109447 gnorm: 0.000130866195 xtb: 6.7.1 (edcfbbe)
Fe           0.17622854651178       -1.03201133462184       -0.94146144790082
N           -0.06859947667693       -3.05007264861211       -0.36492867476538
C            0.70088993890605       -3.25081708519803        0.88529985614766
C            2.16930080366587       -2.89474151480341        0.65596921115628
P            2.22849048356514       -1.41089834126971       -0.45190901317809
C            3.66339701578890       -1.76313735832311       -1.51507425245066
C            3.48101647435380       -2.73211330816334       -2.49939764097448
C            4.52183351970455       -3.06867570731992       -3.34260741956195
C            5.74713562001656       -2.43112809011034       -3.21209673704711
C            5.92520800414893       -1.45572382887651       -2.24464000434201
C            4.88592520992228       -1.11357570702108       -1.39582764181380
C            2.67440100040165        0.08357329456127        0.46891756319850
C            3.53901440726150        0.19095704103120        1.54848855671317
C            3.69794471307486        1.42034372535787        2.16964422563321
C            2.99997430847462        2.52808438830476        1.71766603567106
C            2.13173028449376        2.42364282893949        0.63780450101478
C            1.97167725935788        1.20273145179909        0.01547697017008
C           -1.49035454572007       -3.44028363274266       -0.22899849587843
C           -2.29929354199469       -2.29784279942001        0.37720086391313
P           -1.93658103173599       -0.79982643956939       -0.63744094366485
C           -3.09326125521033       -0.81720261365645       -2.04403592527967
C           -2.95178922492690        0.27046762446825       -2.90527287379917
C           -3.74822846078034        0.38305127061959       -4.02713226836434
C           -4.68667325824994       -0.60051584488280       -4.30432434600672
C           -4.82168913533183       -1.68928004557750       -3.45938228592721
C           -4.02758883185873       -1.80435012249291       -2.32992066497112
C           -2.60242390340135        0.54570871471257        0.38512300665785
C           -1.73269981728526        1.37893914463725        1.07926252713345
C           -2.23874095027789        2.38356655751944        1.88559262002144
C           -3.60843936974280        2.55877877016975        1.99821209909341
C           -4.47694357771963        1.72899476109023        1.30436289792129
C           -3.97996390513712        0.72450200345425        0.49524148722348
H            0.34419497837973       -3.68347592018999       -1.05770715231370
H            0.27471462826140       -2.60335565152128        1.65145096457546
H            0.61498884901306       -4.29401279800127        1.21102754992527
H            2.69335970247782       -3.70910263757437        0.14150337125282
H            2.67947899969435       -2.69546657815430        1.60184788763176
H            2.51262100846734       -3.20691046032299       -2.60500988381097
H            4.38173073563362       -3.82039700977860       -4.10543388127434
H            6.56184874793696       -2.69050209416513       -3.87189894602777
H            6.87826319789574       -0.95584748435627       -2.15177551079421
H            5.02725165972784       -0.34626740266979       -0.64831162102941
H            4.07996790149299       -0.67517077094194        1.90389976295845
H            4.36547269503708        1.51234528378532        3.01387483821607
H            3.12582721144020        3.48059635080701        2.21082739156968
H            1.58574513888476        3.29065685100382        0.29575258406575
H            1.27838202182698        1.08400577468217       -0.84065217434435
H           -1.86767527353686       -3.65528840677083       -1.23362108268288
H           -1.57453607008896       -4.34474722371441        0.38391674992605
H           -3.36837179951679       -2.52461728130654        0.40685114573995
H           -1.96904129503454       -2.06907721715000        1.39485365828811
H           -2.20603036287720        1.02549581612657       -2.67645042050995
H           -3.63966600841892        1.22998476743420       -4.68881682692743
H           -5.30996283884519       -0.51866800874994       -5.18261977466655
H           -5.55062758345638       -2.45536095700304       -3.68103243775032
H           -4.14989089295784       -2.66072805683653       -1.68306608947856
H           -0.66517424438022        1.23058433459364        0.99413671800970
H           -1.56434085816775        3.03140535900986        2.42640914693704
H           -4.00267126399348        3.34416778809065        2.62651909590618
H           -5.54447656532611        1.86822736008562        1.39440512148507
H           -4.65481135828946        0.08196285284463       -0.05380305150692
C            0.12792829309409       -1.29437281003200       -2.67496631739362
O            0.07612973373917       -1.40812774161393       -3.81273910761470
H            0.18080237749477       -0.74908090091611        0.44597060237381
