56
 energy: -80.742009981825 gnorm: 0.000256227146 xtb: 6.7.1 (edcfbbe)
Fe           0.01451349055893       -0.12266372204251        0.40564414093700
C            1.98082785446502       -2.41518826957438        0.31329304154844
P            2.06418294575046       -0.71900705908121        0.78591314302073
C            3.43092752026668        0.03207205827674       -0.17440944054590
C            3.94636755888415        1.26082446956569        0.22979205295590
C            4.93908274451014        1.87865515647315       -0.50700693337413
C            5.42001499095730        1.27745300304625       -1.66067262391725
C            4.90228151023421        0.06111343058814       -2.07529002395035
C            3.90797614783546       -0.55736116747747       -1.33777984366505
C            2.87001159780157       -0.73226026132739        2.43862963543982
C            2.11640401576247       -0.53272773225365        3.58817361239254
C            2.70034963089088       -0.64614432467580        4.83699341882180
C            4.04231722305082       -0.97282472508633        4.94825933310707
C            4.79653842822393       -1.19066759402745        3.80550066316409
C            4.21562879422535       -1.07315450669395        2.55640718918347
C            0.69303027916504       -2.91395082314399        0.20519885302002
C            0.35233065672769       -4.28703703672271        0.02505863015106
C           -0.95529123849835       -4.67027900555887       -0.01688734747278
C           -1.97536415318871       -3.71534225356483        0.14174604444869
C           -1.60596139984430       -2.39685622400665        0.28882129619282
C           -2.56966881426831       -1.26834768409309        0.55564784590275
N           -2.08516998736378       -0.06578606781632       -0.14577548673199
C           -2.29485601732135       -0.21094117985428       -1.59964332291103
C           -3.75211670384770       -0.33379076194704       -2.05227185880016
C           -2.65325458844170        1.20302909497941        0.35593300029490
C           -1.61197348410729        1.99678768669888        1.15309766200431
N           -0.32916736734920       -2.00695998044293        0.25394050234463
H            2.84275766934516       -3.06585362293138        0.38575473386266
H            3.56242744307092        1.72158254957916        1.13327855187791
H            5.34012818414569        2.83097109088779       -0.18731939410166
H            6.19667596548361        1.76002758334493       -2.23772890141149
H            5.27461116757381       -0.40415868626326       -2.97795142425030
H            3.48862527441137       -1.50253965034210       -1.65672494446646
H            1.06902124433797       -0.29016382343346        3.48304345315505
H            2.11024335167362       -0.48139375058835        5.72828501515446
H            4.50084694170341       -1.06253207599148        5.92341382330537
H            5.84234391674644       -1.45400701352734        3.89077630664643
H            4.80609003815253       -1.24313685244253        1.66512755553788
H            1.15287781208998       -5.00706749698313       -0.05807267111913
H           -1.21740460029512       -5.71086689086656       -0.14988352310235
H           -3.01299620961408       -4.00687214368006        0.16021071247441
H           -3.59732874083161       -1.52743063915203        0.27983896266092
H           -2.52823697826944       -1.06129095167414        1.62929936079555
H           -1.74609184600450       -1.09669538427073       -1.92674846412622
H           -1.83900923990945        0.65636065065431       -2.08227965574083
H           -4.37665179939759        0.44885536691906       -1.62808683364612
H           -4.17276757413228       -1.30028784484278       -1.78825939146084
H           -3.78656688344902       -0.24485864708343       -3.13553828936468
H           -2.96375035719290        1.80916410496191       -0.49891298206530
H           -3.53489538499768        1.01398288345985        0.97666862929086
H           -1.90537885551809        3.04284693145112        1.21755523511178
H           -0.61897145372077        1.95764631968965        0.64593191991682
H           -1.50614970317233        1.60431213147662        2.16177984416982
C            0.59234055196739        0.07689038419722       -1.22688114160967
O            1.03392082786338        0.21600009619343       -2.28567171559562
H           -0.30092561354953       -0.36028304938190        1.81779962121282
