54
 energy: -69.953568432435 gnorm: 0.000450033629 xtb: 6.7.1 (edcfbbe)
Fe           0.16510813242228       -0.21267219754896        0.17163437996291
C            2.34716750123923       -2.35022267624555       -0.14089936358359
P            2.29981184682907       -0.63351472205825        0.24702823894232
C            3.52207120088203        0.19848887623093       -0.93911111829827
C            4.98626511081114        0.15974814420220       -0.50859804879550
C            3.37567557891624       -0.46609399200492       -2.30638000712736
C            3.09776536846200       -0.33586526684262        1.92218960180375
C            2.55639482832915       -1.34131227891251        2.92795498725259
C            2.74166007038846        1.09682757448544        2.31065473279613
C            1.10429342109181       -2.93834649553177       -0.25637532007330
C            0.88857956345693       -4.33083734491280       -0.49543861098921
C           -0.36940526167504       -4.84832002408840       -0.46371755489683
C           -1.46013212807407       -4.01212883934643       -0.16282227818472
C           -1.21714216898986       -2.66881010859676        0.01835439651645
C           -2.28710437857380       -1.70465121714945        0.46921387864501
N           -1.98429515577393       -0.34625233728085       -0.01122682383661
C           -2.40328006389551        0.71260126080825        0.92104376180769
C           -3.90968751776366        0.90726313621341        1.10842922391101
C           -2.58069568259252       -0.13157445566385       -1.33995657698984
C           -2.11826122182187       -1.12211330090961       -2.39994088367368
N            0.00053573505529       -2.13152843233777       -0.10980932562069
H            3.26410012855103       -2.91040899777190       -0.25283784424101
H            3.20468362906852        1.24680422987538       -1.02236325651681
H            5.61417099745337        0.50468020855773       -1.33103052138575
H            5.17812445794211        0.80414249457054        0.34662142293770
H            5.28467265621275       -0.85765730396218       -0.26094082115087
H            2.32951026920430       -0.63856335026452       -2.54870051171722
H            3.87775171678159       -1.43123415113170       -2.30858561799838
H            3.81591243064636        0.15606234918824       -3.08568727282931
H            4.18348434042556       -0.45876489317060        1.85604451057848
H            2.84319771732556       -2.35229726055587        2.64420850580266
H            2.94003970044499       -1.13237675647166        3.92643575841732
H            1.47110849809838       -1.29227609714260        2.94708896669587
H            3.04284332310181        1.31867882598325        3.33436513901781
H            3.22193561758557        1.81456952854986        1.64487739172806
H            1.65621384883246        1.22203631668668        2.22840238295688
H            1.75025037410344       -4.95498284027835       -0.68026283725384
H           -0.53739224972810       -5.90201611871765       -0.63945686736874
H           -2.45602809404660       -4.41279558185105       -0.06128398883091
H           -3.28542372702612       -2.03368122269482        0.15610136604073
H           -2.24672545104636       -1.69101811167251        1.56285476820474
H           -1.95679906551881        0.47560158436137        1.89071102033317
H           -1.95258551872185        1.65234074648090        0.56325402641138
H           -4.07401636899528        1.59918735348854        1.93125086157954
H           -4.39140162418072       -0.03543141117774        1.35728007240306
H           -4.38060269585358        1.32492831173023        0.22214420109801
H           -2.31629806645155        0.88036050297654       -1.65788467770570
H           -3.67416403246358       -0.19751042502303       -1.26480113774048
H           -1.03313301870900       -1.18763561299737       -2.41377338946180
H           -2.45925603078470       -0.78177943857113       -3.37552767771695
H           -2.51751889996029       -2.11694364129082       -2.22401429053387
C            0.38056811056799        0.43429654413542       -1.42755559812940
O            0.49711190202757        1.13411437287242       -2.34639929814753
H            0.04212045690262       -0.54842327837940        1.59873788626279
