53
 energy: -69.985677682320 gnorm: 0.000138403488 xtb: 6.7.1 (edcfbbe)
Co           0.21731298134790       -0.33265101887995       -0.61877670300095
C            2.19719550443199       -2.32380469137618        0.62040540979912
P            2.27542673714895       -0.64315474017570        0.10590912238629
C            2.54668916571372        0.43018464364932        1.63490158241492
C            1.91336779198648        1.80211684309086        1.42294560013527
C            1.91513777714142       -0.25155704876722        2.84400700138564
C            3.86587979566308       -0.45715630323948       -0.86374633752125
C            5.04654887297190       -1.15319711589861       -0.18994647620522
C            4.19853850205899        0.99821887143254       -1.17916195172750
C            0.93371879804542       -2.86074899941250        0.51676196016921
C            0.59399692747769       -4.18801012924384        0.92986393279750
C           -0.67253634158304       -4.65554450121606        0.77402711008366
C           -1.65636626385208       -3.82705973115257        0.19852488557480
C           -1.28731610141202       -2.56030215088614       -0.18623821552897
C           -2.24000223829573       -1.60223609507852       -0.84671118442831
N           -1.88219183736617       -0.21913577866557       -0.48947291734624
C           -2.12306074094178        0.02972236855445        0.94908822052009
C           -3.57593936438590       -0.03833373080903        1.42916392391045
C           -2.65842338802467        0.69547528383365       -1.34744746122499
C           -2.48893689133879        2.17399247466912       -1.02008645878443
N           -0.05259677105838       -2.07311824748400       -0.03197602472756
H            3.02263551711281       -2.87515267020067        1.03989370077138
H            3.62393417626544        0.54028955807572        1.80462258840293
H            2.03387431976187        2.42204151783968        2.31120817318867
H            2.35700763910095        2.32000160573041        0.57679271640553
H            0.84752351406663        1.67388579567248        1.22064330007578
H            1.99860183368414        0.38287495927312        3.72587564316434
H            2.39854312155563       -1.20318591791644        3.05386358480881
H            0.85891736519260       -0.44131248949282        2.65250411128652
H            3.64962536533936       -0.97649467916238       -1.80803915300797
H            5.94811415563917       -1.00674734261823       -0.78409904143441
H            4.86988014211399       -2.22209411322946       -0.10436778951162
H            5.22739747463884       -0.74969409788205        0.80451741228750
H            5.02768764442442        1.04578814199443       -1.88470914240480
H            3.34470481514671        1.50194300393054       -1.62544143687596
H            4.49223426072957        1.53352955757503       -0.27868540607665
H            1.37068209452958       -4.79766246935553        1.36777769552648
H           -0.93578114092326       -5.65674659796476        1.08731746890975
H           -2.66459503241392       -4.18010471283748        0.05048951777792
H           -3.28187412408072       -1.83658921851402       -0.59178000585171
H           -2.13469478935054       -1.70787510032803       -1.93334206916945
H           -1.71758521742799        1.01671971457071        1.18305541395052
H           -1.54782818504839       -0.70844708178479        1.51412637666353
H           -3.59265011853189        0.18615246459545        2.49343110102814
H           -4.21108433323535        0.68462312077519        0.92460222713007
H           -3.99869664772829       -1.03117872639551        1.29590289747486
H           -3.72540222676124        0.43484663814863       -1.29713176032132
H           -2.32528650397382        0.52732263611590       -2.37571033037212
H           -1.43547128823810        2.42511155209728       -0.92532613576001
H           -2.90964733588878        2.76464501456862       -1.83063474095781
H           -2.99872389690431        2.45127391984852       -0.10138027270754
C            0.55072775950236        1.06231790585683       -1.57711132835882
O            0.85572457791695        1.83835763650424       -2.38248936704378
