55
 energy: -71.022219730548 gnorm: 0.000242155200 xtb: 6.7.1 (edcfbbe)
Co           0.34498789399648       -0.55072205134712       -1.30193842802018
C            2.61834681896513       -2.16093842799133       -0.24492916935859
P            2.17855312187431       -0.35867845830873       -0.02682369029261
C            3.64169930998855        0.50370728429559       -0.81768236078628
C            5.01254103047299        0.18612906145974       -0.22131038560983
C            3.64848408319575        0.22732150443099       -2.32054780493569
C            2.57864382712795       -0.12874441324621        1.79767083152531
C            1.61940080259434       -0.92816963900285        2.67501026017806
C            2.49275998218080        1.35411212771160        2.15032006696375
C            1.33567798358215       -2.90672650099832       -0.09158030985305
C            1.26008481150357       -4.14669077932708        0.52192508778715
C            0.01907536408625       -4.73643087540229        0.71432454868191
C           -1.10880687612146       -4.03622528950234        0.31577644163528
C           -0.96195565867350       -2.80607889289773       -0.30480282304681
C           -2.14147766654368       -1.98858542225046       -0.74115474076563
N           -1.94220424732680       -0.57688645019050       -0.39164851746094
C           -1.86601245043426       -0.38817166716855        1.06246261900250
C           -3.15420820206911       -0.59139544468029        1.87025337267958
C           -3.00328632733214        0.25993794824792       -0.95885896979494
C           -2.94529650212236        0.40132843673233       -2.47452102632266
N            0.24306674661258       -2.26290636696928       -0.53223736177979
H            2.97309412908880       -2.25932247116736       -1.27559323314448
H            3.38804910168136       -2.52320070539294        0.44072506643364
H            3.42470367358410        1.57096247153692       -0.68162167239609
H            5.78125585530198        0.66308321407212       -0.82851767676245
H            5.11750991499548        0.55884350444051        0.79414559662354
H            5.20221661879519       -0.88553609355432       -0.22589204015148
H            2.63450199712298        0.28461343773381       -2.71767659005846
H            4.05258229114136       -0.75991153395723       -2.53782930481791
H            4.26538093234427        0.96125149154397       -2.83630014176855
H            3.59456838627699       -0.50074628367381        1.97110758034143
H            1.60066376370716       -1.98131000266085        2.39752248322951
H            1.92428780368707       -0.85963685534493        3.71927302574106
H            0.61174076278782       -0.52648965664547        2.59347209957717
H            2.59530661069463        1.49643725342319        3.22576634542081
H            3.27185233659947        1.92918444454701        1.65509949422742
H            1.52679134565749        1.75381696464241        1.84104101857343
H            2.16318343213628       -4.63872362643577        0.85079858454105
H           -0.06664574413118       -5.70379755635457        1.18472586387011
H           -2.09611768091096       -4.43913221079091        0.48275839401657
H           -2.20531391833230       -2.04876895025014       -1.83270518992373
H           -3.07196848977330       -2.39888905811192       -0.31807452868512
H           -1.11767685079629       -1.08734504053495        1.44196182717548
H           -1.49972805383205        0.62839446483659        1.23390737122270
H           -2.91700599955635       -0.50350062895860        2.92828712584813
H           -3.57970506859634       -1.57862487055730        1.70441578241331
H           -3.90243581786423        0.15927851831252        1.62962819673158
H           -2.88800197357897        1.25479054808614       -0.52162757708699
H           -3.99409491360283       -0.13192279436672       -0.67827694966735
H           -1.93706501265309        0.67425920757891       -2.77505695892543
H           -3.63329761613351        1.18326676256229       -2.78793834311160
H           -3.22654988502623       -0.51779793411298       -2.98295247446758
C            0.18430595816483       -1.05447469862761       -2.95740291558555
O            0.25910638890294       -1.33474397035031       -4.08290280532603
H            0.35274352352944        0.82696985481824       -1.76605647870193
