56
 energy: -80.867067204877 gnorm: 0.000186876784 xtb: 6.7.1 (edcfbbe)
Ru          -1.22550716947271       -0.29120898712585       -0.15292694096666
C            1.35234807038181       -1.94021164836291        0.41632582408976
P            1.05121112905198       -0.28256862196144       -0.11530677595996
C            1.91974384009124        0.88688512380139        0.98152071089880
C            1.30457076378803        2.10230084484668        1.25743579449644
C            1.92899631294595        3.03525332048646        2.06468409722996
C            3.17480459420752        2.75332235053570        2.60324297903452
C            3.79328140491393        1.54307541859444        2.33042664436034
C            3.17121972300711        0.61157743159053        1.51798855925381
C            2.03642946495388       -0.05155419642830       -1.64485278726525
C            2.13832511571073       -1.12354835156398       -2.52587924922391
C            2.81643920477376       -0.98559032332101       -3.72218326605368
C            3.39673545877753        0.22927408663820       -4.05224733845228
C            3.29177375429145        1.30399601889775       -3.18388231035080
C            2.61159713912064        1.16807288409488       -1.98677951286582
C            0.24620582039271       -2.76944075897815        0.46815405505533
C            0.25923150499911       -4.15804797416013        0.81178616170612
C           -0.89354847167417       -4.88479008114767        0.78874142249290
C           -2.11190739968290       -4.28558643434782        0.41141515352819
C           -2.09353700585725       -2.94517404345199        0.09155589407776
C           -3.30070559397041       -2.17374619705945       -0.41883873724666
N           -3.31488103772985       -0.81418944670787        0.16204152917407
C           -3.94277074017465       -0.93081861556915        1.49342316906163
C           -4.01140488974967        0.34788411307672        2.31675371137583
C           -3.94788494480090        0.22966032439161       -0.66126570049179
C           -3.16312350967963        1.55657578947351       -0.53978169145790
N           -0.96805374571403       -2.23095557271751        0.14528105474415
H            2.34868183600037       -2.31082537168003        0.61037600154723
H            0.32212178003355        2.29386516350872        0.82922567341127
H            1.44911702518084        3.98047437473303        2.27768675681498
H            3.66468464067049        3.47809568591022        3.23790025858547
H            4.76524066116128        1.32786410989696        2.75197287596405
H            3.65146615327377       -0.33133669314065        1.29635801147410
H            1.67708755794411       -2.06641728148064       -2.25544730919790
H            2.89306110344217       -1.82391066325811       -4.40081695005556
H            3.92843081213068        0.33882648599834       -4.98680836866210
H            3.74038096035863        2.25314725711879       -3.44281450401533
H            2.52675615696450        2.01008627278436       -1.31182252698346
H            1.20161339317599       -4.60802640251161        1.08419483430078
H           -0.88279162401081       -5.93283160125483        1.05135691176716
H           -3.02435780904297       -4.85701166741480        0.36711301484520
H           -3.20237463571680       -2.09755213702226       -1.51016763778538
H           -4.23109950322560       -2.71694984693421       -0.19804857161101
H           -4.96484959135537       -1.32177471182061        1.36146623460776
H           -3.36026861051641       -1.67141308857738        2.05014412226456
H           -3.02676128494188        0.80420848129488        2.39167782580337
H           -4.71980562617729        1.06348077160907        1.90606544765858
H           -4.34129696814335        0.09137267987848        3.32097964629880
H           -4.99807175831753        0.38144241717103       -0.37593160985982
H           -3.93315033002015       -0.09216847137586       -1.70872904021096
H           -3.26765976479147        2.14012462410835       -1.45549987581898
H           -2.04522568908367        1.38228240800354       -0.36854935282477
H           -3.52161312849060        2.15950101686082        0.29394381083777
C           -1.20910775146060       -0.47657651907741       -1.98933673880945
O           -1.10542409097420       -0.49198448869124       -3.14313847862248
H           -1.11902188574895       -0.02851114450076        1.38515903662388
