58
 energy: -70.507989571875 gnorm: 0.000149831154 xtb: 6.7.1 (edcfbbe)
Co           0.13760275662124       -0.23538025588657       -0.24332591178733
N            0.09333173435170       -2.07380891482035       -0.19054732770478
C            1.08522782290704       -2.94625403905100        0.40658960688561
C            2.13700975597531       -2.17933575907713        1.20481826475507
P            2.14209082921865       -0.46752264285746        0.54227482153049
C            2.88234119862966        0.49269008393833        1.96471313226764
C            3.47390309147563        1.82700601541594        1.51964082116631
C            1.76948040137212        0.73525031570278        2.98321764915273
C            3.46287569580987       -0.42265851703152       -0.77267553750205
C            2.91203712277302       -1.10491319507925       -2.02263007505694
C            4.81550933666480       -1.00240877220085       -0.36828458850339
C           -0.96907464700493       -2.90641027534764       -0.71313756781126
C           -2.01222436977209       -2.09026392041926       -1.46743806855206
P           -1.98870346985108       -0.43876072712310       -0.66985983728039
C           -2.98496234975298        0.59791813147594       -1.86626949380942
C           -3.03809362252764        2.05399972460973       -1.41021385522704
C           -4.39065570534707        0.08234524163774       -2.16392763716157
C           -3.05693840874322       -0.54950964775637        0.86723934062433
C           -2.12526396822956       -0.63131916320853        2.07612156976193
C           -4.06763098373683       -1.69286367017487        0.89543182911974
H            0.58948355572582       -3.68174919500690        1.07329139573625
H            1.58008911070651       -3.54798961955544       -0.38186597633120
H            1.83212382972900       -2.11257282277898        2.25224126224784
H            3.11803072610208       -2.65540835754158        1.16250841986502
H            3.66355855914724       -0.12905088906180        2.42222520264680
H            3.73868909883979        2.42452416000815        2.39153712790916
H            4.37015203859146        1.69433844360590        0.91864630756431
H            2.74370773917978        2.38587527749467        0.93644079909349
H            1.29629434142622       -0.19689751719988        3.28752839647919
H            2.16137344934119        1.22771310984457        3.87219116116460
H            1.00513241095686        1.37392719271845        2.54048177591284
H            3.57835048326540        0.64579003078162       -0.99796138411704
H            1.89583037817356       -0.74566939953507       -2.21775450208353
H            2.86979089261804       -2.18337640772467       -1.88508883799859
H            3.53626958269000       -0.89153412348459       -2.88941803746417
H            5.55047709283932       -0.79013536175091       -1.14421599732077
H            4.75731954899178       -2.08315743284207       -0.25531298840733
H            5.17466101290400       -0.57520361596292        0.56558121521223
H           -0.54750010685128       -3.68294832916812       -1.38264814978243
H           -1.46356223139721       -3.46032586524937        0.11240392246468
H           -2.98650596667945       -2.58035382025992       -1.47249374660675
H           -1.68805752119268       -1.92656482084142       -2.50028076208959
H           -2.38829402147319        0.55215366376172       -2.78948602205636
H           -3.65440325975182        2.16430093792726       -0.51981487875361
H           -3.46509179726740        2.67835561399681       -2.19405395490895
H           -2.04137298091988        2.42439666038920       -1.18413400132371
H           -5.02946233589936        0.17770957812696       -1.28883619810588
H           -4.83222802504691        0.67544153682780       -2.96445984058783
H           -4.37687180919267       -0.95657737409972       -2.48490588335304
H           -3.59481012378425        0.40622011029440        0.91305284430180
H           -1.62710052970488       -1.59870244371213        2.10128617277956
H           -2.67940922917503       -0.50137740026406        3.00525035959575
H           -1.35582717757937        0.14218570648941        2.00744789093640
H           -4.67893857847722       -1.61098060569754        1.79432635075225
H           -3.55871551579481       -2.65395332678421        0.92481263972932
H           -4.73062844494236       -1.67718213682688        0.03430211638165
C            0.30934390275664        1.45840671406850       -0.46290786713415
O            0.50411850169254        2.59778911937428       -0.63366075234334
