63
 energy: -92.272318165756 gnorm: 0.000137087194 xtb: 6.7.1 (edcfbbe)
Co           0.03128495788692       -0.84556114389554       -0.31285597357555
N            0.05304773567900       -2.83298458302460       -0.21046217508301
C            1.14810756601669       -3.37490286655821        0.61771593297820
C            2.47467863515563       -2.80608750976235        0.12497702091506
P            2.20103200117465       -0.98220595727303        0.02861853760315
C            3.66579134577801       -0.25390696213276       -0.75007627067782
C            3.73329822210827        1.13934996776095       -0.74363947181279
C            4.81521074513555        1.78455735593413       -1.31007384876407
C            5.83223252512750        1.04462182090489       -1.89562158110646
C            5.76348525697021       -0.33861139502087       -1.91229220149484
C            4.68259187212017       -0.99275535261679       -1.34491631532082
C            2.38778054626087       -0.50528192346240        1.77504150339489
C            1.23620016062065       -0.24531280636031        2.51242957369836
C            1.32842607872457        0.07327138206735        3.85500532979817
C            2.57221543259574        0.13552386816475        4.46399534521897
C            3.72164265874370       -0.12111610602712        3.73166333290328
C            3.63491934392967       -0.44302119903533        2.38911483927362
C           -1.23851151770816       -3.51873955866473        0.02590765502211
C           -2.11551496767216       -2.67976984602822        0.95059653968804
P           -2.09392718438944       -1.00620150958748        0.17377561773699
C           -3.11578682837430        0.07810402281695        1.20168240054043
C           -3.40232879335199       -0.18743120103376        2.53703932971306
C           -4.16870827406360        0.70661863191199        3.26532978997862
C           -4.63996696030806        1.86720941156992        2.67383056274323
C           -4.34203654056298        2.14245378937680        1.34712551352421
C           -3.57738733140501        1.25592928616374        0.61387760999397
C           -3.07771798625129       -1.24166669868985       -1.33029604357869
C           -2.39705054196547       -1.22912962494216       -2.54410962502559
C           -3.08445436407610       -1.43682341707828       -3.72598752872456
C           -4.45338234462800       -1.65429441424193       -3.69386117033920
C           -5.13447664441905       -1.66223090217584       -2.48517656180900
C           -4.45196288497212       -1.45639356978689       -1.29992171101805
H            0.32146831676235       -3.02363915034177       -1.18266177958340
H            0.97929215573547       -3.08415735226144        1.65917338771517
H            1.16481842072966       -4.47087973017684        0.56137790295154
H            2.69901682022988       -3.18889463467742       -0.87565353270281
H            3.29798838404550       -3.05405721271429        0.79898886093156
H            2.93350381050692        1.70665493737114       -0.28447949776360
H            4.86796715766902        2.86305404214513       -1.29832475129666
H            6.67821918533089        1.54763029899608       -2.33969248553915
H            6.55620808119172       -0.91283449616711       -2.36900205808817
H            4.64669997357631       -2.07187376864239       -1.36363451444691
H            0.26454808942316       -0.28128576431160        2.01592071817890
H            0.43499028368616        0.27920856878700        4.42580003877437
H            2.64769535379490        0.38871297346662        5.51100314389234
H            4.68877955165689       -0.06837793663209        4.20943629278333
H            4.53132183232329       -0.63707349759451        1.81580519366637
H           -1.75661324488248       -3.63968266555095       -0.93061243084178
H           -1.07039091372160       -4.51418685355998        0.44976031670545
H           -3.12824060066346       -3.08253532316250        1.03031149540131
H           -1.66862450331119       -2.61670951165004        1.94650257311464
H           -3.03918760152451       -1.08742073216198        3.01072869343709
H           -4.39914019245321        0.49638424147241        4.29941169306908
H           -5.23781998479357        2.56023798203281        3.24668927856826
H           -4.70558198010996        3.04944564423945        0.88750310745515
H           -3.33698032241907        1.46414616426232       -0.42094514306495
H           -1.32294031739197       -1.03871889297305       -2.54472498406108
H           -2.56022079249156       -1.42517501135251       -4.67011210026594
H           -4.99401548953482       -1.81324138926524       -4.61499421627646
H           -6.20153264222419       -1.82772931778167       -2.46919127313697
H           -4.97910316421720       -1.45308248403349       -0.35555065007858
C           -0.00067146307065        0.85865627322907       -0.63217282952804
O           -0.03913190168215        1.97025388917694       -0.89681233485514
