60
 energy: -70.806426431005 gnorm: 0.000104154660 xtb: 6.7.1 (edcfbbe)
Ru           0.07269356536644       -0.33500940426169        0.09672253936731
N            0.09600305909743       -2.45111548247529       -0.16375530702321
C            1.45416093751341       -2.96072455827962       -0.41222220807246
C            2.44733916815765       -2.35332686189069        0.59889964833089
P            2.32073690628570       -0.52031571407081        0.33201451736999
C            2.49524143268152        0.57840157287111        1.83435092824127
C            3.85582053519677        1.08616522225827        2.29417508071704
C            1.57166566849068        1.75394785621474        1.44006265615976
C            3.76777773400413       -0.08042103731049       -0.75826587523764
C            3.52790654475712       -0.43113534939909       -2.22460046583565
C            5.06929936905051       -0.71656391244166       -0.26429733792572
C           -0.94848522607016       -2.87131528556702       -1.10407004921131
C           -2.30699400669601       -2.40939383547407       -0.56292780720437
P           -2.22617673194663       -0.62262432689279       -0.01045803760813
C           -3.04580685278917        0.33803531250996       -1.38031988743428
C           -2.78025515553722        1.82010789321544       -1.10094074472951
C           -4.52943929317370        0.07881648881933       -1.61655819319912
C           -3.43913698362762       -0.47967092866870        1.40521867517022
C           -2.69367657292717       -0.41571164817390        2.73576511851274
C           -4.51865891720805       -1.56142767682926        1.44194063553967
H           -0.18368390682060       -2.78711549860626        0.77024703421487
H            1.46217483583257       -4.05549160232626       -0.33472034544287
H            1.73412972069945       -2.67831012445536       -1.43505931656514
H            2.13594121217345       -2.57798427740017        1.62440489462649
H            3.45084505582256       -2.74896382870971        0.43451109706019
H            2.02623707896225        0.01851954515299        2.65383219827537
H            3.70941187226140        1.79897470652317        3.10506840304610
H            4.46779339636470        0.27379297714787        2.67867493061344
H            4.39652963281381        1.59333234876362        1.49858439551583
H            1.38657817036785        2.40189733636691        2.29702385714478
H            2.03089558788416        2.35297673380575        0.64911505367275
H            0.54620938798094        1.39985404655530        1.07658652483356
H            3.83455050091248        1.01405387173711       -0.67778810639578
H            2.61613583265507        0.02459558872001       -2.60242804606847
H            3.47197372530944       -1.50844792110487       -2.36958013562267
H            4.35817020421385       -0.05997232043284       -2.82353422794610
H            5.91775393576875       -0.13035193767858       -0.61164074286117
H            5.18009356021689       -1.72162574229283       -0.66587640033849
H            5.11492139645902       -0.77143157743961        0.82051253494396
H           -0.73509520456735       -2.41664314756170       -2.08002491996248
H           -0.94618701123964       -3.96337149765839       -1.22072145988476
H           -2.56695916758592       -3.01428152020010        0.31155636673735
H           -3.08500553518564       -2.54311975629920       -1.31766719602289
H           -2.49522897014439        0.04295427500248       -2.28553729629200
H           -3.41710729783008        2.18464966590416       -0.29597897592682
H           -2.98025906744138        2.42076565856669       -1.98624768294399
H           -1.73376824498352        1.98240504991142       -0.80558211554043
H           -5.12986789043956        0.38012220406447       -0.76169346584939
H           -4.85791722187404        0.66387825384129       -2.47455859819759
H           -4.72644341534561       -0.96825809562009       -1.83652736423818
H           -3.91656529310816        0.49639134381834        1.24203570656804
H           -2.18538782552093       -1.35568875815475        2.94292994680552
H           -3.39445745777141       -0.21983514167554        3.54534712270864
H           -1.95050790599969        0.38153936493695        2.72124932907635
H           -5.31817098793955       -1.24022338274469        2.10772517252601
H           -4.12376748386363       -2.49522901116692        1.83613420088549
H           -4.95139727112177       -1.74814889231777        0.46289418548703
C            0.11570722705826        0.19203022052539       -1.68272421617901
O            0.14310912193068        0.55553473798977       -2.77149883081805
H            0.03173621811616       -0.73771320837059        1.58340702710098
