54
 energy: -70.087896926284 gnorm: 0.000262536903 xtb: 6.7.1 (edcfbbe)
Ru           0.01337537045605       -0.03462318521958       -0.08088360946436
C            2.05706615935367       -2.16709916568060        0.90965717790485
P            2.19623871000379       -0.45109086852764        0.49421902187921
C            2.97447731708877        0.46950361672424        1.92845088516975
C            2.55339435279266        1.93565345169522        1.84527966633470
C            2.52345188680916       -0.14645292342527        3.24706718808077
C            3.52610024142494       -0.38740847452748       -0.83582793853878
C            4.84388278355216       -1.03992177457936       -0.43380795108401
C            3.74018713950447        1.02592828427149       -1.36863654466514
C            0.84140055732997       -2.76765330135526        0.64909492578945
C            0.52996094221782       -4.14734839442828        0.87402261824477
C           -0.69266535212392       -4.64315481204737        0.53577866797892
C           -1.66570176901697       -3.81071606489932       -0.05352414522317
C           -1.34058283289591       -2.48594043961042       -0.25116539796386
C           -2.25460219759698       -1.48956715115024       -0.94992064573707
N           -2.14081493855828       -0.16960421484550       -0.30277491689911
C           -2.96573297216181       -0.13724385188777        0.91935309402633
C           -4.48386427095374       -0.16252034420505        0.72291822816740
C           -2.34714173302209        1.01549945130460       -1.14659807413817
C           -1.44575002627611        2.15954243019615       -0.63847843481366
N           -0.15350618780689       -1.99753318892706        0.11129399166661
H            2.87436235019611       -2.72884774350223        1.33799863272960
H            4.06492660884336        0.39328865162629        1.84592149861144
H            2.90885066457011        2.48881315033056        2.71411472064323
H            2.94396001093362        2.41305707480803        0.94887812956019
H            1.46234145525936        1.99136836467232        1.81760221452121
H            2.88439281644426        0.44539865294539        4.08768054316206
H            2.89857540865700       -1.16203662635514        3.34877229421645
H            1.43627649632218       -0.17987361763669        3.28073925900582
H            3.07450451819326       -0.99723584387293       -1.63275738100307
H            5.48809854432325       -1.13941342540208       -1.30715697699751
H            4.66938782540455       -2.03160530889504       -0.02333835392427
H            5.37347683738127       -0.44315087818953        0.30590682754431
H            4.26381765259077        0.99890466586815       -2.32396534321000
H            2.77819532786624        1.52280530874913       -1.51658761176122
H            4.33555725626414        1.61485271083780       -0.67355146386514
H            1.28924583888193       -4.77691573048926        1.31233908516193
H           -0.92691623777269       -5.68395908085294        0.70850901573538
H           -2.62751094114458       -4.19890876091216       -0.34624417537925
H           -3.28645310201894       -1.86068955033294       -0.96246287141603
H           -1.91809427664163       -1.40516142035782       -1.99197455768939
H           -2.70158503586247        0.76040332369541        1.48374778345135
H           -2.66886040447896       -1.00044394464407        1.52262439954063
H           -4.94840942447604       -0.19709162608748        1.70524611425060
H           -4.84898677946532        0.72755335885305        0.21587499128955
H           -4.81429470029239       -1.03779094805844        0.16965349591188
H           -3.39404767594321        1.34528105803924       -1.15624676959904
H           -2.06888632493380        0.76917571926085       -2.17757967579360
H           -0.38316734422533        1.80032266252726       -0.41284559615078
H           -1.36919574794671        2.94055355871638       -1.39545035370159
H           -1.85441676152904        2.60209308177946        0.27212989369727
C            0.39823759285826       -0.18085404007948       -1.87384629353264
O            0.67534696165192       -0.18268175387051       -3.00054272311463
H           -0.25296473807544        0.18667960642911        1.44970440907423
