65
 energy: -93.258885298590 gnorm: 0.000051559094 xtb: 6.7.1 (edcfbbe)
Ru           0.01775654231233       -0.32785738526628        0.31960080506933
N            0.02434673841585       -2.47063025535971       -0.26480040009445
C            1.28388108541520       -2.89039332938511       -0.88148101224806
C            2.45249488756057       -2.45145223439751       -0.00196935463718
P            2.25775424018749       -0.62492516985816        0.33316835609070
C            3.42218588880336       -0.40932132681222        1.72207092295513
C            2.94223438582691        0.12615653104382        2.91027841907942
C            3.79809011068318        0.30822286014930        3.98315334061674
C            5.13330793580731       -0.04285973788588        3.86912451141459
C            5.61690982624895       -0.56930017061508        2.68027297005113
C            4.76700792923017       -0.74996769803066        1.60508181207506
C            3.23649800334554        0.18816321678833       -0.97684973027539
C            3.39922096735364        1.56086786866559       -0.79385465945601
C            4.07798562914278        2.31860383179032       -1.72680023821002
C            4.59391211134155        1.71276402929050       -2.86324268707767
C            4.42051498990126        0.35409812153789       -3.06011184013003
C            3.74264924884326       -0.40957417938802       -2.12330235720907
C           -1.16150622085279       -2.85870087907205       -1.03044984966197
C           -2.41613538867389       -2.38498388562725       -0.30003743372835
P           -2.21351436640114       -0.56208207676168        0.04841589708760
C           -3.53840208606120       -0.29951852000343        1.27584876686203
C           -4.86873295572195       -0.59252776926876        0.98820678607277
C           -5.84197318603660       -0.37375162138247        1.94535387702979
C           -5.49568661748502        0.14363515423120        3.18499393382684
C           -4.17396244728810        0.44677656886853        3.46860271250984
C           -3.19528437016344        0.22692604922354        2.51444582653208
C           -2.99244067243753        0.26678746470638       -1.38058002804700
C           -3.38640059392452       -0.32829082197025       -2.57158244726222
C           -3.91667062423898        0.44746441679804       -3.59016933319855
C           -4.05366116142426        1.81513709669335       -3.43042780994230
C           -3.64898210031864        2.41764296179337       -2.24805888578649
C           -3.11708254889215        1.64775649529700       -1.23335357568966
H           -0.03738257126110       -2.93550284850888        0.64841772435263
H            1.30086062252142       -3.98342839434506       -1.02685125929446
H            1.35547125709577       -2.41107050448905       -1.86650274479689
H            2.39559123742112       -2.95130587213217        0.97343534324244
H            3.41505151874552       -2.69719746463676       -0.45618725608089
H            1.89368440431636        0.39286891160964        2.96638419619192
H            3.42513605263762        0.72551313594110        4.90757977282951
H            5.80284742616528        0.09822494674651        4.70556183257177
H            6.66089903510934       -0.83529352614228        2.59266536240440
H            5.14477365705155       -1.14558406029633        0.67125373963150
H            2.96726675852070        2.01789529425143        0.09051826727026
H            4.20136321483731        3.38163836421412       -1.57623010588774
H            5.12246507189986        2.30206906948681       -3.59868038501926
H            4.81202540351246       -0.11692518439556       -3.95116350665858
H            3.61268033222007       -1.46785396886114       -2.30458849797468
H           -1.09996634446902       -2.38074828970224       -2.01687730559717
H           -1.18990497113200       -3.95134442403601       -1.17670977776502
H           -2.49038074061267       -2.87941088377262        0.67693421003996
H           -3.32300979074769       -2.60915654269461       -0.86613641258448
H           -5.13810679308605       -0.98134941260758        0.01482338116000
H           -6.87526064660267       -0.60241874989782        1.72539399351109
H           -6.26126950535294        0.31507830992235        3.92816189096466
H           -3.90729468376217        0.85699839455383        4.43211675810331
H           -2.15355092675624        0.45687371702953        2.70329878488644
H           -3.28172934829608       -1.39381061305300       -2.72455133597081
H           -4.22077116143308       -0.02136020028011       -4.51584007778267
H           -4.46651636222620        2.41365969250307       -4.22969691031985
H           -3.74341330540867        3.48718185321192       -2.12513459844758
H           -2.77187417885838        2.10056427582694       -0.30947395754952
C            0.13718647405354        0.27594218890799       -1.40883386485512
O            0.21264909109095        0.60774322924244       -2.51876357614065
H           -0.08582267642813       -0.84903330976106        1.81658277142196
H            0.00286521582476        1.13413675221774        0.88940091331235
