49
 energy: -71.165932385845 gnorm: 0.000188998293 xtb: 6.7.1 (edcfbbe)
Ru           0.01517359958072       -0.09043870003693       -0.25626977272047
C            2.30752021884478       -2.23950993952886       -0.03684024668534
P            2.25958386289506       -0.45394198464073       -0.55615070279293
C            3.72417779418164        0.31436326711710        0.32921259820812
C            4.80003963022440       -0.65931646887002        0.80960212797423
C            3.20918445109745        1.15977656954332        1.49125815956096
C            2.83964150731776       -0.53180789784543       -2.33902843471559
C            4.21204289265797       -1.14263006917988       -2.60608593240958
C            2.76160266778968        0.87621003736907       -2.92976475432962
C            0.97476728787636       -2.86963040225838       -0.30233493461949
C            0.85134057462165       -4.22573323342539       -0.53129530161125
C           -0.41726897030373       -4.78996238994377       -0.66689616168465
C           -1.51852225884862       -3.97421125649486       -0.52369493324975
C           -1.33730377194871       -2.60593735172979       -0.30205951899783
C           -2.41458703073928       -1.65313940191040       -0.10196819075774
C           -3.76352820886577       -2.00754466386130       -0.01848781934952
C           -4.71150764065353       -1.03148369283697        0.20868899460777
C           -4.29543443517937        0.28483146548413        0.34687404378772
C           -2.93824131434259        0.57505451528637        0.24793762681404
O           -2.46848553222014        1.82716468849651        0.35479289521403
N           -2.01068798205486       -0.36270216262157        0.03010670025140
N           -0.09801844617266       -2.05820097427022       -0.24136678741425
H            3.12572020419766       -2.81626335213093       -0.47164326805797
H            2.44016428034149       -2.20620562943201        1.05298572268329
H            4.16052608399174        0.99434256522517       -0.41438419550459
H            5.13167715179262       -1.33092907758296        0.02280013604941
H            5.66252287680061       -0.09124243260724        1.15642938244159
H            4.43927897752098       -1.25323992666514        1.64653314364411
H            2.40404359322665        1.80987163830116        1.14947905475062
H            2.80722826128453        0.52379682957449        2.27762356029880
H            4.01193492301755        1.76563735901242        1.90878437472511
H            2.07380224258107       -1.15668474044048       -2.82602995159437
H            4.37660630772251       -1.18721273446038       -3.68239808347821
H            5.00063224273941       -0.53162649253632       -2.17394964816471
H            4.29226366874807       -2.15540747755293       -2.21777696019896
H            1.83875730033925        1.36913904077971       -2.61538378701027
H            2.78435034647906        0.83833745318841       -4.01795301576178
H            3.60033377454636        1.48349655150553       -2.59400795594776
H            1.73412097330925       -4.84349446780022       -0.59511476020478
H           -0.53049958618292       -5.84514714391937       -0.85963149795694
H           -2.51192215687200       -4.38638507145759       -0.59298224929233
H           -4.06121245014695       -3.03707971347981       -0.12545269598965
H           -5.75798151686488       -1.28360202085565        0.27829575486335
H           -5.00488669118178        1.07917924873928        0.52350432551127
H           -3.18221131710789        2.45391751090620        0.54490677927143
C           -0.39500412738660        0.05432931350959       -2.04954332167168
O           -0.83380831776339        0.07639139080923       -3.12243902187681
H            0.20457002348509       -0.05437505377399        1.31231560857286
H            0.07009127894166        1.47021831578379       -0.19286304881005
