64
 energy: -92.386977805763 gnorm: 0.000126131048 xtb: 6.7.1 (edcfbbe)
Ru           0.21474371152921       -0.81527648952903       -0.45503960995963
N            0.35479971983739       -2.97159058605030        0.04648332624139
C            1.34433609508049       -3.19439415323293        1.11877979204558
C            2.70002984814498       -2.62238546316320        0.69759022481148
P            2.43618809957297       -0.87659193023273        0.11151791846703
C            4.00398656311590       -0.30018005127409       -0.56965012648614
C            3.91435125922729        0.67942280002344       -1.55712417749868
C            5.06861870586883        1.19919134637858       -2.11365775437545
C            6.30651826662016        0.73897133134541       -1.69079960191107
C            6.39376061888270       -0.24171875902228       -0.71386773119378
C            5.24615465703708       -0.76805730699718       -0.14823593298649
C            2.19772631657178       -0.02649413232226        1.70480318839878
C            0.84857486682736        0.08886029778390        2.05423511312784
C            0.47276989335847        0.70142570863229        3.23306323231970
C            1.45990726041882        1.19993875509601        4.07440025886042
C            2.79893865124146        1.09522104635407        3.73213004874982
C            3.17646501944662        0.48515471547770        2.54601849872248
C           -0.95544388605966       -3.61663598432616        0.28296471132917
C           -1.92210569303144       -2.67006531113780        0.99035621431849
P           -2.03900791236960       -1.12781631453167       -0.04888410519469
C           -2.86635037148695        0.08057459813885        1.03317824331515
C           -3.58574102386589       -0.25288052489259        2.17770066898039
C           -4.18528701840795        0.74764270858143        2.92388527376642
C           -4.07287575494522        2.07365909041313        2.53742615922377
C           -3.35685322628090        2.40785362565180        1.39784891769067
C           -2.75363607789471        1.41602049860362        0.64729482036439
C           -3.32369325303663       -1.52985282327237       -1.26718976597254
C           -3.01753747480447       -1.46364644121203       -2.62158469403820
C           -3.98625119362758       -1.76950986047900       -3.56176273605469
C           -5.25846216596015       -2.13333452249705       -3.15068186370110
C           -5.56929062045867       -2.18194442771884       -1.79926879648589
C           -4.60787825267769       -1.87809801194262       -0.85416984773958
H            0.75149394841879       -3.41790350095454       -0.78709377074501
H            0.99625846582220       -2.70739643081602        2.03895000301081
H            1.44811181604655       -4.26876770056084        1.32363454049936
H            3.11800890475615       -3.19441194983988       -0.13913709447349
H            3.40394293679045       -2.65319391606455        1.53397923123708
H            2.93379320048200        1.01505165080113       -1.87636108941510
H            5.00493476338031        1.95826191386921       -2.87867926093929
H            7.20830534670808        1.14225300656715       -2.12672396062707
H            7.36115110582502       -0.59884371357291       -0.39273834133521
H            5.32113351151036       -1.53565946006290        0.60874001270615
H            0.05802522199336       -0.31402382631779        1.36063198972661
H           -0.57118390055366        0.79864073777346        3.49489136197978
H            1.17616373547553        1.67981028077266        4.99864381576830
H            3.55424395676797        1.49696930012483        4.39072931069129
H            4.21803889157876        0.41790013899787        2.26525180102419
H           -1.38313972058218       -3.87807884841153       -0.69160537834766
H           -0.82682528600132       -4.53804518154931        0.86411638364250
H           -2.89927434324529       -3.14842878918958        1.09717950776235
H           -1.54956296970478       -2.39924352366824        1.98715540425205
H           -3.68387713004463       -1.28121827069484        2.49523834462722
H           -4.74374950568688        0.48904602175541        3.81165316649123
H           -4.54306543554665        2.84701954296203        3.12629529802420
H           -3.26742181266674        3.44087953112014        1.09702731691062
H           -2.18222749898499        1.65975567070100       -0.24104641046470
H           -2.02287658527644       -1.15991437040789       -2.92511552308460
H           -3.74916189955656       -1.72062952845377       -4.61396676411153
H           -6.01419619681401       -2.37177898477226       -3.88404684061336
H           -6.56571701094140       -2.45352730359012       -1.48350568227448
H           -4.85660094999003       -1.89838469502671        0.19822455975927
C            0.39088141789351       -1.08379931063662       -2.26338461105654
O            0.58840280639512       -1.18352781173285       -3.39042715024002
H            0.14958880985429        0.69376617170192       -0.75798596592843
