58
 energy: -81.810430529714 gnorm: 0.000512125917 xtb: 6.7.1 (edcfbbe)
Fe           0.11390385990098       -0.11410186287915       -0.75674473737043
C            2.02491654762582       -2.35773396711204       -1.58934226329690
P            2.15194409947173       -0.52806057185128       -1.22299842399936
C            3.05955427894250        0.05804924047696       -2.69529175448181
C            2.57407693439603        1.17472796927536       -3.36461136084267
C            3.22215854685725        1.64465074663580       -4.49407144018698
C            4.35863527424697        1.00111913693201       -4.95666275164463
C            4.85290527996141       -0.10715109646886       -4.28496586738621
C            4.20974042241555       -0.57806175614586       -3.15504971095652
C            3.47787681831306       -0.49373316466232        0.02955859624685
C            3.44964874866662       -1.40390005149980        1.08287183533043
C            4.40352927228330       -1.34355352398148        2.08180944387914
C            5.38382011236311       -0.36391791255985        2.04803011979322
C            5.39892080541455        0.56343710333880        1.01867202296444
C            4.44715607331632        0.50460884726260        0.01607694029783
C            0.87769725458524       -2.86915468168145       -0.77329897702246
C            0.71457448420124       -4.21248097230489       -0.49365279233056
C           -0.37561613231303       -4.63781006136472        0.25483438489841
C           -1.25915626360195       -3.67432516261571        0.72271508006697
C           -1.03144332356234       -2.34478018379668        0.42702144832817
C           -1.86358969201422       -1.22792808508400        0.98398869499766
N           -1.95711284155759       -0.11832072018042        0.01945198419416
C           -2.27675947372617        1.14536202320936        0.71333196466398
C           -3.60932948841524        1.18688384180492        1.46334330939023
C           -2.97668980074955       -0.46695448219904       -0.98794073796174
C           -3.22264992353144        0.63100800097587       -2.01460555737524
N            0.00729579519549       -1.93197746001246       -0.33042160315915
H            2.94388083466573       -2.92298800378070       -1.40714472172842
H            1.77576012145254       -2.42816755769195       -2.65693784898280
H            1.68608017382509        1.65749586789744       -2.97735236151526
H            2.84237906190459        2.51230345808126       -5.01498145799895
H            4.86386608490958        1.36442929643045       -5.84041780066938
H            5.74357120401433       -0.60306921251100       -4.64503607140248
H            4.60193609921021       -1.43429579527890       -2.62254306224569
H            2.67140846986006       -2.15549858889797        1.12077326006647
H            4.38268839526756       -2.05840841584698        2.89300524652349
H            6.12933070923308       -0.31790507655314        2.82924833324168
H            6.15351184867587        1.33743960739465        0.99995071828105
H            4.45027407674421        1.23363934467309       -0.78368984702102
H            1.43782720395915       -4.92331819741953       -0.86525446042402
H           -0.52491063226103       -5.68338366257531        0.47293898113991
H           -2.11119468807851       -3.95109993813934        1.32515742780923
H           -1.33862367110431       -0.84715741088196        1.86869990317911
H           -2.85563271545303       -1.59536776611322        1.28355319656033
H           -2.24316723521293        1.94170239422627       -0.02970761379884
H           -1.45638244941199        1.33233257573237        1.40833747112472
H           -4.45889216789084        1.06909399309395        0.79462221718611
H           -3.69888663247960        2.15761060968883        1.94580608376406
H           -3.66165995367509        0.42396969895152        2.23697547246718
H           -2.62482916574004       -1.36667620379105       -1.50308909621102
H           -3.92395674886529       -0.72258468924967       -0.48899047852863
H           -3.85659530984496        1.42002205966319       -1.61788201744249
H           -3.71116166878944        0.20886756461970       -2.89011183247226
H           -2.27247471886007        1.06391382398135       -2.32073534048804
C           -0.23449292042079       -0.33090357447195       -2.44737524489183
O           -0.35670428298321       -0.48987083315733       -3.59130383127249
H            0.54363691023875        0.24232670055707        0.60999851121689
H            0.14038682130993        1.33465975193583       -0.98877091315895
