55
 energy: -71.021944211355 gnorm: 0.000188454657 xtb: 6.7.1 (edcfbbe)
Co           0.36616942692386       -0.50483620007178       -1.21975641891856
C            2.33274491336156       -2.28979033845870        0.10415948914721
P            2.14451633228205       -0.42730660880626        0.13773279099249
C            2.49350133373169       -0.10569294542365        1.95933380288355
C            2.53177256683395        1.39743903777925        2.22262256472336
C            1.41118643830331       -0.75213850242215        2.82016773272076
C            3.73560637134149        0.05157027184636       -0.72672878247444
C            5.02422911931220       -0.34229230267628       -0.00976116611236
C            3.75067487162039        1.52699227982726       -1.11876776732071
C            0.95372774985424       -2.84057546089878        0.24903398844495
C            0.67131387682908       -4.00145178051917        0.95058851773089
C           -0.64996657251064       -4.39203424077065        1.11640895407022
C           -1.64718224042923       -3.57933537647786        0.59875677222494
C           -1.29392688052347       -2.44081081532346       -0.10617244876575
C           -2.30529828343439       -1.49493334017881       -0.68425947014825
N           -1.89486147230512       -0.10925627833931       -0.41932737414058
C           -1.99966199242261        0.19931821842755        1.01224659056532
C           -3.40921434416287        0.33467168297552        1.60066353039633
C           -2.67113344178965        0.81002777626741       -1.25812881281468
C           -2.25077573857462        2.26480247558053       -1.09747143791578
N           -0.01449204859777       -2.09237343727474       -0.30008945594111
H            3.01201944884260       -2.68875644766387        0.86134342824239
H            2.72021057401357       -2.53285995855730       -0.89143424187235
H            3.46005521338379       -0.55658649199982        2.21074487875807
H            2.52259755842270        1.59716994725703        3.29394310297706
H            3.42606936317398        1.85131820047727        1.80410180363253
H            1.66156085736101        1.87798076773139        1.77515103076095
H            1.61579598517102       -0.57211491708263        3.87563526915643
H            1.35880983248214       -1.82867554609776        2.66629896090336
H            0.43996253276384       -0.31974034580045        2.58676332947154
H            3.65737830986959       -0.52398471965036       -1.66142867694709
H            5.86908559636914       -0.19056493319233       -0.68067203789563
H            5.01582359466339       -1.38904474443097        0.28716117191987
H            5.18703176412904        0.27329804142306        0.87214342023587
H            4.54433361595030        1.71182110864567       -1.84147379837680
H            2.80016592661260        1.79605297919220       -1.57504837917601
H            3.91931403087258        2.17188783487961       -0.26046620968484
H            1.47712701513680       -4.58751440225215        1.36686772117229
H           -0.89539955642564       -5.29386801783047        1.65574386751053
H           -2.68902471579000       -3.82478744914522        0.73787882512672
H           -3.31188352536918       -1.72002658323239       -0.30117552473622
H           -2.31660404868204       -1.63400164935542       -1.77233341578738
H           -1.45043349263898        1.12653930385104        1.18926188426965
H           -1.48497803281416       -0.60219384976613        1.54972503953208
H           -3.32320961093229        0.47797340897879        2.67558422695680
H           -3.93781638931338        1.19005572481412        1.18844493634722
H           -4.00528933700687       -0.55905017610848        1.42970856057369
H           -3.74974421984636        0.70580850534948       -1.05976609679273
H           -2.48939819351404        0.51868194410165       -2.29626043698696
H           -1.16969180969895        2.33419050077435       -1.19359133768605
H           -2.70929891349162        2.86053588035679       -1.88316846578171
H           -2.55168502549737        2.67677550449204       -0.13766496287711
C            0.22077793537660       -1.14005749990004       -2.82680929565043
O            0.29892283171892       -1.51365545184065       -3.92472523562911
H            0.60504373321687        0.77370201632266       -1.86043918438181
