55
 energy: -75.372844963280 gnorm: 0.000126068151 xtb: 6.7.1 (edcfbbe)
Mn          -0.17506690534662        0.00909016388256       -0.65195753310557
C            2.27629916451520       -1.85974030532559       -0.51250215501591
P            2.05734786530766       -0.18503615601040       -1.03254496411019
C            3.33392130100786        0.91122308040502       -0.18831457915238
C            3.93760588323883        0.27629389601408        1.05857621582864
C            2.70176460258828        2.27015736632802        0.11722079221054
C            2.69344276731549       -0.12616546311709       -2.80635200300989
C            4.08643497182819       -0.72416832129551       -2.97783916137643
C            2.59986631921672        1.27702035367950       -3.39723397246482
C            1.12167145663967       -2.60550438576582       -0.33880395086855
C            1.09605146461533       -4.00242018755096       -0.03698348683319
C           -0.09073631006074       -4.65860847567366        0.09265303155100
C           -1.30465073379305       -3.96771110833236       -0.07782250973680
C           -1.24314349783566       -2.62006773995531       -0.35822609217122
C           -2.46789283885538       -1.76144135920314       -0.61159218208160
N           -2.23557678660156       -0.41496700911850       -0.05393553998970
C           -2.51645663396982       -0.43029955453343        1.39574255648003
C           -3.98485663515887       -0.55728115922326        1.81595165085341
C           -2.93120999262072        0.68447376636765       -0.73773915122561
C           -2.13124072507134        1.98339016022843       -0.55946715749598
N           -0.08517778859985       -1.96395621700944       -0.46221358283034
H            3.25053654699958       -2.31921162754837       -0.44318642406518
H            4.13889915767461        1.06976671182338       -0.91463185049954
H            4.48634310950832       -0.62675462140898        0.80260350535088
H            3.16609726049657        0.01189782141733        1.77670413457088
H            4.62643316876893        0.97470818232634        1.53426634997887
H            2.12888467684267        2.62397862775550       -0.74225354996292
H            2.02972423866864        2.19711020042433        0.97025886316799
H            3.46788547190879        3.00836715522734        0.35349941961722
H            1.98726993897887       -0.78144686986112       -3.33456500626996
H            4.12263119312045       -1.72593886622962       -2.55628944934641
H            4.85219030327907       -0.11734802606419       -2.49932932431150
H            4.32765070140375       -0.79142760245146       -4.03843033382776
H            3.34102809945959        1.93953294941420       -2.95427543623299
H            2.76970731309153        1.24775209266508       -4.47315017957192
H            1.60844024423542        1.69481402455214       -3.21667025646084
H            2.03749618084349       -4.51771740111799        0.07995842773022
H           -0.11058557572871       -5.71479544564104        0.32266027605613
H           -2.25164861605473       -4.47599291181951        0.00601000148060
H           -2.60005663192058       -1.68102478431157       -1.69723208531531
H           -3.36481620323956       -2.23789520198609       -0.20004836882013
H           -2.11801057819580        0.48653292992489        1.83890869947836
H           -1.95689801247147       -1.27121496897328        1.81605712653828
H           -4.48212162350952       -1.39264139719216        1.32957591359291
H           -4.54851185215863        0.35024903030714        1.61219870657561
H           -4.01618199387450       -0.73050943021634        2.88906668248294
H           -2.99216116913816        0.44944183508876       -1.80549224142389
H           -3.95563326643008        0.82362152049322       -0.37118237470272
H           -2.50516956925676        2.74767981663269       -1.23916036199161
H           -2.21734522647658        2.36313865285350        0.45871032139646
H           -1.03637595567627        1.83919819700634       -0.79896174681190
C           -0.45429009502856       -0.17002108457061       -2.39704566628973
O           -0.57079540500221       -0.31948683646266       -3.53930570050571
C            0.36486212716743        0.15897905832960        1.03210793038129
O            0.75317121652837        0.16783721849677        2.12006548404831
