57
 energy: -76.454791134325 gnorm: 0.000116180780 xtb: 6.7.1 (edcfbbe)
Mn           0.20410702282233        0.04065931700659       -0.22824643998812
C            2.42854412133142       -2.06944494059046        0.14765938102613
P            2.36034667890216       -0.39604260794191       -0.65367603166479
C            3.90211401733394        0.41002308341049        0.02791772645195
C            3.76040889793282        0.72486190366207        1.51338168095411
C            4.14932013488926        1.71237964132670       -0.73198682633876
C            2.85251256218688       -0.85793078834902       -2.40699150439386
C            2.65693783357500        0.31978185009032       -3.37059793062416
C            4.23801837281899       -1.47466399554002       -2.58942262493235
C            1.07744970535257       -2.69741515330529       -0.00833417978898
C            0.93231781754715       -4.07498465253637        0.01852251902615
C           -0.33225711429078       -4.63692854694271       -0.07127108778573
C           -1.41366234575912       -3.77743061625685       -0.19174053894065
C           -1.19539292624074       -2.41113545048914       -0.23960342876798
C           -2.33950043169298       -1.45829082153231       -0.45156412089071
N           -2.14357776855809       -0.19745726750621        0.28099991257125
C           -3.16791312782133        0.78042019028042       -0.13996031139909
C           -3.06059069717217        1.29810091343648       -1.56733933838324
C           -2.38041734893142       -0.48825916199253        1.71264340105820
C           -2.24152953426830        0.72020117856614        2.63584905436065
N            0.02992023655671       -1.86336599916192       -0.15276653194542
H            3.22108330682836       -2.71659866138912       -0.23450774919195
H            2.61580962970869       -1.89656751495240        1.21413151962951
H            4.73472678173804       -0.29095324574964       -0.11642349988287
H            4.67322999795949        1.19400491205682        1.87910584642184
H            3.58219444799765       -0.16556896802291        2.11344855274024
H            2.93353773407165        1.41855823242061        1.66157983785133
H            3.22104786925978        2.28480051599496       -0.76977060812858
H            4.90461263417604        2.30860590985229       -0.22193728228697
H            4.48997390247971        1.53174593580203       -1.74660746761048
H            2.10154165785970       -1.62977080809569       -2.64483652971633
H            2.00840445538296        1.07756136807986       -2.92743046918111
H            3.60797014955419        0.78728398765496       -3.61345983634495
H            2.20398217389730       -0.01461004191261       -4.30245432792832
H            5.02145269040116       -0.74436130315104       -2.40259076673720
H            4.33796313388480       -1.81750422704437       -3.61903657284241
H            4.40113683067520       -2.33091850609867       -1.93826257165917
H            1.80743878829904       -4.69951498638902        0.12050371896731
H           -0.47036943851378       -5.70639545897653       -0.04408450206007
H           -2.42098778597187       -4.16012252746581       -0.26079334007788
H           -3.29033029953663       -1.93858489333629       -0.16124468230352
H           -2.39521666439542       -1.23639204414382       -1.52330324042676
H           -4.16395020223472        0.33037670172032        0.01032858721935
H           -3.07427790214582        1.64442587458549        0.51714530159336
H           -3.80794375713948        2.07588671027888       -1.70953610694079
H           -2.07488069517571        1.73242796001650       -1.72579606127939
H           -3.23712079610575        0.52766966567176       -2.31481237903467
H           -3.39269622638432       -0.91366241257503        1.82994662160561
H           -1.66871111637250       -1.26009768675381        2.02268278860557
H           -3.16555393227446        1.29032583101868        2.69474546233244
H           -1.44482186536637        1.37304183098746        2.28123668464557
H           -1.98936586817812        0.38307295877834        3.63873407252386
C           -0.17731219776511        0.01580746395332       -1.96158889176965
O           -0.41192094003409       -0.12235551024094       -3.08861937085801
C            0.61343191902519        0.05079021993311        1.49663978909509
O            0.89313658477425       -0.07514388492580        2.61519347929174
H            0.14876402555177        1.60755544569171       -0.22433366049154
