55
 energy: -75.355132522301 gnorm: 0.000293584204 xtb: 6.7.1 (edcfbbe)
Mn           0.04338635879544       -0.12097076465176        0.36788455982297
C            2.27897097208813       -2.20114855129033       -0.31335424687758
P            2.30573621943657       -0.57133000555655        0.37887867609894
C            3.24843689523164       -0.71668380810126        2.00798584419822
C            2.97578352619986        0.46994777848153        2.93224329815313
C            2.87042090013372       -2.02696206510947        2.69020459388259
C            3.65648908824060        0.22985610925578       -0.65230322241636
C            4.00710513595233        1.65204313888435       -0.22667319421127
C            3.33029595535042        0.17547796362259       -2.14278503361330
C            1.04816146482944       -2.80654662561113       -0.46456428801709
C            0.85344946933297       -4.14535862826851       -0.92985679125837
C           -0.39601784447878       -4.67889091233163       -0.99605948434265
C           -1.50934686718474       -3.91482960476229       -0.59427649663868
C           -1.28931016987518       -2.62481562391015       -0.16992997914172
C           -2.38975721232156       -1.72187834610661        0.34367691215066
N           -2.14385839867909       -0.34495212702044       -0.13085048457789
C           -2.46549339389961       -0.26275516773748       -1.57169407288442
C           -3.93713175848831       -0.38819765361283       -1.97503862990811
C           -2.82945494960426        0.71207748073571        0.64607899983162
C           -4.17027625192406        0.35554345147198        1.29232435831744
N           -0.06928040797289       -2.06931249427332       -0.13765122644687
H            3.20074710191233       -2.70700779280285       -0.56093298200652
H            4.31635029934389       -0.73885197880964        1.75534672169104
H            2.96383355983061        1.41065082172543        2.38438160847171
H            3.73710647723096        0.53123862385798        3.70956563922505
H            2.01132161267550        0.35416403651259        3.41901544247614
H            3.24372723183931       -2.87834246210036        2.12664998490167
H            3.28159021178632       -2.06415163571719        3.69802698072797
H            1.78527242666490       -2.11614753879192        2.74998142772414
H            4.52194701447096       -0.42513194894518       -0.47346896718314
H            4.46254934306706        1.67291917464424        0.76052080729225
H            3.11280714977363        2.27588517441808       -0.21365143495899
H            4.71373397590393        2.08784465465133       -0.93302275423530
H            2.71872978329246        1.02206601940931       -2.44161256161593
H            2.79414925689807       -0.74337801870897       -2.38094624678800
H            4.24791741601563        0.20664890677390       -2.72887447824428
H            1.72436301249164       -4.71536257979766       -1.21463669966796
H           -0.54555128916304       -5.69067875352828       -1.34465012093284
H           -2.50285658803057       -4.33195837785434       -0.60995281465105
H           -3.37310420381563       -2.09938398852291        0.04392506515016
H           -2.33657662229997       -1.73019633131835        1.43791994164965
H           -1.89346803678408       -1.05199552211523       -2.06866434076885
H           -2.10336456107603        0.69852653055564       -1.94722777504764
H           -3.98967741970736       -0.38047705095376       -3.06164399129128
H           -4.38070287324378       -1.31881221558463       -1.63127074495737
H           -4.52797872294874        0.44777915567214       -1.60833906831171
H           -2.15371151512215        1.04605612088238        1.45226010014192
H           -2.97260757047891        1.56728332933712       -0.02263041310084
H           -4.87778905768752       -0.04362397896383        0.57218207890307
H           -4.59682225826931        1.25855578147819        1.72502126495168
H           -4.04385041894193       -0.36927081817482        2.09289460395793
C            0.31373862306073        0.78769945471136       -1.14426389749831
O            0.43882271928010        1.65413798429885       -1.89887575888085
C           -0.18494362699265       -0.37499697671010        2.11052607120641
O           -0.39880692720030       -0.33869096990235        3.24911882227572
