55
 energy: -71.024328630545 gnorm: 0.000089640882 xtb: 6.7.1 (edcfbbe)
Co          -0.23516546008304       -0.53195733588213       -1.48495244760648
C            2.07978044034783       -2.35845121553256       -1.30397900665137
P            2.01238698420438       -0.49029819645474       -1.18625632852608
C            3.27994755336990       -0.23988659094967        0.18793977234161
C            2.73599789408290       -0.82229281434701        1.49060658473244
C            3.59559284747975        1.24199738907215        0.37227295029087
C            2.94423327937803       -0.06252607738294       -2.75374486516842
C            2.81885016541386        1.42009222359461       -3.09596788736316
C            4.39730352139965       -0.52544686136063       -2.81290712906963
C            0.96107888015533       -2.86522519534753       -0.45867072574093
C            1.05799247822819       -4.01190776166781        0.31272985600659
C            0.00430631391884       -4.36408764233729        1.14414082299937
C           -1.10202860774699       -3.53013771502381        1.19222841315428
C           -1.14116306915019       -2.40849949968774        0.37983049167032
C           -2.30678521273443       -1.46405601241055        0.37060001813646
N           -1.84055542912677       -0.07593262340036        0.26877848526929
C           -2.97075522846948        0.82709658607873        0.02220548918881
C           -3.67446446355020        0.61192734615903       -1.31119358204388
C           -1.18978511511951        0.30818924553653        1.52695432904197
C           -0.36530519346906        1.58167816225291        1.38464605055966
N           -0.13647308862130       -2.09384603004471       -0.44889364933984
H            1.87990153831859       -2.59765835664333       -2.35434457896907
H            3.03859329169147       -2.79302769504191       -1.01128626131747
H            4.19283266216454       -0.78120880889739       -0.08576086497628
H            3.44798136169396       -0.66141674648879        2.30019698565099
H            2.55578019271152       -1.89288624380665        1.40945068452971
H            1.80169405494242       -0.33395312673329        1.76041308944199
H            2.67637669590299        1.82149871665994        0.44728317757252
H            4.17197429218873        1.39501346899207        1.28463051626837
H            4.17794758377413        1.62948637236262       -0.45945705125521
H            2.36426438230358       -0.61256387941505       -3.51006058228064
H            1.77923418850432        1.72985855927501       -3.00832801511403
H            3.42287552998723        2.03996130365862       -2.43878564922970
H            3.14490070390162        1.59469682878986       -4.12048731828628
H            5.02426014605105        0.05623332962071       -2.14099256393977
H            4.77717472523853       -0.38697372209095       -3.82463237271040
H            4.49381875674290       -1.57947631780838       -2.56067536355206
H            1.95155584092162       -4.61647322219340        0.26663402056559
H            0.05446171728468       -5.25357039321759        1.75300462836774
H           -1.93023828257879       -3.74590773012555        1.84986493916401
H           -2.93693927110245       -1.61581833789815        1.26340791280658
H           -2.90189571300044       -1.68505298723370       -0.52053766828120
H           -3.70275742585619        0.73799462094081        0.84446925877679
H           -2.57388436571102        1.84223154724606        0.02557048669611
H           -4.31048277733947        1.46833901027908       -1.52236756755593
H           -2.92921309096067        0.52472696974729       -2.09886784649208
H           -4.30019955283066       -0.27758479826807       -1.31240283030559
H           -1.94026229113820        0.42752946493307        2.32783952374163
H           -0.52522043008535       -0.51011155701158        1.81961926392831
H           -0.98877074639379        2.47176630953793        1.37237481822450
H            0.18761844453131        1.53067716205248        0.44523892299082
H            0.33408036298886        1.67111630708861        2.21325689297760
C           -1.00725388332327       -1.25769227248619       -2.85956680754334
O           -1.37027650064120       -1.70587607138754       -3.86882642669593
H           -0.33178649833668        0.73758983362515       -2.18477786963350
