48
 energy: -70.313638556790 gnorm: 0.000242343665 xtb: 6.7.1 (edcfbbe)
Ru           0.12202890590994       -0.26396852929972       -1.17795945335380
C            2.35691344667985       -2.50764860465953       -1.20654059943600
P            2.35470689376255       -0.65897827769977       -1.27724332625628
C            2.74213283101709       -0.06833324974887        0.44862724850276
C            1.37443036680469        0.14346632491264        1.13915202531163
C            3.64763308160556       -0.95770969115535        1.29777364703389
C            3.71073719651669       -0.20762366850833       -2.44770089307454
C            5.10963498753851       -0.55664718187772       -1.94850284796944
C            3.56679562667419        1.27689652455558       -2.77905244202720
C            1.15967771368923       -2.94782902980269       -0.42261054109357
C            1.14898513928368       -4.14311756195581        0.28089351165136
C            0.01585893532147       -4.49688518976252        0.99718053768516
C           -1.07760438587293       -3.64913417479476        0.99224213117749
C           -1.01786614720942       -2.46238081135279        0.26512160907925
C           -2.12748329090081       -1.50826859114594        0.17157120845132
C           -3.38007911109511       -1.75403063459665        0.71050068984737
C           -4.39612894142196       -0.82015737711244        0.53415221905946
C           -4.14060197338514        0.32290310841425       -0.18390761578077
C           -2.85514303165014        0.52216101423339       -0.71161829435719
O           -2.63366505696276        1.61557541489586       -1.40892687679097
N           -1.87127685370634       -0.36368169808157       -0.51738524917919
N            0.09557194170721       -2.13055193624798       -0.42040540919221
H            3.28125959509252       -2.93144894889986       -0.80501024699505
H            2.24870639271046       -2.83988303244095       -2.24954717391291
H            3.21612399737745        0.91440405723739        0.30983727851887
H            1.46280967493965        0.89893203480670        1.92297139560881
H            0.58359025543274        0.54728059747230        0.41844417799429
H            1.03273733116775       -0.77865675642257        1.62228611351144
H            4.60600565063437       -1.12766347178348        0.81425735568602
H            3.83502977954625       -0.47400801465090        2.25555200541240
H            3.17968964749704       -1.92147827202454        1.49510816659949
H            3.48017997376379       -0.79462663060127       -3.35051808507079
H            5.19158250111142       -1.60725435833516       -1.67734446581273
H            5.82982147439416       -0.35914416045444       -2.74036546441518
H            5.38052884595675        0.05901759503540       -1.09358064953976
H            2.54327702581839        1.49685132728057       -3.08666262091358
H            3.81050188418830        1.89529297510035       -1.91684578561772
H            4.24040531268056        1.54680937199902       -3.58925968886392
H            2.01699181443444       -4.78328820706763        0.26456038696099
H           -0.01274433296722       -5.41991106205337        1.55456097485256
H           -1.95905937637970       -3.90627538990958        1.55424280180211
H           -3.57965485566515       -2.66101213462649        1.25443691513029
H           -5.37519689626815       -0.99956249805082        0.94948350259178
H           -4.88708419370904        1.07741292957882       -0.36816320713897
H           -1.70783736254245        1.66630432398541       -1.73162311086596
C           -0.28272227649727       -0.74601758191942       -2.90599389375266
O           -0.51514913109453       -1.03306497318459       -3.98989284304568
H            0.15915133423119        1.22392605849255       -1.59888420373211
