60
 energy: -75.943092989218 gnorm: 0.000271274921 xtb: 6.7.1 (edcfbbe)
Mn           0.05768381649080       -0.14339094131199        0.04966546801462
N            0.07238937411554       -1.98250037051237        0.21182575864428
C            1.12979938550049       -2.89250490857485       -0.19561650542601
C            2.29602973624987       -2.16857776392694       -0.86531938908843
P            2.25849712638976       -0.44291725281691       -0.23199597047260
C            3.38292453807007        0.49459638019296       -1.39956403866729
C            3.23814451768720        0.04854066712318       -2.85248761312101
C            3.06678126387728        1.99008508478853       -1.29713678105923
C            3.37424195239209       -0.56087924350755        1.26921432394848
C            3.76955208868530        0.81319594429292        1.80605541950989
C            2.68612887760274       -1.35842420692650        2.37488379164076
C           -0.98697534845807       -2.79874849959681        0.78365334923702
C           -2.06369991518327       -1.94162703622584        1.44159541676103
P           -2.13848127891492       -0.45764912903258        0.37055346812782
C           -3.13187418238181        0.76140879044721        1.37217570217779
C           -4.54187443766140        0.33271398892219        1.76647486525524
C           -3.14504251797947        2.10839882485170        0.65091596819086
C           -3.26859505490638       -0.91446100652138       -1.05693441316640
C           -4.27473402053505       -2.02873988151186       -0.76972387854096
C           -2.43601869394912       -1.27457047480329       -2.28786419325881
H            1.49098662931602       -3.46766776826388        0.67641903094540
H            0.71339854464860       -3.64537742191036       -0.89408601779037
H            2.11007984768529       -2.11161425196801       -1.94116422075466
H            3.25390193687603       -2.66609624007567       -0.68922790095339
H            4.41307539977192        0.30927733931053       -1.06704606498606
H            3.67148951344913       -0.93510056611672       -3.02241568113043
H            3.75127302221269        0.75743931260115       -3.50114577948123
H            2.18505117252038        0.03402828740987       -3.13717124320366
H            2.19567333224788        2.22528060560990       -1.90395585738683
H            2.83620861674727        2.28692030462578       -0.27555382956303
H            3.90539403190942        2.58395063233038       -1.65782104179657
H            4.27903985671066       -1.09346147934098        0.93860812758297
H            4.34001738098651        0.69608694941877        2.72744705956075
H            4.38721360215977        1.36170853373950        1.09997383680838
H            2.88028033217743        1.40055382295317        2.03091141623387
H            1.68275383496660       -0.96115992515761        2.54734737869715
H            3.24904111834964       -1.28044622229394        3.30475929441427
H            2.60884694217622       -2.41275329830006        2.12113122320643
H           -0.55775110693208       -3.49566311517463        1.52926429002487
H           -1.44495777015302       -3.43334798933338        0.00097114157942
H           -1.71922746370171       -1.58924602680733        2.42196190354826
H           -3.00577777058115       -2.47825131158097        1.56047588930602
H           -2.52503518099838        0.87121973929267        2.28480017047815
H           -4.53973972128219       -0.63554675881804        2.26337526700261
H           -4.95777909856656        1.06409035212076        2.45871725715135
H           -5.19374609612739        0.29042742642541        0.89688859105404
H           -3.78456588660607        2.07622892649651       -0.22961569979699
H           -2.13439609224176        2.37380331412091        0.33376161514015
H           -3.51729726291390        2.88885687860759        1.31236129402205
H           -3.81223445139798        0.01472270467591       -1.27652456869580
H           -4.96938821149417       -2.10430941578025       -1.60635491925186
H           -4.85337090298996       -1.84408204899884        0.13096506809052
H           -3.77161929321796       -2.98912785733652       -0.67052345939773
H           -3.08599276521363       -1.45176626935366       -3.14474216896567
H           -1.85309478296366       -2.17798254626606       -2.11185383431102
H           -1.74909945296302       -0.46643746427980       -2.53855867070995
C           -0.14255440097612        1.01613090298079       -1.26619465563502
O           -0.28312062074656        1.77024791840170       -2.14738350082658
C            0.18485047798537        1.10084603164462        1.29702670868890
O            0.22436929232977        1.89961258653147        2.14919651589645
