56
 energy: -80.979690968593 gnorm: 0.000111271742 xtb: 6.7.1 (edcfbbe)
Co           0.09447600117712       -0.13908313345060       -0.65816091483354
C            2.38155681877588       -1.83399765693858        0.55768556241141
P            2.25397183784098       -0.32584328537237       -0.50153141783856
C            2.79310118233554       -0.94919565784646       -2.11759506156751
C            1.83747785478521       -1.04840308356855       -3.12403247797422
C            2.18645979051100       -1.55276839843993       -4.36341142659680
C            3.49284158632045       -1.95324689089858       -4.59881304919495
C            4.44938213034848       -1.84661220659782       -3.59990463211768
C            4.10524309442401       -1.34512326039885       -2.35755642074658
C            3.58564885570456        0.79383683449217       -0.00560902442786
C            4.23609601892258        0.72036559663943        1.22196394362665
C            5.22983741562018        1.63492885639115        1.52722242377939
C            5.56799744293181        2.62821291047740        0.62273919594224
C            4.91058979740129        2.71299867248354       -0.59593034762391
C            3.91993909343618        1.80286438417219       -0.90932998133981
C            1.21200591550330       -2.66600638964065        0.14104532248159
C            1.19015743915262       -4.04808637067849        0.25332246917311
C            0.05949347621207       -4.74294188325113       -0.14656825730540
C           -1.02246441882848       -4.03596284008800       -0.64791083604656
C           -0.92988284760423       -2.65740130707165       -0.74280588795635
C           -2.01271648472933       -1.78801293617086       -1.29780968903529
N           -1.92424883216741       -0.43424605940252       -0.71555954344027
C           -2.29546776737065       -0.44474628503996        0.72201883242251
C           -3.71543472075677       -0.90367637707165        1.05755191668393
C           -2.80626925431686        0.44793559315275       -1.51679354045885
C           -3.02659294902088        1.84281393219672       -0.94898555091739
N            0.16596043384947       -1.99404445835923       -0.35896587300667
H            2.26100662859734       -1.53410089548933        1.60477172744623
H            3.33323183746150       -2.36060253826746        0.44414573971875
H            0.82002554638606       -0.70802335879924       -2.91782829504867
H            1.44846558327033       -1.62993604306256       -5.14799701160995
H            3.76926435509362       -2.34448525263454       -5.56657339344216
H            5.46661379194710       -2.15379907608290       -3.79260794991905
H            4.85013649218201       -1.25049903526522       -1.57886983156036
H            3.97922872249796       -0.04493204697352        1.93946054858387
H            5.74094973339095        1.57285543338119        2.47665207336040
H            6.34257543325221        3.33933553047695        0.86793456146591
H            5.17110350863900        3.49032174940789       -1.29865508970401
H            3.40166553792008        1.86029431163633       -1.85796828588012
H            2.04707841038743       -4.56787226060031        0.65173463243245
H            0.02141169885374       -5.81810033952541       -0.06542918420515
H           -1.91929202225640       -4.54270856398310       -0.96694478576000
H           -3.00135091379881       -2.23450721139203       -1.14062938211251
H           -1.85966459815707       -1.70321044757645       -2.38075878437968
H           -2.14762082868362        0.56910468726445        1.09765542726036
H           -1.59384505852652       -1.09684768250534        1.25050670549521
H           -4.47086750553172       -0.32617132574067        0.53262185281940
H           -3.87346165252271       -0.76253645871328        2.12433100582786
H           -3.86755220144138       -1.95894785575183        0.84328303312879
H           -2.34737746957097        0.54059300714935       -2.50515610160487
H           -3.78224745055817       -0.03740030994505       -1.64317702877025
H           -3.66845738225075        1.83408590031131       -0.07251736797225
H           -3.51024141096830        2.45238832678836       -1.70875821510074
H           -2.08482522080377        2.31666808762138       -0.68656875185260
C            0.21246189503042        1.56481806439838       -0.99101645613588
O            0.51540635272389        2.64467031844494       -1.21812645736421
