50
 energy: -81.809421383500 gnorm: 0.000621131287 xtb: 6.7.1 (edcfbbe)
Co           0.20380095974904       -0.47790949766911       -0.88790318967228
C            2.41670883430332       -2.37829274826008       -0.40422234137540
P            2.21642813503525       -0.59790885534628        0.13144581473325
C            2.40147886266347       -0.87275550921254        1.93105550483143
C            3.56610218413639       -1.39809968597091        2.48440015682221
C            3.62850130567356       -1.65930585248929        3.84026933933611
C            2.53269487873342       -1.40405152302951        4.65164416060292
C            1.37310139584995       -0.87910174964602        4.10665276266699
C            1.30948946412770       -0.61245615990262        2.74975251561223
C            3.80957481534763        0.15223924355703       -0.32512958526715
C            4.46675310813148        1.02155424640478        0.54216874566347
C            5.63849460759226        1.64239015430302        0.14875746786357
C            6.15598324179620        1.41599092753932       -1.11677366255656
C            5.48774666759682        0.57935123829470       -1.99690098166717
C            4.31525607718256       -0.04191265678191       -1.60836825104480
C            1.12098271674288       -2.97550388732322        0.03936886078019
C            1.01251931512693       -4.21984970426707        0.62332997688273
C           -0.22342507903721       -4.62905216512591        1.12589755972719
C           -1.28184575775680       -3.74942126099858        1.08303833638946
C           -1.11072018338084       -2.49717176409821        0.48525497035561
C           -2.09052297578672       -1.43161533786000        0.49950314459894
C           -3.42692619839924       -1.59054402417921        0.86050517346952
C           -4.24744117201318       -0.48013154975410        0.91478214299676
C           -3.71825741335329        0.76247906062559        0.60785555911143
C           -2.38218830459135        0.84870337792752        0.22146655904340
O           -1.87902718176608        2.04859632693447       -0.06962384554994
N           -1.57667326594135       -0.21835332222075        0.16168986900131
N            0.06729506253038       -2.14969916569578       -0.07845609428274
H            3.28184557360780       -2.87645441235694        0.04002539418039
H            2.50011583259635       -2.40170600237813       -1.49490802079370
H            4.42378581222578       -1.58987439660811        1.85341045871598
H            4.53416792049108       -2.06466493098947        4.26834895247507
H            2.58619121442448       -1.61272000404319        5.71029010216103
H            0.51966709516664       -0.67629840106358        4.73775391388832
H            0.40909444933815       -0.19599707359031        2.31334131071828
H            4.05840441701709        1.20836306258177        1.52695456537527
H            6.14773777807116        2.30899051497767        0.83036836865742
H            7.07184398812030        1.90088624948540       -1.42165487107003
H            5.87870082482702        0.41648030391410       -2.99114927297399
H            3.77950339839524       -0.66894755460391       -2.30751491952736
H            1.87811917394172       -4.85995458642815        0.69474443728735
H           -0.33308154288943       -5.60408363294167        1.57491973797588
H           -2.22971045194715       -4.01031095818046        1.52476995216266
H           -3.81599607674825       -2.57049260943357        1.08281375163463
H           -5.28502605900114       -0.57534051435294        1.19562810389642
H           -4.30262982238068        1.66606767173919        0.65393277462588
H           -0.96355307262224        1.92993188635138       -0.39436072280078
C            0.15467649322414       -0.99470251397420       -2.55685955378885
O            0.15372936265886       -1.25608241956481       -3.68452895815079
H            0.31119404625429        0.86833786509711       -1.43184835611259
