59
 energy: -70.639818224257 gnorm: 0.000573135341 xtb: 6.7.1 (edcfbbe)
Ru           0.43510191824297        0.29246973033758       -0.61667899364496
N           -0.01960783204540       -1.55680208307969       -1.03605585331493
C            0.92124023057838       -2.66687383690721       -1.06245620639718
C            2.35380870313608       -2.18217186134713       -1.28269912246627
P            2.51300782073710       -0.61620929091459       -0.32156779988027
C            4.10198949678639        0.12567223838644       -0.95624816461280
C            4.31692673957067        1.45203168377806       -0.23175645779788
C            4.00154473365099        0.35734549572964       -2.46235180029279
C            2.92811298870334       -1.32294198674343        1.36963525634649
C            4.32824402132741       -1.91858349673418        1.49623641987529
C            2.65693295563909       -0.32605545875083        2.49406145380808
C           -1.35472779930910       -2.04311009789615       -1.34750609725011
C           -2.30253683169944       -0.90534352279183       -1.72396293741217
P           -1.82828401746047        0.50773737986830       -0.64613163665896
C           -2.74532736020230        0.23661207183317        0.96765095125291
C           -1.83353506033833       -0.52583061439297        1.93106059621340
C           -4.10043970474394       -0.46263941718841        0.87184271646144
C           -2.63999768111752        1.97008143504897       -1.47012814447165
C           -4.14555470685905        1.89504838307544       -1.70520699662536
C           -2.26180927231941        3.24210852091963       -0.71410103323408
H            0.65578773280211       -3.36830096484954       -1.87607779139209
H            0.85675387187559       -3.24996525080011       -0.12375433111126
H            2.47536599770585       -1.92701280392871       -2.33919359347541
H            3.08655982621334       -2.94651354080006       -1.01110983154457
H            4.93243919784890       -0.55909942110479       -0.75034587743388
H            5.16543785144744        1.98889642870381       -0.65409104299568
H            4.50420566532356        1.29783434262176        0.82799044255982
H            3.42219540236040        2.06911509277005       -0.33527308949866
H            4.79865097718617        1.02174787571975       -2.79339887010318
H            4.08938065252407       -0.57255476165783       -3.02077144128153
H            3.04617529447970        0.82629823429198       -2.70511265425416
H            2.19020560809786       -2.13542168934365        1.46695963371113
H            4.56101954436007       -2.59220385889006        0.67344708150156
H            5.08148098602348       -1.13430409592792        1.52770053975630
H            4.39749093884105       -2.48559250895912        2.42420676531539
H            2.59389897695738       -0.84343367351986        3.45094209091284
H            1.71596007394739        0.19467275267337        2.30998302819093
H            3.44669282242643        0.41855699507757        2.56252324304918
H           -1.30421292231607       -2.76045830945073       -2.18930370104142
H           -1.77055168454885       -2.60721087968065       -0.49086436220116
H           -3.34861256546889       -1.20843464156499       -1.65235407503847
H           -2.09148528900701       -0.57909223568031       -2.75016533117432
H           -2.88498256012653        1.25169863891267        1.36434079323047
H           -1.77446323246661       -1.57891914777682        1.65604436043762
H           -2.21212095052632       -0.46292965179962        2.95073091900763
H           -0.82346370076752       -0.10393736831803        1.90276064175992
H           -4.58674779143903       -0.43301776961683        1.84692821708154
H           -4.76144773583716        0.00810969693418        0.15040116793394
H           -3.97595774309981       -1.50878658083394        0.59651861265240
H           -2.12842297106560        1.99201111684460       -2.44611883423111
H           -4.44779703383262        2.70915907901418       -2.36348621728355
H           -4.43176051987254        0.95721307390868       -2.17726483406313
H           -4.68848932045069        2.00779249292953       -0.76954207095478
H           -1.19410611269673        3.23558686428993       -0.48732967673047
H           -2.48636491009791        4.12214844729009       -1.31464355976616
H           -2.81398203040418        3.31874265168398        0.22089502870214
C            0.81541501854915        1.73433058594134       -1.69228985401370
O            0.96310044791047        2.52417802777303       -2.54021265399860
H            0.57879452779856        1.26396271605640        0.59503998390498
