56
 energy: -75.589494437400 gnorm: 0.000143367083 xtb: 6.7.1 (edcfbbe)
Mn           0.08482140948534       -0.02853390433965        0.03376576359730
C            1.80538610191653       -1.94838307919413       -1.74302708877148
P            2.10393811139801       -0.29177806352379       -0.94026911700757
C            2.53333260596180        0.81449822286441       -2.37478200685643
C            2.27051249038112        2.25920873388466       -1.94443004351666
C            3.92129801886506        0.61854413171637       -2.97315596392851
C            3.69532780882031       -0.64421059396777       -0.04417968652195
C            3.52519168166087       -1.83205261796813        0.90265038930478
C            4.18203179754499        0.59667717672322        0.70008762951842
C            0.85336605380913       -2.72235825296025       -0.87749826687710
C            0.75959065487484       -4.10556725424262       -0.90210715136744
C           -0.17715768704957       -4.74050924259751       -0.10111198161803
C           -1.00366830342827       -3.97466390337775        0.70886942213929
C           -0.85472421049297       -2.59947733949493        0.70544277543693
C           -1.64945342203002       -1.66301901570623        1.57771675831885
N           -1.87820225828326       -0.38812756930122        0.85768392968905
C           -3.04741902026123       -0.61858485919573       -0.02731548811360
C           -3.53623538645998        0.58387977997034       -0.82167819576639
C           -2.10746785182186        0.76086961846718        1.76064226013544
C           -1.51640822081822        2.04959575508754        1.16779986570554
N            0.06302410109341       -1.99292123003600       -0.06976589743354
H            2.73185477260011       -2.49992847058032       -1.92469810596491
H            1.32903966373146       -1.75739251769679       -2.71319835955078
H            1.79042155104803        0.54814064999858       -3.14048443814566
H            3.06700726555617        2.63541266764019       -1.30680932785536
H            2.19521818941666        2.91130154286927       -2.81226670693834
H            1.32647503939282        2.31442944881595       -1.38330687400895
H            4.08926561928761       -0.42272620697301       -3.24254165766882
H            4.00704610599838        1.21746159141585       -3.87852445514702
H            4.70355825634783        0.93884462355461       -2.28964712036839
H            4.42569029145360       -0.91451712338726       -0.81891272039882
H            2.68812732489103       -1.68296346130186        1.58197154817404
H            4.42597622163795       -1.94816836148398        1.50311740605148
H            3.36295392433593       -2.76193071751432        0.36200572332438
H            4.39713083789561        1.41237419878390        0.01402992706658
H            5.09608911757566        0.36878268418215        1.24618188531744
H            3.43785418480071        0.93980978926728        1.41537441415844
H            1.40929945321673       -4.67555524394879       -1.54787724372099
H           -0.26574447595967       -5.81541114480748       -0.11104235385368
H           -1.74737814675448       -4.43718247690533        1.33830708016606
H           -2.59414392969078       -2.12634289134294        1.88892524623615
H           -1.05807633864848       -1.47019010689026        2.48120362165797
H           -3.88312501920494       -0.97898114765265        0.58950539601861
H           -2.77103056094412       -1.41883037808036       -0.72071137470383
H           -4.25509887858229        0.23461606550952       -1.56006059253089
H           -2.72841331638108        1.07924527031257       -1.35432054298390
H           -4.04273695695802        1.30935878230279       -0.18994025697069
H           -3.17591201293740        0.89231269220230        1.96360102808019
H           -1.61574624210476        0.55805697987427        2.71638114902938
H           -0.55200549941430        1.86276506757918        0.60740287758210
H           -1.28429792371654        2.75077231397195        1.96804567950327
H           -2.20385661207802        2.53777437513265        0.48163121487613
C           -0.49224255368020        0.09600084430868       -1.65278058011910
O           -0.74092929076779        0.11091812483211       -2.77214083118896
C            0.83237748762179        0.04874295928270        1.66345807338373
O            1.29581184819454        0.22958607425838        2.69689188648864
