57
 energy: -81.101724262607 gnorm: 0.000185650164 xtb: 6.7.1 (edcfbbe)
Ru           0.07380680426431       -0.14197418132029       -0.24000343120986
C            2.32769641445189       -2.25152637029833        0.46579386665148
P            2.15784132137637       -0.40628450306115        0.63433633021143
C            2.28585120584141       -0.11249554826834        2.42413552987595
C            1.76893095355221       -1.01707230133062        3.34967390167213
C            1.81819711378124       -0.72401922239249        4.70106049399106
C            2.36719832795180        0.47293662210888        5.13376928338748
C            2.86213833512077        1.38485796643770        4.21352787426647
C            2.81742509076545        1.09969168937415        2.86117689209301
C            3.72591712783396        0.20051216060584       -0.03035894033411
C            3.69825979989529        1.05334777939091       -1.12862120063370
C            4.88884978256295        1.51261846433978       -1.66567099348556
C            6.09646280884668        1.12286310612782       -1.10804784795576
C            6.12142643127493        0.27752927231831       -0.00767452099712
C            4.93879647271458       -0.18529034526355        0.53759763570156
C            0.97727994440361       -2.88674981687310        0.54404928584654
C            0.78780243610723       -4.19899959789241        0.95209747733795
C           -0.49132775642075       -4.73360869429237        0.95647165530700
C           -1.55451933435398       -3.94488020265203        0.54334759586634
C           -1.30200004486115       -2.63959616698266        0.15353535275556
C           -2.37573711265467       -1.72572934007915       -0.36718961860399
N           -2.01036647570711       -0.30400950872188       -0.24984615905769
C           -2.94721431568387        0.54154963725612       -1.01848607372251
C           -2.68425507313552        0.46893838438693       -2.51517610428824
C           -1.75768999636249        0.15240086950134        1.12078119805375
C           -2.43720941970280       -0.60876380440267        2.25447643566688
N           -0.06584843993692       -2.12692995154499        0.17155448400131
H            3.03045350546446       -2.68074577077781        1.18594848043797
H            2.73175987207062       -2.40548776637950       -0.54611270226731
H            1.33590714585724       -1.95415373593328        3.02115657685171
H            1.42847282334838       -1.43126030480668        5.41870621334853
H            2.40618391120467        0.69615250184041        6.18946094710908
H            3.28218736316845        2.32041044093159        4.55162162176520
H            3.19427203610666        1.80632025850405        2.13378992339505
H            2.73971196646895        1.35126966373391       -1.53793850195023
H            4.87535453135865        2.17566404178598       -2.51761403298614
H            7.02428005442849        1.48182878263749       -1.52823292418027
H            7.06582676457494       -0.01794268884310        0.42505966374053
H            4.95104615836587       -0.83353591089578        1.40367123033694
H            1.63652737197036       -4.79190851355470        1.25451739520211
H           -0.65691501717802       -5.75195980774649        1.27104669337326
H           -2.56098652958316       -4.33150653110409        0.51985964934397
H           -3.33520617889217       -1.92833835222273        0.12645454767721
H           -2.49738510170959       -1.94264330695538       -1.43597394739461
H           -3.97833450189530        0.24435168269286       -0.79045513684512
H           -2.79848905716138        1.57662201472971       -0.70247629669855
H           -3.28718784936069        1.22072416686763       -3.01760570510820
H           -1.63212663182778        0.68673861379029       -2.71165077098565
H           -2.93654368221374       -0.49869785178752       -2.94212218346749
H           -0.59442933904896        0.12340408766651        1.32979706202926
H           -2.04250185840693        1.21121815591286        1.19446900323915
H           -3.51809755645338       -0.59358161291271        2.11608576534060
H           -2.10270962409679       -1.64183739252218        2.34136813186709
H           -2.21293172563674       -0.10678627092691        3.19456882390211
C            0.66601121361730       -0.40499362062574       -1.96093154042573
O            1.01624998610907       -0.58392849401557       -3.03984508396149
H            0.10194765187469        1.38734525204971       -0.46433757092491
