57
 energy: -81.079174465754 gnorm: 0.000198997605 xtb: 6.7.1 (edcfbbe)
Ru          -0.04402208671859       -0.10272994812497       -0.64990744829842
C            2.26435500061895       -2.14930314864194       -0.12618156124387
P            2.19342974836486       -0.44342990180486       -0.87663464537305
C            2.94311430989349       -0.70443462993180       -2.51203922006334
C            3.77066257083304        0.26522177678971       -3.07043777186468
C            4.26895425276600        0.09238069931500       -4.34939163413172
C            3.93341277127975       -1.03630445224968       -5.08027100631173
C            3.09174031642414       -1.99385226907765       -4.53491756617805
C            2.59123246712169       -1.82812634944746       -3.25706495949807
C            3.44680907108633        0.48467469327437        0.03583929521958
C            3.07812692935355        1.70875988357182        0.58171648512018
C            4.00985242055310        2.46420829969134        1.27135265408696
C            5.30666545408437        1.99574621756014        1.41268656625025
C            5.67631332732625        0.77626947285862        0.86334022213978
C            4.75185385828554        0.01750609257857        0.16967178490557
C            0.95861015277702       -2.85119320686701       -0.34062282622988
C            0.79995358779334       -4.22953995606403       -0.28586481209343
C           -0.46671086294949       -4.77545008275745       -0.42573333848199
C           -1.55770066987548       -3.93381230576022       -0.61241372939092
C           -1.34627759830365       -2.56961015929430       -0.68300816655882
C           -2.43149619692273       -1.54489897556271       -0.93988975689723
N           -2.10135039093708       -0.30868513927885       -0.20307697548380
C           -2.48357509860551       -0.44898409027115        1.22387465556996
C           -3.97472658876468       -0.63230529252709        1.49988395994650
C           -2.55624260145764        0.97537722296448       -0.76982347843310
C           -1.48330202944235        2.04236537832222       -0.46687378774446
N           -0.10309425220140       -2.06102024751012       -0.56063414853434
H            2.38463246956461       -1.96813698422424        0.95158400608124
H            3.11426795166915       -2.73787361144178       -0.48505060947175
H            4.02369644321341        1.14810217779917       -2.49857562022092
H            4.91685152814524        0.84208793010119       -4.77908683560512
H            4.32273167678813       -1.16772290121108       -6.07889611977528
H            2.82315870705398       -2.86828310894168       -5.10943351536987
H            1.92209306811052       -2.57012732083162       -2.83670645431739
H            2.05242047613043        2.04782489222725        0.46301515711943
H            3.72931976059345        3.41590837227732        1.69775474789625
H            6.03515606969954        2.58360430531714        1.95123490667374
H            6.68970244980502        0.41977048268878        0.97529711807248
H            5.03724241762487       -0.92687388335154       -0.27305437695166
H            1.66022529135347       -4.86054824834129       -0.12643881168035
H           -0.60700938533660       -5.84380343145780       -0.38144604522887
H           -2.55473514604512       -4.33344197284874       -0.71016165858375
H           -3.41299921092273       -1.94133955645069       -0.66089951655838
H           -2.45367447363974       -1.32920433918341       -2.01707914605830
H           -2.12879511828340        0.44260028866741        1.74439498741013
H           -1.93477424383102       -1.30641125713985        1.62511664183970
H           -4.58354904903125        0.13110386209320        1.02217324937492
H           -4.12905887945184       -0.55356248859072        2.57309478694827
H           -4.33691018720074       -1.60955617838243        1.19132617639550
H           -2.67990754712103        0.86691411204353       -1.85328437347466
H           -3.51815370504938        1.29162659070089       -0.35163857326318
H           -1.52640021778253        2.35027803502941        0.58123267021026
H           -1.65624470771242        2.92407279984963       -1.08660411906298
H           -0.39445235935333        1.70789665972420       -0.69222890930878
C           -0.22834061651118       -0.13148536681056       -2.51346853186560
O           -0.16543102700591       -0.18901154403138       -3.65587252816791
H            0.25533042505084       -0.05822488289214        0.85991317577071
