55
 energy: -80.772623818980 gnorm: 0.000056613035 xtb: 6.7.1 (edcfbbe)
Co           0.08776199700043       -0.39209122802727        0.36675724677139
C            2.08229981451513       -2.66410895204233       -0.04885448195312
P            2.18550197106018       -0.96997746584757        0.40532235292631
C            3.49927360459522       -0.18524397543509       -0.57292099704494
C            3.86842597847643       -0.71923290169417       -1.80232466466269
C            4.84501567485541       -0.10174893936433       -2.56360082984455
C            5.44972314135818        1.05815789944607       -2.10684868969036
C            5.07149712914373        1.60559951986852       -0.88975349594232
C            4.09680112988928        0.99095091767955       -0.12672663293926
C            2.86864364522837       -0.92447243787799        2.09751443095009
C            4.21352873355000       -1.13770626090405        2.38199045367894
C            4.63580010318046       -1.21572393076361        3.69712066619442
C            3.72218154004805       -1.09456087720304        4.73280845537312
C            2.37797001737634       -0.89817075625374        4.45422571867122
C            1.95468922890528       -0.81711723368610        3.14144459066361
C            0.78487001195545       -3.14033135674699        0.01908148412132
C            0.43528237210118       -4.51537205940942       -0.13387220477688
C           -0.86556629075634       -4.90839013103880       -0.05345072463030
C           -1.86699015527688       -3.95136282863531        0.18835074939436
C           -1.48649462985588       -2.63490982039747        0.31918944466990
C           -2.47164871026821       -1.53498035252349        0.61446852869873
N           -1.97893182454515       -0.28166445405916        0.02179989256660
C           -2.65805003973169        0.88868613641820        0.60974608670419
C           -4.18895807557407        0.85520829678905        0.62309279841909
C           -2.15509000476741       -0.33742044874556       -1.44441639537084
C           -1.11444131585005        0.48929600153712       -2.18994957082436
N           -0.22048661576030       -2.22273635985785        0.21476580978826
H            2.94369361815181       -3.31270782748099       -0.10514513666855
H            3.38397542748117       -1.62238923777208       -2.14893907878579
H            5.13597298059505       -0.52399391067939       -3.51528108541114
H            6.21401640518617        1.53931512468612       -2.70029742909364
H            5.53891104229813        2.51473069715076       -0.53834543493476
H            3.79335376857875        1.41344604692246        0.82231990207782
H            4.92505945092434       -1.23378802465965        1.57227004023510
H            5.68242926178530       -1.37335290273888        3.91778119621362
H            4.05836814704808       -1.15452728884424        5.75812308050681
H            1.66649907838461       -0.80625250732365        5.26297219962385
H            0.90630381212062       -0.65779040271252        2.89348074748905
H            1.23007266020936       -5.22662135511958       -0.30325899583116
H           -1.13665181432619       -5.94912513679664       -0.16647284431107
H           -2.90270065094009       -4.23842179706381        0.27626961482194
H           -2.53384444447663       -1.40471607146936        1.70106258674186
H           -3.46929039369058       -1.79926899567263        0.23910060473260
H           -2.30618458006711        0.99050353856249        1.64060067006117
H           -2.32575878328558        1.77106161577781        0.05972032132993
H           -4.54926767486882        1.80776073006983        1.00438368821406
H           -4.56796114103286        0.06990533020804        1.27234173482875
H           -4.60567658951123        0.71652762830617       -0.37143912630454
H           -2.04570753624231       -1.37913496182259       -1.75651805962778
H           -3.16290704259466       -0.00879630285363       -1.72237610938142
H           -0.10770011682588        0.15191143345704       -1.90712304515152
H           -1.20481072301495        1.54901709255568       -1.96434289426310
H           -1.23721722978301        0.35351015812339       -3.26222006287994
C            0.44388058626404        1.27129173670605        0.66960576987294
O            0.77719573351534        2.34112157040832        0.95382071301997
