65
 energy: -97.651442344773 gnorm: 0.000172730875 xtb: 6.7.1 (edcfbbe)
Mn           0.19886709571682       -0.56238148986166       -0.48390847609217
N           -0.06122811139163       -2.68479975472009       -0.06719080445005
C            0.86155267902934       -3.10370716697971        1.01034228790462
C            2.30754530112401       -2.72271852466969        0.66700604540864
P            2.33829292898058       -1.06911627014531       -0.20002612142065
C            3.51025724704886       -1.38172829667567       -1.55726944612539
C            3.16148516196736       -2.35697918897558       -2.49160750634583
C            3.98614983835883       -2.61720546070151       -3.56804094660029
C            5.16163213515411       -1.89786512368645       -3.72718074223679
C            5.50292484084021       -0.91605089926416       -2.81209420317982
C            4.67983280791345       -0.64967920831404       -1.73062042941509
C            3.21275549028643        0.14384106369127        0.81965878836902
C            4.27064778143150       -0.11626967530198        1.68244279843420
C            4.85242853142888        0.93215150672748        2.37517190005554
C            4.39405775386121        2.22901594520593        2.20053323119088
C            3.34727405991866        2.49397819215897        1.32886142764911
C            2.75814272412298        1.45097676537515        0.64197616196436
C           -1.46444374553477       -3.07189930570896        0.19611190784887
C           -2.40415839455933       -2.33180935047305       -0.75912447809041
P           -2.01908883044373       -0.51034214312738       -0.67851498758108
C           -3.20915111606480        0.10582681111786        0.55869514892659
C           -3.05818634844052       -0.29013922764352        1.88688343602882
C           -3.94732525193381        0.14586876190560        2.85059718760156
C           -4.98791642303111        0.99287055668594        2.50140663836253
C           -5.13272558870988        1.40325111683458        1.18654685232031
C           -4.24834380579245        0.96627555253667        0.21527487730638
C           -2.64605591393675        0.19621610015654       -2.22271871050368
C           -3.68215842029873       -0.33275406588015       -2.98408657143339
C           -4.06029665296071        0.30728208283295       -4.15220565500618
C           -3.41913679811319        1.46847387872784       -4.55577891646301
C           -2.39053132958006        2.00288528516781       -3.79366501277550
C           -2.00427904504068        1.36464830694397       -2.63114841500896
H            0.22704811909505       -3.18755204748155       -0.91811584821022
H            0.54762626877904       -2.59337848314005        1.92673777635080
H            0.79053315354452       -4.18701983248972        1.16879335633127
H            2.75584893291611       -3.46093500004774       -0.00613922235479
H            2.91262502964257       -2.67317429427203        1.57553239407906
H            2.23417369443706       -2.90658285253521       -2.37431633345348
H            3.71423820770004       -3.37549293428591       -4.28745119554614
H            5.80705264779193       -2.09892506570943       -4.56910215108859
H            6.41401924809573       -0.35037684303793       -2.94055542164237
H            4.95177957909849        0.12343781827863       -1.02584996222956
H            4.64128869116649       -1.12389372033200        1.80716755180612
H            5.67010693497874        0.73800010207672        3.05341776920426
H            4.85402712833194        3.03955386093154        2.74584346599378
H            2.99613083164818        3.50655065414728        1.19413695607549
H            1.92458804820276        1.63208027465213       -0.05114649856668
H           -1.69987281773587       -2.80354335774183        1.22968897780964
H           -1.58677915615858       -4.15573424675837        0.08266588743207
H           -2.22369779695292       -2.64873141240908       -1.79350583790243
H           -3.44914157804390       -2.51887240496157       -0.49755851659061
H           -2.23571269390702       -0.93269518257597        2.17002976476782
H           -3.82643405463792       -0.16867597996153        3.87670722541531
H           -5.68023871771998        1.33802551569777        3.25469964793975
H           -5.93782856798914        2.06944771747881        0.91312756247444
H           -4.37065623015442        1.29749069206092       -0.80616793853565
H           -4.19076681382412       -1.23133730575647       -2.66624881519433
H           -4.86057876814438       -0.10089164827189       -4.75175071959975
H           -3.72040516704918        1.95972897882963       -5.46900092219950
H           -1.89313122971781        2.90767739092724       -4.11124356363299
H           -1.19183354240762        1.76105260665440       -2.01785109375211
C            0.34887328097036       -0.66085248789278       -2.26285475782999
O            0.50576619224025       -0.52272853306068       -3.38747897950826
C            0.13490474890006        0.01010206620137        1.20365688409121
O            0.12046821898962        0.54323200982566        2.21747543114075
