63
 energy: -92.045681821382 gnorm: 0.000334661035 xtb: 6.7.1 (edcfbbe)
Fe           0.24461126502634       -0.31895150393057       -0.48717016252438
N            0.06427239454823       -2.39328594597255       -0.21456608268587
C            0.69285325395938       -2.83312288930383        1.01116588411839
C            2.15395330642751       -2.37092762008167        1.06564653441588
P            2.24596310207405       -0.92050304242658       -0.07490686567541
C            3.30947142722656       -1.56935202764628       -1.40720419082303
C            2.82680617171122       -2.68945352981437       -2.08173408152403
C            3.53622017030477       -3.22371383694426       -3.13933817389768
C            4.72994664426433       -2.63977877857295       -3.53877946282975
C            5.20165940497116       -1.51420388762363       -2.88504406780550
C            4.49244529656176       -0.97267060878995       -1.82517096744634
C            3.32536043590495        0.29118285206814        0.74861025172053
C            4.50671379750464       -0.00734686328815        1.41842249428949
C            5.23705521753431        1.01211324287949        2.00441459128669
C            4.79673270936149        2.32434840089425        1.91925687033942
C            3.61890961674923        2.62635338728855        1.25190202382004
C            2.88498555420587        1.60890267247761        0.67065623466971
C           -1.29581847389831       -2.88490978017706       -0.25913642876107
C           -2.12223567295544       -2.13084089805370       -1.29850440053531
P           -1.87285280247464       -0.37209791843411       -0.79960592932220
C           -3.19448581035814       -0.19499369993068        0.46039729212586
C           -2.82765116019087       -0.16245500930659        1.80032318904927
C           -3.79509676122544       -0.09094930333821        2.78727703040170
C           -5.13532369864837       -0.04415742386376        2.43955657279793
C           -5.50599984725906       -0.06691989239463        1.10375320791533
C           -4.54195279437809       -0.14288261792332        0.11465959140288
C           -2.53668920498192        0.62772891249327       -2.17318112239098
C           -3.41507824226356        0.18659763005461       -3.15524545700169
C           -3.81250816160972        1.05005291759130       -4.16261144440154
C           -3.33768589117173        2.35091069873592       -4.19752913411234
C           -2.44908727631574        2.79311664289137       -3.22882650074795
C           -2.04741947640837        1.93094133217416       -2.22682095625651
H            0.14872666295167       -2.44292983170236        1.89006802124796
H            0.64222402116397       -3.93230960909339        1.06333016762926
H            2.84030875330240       -3.15514671380404        0.73371253483988
H            2.42776960214617       -2.05204736477059        2.07440341221388
H            1.88041534149227       -3.11004854710963       -1.76573224308886
H            3.16110989833737       -4.09354528359100       -3.66061050610338
H            5.28719860499007       -3.05728601443250       -4.36569713390010
H            6.12551727468903       -1.05143126672141       -3.20415607838345
H            4.86296310679143       -0.08703406301892       -1.32622260284631
H            4.84887867833647       -1.03223977909281        1.47356113366478
H            6.15478325269452        0.78584884593614        2.52905465774261
H            5.37280964269331        3.11534233630545        2.37813383973480
H            3.27934212835408        3.65100819747000        1.19218622292440
H            1.94011580742034        1.80297873437440        0.15357141400696
H           -1.79301975961708       -2.76152641346990        0.72648476998582
H           -1.28264138716035       -3.96373684101951       -0.48750654577793
H           -1.69748946641225       -2.26573172359806       -2.29693323060518
H           -3.17103820196940       -2.44209669329090       -1.28152161189542
H           -1.77550754031841       -0.19093211755254        2.04819781185100
H           -3.50592306444313       -0.06934971989668        3.82874589453568
H           -5.89322921434409        0.01351557985821        3.20814568787943
H           -6.55207895655622       -0.02560328536539        0.83322945624337
H           -4.83643148240413       -0.15493988885372       -0.92582049653664
H           -3.78061442066204       -0.83084143214893       -3.14199147092316
H           -4.49409146584559        0.70543421245437       -4.92791713626711
H           -3.65236352551309        3.01908871432778       -4.98643922663420
H           -2.06813999469861        3.80412789756950       -3.26526512781828
H           -1.33216051313023        2.24422715422760       -1.46743328466823
C            0.44177537239940       -0.43812106755368       -2.20786085842031
O            0.58629520815362       -0.43285039334314       -3.35643047721898
H            0.13744015108046       -0.08273424333701        0.96699361601290
