56
 energy: -71.161945679445 gnorm: 0.000064331344 xtb: 6.7.1 (edcfbbe)
Ru           0.09948377781058        0.14436498300166       -0.18650703263556
C            2.38714378274969       -2.00406440519372       -0.31339797176353
P            2.18548436973984       -0.27996987840408       -0.98804300195664
C            2.32862570315286       -0.53440004705984       -2.84358245888889
C            2.17051801865866        0.82490141937420       -3.52599278023103
C            3.56999710325233       -1.24913013660833       -3.36782383309392
C            3.80883204263077        0.55553902576540       -0.55312334172442
C            4.97792851150891       -0.38181158260517       -0.25078229005821
C            3.58054018520814        1.51484032672645        0.61164349401704
C            1.04425955819856       -2.65860913944566       -0.25572261161308
C            0.90728934366640       -4.03696551646188       -0.25680777977818
C           -0.35010252329430       -4.60776330922873       -0.11310199091552
C           -1.44059995082184       -3.75989399594170        0.02187213059248
C           -1.23870700133763       -2.39162497512923       -0.01546536577864
C           -2.38087715102685       -1.41442164453188        0.00414783338295
N           -2.04653665939938       -0.16184152639668        0.71367458037578
C           -3.11260418117753        0.81099259549740        0.38860872558878
C           -2.80791916055106        2.27345542681426        0.69541602665638
C           -2.05037962664304       -0.49644663087156        2.15449204012379
C           -1.63875932819788        0.62901522292909        3.09573822061480
N           -0.02174274124804       -1.84004025363715       -0.15616905350560
H            2.72453932192771       -1.84305475042619        0.71916416204002
H            3.12196071507130       -2.62252296532233       -0.83183725333235
H            1.44331952519150       -1.14670123861477       -3.07901159833264
H            3.10606604670007        1.38094327050437       -3.50427715776115
H            1.87443371996148        0.70192110335933       -4.56689541935941
H            1.41029293052674        1.41928792114390       -3.01507766920882
H            3.69033400803808       -2.23628929579431       -2.92718306044768
H            3.47706233635369       -1.37697957359816       -4.44626948890198
H            4.46508562616009       -0.66161017788464       -3.17858941605511
H            4.04942183850831        1.15430790662145       -1.44137526057066
H            4.83102335536260       -0.88939207177775        0.70003233751267
H            5.89206431561994        0.20616703148010       -0.17337131230386
H            5.12143557782835       -1.12909713073593       -1.02631538764149
H            2.71559114470936        2.14510441845745        0.40849550816372
H            4.45734261115281        2.14145601597490        0.76905207833134
H            3.37621632508901        0.96198526584311        1.52605935519719
H            1.78369619243998       -4.65935550815180       -0.35753186130863
H           -0.47547660228629       -5.67872619639335       -0.10237916736242
H           -2.43860943900382       -4.15318131893463        0.14220757228729
H           -2.61258666498411       -1.17393361431072       -1.04315040013919
H           -3.27892010403552       -1.88182988639138        0.44178457266911
H           -4.04195388750987        0.50647250362474        0.89626456133432
H           -3.28743163075703        0.74816159400149       -0.69046706549873
H           -3.45902980676118        2.90197165810101        0.09134002085021
H           -1.77240019017343        2.48454477009852        0.42794576501254
H           -2.96507746194680        2.52812685559271        1.73706146777003
H           -3.05603317499113       -0.85571085651698        2.43384356575914
H           -1.34989567261646       -1.32829530901774        2.28856955670816
H           -0.83203193943268        1.20280605352416        2.64314649225504
H           -1.27850162017022        0.19962971956974        4.02811288939088
H           -2.47025027085794        1.28663759406764        3.32937287840449
C           -0.69906982862450        0.34891043962226       -1.83055183123808
O           -1.23618473583267        0.45046888439634       -2.85812401065323
H            0.74060699942873        0.06677272927369        1.25320466686772
H            0.22863023925546        1.70455119041874       -0.05821510893027
