59
 energy: -87.235059043810 gnorm: 0.000351621769 xtb: 6.7.1 (edcfbbe)
Mn           0.09684149456133        0.01335379316192        0.23741842379138
C            2.39160747599839       -2.09080512168382        0.66031661237689
P            2.19198831811021       -0.25431833449821        0.86528278857519
C            3.67377433081387        0.36073817923178       -0.00681208182756
C            3.54158967359899        1.46657334592527       -0.83813222477428
C            4.64419685585581        1.96586232510833       -1.51003103252542
C            5.88162973378239        1.36387688359443       -1.35064581689786
C            6.01989291986572        0.26855307178540       -0.51124770650712
C            4.92218894823372       -0.23216478134068        0.16394048621569
C            2.74590003724255       -0.02241620863821        2.59005102165302
C            2.36250495271997       -0.91792637458848        3.58480169352652
C            2.73149421623177       -0.69933575735138        4.89918983267578
C            3.47458046207768        0.42101902850220        5.23448774160243
C            3.83623279806517        1.33018080281026        4.25333702049143
C            3.46778476774091        1.11577197750824        2.93771896059387
C            1.03139472077842       -2.71912894872061        0.58467683953281
C            0.88305925953370       -4.08352180828327        0.77790653205817
C           -0.34670583529182       -4.68122883021025        0.54775771070020
C           -1.36785065960790       -3.88272997228971        0.05682887539618
C           -1.15475469954374       -2.52305590753780       -0.09741843061221
C           -2.19006754830365       -1.64586167621727       -0.75021950996359
N           -2.20840011416975       -0.30055244955065       -0.16144154217847
C           -2.68096875069487        0.69852825395265       -1.15088020811957
C           -4.04525332633364        0.44734617280423       -1.80267127309824
C           -3.11919657851093       -0.26879952837519        1.00491433892098
C           -2.89687615896825       -1.35175276428828        2.05597138039225
N            0.00521150408753       -1.92381181713808        0.22853242110496
H            2.87929101301017       -2.23086133400590       -0.31531340134281
H            3.02035997493058       -2.54755874977374        1.42927521835417
H            2.56274992183798        1.92123840859930       -0.94081433075225
H            4.53850957261004        2.82430608387822       -2.15775494362138
H            6.74288984664742        1.75027712588266       -1.87649081521817
H            6.98821810038511       -0.19420635641355       -0.38250648534951
H            5.03371455797539       -1.07712979469725        0.83045555035025
H            1.76259785286238       -1.78439498635256        3.33237369922781
H            2.43296727788423       -1.40042850379823        5.66613572664200
H            3.76142891593502        0.59026687905606        6.26234065074501
H            4.40224198671874        2.21248121434129        4.51609691017324
H            3.73445484960959        1.82985084854373        2.16982361174305
H            1.73282337143179       -4.67053539946510        1.09290388719236
H           -0.49183698497496       -5.73784914390078        0.70868253956917
H           -2.32419952014297       -4.30827715036685       -0.20805079266709
H           -3.17962206020849       -2.12357917580076       -0.71202272559267
H           -1.89785503439125       -1.55205269996821       -1.80678441751953
H           -2.69641903789279        1.66750596193613       -0.64585962708126
H           -1.92890582238648        0.75649725502223       -1.94329693278074
H           -4.20525191135975        1.22279453426597       -2.54797654909640
H           -4.08292405241717       -0.51403460823420       -2.30990541404692
H           -4.86544399621311        0.50344551153698       -1.09180296759101
H           -3.00216054782030        0.71221961846476        1.47446558650534
H           -4.15683996114816       -0.36589102377776        0.65782505068014
H           -1.85686195282106       -1.40389215382716        2.36844379430485
H           -3.20300740303247       -2.33392661653907        1.70159953458395
H           -3.49413917440001       -1.10972042401091        2.93303712785020
C            0.58044705482204        0.02774498209210       -1.47059007940494
O            0.97164826824755        0.01466456325555       -2.56409541564775
C           -0.19756878184256        0.30215459327740        1.97036792408814
O           -0.26811559093920        0.57962798354510        3.09370648729472
H           -0.07115188221134        1.56269282400489        0.13594549383390
