52
 energy: -87.243185785113 gnorm: 0.000213780330 xtb: 6.7.1 (edcfbbe)
Mn           0.06458852924514       -0.12681375687547        0.23362048740024
C            2.30804702747217       -2.22917134519360       -0.25751107766238
P            2.13066330803855       -0.40454345834241       -0.50161894711702
C            2.49139686078943       -0.18951555974783       -2.27464096216078
C            3.00827082807918        1.03672928720664       -2.68847615933881
C            3.22296496804967        1.28376161035549       -4.03095420494865
C            2.91099103914835        0.31540209085002       -4.97295447430928
C            2.37312419607282       -0.89539895907154       -4.56912547624763
C            2.15578144360347       -1.14774930477055       -3.22585242409551
C            3.68635446685000        0.20410000875124        0.22479010570869
C            4.91680390071703       -0.28003673839731       -0.21320088941654
C            6.08303721163472        0.18652237593796        0.36342337360150
C            6.02840902197455        1.13870445775028        1.37078332227264
C            4.80614009183207        1.62972495047054        1.79968294609690
C            3.63407891945815        1.16502825486683        1.22700455191253
C            0.93971737168646       -2.80598188680157       -0.45651143264956
C            0.76783327462972       -4.09830411458640       -0.91291340481498
C           -0.52051574971250       -4.60898859038226       -1.06198705716797
C           -1.58315498910840       -3.80880253346876       -0.70612282672007
C           -1.34634935140966       -2.51188499213382       -0.24199637396228
C           -2.38016916410837       -1.62049218604435        0.24438789298622
C           -3.73721014906636       -1.94407933983517        0.31171843751788
C           -4.61930299925912       -1.04761663819030        0.87685977549470
C           -4.12591293805719        0.14606886145952        1.38407178131720
C           -2.76464973517846        0.41288569918049        1.27559335591275
O           -2.22161296798419        1.54107999403599        1.75879757027020
N           -1.90316798240583       -0.43074039373793        0.69383574392715
N           -0.09311077416337       -1.99592450508821       -0.16083099850529
H            3.06314256792578       -2.69184923712078       -0.89829130712628
H            2.60732715704799       -2.35448671582516        0.79292454030318
H            3.23390978390794        1.78968289243939       -1.94367704960309
H            3.62838875794456        2.23444834051151       -4.34622891401961
H            3.07710229546907        0.50811205790737       -6.02297395856000
H            2.11589183783735       -1.64524335770759       -5.30426428957738
H            1.71846897054212       -2.09098511364816       -2.92369524618311
H            4.95624528837302       -1.01162328730330       -1.00966106315798
H            7.03860759718799       -0.18954917650160        0.02655396888007
H            6.94313325329309        1.50098700969432        1.81736351355612
H            4.76575012214929        2.37670583506887        2.57913607882557
H            2.66554736148022        1.53974180107042        1.53740958729674
H            1.63115647220039       -4.70206581473794       -1.14970580736138
H           -0.67644938727881       -5.60965942245586       -1.43390273605976
H           -2.59257937369710       -4.17778452877343       -0.78762866689640
H           -4.09225686607448       -2.88501797775770       -0.07422624499965
H           -5.67298307124412       -1.27188819900926        0.93551651414099
H           -4.77997257537386        0.86538672048483        1.85357211951329
H           -2.89841645714890        2.11929285922577        2.14028081295997
C           -0.43465782111134        0.38788054281877       -1.39849285591354
O           -0.76652108561233        0.71541162228464       -2.45628295604651
C            0.59883487139387       -0.29707492493398        1.92436312207445
O            0.97142728689840       -0.39680801915565        3.01620433635064
H            0.08449998863550        1.39355909249903        0.50504896112727
