60
 energy: -70.705249459615 gnorm: 0.000202803929 xtb: 6.7.1 (edcfbbe)
Fe           0.01103238897632       -0.31399646625868       -0.43017743985534
N            0.22005417270474       -2.40399672906079       -0.69271460731594
C            1.38558725121241       -2.85660131523959        0.09212452030618
C            2.60793444354468       -2.03787495735043       -0.30832799739134
P            2.15445470884320       -0.24853491648618       -0.15015276487452
C            3.31594148803586        0.71406969531985       -1.25951773522261
C            3.78365280769001       -0.06680775507933       -2.48245875187987
C            2.58643742429007        1.98863944118997       -1.69863927902590
C            2.81513141511552        0.20640496722799        1.53182908312081
C            2.39559369569042        1.63975535708832        1.85254431838250
C            2.34437864584811       -0.73446502940481        2.63435399409276
C           -1.00033132895062       -3.18782624137140       -0.37478778204763
C           -1.84120366695411       -2.49430261898262        0.69626190857643
P           -2.03491161331601       -0.76655092483169        0.08147087028644
C           -2.34853336882530        0.35762890761859        1.52620520823136
C           -3.75824558195453        0.45228066275320        2.09487322214112
C           -1.83122135699929        1.71183417772405        1.02053179278972
C           -3.59170993092295       -0.69998408848155       -0.95652896035415
C           -4.65505161936204       -1.70283059439566       -0.51763062859768
C           -3.26147718753082       -0.86496302880148       -2.43745928809566
H            0.44778588855482       -2.59712527579858       -1.67153895151347
H            1.14848096403638       -2.71909062676099        1.14726546394324
H            1.57154805901915       -3.92147456280571       -0.09428916728403
H            2.84952525973533       -2.24583390149705       -1.35466743826443
H            3.47802860993900       -2.28338444380281        0.30583527720758
H            4.18921548947308        0.98608794743922       -0.65323669812488
H            4.45361022144687       -0.87917361590431       -2.20966992894538
H            4.32806595872429        0.60193423573389       -3.14804213063626
H            2.93456423625720       -0.46660357553448       -3.03587233145045
H            1.92646467522702        1.77592874033626       -2.53620970647417
H            1.98044853600322        2.40666860432734       -0.89309965905344
H            3.30001447063434        2.74518496291228       -2.02103621336002
H            3.91100515065106        0.14558458918769        1.45452473540779
H            2.70093422637672        1.90394856789850        2.86412649754460
H            2.85123641330089        2.35606953614604        1.17151847139389
H            1.31000892036076        1.72798478961641        1.79136025442970
H            1.25885693305202       -0.77491997587807        2.66289671416184
H            2.69042249587490       -0.36023700263298        3.59700256909786
H            2.74228748046641       -1.73869051747026        2.50931333516771
H           -0.71840584709070       -4.19504737861454       -0.05110634184333
H           -1.59279839985262       -3.27339716754746       -1.28860500346832
H           -1.30073746849686       -2.43625530129891        1.64415393165030
H           -2.78298875234047       -3.02159438928278        0.85487582248448
H           -1.67401795210734       -0.00774028408951        2.31042508822413
H           -4.08621912598501       -0.51026667726287        2.48184252526943
H           -3.76412131780117        1.16296836285791        2.92067370532897
H           -4.47528693384269        0.79919700603616        1.35417881748203
H           -2.50348090628288        2.12655802321868        0.26899277082271
H           -0.82669221941970        1.59142688076578        0.55403019028221
H           -1.74408308133500        2.42951472923550        1.83485080832380
H           -3.97402657175117        0.31903196842843       -0.81011743044736
H           -5.59834609276784       -1.46309833864674       -1.00668107095318
H           -4.81945976214420       -1.67550668266479        0.55678015982740
H           -4.38007699195072       -2.71421801331152       -0.81021005514401
H           -4.17335195660625       -0.79010335220467       -3.02815674473872
H           -2.81036896171127       -1.83379297676591       -2.64114294842737
H           -2.58007747394037       -0.08708443191530       -2.77135310673758
C           -0.03608753110442        0.00502018076844       -2.15068857653332
O           -0.03729629053787        0.19019801184406       -3.28368392388202
H            0.07676200803027       -0.56210973952776        0.95517222620277
