59
 energy: -70.643106802698 gnorm: 0.000083162442 xtb: 6.7.1 (edcfbbe)
Ru           0.05101028093852       -0.19945120637531       -0.32752790343628
N           -0.09293178743860       -2.11677784218385       -0.63275422559148
C            0.99960942889020       -3.07311359140985       -0.53305312659556
C            2.21546915771042       -2.47271121166253        0.17138358935023
P            2.27027658261854       -0.70841470457976       -0.35226557158379
C            3.09445189017768       -0.89325023767084       -2.02995293667656
C            4.60815962933966       -1.08204654873655       -1.99502662593974
C            2.69333900930748        0.24713508900275       -2.96231302760839
C            3.55688073874099        0.05467020615075        0.75996294078663
C            3.63459050430910        1.54239747751934        0.42502418055477
C            3.15084625637966       -0.13445869563079        2.21953820486317
C           -1.29702308605049       -2.84582362285243       -0.99556242755498
C           -2.48033604243469       -1.92600834419177       -1.29878037807286
P           -2.22529503531149       -0.33379545494819       -0.39205565127431
C           -3.13131326221667       -0.66793802340317        1.21152021470053
C           -3.22936142465341        0.60002525923818        2.05570332185127
C           -2.38894553430381       -1.75111898415867        1.99090136002333
C           -3.43325391076665        0.84265338977579       -1.21564603062472
C           -2.97697538388036        2.27849855290695       -0.94646014196068
C           -3.55820061869653        0.63223659222821       -2.72261562921116
H            1.28248518278656       -3.43639500522446       -1.53974073643999
H            0.65925404727611       -3.96472040548648        0.02798552808410
H            2.03959230585982       -2.48267736562425        1.25107890371607
H            3.13243817841228       -3.02486737820369       -0.05357811870563
H            2.64321395282419       -1.81406860530125       -2.42939034026890
H            4.96182513061821       -1.36304292765944       -2.98695964998174
H            5.11163842045250       -0.16117430819007       -1.70963797059703
H            4.89552534810369       -1.86999725376380       -1.30041865715821
H            1.60449323234125        0.33454531205504       -2.99528940804512
H            3.05639073419811        0.05945922962727       -3.97286924098417
H            3.09647502227723        1.19980236535233       -2.62483196109002
H            4.52650751779203       -0.42476071261087        0.58521523104997
H            4.31059607847086        2.05621951846035        1.10734893071237
H            3.98918473480230        1.70518942435109       -0.59089038772962
H            2.64061729870516        1.98412017663972        0.51659945824206
H            3.73300729009022        0.52736818160062        2.85876427229822
H            2.09346031753119        0.11307263964667        2.33840915624865
H            3.31707526645707       -1.15651792456277        2.55347161615552
H           -1.56015353220431       -3.55110411782117       -0.18608792998253
H           -1.08989573963873       -3.47339999011617       -1.88505827425379
H           -3.43669443456163       -2.39892227742643       -1.05647286708776
H           -2.46560921877994       -1.68258241096130       -2.36483702751235
H           -4.14192398776682       -1.01922119106653        0.95539312844304
H           -3.88637372717821        1.33645714761784        1.59956602678435
H           -2.23589623309572        1.03395160932214        2.17599464579958
H           -3.62529087361454        0.36286040936285        3.04275385187755
H           -2.54109190298647       -2.73436919658950        1.55198576009762
H           -2.73838691181579       -1.78780775428709        3.02216702814612
H           -1.31800113481299       -1.52311803604607        1.99562489927793
H           -4.41238750023898        0.67434469511674       -0.74795936139541
H           -3.79570456315145        2.97840473292171       -1.10967521295018
H           -2.60422552341520        2.39967332441655        0.06865625292570
H           -2.16524254170781        2.53903453981971       -1.62226698036648
H           -2.56944080609281        0.60855770750488       -3.18332111212006
H           -4.09019494054779       -0.28581089821202       -2.96400142632947
H           -4.11096343327439        1.46347930129052       -3.15934171197582
C            0.25687497198914        1.48772131198250       -1.02505206729250
O            0.40248412163492        2.49577685788452       -1.59337609841815
H            0.06795001578937        0.45259808699791        1.09289466269175
