64
 energy: -97.506068708833 gnorm: 0.000404007667 xtb: 6.7.1 (edcfbbe)
Mn          -0.02110010034225       -0.50556219900422        0.69174418685212
N            0.04684303915169       -2.22881244213571        0.05728159972945
C            1.26615743233784       -2.99011784489684       -0.19708050017246
C            2.44930468254135       -2.44218779615375        0.59683673600420
P            2.17747797766766       -0.63415002291064        0.51436024277307
C            3.37519479049845        0.09514316747407        1.67182796150680
C            3.18224831306193        1.43980534474715        1.98215700215941
C            4.04614937576125        2.08688409317911        2.84500094106226
C            5.10613332829648        1.39359509664830        3.40966245476211
C            5.29658238300933        0.05448099875949        3.11172368481415
C            4.43578814413772       -0.59809904018096        2.24531718110518
C            2.94639837385699       -0.23032595769542       -1.09445160587889
C            4.31332928240733       -0.39383251834141       -1.30272938499535
C            4.85531098153099       -0.13541621924294       -2.54823516762456
C            4.04230268937403        0.28693056847075       -3.58972877831398
C            2.68356169613532        0.45971964091383       -3.38378272822163
C            2.13779832153699        0.20378252803395       -2.13806358689636
C           -1.07757516904880       -3.06279942655779       -0.35308691215153
C           -2.42688411904254       -2.49172868473444        0.07933699817350
P           -2.16817236477102       -0.67665034943566        0.20902226823719
C           -3.53759890218558       -0.12271314588169        1.26925269186661
C           -4.78910069628057       -0.73376317093661        1.25916761130502
C           -5.79066575964773       -0.26557290355969        2.09084604347280
C           -5.55389304702690        0.81247839318072        2.92968791697193
C           -4.31170667378721        1.42719689711067        2.93791877778126
C           -3.30490994624136        0.96026069378545        2.11167154645406
C           -2.68333494975700       -0.07176630421266       -1.43782182019552
C           -1.85578649059571       -0.38795919838488       -2.51418366809785
C           -2.16529104007087        0.04294328092609       -3.78963235099345
C           -3.30210869657961        0.80757679979030       -4.00183068513705
C           -4.11904812471804        1.14092982339145       -2.93437493323419
C           -3.81413641637747        0.70786562778345       -1.65474583387041
H            1.11444062224774       -4.05317978261275        0.05887142545827
H            1.50900823488716       -2.95589385014414       -1.27635106741086
H            2.36728337568212       -2.73659878944632        1.64987739085947
H            3.40678908441790       -2.76845154693969        0.18179988290583
H            2.33668456119408        1.95901647601121        1.54499331650523
H            3.89179422585357        3.12922110098818        3.08388389641436
H            5.78034071729096        1.89594230760340        4.08812432000740
H            6.11915037848505       -0.48646008734643        3.55805760014553
H            4.59094499562007       -1.64548846644233        2.02666196088209
H            4.94902240611140       -0.71366921841167       -0.48771288014731
H            5.91651132489647       -0.26163206743491       -2.70946053359457
H            4.47117195602322        0.48603968828949       -4.56126385498403
H            2.04987851318640        0.79646317117480       -4.19215079622808
H            1.07633942013905        0.34711418061121       -1.95839056647840
H           -1.06230390032082       -3.19014668775854       -1.45124600873163
H           -0.96479120850885       -4.07533277302072        0.07438197624599
H           -2.67599291441337       -2.83206419609406        1.09120529921452
H           -3.22809097150990       -2.76701653590955       -0.61170087363870
H           -4.98191431803547       -1.56851929745384        0.59940003205720
H           -6.76051265684544       -0.74255323958947        2.08482419918911
H           -6.33948142278062        1.17276474595476        3.57799485568501
H           -4.12682307043727        2.26738814094773        3.59140393636163
H           -2.32197623765347        1.41969256410838        2.11002764193698
H           -0.95691080240757       -0.96877912346510       -2.34123590310246
H           -1.51902456102287       -0.20997091240368       -4.61868679292517
H           -3.54475042191766        1.15074217235630       -4.99714004017220
H           -4.99887383726069        1.74708542185425       -3.09676760123252
H           -4.45157398032607        0.98264080277568       -0.82650648167004
C           -0.06793327500453        1.20686651895677        0.26328669467080
O           -0.12697407770093        2.32951155438790       -0.04936945432425
C           -0.08796087861323       -0.24230012365426        2.44557672219877
O           -0.11103262024031       -0.13643603141400        3.60398199364686
