57
 energy: -80.987746194159 gnorm: 0.000262932661 xtb: 6.7.1 (edcfbbe)
Fe           0.30110460425770       -0.29841201797730        0.05673008126337
C            2.46192948439344       -2.37360243946725       -0.63141794494736
P            2.38089553803213       -0.73010589313477        0.21410817384137
C            3.88908498439026        0.15549390467812       -0.24697902711669
C            5.09601057909383       -0.13819638694896        0.37745694265629
C            6.23481453924013        0.55480440688893        0.00947063767180
C            6.16550020735617        1.53438052423964       -0.97020828511017
C            4.95780496145009        1.83087632173683       -1.58427940584183
C            3.81298202471897        1.14405133904307       -1.22126572727944
C            2.38240156892131       -0.97659205338310        1.99381734274890
C            2.21734866872749        0.24936354897031        2.64047504015830
C            1.42519045152623        0.33771246767748        3.75948556985974
C            0.77977444596141       -0.79311760704309        4.23319860640685
C            1.00393224289753       -2.02340765154611        3.64285285769514
C            1.79546247997948       -2.11964261172602        2.51713922051304
C            1.12243902561290       -2.98178677245755       -0.38294678387440
C            0.86847923211210       -4.33918692397006       -0.37542912660354
C           -0.37690520506225       -4.79759006513051        0.02471856906331
C           -1.32175430642289       -3.88707501058204        0.47161751179456
C           -1.02283815742202       -2.54122556811342        0.43405653068451
C           -1.86379194801553       -1.45853850013243        1.00379537295668
N           -1.59291897027572       -0.22801384460355        0.24782789367612
C           -2.41898458545507       -0.13763804020319       -0.97446901817420
C           -3.92039488886792       -0.06858722368088       -0.73501471893328
C           -1.57742591769269        1.00962591457649        1.05081629493510
C           -0.41622114697333        1.83629097754422        0.51430684476572
N            0.15094145096866       -2.10557007224140       -0.05507915372287
H            3.27747488733156       -3.01060629754474       -0.27088822769812
H            2.62186087628913       -2.16986440854641       -1.69794522583086
H            5.12978915830096       -0.89698668064561        1.14709988288810
H            7.17951247086128        0.33657559436534        0.48677852453809
H            7.05831884873851        2.07461256977218       -1.25203152234615
H            4.91341976237927        2.60087840096158       -2.34073986485658
H            2.85543284823770        1.36268688910463       -1.67593047222544
H            2.64610610766204        1.13735752890058        2.18976803716537
H            1.25132963213313        1.29741465124752        4.22522054225464
H            0.08241129450433       -0.70987622190717        5.05528116215007
H            0.50458349681376       -2.90498939736030        4.01990916893779
H            1.91565759330948       -3.07398153893088        2.02428617998035
H            1.64945355915539       -5.02707144048825       -0.66034493742740
H           -0.59200842332215       -5.85498173352516        0.02720629685190
H           -2.27348699772925       -4.21511996785476        0.85804508811208
H           -2.92490210277862       -1.70920712363598        1.01956317945959
H           -1.51273905434603       -1.30709387429086        2.02929533346618
H           -2.17389338360548       -1.01227858278915       -1.57972087931740
H           -2.08321568154362        0.75240897401828       -1.50738266672322
H           -4.18010080462717        0.69688133697917       -0.00925224355936
H           -4.32539707426533       -1.01943237652322       -0.40025272188815
H           -4.40821433100080        0.18233728349502       -1.67421849763648
H           -2.52161593190985        1.55274153305189        0.98297850259085
H           -1.38235270176384        0.74032144896937        2.08740553808283
H           -0.67069749651060        2.35757523261363       -0.40725182503212
H            0.51027198901077        1.21191446893969        0.29780125332823
H           -0.08739757311895        2.55944561094966        1.25737360838702
C            0.41207802138098       -0.23432864713599       -1.67286547588683
O            0.57191973748272       -0.37427083319754       -2.79515048053926
H            0.29720507940071       -0.45564014306319        1.42942433055618
