61
 energy: -71.552721210992 gnorm: 0.000109589334 xtb: 6.7.1 (edcfbbe)
Fe           0.08866942585215       -0.13227645493498       -0.32215574531661
N            0.21695267931746       -2.27922976397888       -0.35200291572502
C            1.25036522523301       -2.69941132137597        0.60461310201692
C            2.57838157383345       -2.03674920760646        0.24779842537840
P            2.22669538896289       -0.27071842732938       -0.28451614079310
C            3.28586320751492       -0.14595106426010       -1.83973293150660
C            4.78636919503473       -0.36524549081401       -1.65629452839322
C            2.73791533957017       -1.08492006521649       -2.91381135203476
C            3.25785724087058        0.71845122516685        0.91749508889650
C            2.68988651564350        0.61700826153629        2.32759796798582
C            3.25386581245295        2.17664594780071        0.46637041770312
C           -1.06501444586209       -2.97972583310570       -0.16815459616182
C           -1.99193812263233       -2.21893546760567        0.77899656676349
P           -1.93679745785377       -0.40981117972350        0.31405132469272
C           -2.60464002514514        0.41885573087327        1.85232610352147
C           -2.69768288952970        1.91196201532630        1.54284905197409
C           -1.71392514694877        0.21211672155500        3.07138393990011
C           -3.41940649981285       -0.22259035076755       -0.83985864414097
C           -4.80589445151197       -0.40204211329929       -0.22365940137017
C           -3.26666825813619       -1.15239869062716       -2.04195050425057
H            0.57148129155077       -2.52661905344587       -1.27632359715353
H            0.93125981020020       -2.38604383250324        1.60020009658530
H            1.35904186248215       -3.79564104614118        0.59783229965569
H            3.26573847927731       -2.06385274667027        1.09589380731331
H            3.04229912291258       -2.57344297297874       -0.58423691049814
H            3.10539537083731        0.88122322329963       -2.18554787880775
H            5.26989916259296       -0.39928335013564       -2.63304398197730
H            4.98906501123914       -1.30669113451102       -1.14847217810016
H            5.24545114987211        0.44049209525086       -1.08961239450366
H            3.14340412218550       -0.81989648772339       -3.89007746210895
H            3.00617100345049       -2.12252480007664       -2.71648340931855
H            1.65330991612106       -1.00251872158563       -2.96741064291917
H            4.27747500613807        0.31050541133802        0.91380300418165
H            3.33499227213784        1.14288756310150        3.03156238466554
H            2.59881416116238       -0.41855149886298        2.65126760478678
H            1.70278042643414        1.07051733606608        2.34891616147653
H            2.22184017936564        2.48386637684103        0.29359400278862
H            3.68733434942452        2.81754806109854        1.23379472868122
H            3.81547601424530        2.32061887554406       -0.45496357265624
H           -0.88937565817522       -3.99725922623159        0.21095327667256
H           -1.54133157438381       -3.06428079390953       -1.14680059143453
H           -1.61710492884940       -2.29656714497601        1.80150442167798
H           -3.00229067238021       -2.63303814560845        0.74517048648317
H           -3.59613902391038        0.00215833216067        2.06901563696626
H           -3.42645189439590        2.12140681438022        0.76187353106444
H           -2.97746675512789        2.47667222219046        2.43204768351822
H           -1.72193420000842        2.25454423255143        1.19787790347491
H           -2.09355441019424        0.79842465003120        3.90805195955955
H           -1.68045399832168       -0.83030163067756        3.38199838452244
H           -0.70391522262273        0.54323609056274        2.84586458883096
H           -3.31559862166526        0.80802482692314       -1.20719816419413
H           -4.88339778325839       -1.34869948016617        0.30880169454301
H           -5.05664099383365        0.40428565977914        0.46042940583067
H           -5.55327799414453       -0.40448346061713       -1.01768924039053
H           -2.24446509565600       -1.12620360217381       -2.41600759800069
H           -3.52867714223853       -2.17613406445564       -1.77769709518685
H           -3.92729897729972       -0.83692477821497       -2.84981453788442
C           -0.18825000315802        0.24681415422994       -1.98986910707289
O           -0.38317824860389        0.63897697292363       -3.06939173803626
H            0.29843357738966       -0.21741922229024        1.11912232110035
H            0.06631529426192        1.31962974828636       -0.15817941528586
