61
 energy: -76.089193260479 gnorm: 0.000251097529 xtb: 6.7.1 (edcfbbe)
Mn          -0.02415886087182       -0.19958422615052        0.08080316138311
N            0.01058847976820       -2.36613679924280       -0.06447228639853
C            1.36605462543246       -2.95384407052313       -0.02533402783544
C            2.36722419153539       -2.05607618342292       -0.75858363667052
P            2.21538926085318       -0.31954047343987       -0.10722845467499
C            3.11516930877338        0.79586358558289       -1.31061860580947
C            3.22540588341635        0.24453657768651       -2.72914438620971
C            2.41626284096187        2.16637776757424       -1.29647864056012
C            3.44947920165919       -0.27349816342314        1.29197694949440
C            3.38860850832438        1.10307228269245        1.95368507164803
C            3.26827036385060       -1.37874649762607        2.32807681609690
C           -0.87626157781274       -2.96698069703197        0.95776246943887
C           -2.27573344322536       -2.31934651100527        0.98747324546797
P           -2.19813194217247       -0.64308786384182        0.18969683389134
C           -2.86924433622275        0.70673858628803        1.28998499802375
C           -4.36927827048232        0.96004665624997        1.38385081280976
C           -2.14330287418007        1.96279359534622        0.77489079844575
C           -3.39796230443123       -0.82065854778236       -1.22594534790216
C           -4.73799384161457       -1.44463938023037       -0.81194605189890
C           -2.77702188722699       -1.64279022968776       -2.35622968202474
H           -0.39164083396962       -2.58653047450559       -0.98491743963100
H            1.64982743749425       -3.05040781821209        1.02448824039572
H            1.36138709001085       -3.95337060209770       -0.47670026518695
H            2.11865861737185       -2.02806579970084       -1.82429769488750
H            3.38754913933673       -2.43000440715795       -0.64051003219284
H            4.13268984047917        0.91003278955707       -0.91571575351615
H            3.83967321382015       -0.65280789660175       -2.75828219740660
H            3.69801375226776        0.99348242934061       -3.36325037883923
H            2.24772513820194        0.02149823603846       -3.15188912519022
H            1.75287519130879        2.27117261734729       -2.15228876763245
H            1.81663052459187        2.29796101991185       -0.38603404014847
H            3.14085440088756        2.97664415747074       -1.34398420991602
H            4.43215031489029       -0.40527148006624        0.81508008588788
H            4.10455735799125        1.15762414331673        2.77220757962280
H            3.62481728626123        1.89929751663553        1.25050581539796
H            2.39560826890349        1.28703071333829        2.36408201208245
H            2.25426396594131       -1.39569497694277        2.72101578432097
H            3.94133945027644       -1.19565574155430        3.16465330067756
H            3.51644335324562       -2.35443042886029        1.91726838851345
H           -0.38527053340239       -2.83003973507139        1.92563700331397
H           -0.97088813078015       -4.04451743109141        0.77641052762654
H           -2.62048595859258       -2.20916271684612        2.01915140059242
H           -3.00066602278191       -2.93630402600323        0.45269580520231
H           -2.49461058455905        0.46090304909530        2.29426872233067
H           -4.88521779064146        0.12924760068493        1.85980833097382
H           -4.53651845646393        1.84389942983418        1.99908056129152
H           -4.80955365858460        1.14543686992553        0.40703731529870
H           -2.53945028866779        2.25788611014842       -0.19814548745089
H           -1.04093284700534        1.79423674540414        0.66338587025291
H           -2.27546090716197        2.79730433398287        1.46225694027271
H           -3.55436864823094        0.20637202591285       -1.58328108342097
H           -5.54611647944944       -1.00653293485953       -1.39364528138366
H           -4.96143234641895       -1.29911134949427        0.24089110484994
H           -4.73961004755462       -2.51442390449597       -1.01017500242266
H           -3.47209889173158       -1.68721567373011       -3.19319566309069
H           -2.58433939616184       -2.66526793234857       -2.03136937349586
H           -1.84994554293287       -1.20567306538539       -2.71955615072484
C           -0.13771784762021        0.26904622045451       -1.63535932386122
O           -0.27628520256083        0.80134378937913       -2.64251124546974
C            0.03700288870499       -0.19174270656290        1.85922602194915
O            0.03603500414319       -0.02425065549689        2.99594928834548
