49
 energy: -80.974009085179 gnorm: 0.000216505719 xtb: 6.7.1 (edcfbbe)
Co           0.19816349977193       -0.47397367012588       -0.15114967413136
C            2.34099837821186       -2.69089628972335       -0.21472439362366
P            2.32067491665208       -0.87219072164345        0.12229969591396
C            2.58570048758773       -0.83339027041011        1.91612891510496
C            3.80490533822017       -1.18523911356882        2.48817430087580
C            3.93693832323866       -1.18630344521470        3.86494711919990
C            2.86123657729487       -0.83930317865218        4.66914394739957
C            1.64760359173141       -0.48327994767079        4.10103073305277
C            1.51010286032643       -0.47798328156016        2.72491488939336
C            3.83511723343179       -0.16881853945441       -0.57073906786845
C            4.25043147494419        1.06230987446168       -0.06171916689470
C            5.38792320028958        1.66747037604056       -0.56012495181059
C            6.11098298728589        1.05485753978476       -1.57347683965545
C            5.69160176307804       -0.16007655686673       -2.09133623183189
C            4.55177893514014       -0.77291214980565       -1.59952571942639
C            1.04229467465316       -3.15103004795603        0.36296477202854
C            0.87809804712473       -4.38455842264385        0.97744210087695
C           -0.35774555516022       -4.71244573083982        1.51334140583490
C           -1.40381585184983       -3.81095143429215        1.40404389694181
C           -1.18079018810890       -2.59629360082455        0.76508189753833
C           -2.20423491226577       -1.58899960453160        0.48854719822909
C           -3.52714046790418       -1.67309667371083        0.88438284069829
C           -4.42059022636858       -0.69409375158426        0.45762422068106
C           -3.97873476515966        0.29794625942136       -0.38664401511269
C           -2.62475189424335        0.32381420629345       -0.75364283989542
O           -2.22356083298290        1.24802201722147       -1.61108734115241
N           -1.75125813217246       -0.56601098198938       -0.27985917521787
N            0.03244193237581       -2.27748968806287        0.27482290700507
H            3.20505753746723       -3.20048737585122        0.21997440538697
H            2.33558675070108       -2.84473236936208       -1.29934958661909
H            4.64320402956099       -1.44589926256445        1.85624589829609
H            4.88112007126245       -1.45645057746916        4.31383531486617
H            2.97166362769038       -0.84079294394655        5.74314624717733
H            0.81546372858839       -0.20637098575095        4.73097926958907
H            0.56637107713608       -0.18504251735366        2.25785048701905
H            3.68030944418334        1.53266593341449        0.72934683300775
H            5.71224447517090        2.61684616927247       -0.16079278828756
H            7.00051478800916        1.52768925456337       -1.96169026754454
H            6.25387874775949       -0.63238175365590       -2.88326661708543
H            4.23129342369283       -1.71671964305461       -2.01569737461520
H            1.70714356159998       -5.07199994592336        1.03489715040878
H           -0.50448776271192       -5.66117547922195        2.00574985891462
H           -2.37310246942987       -4.05057445601270        1.80811047360344
H           -3.86648796495228       -2.47699817531630        1.51535353479652
H           -5.45390573545281       -0.72948419820159        0.76514533492544
H           -4.63250520923697        1.05520478552317       -0.78631571813103
H           -1.29442680491067        1.11118862214957       -1.86800470902093
C            0.49632180818040        1.23183484776084       -0.35153662522971
O            0.85503593560320        2.31819259819535       -0.36890472798293
