54
 energy: -70.107100038672 gnorm: 0.000499538468 xtb: 6.7.1 (edcfbbe)
Ru           0.26009576578053       -0.03675896610760       -0.21853424550225
C            2.39566669450219       -2.36562315940378        0.04637779527168
P            2.45559316728231       -0.61115080464155       -0.02348210046821
C            3.78628017535449       -0.04109752043384        1.13743439545612
C            3.68553637326697        1.46715198302689        1.34331018683482
C            5.19491003724448       -0.46908277127410        0.73813967463584
C            2.93552013332096       -0.10080353462371       -1.78361829157712
C            1.59700104825424       -0.15872029514952       -2.54300482772290
C            3.96674015016019       -0.98282203463527       -2.47710383412781
C            1.16031247848353       -2.90519648275905       -0.26794141243934
C            0.89726263490912       -4.30723618519284       -0.34855145236801
C           -0.31406965036757       -4.75660332574337       -0.77800652191523
C           -1.30049330662666       -3.83550323389964       -1.17685166686327
C           -1.01593996386184       -2.49339492709022       -1.05162429155812
C           -1.95388826637184       -1.42505373312887       -1.57055437455820
N           -1.93264526488025       -0.20747255315627       -0.73876047792027
C           -2.79359170302612       -0.45016092111431        0.43756532523568
C           -2.89288175025301        0.73041573032998        1.39447281863131
C           -2.37610628291013        0.96344850945681       -1.52154805578782
C           -3.80297978166574        0.91274881505454       -2.07533488718565
N            0.13916637980195       -2.03408860945694       -0.56903319589508
H            3.23170631175015       -2.97760264992529        0.34588177333180
H            3.50689372763021       -0.54314477598519        2.07558892603462
H            3.94863821730412        2.00152955535624        0.43150791989551
H            2.66512908820595        1.73467239426300        1.61838651170595
H            4.35996873827269        1.79018616175541        2.13475416646743
H            5.87734656939437       -0.32123167912234        1.57442039643177
H            5.55347705543221        0.12835047131305       -0.09747365526913
H            5.21918256446979       -1.52026832203677        0.45788891395529
H            3.28318357428856        0.93967058902313       -1.75052167763619
H            0.77874019646536        0.33261362074079       -1.94708080628702
H            1.34131021148785       -1.20210914660879       -2.75070026618944
H            1.66642173560775        0.36544961070960       -3.50004750983161
H            4.96078192752200       -0.84095996965830       -2.06365212925556
H            4.00523476874395       -0.75247181412296       -3.54255698536140
H            3.69368915548949       -2.03223646585784       -2.35984137916830
H            1.68471183768219       -4.99090699842611       -0.06828232692824
H           -0.52066319983237       -5.81623505340264       -0.83717304134361
H           -2.24811612904518       -4.16874214191422       -1.56877059996747
H           -2.97109394486195       -1.83385543579659       -1.65143257034788
H           -1.62019021636687       -1.16096693683344       -2.58632075590951
H           -3.80166131724750       -0.73829344100981        0.10617007030754
H           -2.35795764565633       -1.30025769174272        0.97228274129580
H           -3.35528967545603        0.39565886980736        2.31955188817217
H           -3.49668487912488        1.53710861861659        0.98665233630871
H           -1.89427509838606        1.10536100971049        1.62274064672707
H           -1.68187944059878        1.08144351188754       -2.36502160171493
H           -2.27196811802076        1.84649594980396       -0.88574149095115
H           -3.95322531847593        0.05453978980218       -2.72630526736311
H           -3.97766771567221        1.81285324859793       -2.66028408876149
H           -4.54072486306195        0.88467666522758       -1.27824536612145
C            0.33628565736907        1.77420463516156        0.06644798651240
O            0.38151777749762        2.92837256129746        0.21101845829296
H           -0.00841959789119       -0.30170414078690        1.26401653772945
