47
 energy: -70.116080227702 gnorm: 0.000450842874 xtb: 6.7.1 (edcfbbe)
Ru          -0.05354571452807       -0.27881308594312       -0.31427870468065
C            2.33061001217209       -2.32660071070385       -0.21911601426629
P            2.21444946023848       -0.50072968424546       -0.64825626179305
C            3.60324581560905        0.32416556940693        0.29788191406947
C            4.67285575406150       -0.60095104474192        0.87386051188222
C            2.97991929709986        1.19846515504862        1.38442126955215
C            2.83034461577222       -0.47861453722787       -2.41540300922042
C            4.24714101739856       -0.99187969655288       -2.65505639341146
C            2.67923343187813        0.94445317343758       -2.95440600965624
C            1.00076690209309       -3.02648419431214       -0.33267636155472
C            0.88909531884878       -4.40855254096506       -0.38191495804469
C           -0.37076130368773       -4.99690030792080       -0.33565068018338
C           -1.49093265567806       -4.19537778455739       -0.19777652043175
C           -1.33906293047268       -2.81277845014915       -0.16818410092912
C           -2.40390091443841       -1.81780394164628       -0.00150540707386
C           -3.78631104587015       -1.93687685190420        0.13962520129989
C           -4.51848313039141       -0.75572981421941        0.26867792320001
C           -3.93441948890522        0.50054783864118        0.24431014679763
C           -2.53287643423610        0.57546785675634        0.08873042294262
O           -1.72952426721354        1.56493573184540       -0.01892013181010
N           -1.88327496546318       -0.59582897808488        0.00551299448625
N           -0.09526735595105       -2.25887172040883       -0.28497417364115
H            3.10446393367616       -2.85262817721531       -0.78183158929818
H            2.60106316134801       -2.35043452356278        0.84390118478986
H            4.06809685696013        0.99082704583972       -0.44105348224707
H            5.05492085869486       -1.29267514045967        0.12748022630519
H            5.50406395182864        0.00048553815928        1.23942474063746
H            4.28258250599617       -1.16873075658312        1.71548482845595
H            2.14812146769079        1.77684256850527        0.96998633278603
H            2.58331977439344        0.58310243526989        2.18945570681640
H            3.71664320026164        1.88440101447280        1.79908055529851
H            2.11694931195038       -1.13150475510006       -2.94271943765054
H            4.45884368395413       -0.96255658715432       -3.72306976158521
H            4.98018841797975       -0.36568714539516       -2.15280434128111
H            4.37218366937256       -2.01865783040174       -2.32087466229253
H            1.72180318236056        1.37382430427193       -2.64757677246268
H            2.72596050624079        0.95087162346282       -4.04203347991388
H            3.47145721135208        1.58940817909829       -2.57810009188172
H            1.77688295610771       -5.01877534277990       -0.43981336440322
H           -0.47025924406071       -6.06998552039517       -0.38074189381305
H           -2.47703848811690       -4.62330029189136       -0.11377869015763
H           -4.27759258215448       -2.89562974571576        0.14726214902980
H           -5.59113231199016       -0.82435004258230        0.38257126223988
H           -4.52739938260373        1.39738425940113        0.32788730984606
C           -0.46455238470838       -0.07124268397490       -2.10990544540235
O           -0.86718330089400        0.09406940195329       -3.17390132796171
H            0.17773515873306       -0.27471939034208        1.22834622518052
