65
 energy: -97.645102062750 gnorm: 0.000210981392 xtb: 6.7.1 (edcfbbe)
Mn           0.15209833650708       -0.64077624915128       -0.45936618909699
N           -0.01236160372146       -2.77064909556355        0.02987142050555
C            0.76647110026137       -3.04773451954678        1.26061972615768
C            2.20239127186676       -2.48757479619944        1.15647998022222
P            2.26457135232689       -1.15661479169922       -0.14562301574011
C            3.37260548034724       -1.82873416030398       -1.42053676527274
C            3.25905936515671       -3.15786445960679       -1.82586469203163
C            4.03665045171062       -3.63468860720026       -2.86452997201858
C            4.92061129507460       -2.78938296960415       -3.51703171198102
C            5.02200772137786       -1.46223939136150       -3.13155623995835
C            4.24640123214156       -0.97777968547769       -2.09379169372417
C            3.17979863835293        0.26284231200935        0.49343492073861
C            4.36368066198440        0.19865586540907        1.21884586745398
C            4.96958942975130        1.37529088543023        1.62457533997817
C            4.40764990356564        2.60107292429866        1.29908829866786
C            3.23126205697988        2.66741092658199        0.56547619987382
C            2.61806533643686        1.49684861648468        0.16361199683535
C           -1.40810510043076       -3.27081620481138        0.07087851757660
C           -2.36160534193638       -2.18831539232055        0.57645645916634
P           -2.08939267252319       -0.64119916336562       -0.41587134514320
C           -2.92001443848137       -0.90455317180608       -2.01304823500626
C           -2.62025269167646        0.04571220788673       -2.99044956969764
C           -3.18670094744355       -0.03536156084402       -4.24719062726042
C           -4.05285891069024       -1.07788402506398       -4.54239339642205
C           -4.35334231971854       -2.02473597791209       -3.57722001994637
C           -3.79508429089549       -1.94207293442760       -2.31182147413645
C           -3.21282670141391        0.52457805710590        0.42465064616637
C           -3.03304400180053        0.76919095030003        1.78593771060203
C           -3.86319575723999        1.65043866431350        2.45247072961311
C           -4.87519972645624        2.30574084979425        1.76837703452012
C           -5.05275267469117        2.07441524572031        0.41461760123466
C           -4.22579473839971        1.19216910693908       -0.25909969171927
H            0.45876474705261       -3.28638849798122       -0.72436248727506
H            0.23835244386172       -2.57972473981397        2.09606377941462
H            0.80350910837927       -4.12959948704092        1.43754632131183
H            2.92667569198184       -3.27044461684786        0.91304016872119
H            2.50230239055456       -2.03163571972665        2.10498891564861
H            2.57205670165025       -3.82902479129732       -1.32685123198226
H            3.95182531631906       -4.66724722316459       -3.16969314888418
H            5.52659386991910       -3.16371750172185       -4.32841233642782
H            5.70494562301784       -0.80043961593580       -3.64353057803577
H            4.32440526094486        0.06095521728450       -1.80150356184252
H            4.79956461133923       -0.76106477882132        1.45932564266667
H            5.88564389205535        1.33895774154436        2.19518690537380
H            4.88833436564801        3.51342115792165        1.61914066956654
H            2.80137614401398        3.62616193486223        0.31495995899440
H            1.68094708460770        1.51985656516640       -0.42126984105702
H           -1.69251510777532       -3.54196633814046       -0.95053842378075
H           -1.47064876054941       -4.16105220287655        0.70674823984913
H           -3.40467899605310       -2.50860488932221        0.51198017623067
H           -2.14892136829332       -1.94241727359822        1.62163961704389
H           -1.93970576272868        0.85708056779793       -2.74512025364695
H           -2.95369166929165        0.70662194112187       -4.99688104539967
H           -4.49235569905247       -1.15033125849492       -5.52606011445627
H           -5.02981401072211       -2.83396265690402       -3.80988732370250
H           -4.05160616506676       -2.68543276383209       -1.57216625416933
H           -2.24582701820479        0.27071590021138        2.33287087216539
H           -3.71936995636630        1.82918257567059        3.50795428700350
H           -5.52188515865893        2.99587162508891        2.28935439364569
H           -5.83922127749599        2.58345528285356       -0.12300325859553
H           -4.37859718427645        1.02230919100075       -1.31512126891596
C            0.29755061435182       -0.81510728375538       -2.23405757130990
O            0.50093221745541       -0.77602087519087       -3.35888565294672
C            0.20832102066694       -0.02898430684285        1.21215363936475
O            0.33868408362038        0.50318794546958        2.21954705145600
