61
 energy: -76.092584120961 gnorm: 0.000175716677 xtb: 6.7.1 (edcfbbe)
Mn          -0.18897824796460       -0.28786279719007        0.29936237808439
N            0.44714794684259       -2.29163970044441       -0.25626999525105
C            1.91671359727681       -2.40467055210284       -0.33845553572106
C            2.54471661253792       -1.74816747508548        0.89462663665421
P            1.93658172937499        0.00559072540771        0.94848911129162
C            2.11393369210581        0.53859420545867        2.72045219468681
C            1.22277019111797        1.76937729593934        2.92082931452642
C            3.52124547889060        0.74675893425132        3.26487297968977
C            3.13403107656654        0.92782280844687       -0.14624880153609
C            4.63072981544883        0.71548516652677        0.06431582591588
C            2.76729743026258        2.41229734887432       -0.11124922510594
C           -0.25410116589965       -2.73260751741231       -1.47869399735679
C           -1.76646259731004       -2.61865857910719       -1.26915710574242
P           -2.16264757864090       -0.97161272600357       -0.48861560535873
C           -3.55565794604365       -1.42918166927631        0.65581977103851
C           -4.72532699918850       -2.14154125149456       -0.01931885460880
C           -4.01769766657209       -0.17948331143117        1.40405212479596
C           -2.98905884636807        0.17792976470450       -1.70328384478862
C           -2.63037325506271       -0.10555949575972       -3.16010026222475
C           -2.60327045854054        1.60740715145944       -1.26933773119880
H            0.14606706857636       -2.92741672414178        0.49518275879341
H            2.21620305524328       -3.45760342894310       -0.40927243869096
H            2.24391493815229       -1.88487205373206       -1.24565034700797
H            2.19745264911097       -2.24722840636266        1.80666253699348
H            3.63375421758404       -1.80725385556046        0.85961041859207
H            1.66234404673739       -0.30664802088421        3.26261435693282
H            1.73693962353959        2.68204578184254        2.62849666294220
H            0.92854358440430        1.86797277407059        3.96426710867473
H            0.30541002467306        1.68802816579389        2.31210777658140
H            4.16437430514666       -0.09788129909172        3.02608118496903
H            3.47494113903128        0.84115203303541        4.34922769347295
H            3.96548119076495        1.65937952261345        2.87558271774731
H            2.88822141292566        0.53583776940362       -1.14548142956876
H            5.16288621874752        1.24673433210238       -0.72417888084726
H            4.90965924963140       -0.33291754673947       -0.00394779732862
H            4.97410406927591        1.10923090238237        1.01474130208564
H            3.17454881406466        2.89118245462910        0.77663700082019
H            1.68143710427514        2.54655949083607       -0.11092551919601
H            3.17127587075169        2.92527357744053       -0.98234874155867
H            0.01391567317887       -3.76966839005132       -1.71780761471501
H            0.06890866430757       -2.08988814753244       -2.30356489127781
H           -2.09369524587261       -3.38727822245003       -0.55962720455812
H           -2.30160632469795       -2.76027939215105       -2.20933881733705
H           -3.09243175310989       -2.11971416857450        1.37730392263559
H           -5.24897953626209       -1.48775656292004       -0.71291381980994
H           -5.44010361708713       -2.44885274744580        0.74252491283409
H           -4.40565617590121       -3.03017720592010       -0.55822981656666
H           -4.57256305519894        0.48800030355044        0.74730945681787
H           -3.16615605794701        0.37073691468597        1.81162851351101
H           -4.66922402324671       -0.45368620404710        2.23192752174209
H           -4.07115949279172        0.04779978118564       -1.59237137064993
H           -3.04683232199590       -1.05561033007654       -3.48803593053879
H           -1.55442442470554       -0.12255009111189       -3.31587773556383
H           -3.05167412206574        0.67415118210870       -3.79299761273201
H           -1.97308646197011        1.59940666397514       -0.35393679179487
H           -3.48021745453049        2.21274049372858       -1.05236852941745
H           -2.03688305152998        2.10961744813750       -2.05129777531771
C            0.23081986253628        0.41402569459693       -1.27775188800887
O            0.52456958280418        0.93912162215237       -2.25455968166156
C           -0.64168660264587       -0.76403221884473        1.95564717937671
O           -0.96509483969556       -1.02914584922607        3.02318696326442
