59
 energy: -70.479749638428 gnorm: 0.000195544131 xtb: 6.7.1 (edcfbbe)
Fe           0.02065227243435       -0.10547864339606       -0.11015861208132
N           -0.06116414185038       -2.17732815650087        0.14034946459030
C            1.22087269038025       -2.85598152573942        0.14743980950393
C            2.25915463318326       -2.17646013910577       -0.74325705258653
P            2.14431176189434       -0.35906270244241       -0.44138375991165
C            3.08536734024580        0.37242135073036       -1.91107604976052
C            4.60781509892540        0.23636968229155       -1.87320955238544
C            2.56895780333975       -0.20471990355084       -3.22847507731581
C            3.35473486097394       -0.01021607840210        0.94707847338234
C            3.05400290454759       -0.82435574244265        2.19943368416207
C            3.23578328476068        1.48250374269172        1.25115785868325
C           -0.75776387936340       -2.54625399247016        1.35583092354544
C           -2.15221261315296       -1.91528346028981        1.43777182176530
P           -2.02622496285127       -0.37824978988821        0.43473806186491
C           -2.64416257879913        1.10565519653976        1.39844573339303
C           -1.98523038847850        2.26863731202411        0.64975773370264
C           -2.19077840308915        1.06433505230768        2.85241801472840
C           -3.35924456640137       -0.63523173799205       -0.85302898017035
C           -4.78418513343223       -0.69252096434926       -0.30459321002072
C           -3.00810042341809       -1.90887980858388       -1.62746795139037
H            1.61871476668616       -2.92541078881004        1.17443977520356
H            1.06864600080169       -3.89173239930934       -0.20440317184761
H            3.26273332032943       -2.57454200007068       -0.56420505350940
H            1.98280499541780       -2.33372676488156       -1.78750432116187
H            2.82468157842253        1.44119274180978       -1.88932910781129
H            5.01724223860922        0.55017874687977       -2.83381505142963
H            4.89980339577309       -0.79912405473275       -1.70784891080264
H            5.05919284673934        0.86067617541370       -1.10627837900412
H            2.82632571595729        0.45843085415886       -4.05453921546836
H            3.02056629920378       -1.17491496708624       -3.42628270790038
H            1.49033353084637       -0.32295013560982       -3.21289731538010
H            4.36853596823440       -0.25271850293898        0.61176505841178
H            3.61640619720016       -0.42948582572728        3.04593428401606
H            3.33156676898761       -1.86799686267845        2.06743830819288
H            1.99291550494487       -0.76514984688836        2.43201333559385
H            2.20321909977783        1.70631101141667        1.52354283465601
H            3.88238646378905        1.76557666423967        2.08164527027259
H            3.50238324726272        2.09040660680676        0.38692896638074
H           -0.17348709923545       -2.25013956421860        2.24647555612279
H           -0.84865341053730       -3.64419913398484        1.38810246940748
H           -2.42252432735623       -1.70240305851238        2.47283169629161
H           -2.90174698488778       -2.57802714840727        1.00282518541470
H           -3.73367583550988        1.20499632349820        1.35667022176743
H           -2.39755444631453        2.36515304609755       -0.35576862520968
H           -2.12253833079502        3.21556547139962        1.17176540239049
H           -0.90033032413044        2.06852551012886        0.55869894313142
H           -2.30935515506479        2.04413657416163        3.31503938324301
H           -2.77421996155949        0.34779876668840        3.42731305215093
H           -1.14042976769152        0.78240876833402        2.90022229011196
H           -3.27417400618935        0.22199939232657       -1.53349113179084
H           -4.84671666899758       -1.35691036588608        0.55592945925306
H           -5.14385777467328        0.29058504166107       -0.00861813929438
H           -5.45546211626329       -1.07027728993044       -1.07561580838929
H           -1.92830245955763       -2.06697309540177       -1.61534591338283
H           -3.48308864620807       -2.77933361054748       -1.17942069102066
H           -3.34304862795547       -1.83863434545487       -2.66143059114913
C           -0.41847730534258       -0.02386404500787       -1.78694312614894
O           -0.81771605975719        0.24850982438680       -2.84485942421085
H            0.28541156078620        0.02047284164575        1.32805833758514
