48
 energy: -70.193407455159 gnorm: 0.000261579983 xtb: 6.7.1 (edcfbbe)
Fe           0.01572024559173       -0.45519417403229       -0.84676742987266
C            2.19874393904870       -2.56118971860279       -1.26069346866846
P            2.13188132336490       -0.70730227559602       -1.11410103703903
C            3.28866174691200       -0.37644814922132        0.29790181626692
C            2.85000631190223       -1.16810124100839        1.52641477438164
C            3.26671990253227        1.12077481967363        0.59311275607663
C            2.95126764514804       -0.13748099443093       -2.68863861577093
C            4.46277656240300       -0.32406409972928       -2.73476796507980
C            2.52602223083709        1.30621165113543       -2.96008078468039
C            1.03147827411376       -3.11082319754423       -0.50102252323934
C            0.98681468902611       -4.40320017225334       -0.01157714884567
C           -0.15300328261791       -4.85546519041159        0.64227003930212
C           -1.22834274129679       -4.00069399351464        0.79031013801985
C           -1.13546625421241       -2.70753859227626        0.29325345160392
C           -2.13971499388198       -1.67011256565357        0.38405225288346
C           -3.40238205811145       -1.66082264000690        0.96833005124931
C           -4.12885996159178       -0.48135058537566        0.95360770202608
C           -3.60898248782341        0.68066907943533        0.38117897041529
C           -2.35605419116995        0.59712446750529       -0.18725180209189
O           -1.60521022323051        1.54136572842860       -0.79037029354647
N           -1.67546732757846       -0.54689778392959       -0.19411463848017
N           -0.01049583995317       -2.27218708824023       -0.34494435983007
H            2.07314791725225       -2.80853292297987       -2.32312981692306
H            3.14643193617963       -2.98851985593693       -0.91996109807280
H            4.29402671009719       -0.69657053843580       -0.00688894699429
H            2.94327014967334       -2.24184327415189        1.37848064213153
H            3.47040498736533       -0.89164460913508        2.37740859408832
H            1.81564847259195       -0.93681420890673        1.77108510926048
H            3.69997579002182        1.69749547280677       -0.22123611667314
H            2.23752722715334        1.44448460413384        0.74628302274100
H            3.83432235107868        1.33710308445753        1.49672818587840
H            2.48786915170360       -0.77457472071522       -3.45739158846369
H            4.82815515414893       -0.10479309175003       -3.73709300232941
H            4.96363058575802        0.35035137826836       -2.04396021466920
H            4.73948914009261       -1.34825909973952       -2.49126376584046
H            1.45522243223490        1.42674746417720       -2.76267990761515
H            2.72022154212607        1.57079103195246       -3.99829436820198
H            3.07108637846350        2.00485758781444       -2.32997123909900
H            1.83756281526951       -5.05350776477131       -0.14539652996558
H           -0.19492261519597       -5.86214919774599        1.02758886105769
H           -2.12896537781711       -4.31845290190188        1.29001199201730
H           -3.80237775105163       -2.54794932472929        1.43047045831331
H           -5.10891595836518       -0.45149898917510        1.40387144836520
H           -4.16438286709394        1.60548025635649        0.39313295611673
H           -1.99892674685533        2.42436357501495       -0.73726386910349
C           -0.35588991125401       -0.87734239995971       -2.51213856862343
O           -0.65037365441867       -1.22110715932183       -3.56040234363350
H            0.38323587475893       -0.08441584348206        0.46424225753990
