65
 energy: -93.248761382788 gnorm: 0.000092431699 xtb: 6.7.1 (edcfbbe)
Ru           0.40736305727838       -0.33462078847511       -1.16865465785338
N           -0.07713909420773       -2.48657673993010       -0.72817677656262
C            1.04552051843219       -3.27276820455950       -0.18990405304418
C            1.96136507511834       -2.42036537415248        0.68551799753358
P            2.43189553174633       -0.93743490432984       -0.34176846317985
C            3.87552947353083       -1.62479508308011       -1.24893491965213
C            3.86612674117314       -1.64388772065849       -2.63681307993237
C            4.94080688939215       -2.16308812789426       -3.33884592644616
C            6.03567492597111       -2.66276571243832       -2.65430713679633
C            6.05836290795956       -2.63288870186018       -1.26780675338131
C            4.98673531471661       -2.11345541056866       -0.56651905423338
C            3.34709990437853        0.13430196028697        0.81416759641310
C            3.65774215731081       -0.16686600711481        2.13441314637297
C            4.37025194326214        0.74239703296410        2.89959537138595
C            4.77860898650597        1.94832943675809        2.35604268828269
C            4.46752483619595        2.25511167140696        1.03972002095964
C            3.75313371498975        1.35343865244101        0.27515535635912
C           -1.30550805850376       -2.54314599614215        0.07233813810874
C           -2.43722138284559       -1.87137114456602       -0.70323758324082
P           -1.84721835090713       -0.18254661312241       -1.26939424849929
C           -2.75638482178164        0.06867738117965       -2.83929193942415
C           -2.23199718212188        1.07782392066398       -3.64388318922156
C           -2.82927310132514        1.40035066525380       -4.84711102584390
C           -3.96033293340460        0.71313867418657       -5.26036417740863
C           -4.48970385533444       -0.28820738586409       -4.46392290863127
C           -3.89602607435926       -0.61008969853774       -3.25474450093396
C           -2.82920559639605        0.96961849244544       -0.24266741240812
C           -4.21074989993121        0.85196776793085       -0.11594322713418
C           -4.91417560612281        1.76704934448355        0.64524014169487
C           -4.24911773785998        2.81036954795010        1.27132109665104
C           -2.87742756879436        2.94182581086291        1.12997484292173
C           -2.16843405561290        2.02523686656282        0.37292894388928
H           -0.31864259781803       -2.88811640634713       -1.63776258057882
H            0.66859250485738       -4.13891644732087        0.37419962829825
H            1.63726008621658       -3.64629281847003       -1.03576344675866
H            1.41866850018726       -2.05463581614765        1.56256032084239
H            2.82891255409445       -3.00492866372241        1.00314875902005
H            3.01076873049480       -1.23842710645625       -3.16114170985070
H            4.92406417277233       -2.17450365132285       -4.41956891431924
H            6.87569737519257       -3.06868348133487       -3.19937874998631
H            6.91824799315442       -3.01236160769269       -0.73408025806804
H            5.01647210650425       -2.07401340654239        0.51427295807632
H            3.34553449875152       -1.10177283523772        2.57776924414267
H            4.60756633311333        0.50630087083626        3.92765674399576
H            5.33447891829080        2.65198064672519        2.95900845786010
H            4.77904470708804        3.19891483505439        0.61527170799157
H            3.47851681886544        1.58085488675994       -0.74924169110370
H           -1.13561106088164       -2.01488489492881        1.01617100882882
H           -1.57539146775731       -3.58902415134704        0.29500680353952
H           -3.33446604405697       -1.80042242142768       -0.08410503356378
H           -2.66203338926608       -2.46792937146016       -1.59592552919042
H           -1.33663264724053        1.59086228030670       -3.30630302514482
H           -2.41268368197641        2.18192160139147       -5.46641023115872
H           -4.42781879322053        0.95669393536223       -6.20361822701449
H           -5.37219743038156       -0.82357498738494       -4.78568804318418
H           -4.32989382686799       -1.39309849009697       -2.64818484511323
H           -4.73962105130978        0.05291320996213       -0.61782519214809
H           -5.98602578336229        1.67057262014457        0.74754054485498
H           -4.80415839519849        3.52321835664418        1.86434977577599
H           -2.35953099024893        3.75981002330449        1.61003100992010
H           -1.09502155492595        2.10268141955873        0.25047053717205
C            0.57724058851266       -0.63792139469971       -2.97086640640428
O            0.59197992825104       -0.83931010480004       -4.11739249755617
H            0.20841823935317       -0.00631579961972        0.36846242308782
H            0.73379975348840        1.18191345158530       -1.37894214733219
