65
 energy: -93.113761080098 gnorm: 0.000700308390 xtb: 6.7.1 (edcfbbe)
Fe           0.05629618511961       -0.60692903228399       -0.78830334107190
N            0.26438738646314       -2.75196263207970       -0.79280259735206
C            1.35709549553806       -3.12529012353496        0.11677114153888
C            2.62673285729420       -2.39552916809382       -0.31028577525871
P            2.16825601154591       -0.59081024784580       -0.52407119125465
C            2.94875730262581        0.22135653612060        0.91780460954587
C            2.18201383314264        1.09872323363867        1.67334232251657
C            2.74231492375137        1.75562986711217        2.75495138744205
C            4.07101579762025        1.54147665592439        3.08373944514149
C            4.84321205753690        0.67696659407161        2.32287171202960
C            4.28894678592172        0.02267655098468        1.23804153777899
C            3.35827610677466       -0.00678202140905       -1.78851390286081
C            4.53418807457752       -0.63480734540386       -2.18154231146907
C            5.34269060978629       -0.04849695600974       -3.14131711212528
C            4.99032261698163        1.16436415702744       -3.70890961478983
C            3.82136286903656        1.79872814213053       -3.31622485196710
C            3.01122841525711        1.21422835591489       -2.36218810348510
C           -0.99497630837824       -3.47816420317794       -0.54525503510082
C           -1.87556878245273       -2.71040164026820        0.43636955261111
P           -1.98059531644635       -0.99165511736897       -0.28117054080302
C           -3.41126971507351       -1.26061076874939       -1.40709442232974
C           -3.20678890399520       -1.26617802422015       -2.78002246748407
C           -4.25986991113587       -1.51098875683253       -3.64503525112773
C           -5.52682430975355       -1.74991846265109       -3.13947021992985
C           -5.73899229051314       -1.74194589928237       -1.76886194360153
C           -4.68767854463632       -1.49956873464474       -0.90465723267003
C           -2.81627862305461        0.00445821847759        0.99150074445284
C           -2.97504748587410       -0.35320095028663        2.32402826443006
C           -3.57781634580629        0.52610002258821        3.20886892853461
C           -4.01896860292274        1.76436218821471        2.77454037030264
C           -3.85088249321762        2.13225833734601        1.44772414322078
C           -3.24953730405675        1.25823100599173        0.56355732299836
H            0.58038788369042       -3.00137027463784       -1.73091998609446
H            1.08120524749048       -2.82101514219810        1.12931613893698
H            1.51793894767544       -4.21429864987920        0.10289453560461
H            3.42493690148349       -2.54082505549722        0.42112211595588
H            2.95303544492443       -2.77701750254150       -1.28507564364774
H            1.14712213439057        1.24288040164437        1.39520242534471
H            2.14309507512161        2.43705775994034        3.34255448815307
H            4.50989494347216        2.05193547779257        3.92974078350674
H            5.88278624859145        0.51725981821173        2.57457625492969
H            4.90226205531116       -0.63545089880852        0.63694072741629
H            4.83097309042892       -1.58064707819459       -1.74943608519814
H            6.25465684316337       -0.54243103648395       -3.44814122074256
H            5.62558044435893        1.61412556222995       -4.45901464380106
H            3.54360207957211        2.74489829837125       -3.75935484572890
H            2.08393193722796        1.67916533870949       -2.04784292803445
H           -1.53156212508969       -3.55919492593013       -1.49764943452068
H           -0.78560747916939       -4.49244847379737       -0.17778029923582
H           -1.38105842489160       -2.64322566054897        1.40807346492300
H           -2.85346038900870       -3.18654761450210        0.54711536799649
H           -2.21497928219157       -1.06509974105220       -3.16024814426630
H           -4.09338267650513       -1.51234789940351       -4.71345883665639
H           -6.35132393871926       -1.93902553192390       -3.81237968245853
H           -6.72958812164238       -1.92437048094469       -1.37574826672118
H           -4.85482299185244       -1.48670834630726        0.16462451548552
H           -2.63286816380273       -1.31360450522032        2.68146348048124
H           -3.70264346976961        0.24269493486399        4.24508224965743
H           -4.48835992244245        2.44585281418010        3.47008875886624
H           -4.18664517765826        3.10252362904295        1.10889776772855
H           -3.09505258574439        1.53300378624345       -0.47328357793080
C            0.07098607425146       -0.37489270768422       -2.50578683465673
O            0.15766324001250       -0.14724735937032       -3.64214390814419
H            0.07942868821481       -0.64381233307332        0.69637068334734
H           -0.08790064273274        0.85075049054218       -0.68663766295558
