48
 energy: -71.026688100538 gnorm: 0.000493273943 xtb: 6.7.1 (edcfbbe)
Co          -0.07366607437308       -0.24312016233258        0.37118836617312
C            2.29618651149696       -2.04907270564716        0.74333330727812
P            2.16849623769182       -0.39653228234041       -0.09292800800728
C            3.62049180137578        0.57002835358059        0.60884004920686
C            4.67502961263532       -0.26455747699543        1.33403738373904
C            3.07595685899236        1.64520673166558        1.54821167434210
C            2.74624825468197       -0.70203706792422       -1.85171489701096
C            4.07513010760965       -1.43427246699351       -2.01158142419685
C            1.64269307523421       -1.40056450612911       -2.64367036766703
C            1.07908980657877       -2.80316947074900        0.32076592178728
C            1.09189450424950       -4.16776456806268        0.12959138441305
C           -0.06281363183368       -4.81107940882398       -0.32426994754021
C           -1.16675923596416       -4.04492715947732       -0.61111267244704
C           -1.12114537038385       -2.66043153756986       -0.40923329259715
C           -2.17168502945491       -1.74665925628056       -0.77124368208291
C           -3.47662877184268       -2.11378857503974       -1.11501918232542
C           -4.37581326837573       -1.13918056857288       -1.48172644351906
C           -3.95574464105143        0.18964372476868       -1.50140599293911
C           -2.65710300312173        0.48477408790354       -1.12095503016589
O           -2.18080238655600        1.74958326817024       -1.13062826847505
N           -1.77056974525541       -0.44631794543090       -0.75241418641719
N           -0.01567103397274       -2.05034912715214        0.09660924173754
H            2.22928001963045       -1.82691886173091        1.81473904167759
H            3.21505606874145       -2.60255132050380        0.54494294365418
H            4.08617158525090        1.06725521868876       -0.25227892746964
H            4.27167760600728       -0.67625942523535        2.25621183449302
H            5.51683932868031        0.37599409557164        1.59519112210029
H            5.05132371187476       -1.07944988045823        0.72157539886203
H            2.48078087521372        1.19197822974866        2.34020702168896
H            3.89204937709842        2.20578431186064        2.00202542324039
H            2.43841278980387        2.34170167663911        1.00822674473387
H            2.85417711421266        0.31750933621416       -2.25216630618298
H            4.01694616462057       -2.44492438945016       -1.61269909500732
H            4.88732929265967       -0.90320044556266       -1.52246101668235
H            4.31575934864198       -1.51006444252088       -3.07174839179035
H            0.68242239931101       -0.91172727840282       -2.47063578478504
H            1.55648181101034       -2.44732454419473       -2.35293696183399
H            1.85797308340644       -1.36207060659406       -3.71093936777982
H            1.99134046024704       -4.73058659595631        0.32800636097157
H           -0.07267440606310       -5.88019363891351       -0.46962580694471
H           -2.06025642627062       -4.49694200069533       -1.01033824691620
H           -3.77468994925013       -3.14866640219661       -1.07797103216322
H           -5.38891518240340       -1.39103445114311       -1.75463431340464
H           -4.62458150530579        0.97965724030651       -1.80967748021389
H           -2.87750129825134        2.37508737283947       -1.37019679514214
C           -0.18161861709525        1.45296792187003        0.66927814079463
O           -0.23234916016421        2.57372734147701        0.94675769141937
H           -0.30788378664528       -0.43877385295928        1.83756181518882
