56
 energy: -80.984971223840 gnorm: 0.000404422524 xtb: 6.7.1 (edcfbbe)
Co           0.06119222895863       -0.05658050774219        0.38770196609524
C            1.87521292690667       -1.85901537706339        2.09339727674031
P            2.03183976128062       -0.19489708063135        1.29390769511712
C            3.22621426724639       -0.54870191329237       -0.02178820689398
C            2.78433255891896       -0.44106372377714       -1.33646575436021
C            3.63333770829468       -0.75853467079988       -2.38134759344950
C            4.92526068475338       -1.18290206717511       -2.11249945788529
C            5.36942994550527       -1.28862258432764       -0.80239394797349
C            4.52457151968948       -0.97425425050204        0.24644266265815
C            2.89155836285248        0.85631921414070        2.49046646224598
C            2.45025740447635        0.89744669044421        3.81187424006325
C            3.06412238779935        1.74043058524165        4.71949087254486
C            4.10649592978825        2.55902235682154        4.31234653722721
C            4.52640345837136        2.54415143347451        2.99148557024655
C            3.91739738658641        1.70338367135486        2.07738964965539
C            1.06995148268306       -2.63957871385251        1.10659457258315
C            1.19310084080306       -4.01001236044922        0.93715865682286
C            0.41914531081522       -4.64626203020221       -0.02095139098755
C           -0.46018333608236       -3.89400414182858       -0.78457236194975
C           -0.52995776553555       -2.52789323971707       -0.56717195902848
C           -1.42335128731890       -1.60558186153888       -1.33761131050009
N           -1.76484310920421       -0.43795170506581       -0.50082995688194
C           -2.66749040044486       -0.87328104810376        0.59577241183857
C           -2.36632555745589       -0.16447586977170        1.91285109497111
C           -2.42053216953665        0.55435625657325       -1.38146687917238
C           -2.96715263925401        1.79061929766643       -0.68376337086699
N            0.22157658022280       -1.92122138571336        0.35761313171330
H            1.32362519517085       -1.75316102225557        3.03329092991350
H            2.84254528861659       -2.32208703671344        2.30552464072842
H            1.76763052942903       -0.09608227738690       -1.52206758324627
H            3.29428315133680       -0.67357809637987       -3.40316943928285
H            5.59112758010493       -1.42992425967643       -2.92593167629951
H            6.37820873432916       -1.61700704238148       -0.60004350573808
H            4.87129039071059       -1.04695144573921        1.26871229054405
H            1.62456972487274        0.27584651223477        4.12959881983992
H            2.72739619074226        1.76445048769145        5.74530526219495
H            4.58495337889425        3.21640549040868        5.02278047580812
H            5.32815440297582        3.19312860562514        2.67160590968409
H            4.23836336111719        1.70092230929555        1.04479562889557
H            1.88592715386493       -4.56657354387619        1.54824351059765
H            0.49977680767217       -5.71183698085653       -0.16927376376302
H           -1.07731027314838       -4.35466045435649       -1.53958559203771
H           -0.88049298054099       -1.25566863399568       -2.22377972147301
H           -2.32771060775390       -2.12642176620886       -1.68133430238384
H           -2.52977747827533       -1.94663133149161        0.75180844489637
H           -3.71054125445858       -0.71572039798262        0.30459571760587
H           -2.90856505083294       -0.65147631925129        2.72063629153526
H           -1.28793423608894       -0.22599014750254        2.13347259031789
H           -2.65544089379081        0.88125624821491        1.88940597513393
H           -3.24742538435221        0.06074976382453       -1.91198389203890
H           -1.68085510849035        0.87066867269225       -2.12167249357097
H           -3.28951691802353        2.49993528327834       -1.44276559658255
H           -3.82585930767583        1.56211999964729       -0.05881698499141
H           -2.20445266615049        2.26939533310848       -0.07636389136398
C            0.15983697333149        1.67904106708626        0.29094712107619
O            0.44207270182114        2.78685987597470        0.24665050138101
