48
 energy: -70.311973815833 gnorm: 0.000343452599 xtb: 6.7.1 (edcfbbe)
Ru           0.12444667718909       -0.11074942301789       -0.69932146469546
C            1.83410867829602       -2.51763353737042       -1.84256300727401
P            2.18564262173919       -0.75990811871978       -1.38719967517280
C            2.88648210013928       -0.96232728583769        0.34006354732551
C            4.38467323062694       -0.73704532999201        0.51217618148248
C            2.05257343689447       -0.00268676129279        1.20880671927365
C            3.44288950428353       -0.11909603737808       -2.57584730810614
C            2.95587296073128       -0.42062533101434       -3.99247406373466
C            3.53655217872174        1.38942379586463       -2.34729799969481
C            0.77705378710797       -3.01101507286762       -0.90154617903495
C            0.67213980932290       -4.34897612055069       -0.55330776114525
C           -0.32884727252247       -4.74386149314216        0.32142635109651
C           -1.20374453480822       -3.79536267912469        0.82041845017693
C           -1.06008009685619       -2.46448730436283        0.43447175054337
C           -1.96387368189026       -1.38976836612606        0.85763459398356
C           -3.08014026391124       -1.61158827020380        1.64814648943299
C           -3.92523953789132       -0.54946229462689        1.95332808536765
C           -3.64277421886446        0.69896363615342        1.45409944895598
C           -2.49767974682653        0.87154079094212        0.66051825073225
O           -2.24684906858535        2.07204042787359        0.18552538971202
N           -1.67158769242683       -0.14560067398840        0.38959126592245
N           -0.06820287425717       -2.09548579391822       -0.40208866530287
H            2.72829299591804       -3.14890377673987       -1.81911644422877
H            1.42962843804617       -2.51605536306109       -2.86334430653885
H            2.66045177487472       -1.99931819670802        0.63872877631198
H            4.95183232875306       -1.44183621661287       -0.09251225582546
H            4.67212203315558        0.27371391228852        0.23393973063490
H            4.65983448091570       -0.89122443872909        1.55479350433822
H            2.17952731659798       -0.22646017616824        2.27004622197624
H            0.93598235172774       -0.08470764529683        0.98955351724641
H            2.36204075658135        1.03178723087615        1.03809278367682
H            4.40698034870959       -0.60466316240053       -2.38322233581230
H            3.06059404065165       -1.47468423870369       -4.24159409072630
H            1.90904018966321       -0.12499592982986       -4.09852190703056
H            3.54006086988817        0.15172750504397       -4.71024926882892
H            4.26294525341224        1.82836806345799       -3.02778110522021
H            3.83804692373265        1.62674591066156       -1.32864335053609
H            2.56333541803966        1.84698121505642       -2.52949573363386
H            1.36386411407365       -5.06657004021173       -0.96544589784129
H           -0.42588674457144       -5.77903039303639        0.60918804056824
H           -1.98341190371339       -4.09017432645210        1.50182190959363
H           -3.30535886805906       -2.59508487148990        2.02290087698298
H           -4.79709201770872       -0.71007648870073        2.56762075595064
H           -4.26400612236630        1.55882234625499        1.64144697319439
H           -1.41961444255249        2.09340109595169       -0.34410082008968
C           -0.69317294200975       -0.08467050430580       -2.34459108237703
O           -1.19149727982260       -0.06048370766331       -3.37599179179327
H            0.31646643336840        1.41824344121141       -0.78379271490604
