47
 energy: -70.006131852519 gnorm: 0.000159159886 xtb: 6.7.1 (edcfbbe)
Fe           0.06243128983866       -0.37463638894573       -0.09849249909554
C            2.31037556320655       -2.45190201176569       -0.44755685349632
P            2.15779926652447       -0.59026514140523       -0.57380630198396
C            3.43252714519963       -0.02352675676973        0.66573597309147
C            4.89328127748160       -0.22379509805661        0.27660313823525
C            3.11335826303956        1.42017857031041        1.05149231135368
C            2.91469527359702       -0.31315405494158       -2.26267763425755
C            2.12467761318234       -1.08184173887171       -3.31880408138487
C            2.90381282125775        1.17946143772276       -2.57844601910638
C            0.95048478539181       -3.07845117103322       -0.58171542427724
C            0.77277951274991       -4.43139134205790       -0.82355881371061
C           -0.50693885710714       -4.97442937165920       -0.78146820285283
C           -1.57079864048059       -4.16132314318078       -0.43596882732341
C           -1.34343199045283       -2.80847538836835       -0.21147242459363
C           -2.30774895178067       -1.81194728188286        0.23920433607870
C           -3.66139223953523       -1.87240720052637        0.55803300125242
C           -4.26445522035221       -0.69671287164616        1.00809127840454
C           -3.57768669841207        0.49760712939799        1.13619815514677
C           -2.20675081605570        0.52075661551033        0.79275869634468
O           -1.33686859364520        1.44696321951016        0.77106529227068
N           -1.67573286377180       -0.64826209899673        0.37682845259033
N           -0.09633848951641       -2.27105284794844       -0.35674620240788
H            2.65181649535873       -2.65651079873515        0.57495567854548
H            3.03621000634759       -2.88176155719996       -1.14279539058690
H            3.20117668082535       -0.64935645104198        1.53971987714425
H            5.07898954912231       -1.25030334388970       -0.03533330068691
H            5.18168299281350        0.44697559751729       -0.52965348740500
H            5.53058048861694       -0.00845645334669        1.13340144698166
H            3.63395391977245        1.69575515169619        1.96754408410585
H            2.03659408477559        1.51934808496506        1.21589195754097
H            3.40767592696062        2.11928508647106        0.27169526896661
H            3.94554777258362       -0.68714745027612       -2.24383298106200
H            2.14019917533405       -2.15536085056035       -3.14235447254763
H            1.08738811036972       -0.75574954307740       -3.32904448490854
H            2.54661872896954       -0.89488192893860       -4.30578053520218
H            3.20522536548610        1.35516513364691       -3.61068054151179
H            3.58257129871316        1.72895021749043       -1.93015143424731
H            1.89881708623101        1.58064789913690       -2.44033764997977
H            1.62825739012218       -5.05786783980415       -1.02475640871973
H           -0.65987909095768       -6.02396792535844       -0.98046566567967
H           -2.56880523220256       -4.55653290930241       -0.33286618540300
H           -4.22571700538879       -2.78591930357400        0.46661555462977
H           -5.31479304851804       -0.72142370018285        1.26526732553948
H           -4.07002889027883        1.39308029468712        1.48212320551397
C           -0.53346130083975        0.12822788359623       -1.66491479141280
O           -1.09761458260828        0.47642818785438       -2.60608640369016
H            0.49997958590552       -0.68818714211396        1.27369382267967
