55
 energy: -75.360118647507 gnorm: 0.000161435992 xtb: 6.7.1 (edcfbbe)
Mn           0.09117329021952       -0.13082313047323        0.48433256870163
C            2.29089664620780       -2.30933101103478       -0.14809550813245
P            2.33267988484349       -0.62537271432887        0.38224338719163
C            3.40997552859471        0.26826581355262       -0.88943537526644
C            4.91266769610819        0.02755639287102       -0.76553960774505
C            2.93902425409152       -0.17511880963964       -2.27373475315785
C            3.43073818751410       -0.59454097549010        1.89961934022787
C            2.97182372917902       -1.64107421422060        2.90748312646978
C            3.43455423227170        0.80792364331513        2.49864611862259
C            1.04191530220491       -2.88610417085222       -0.26594282732224
C            0.82880601952343       -4.25297661926652       -0.62805506237865
C           -0.42736548151339       -4.77272291378063       -0.65993862362047
C           -1.52678066268960       -3.95847110741681       -0.33016120049353
C           -1.28906150108047       -2.64068126367356       -0.01031479373213
C           -2.40443477226169       -1.70689662837984        0.40945743718864
N           -2.08961700441892       -0.31522567936631        0.02623723183545
C           -2.73263466523318        0.66857464095380        0.92024971741238
C           -4.26415111523300        0.72438955322318        0.90303104162961
C           -2.53721111463589       -0.07987941009953       -1.36202251797355
C           -1.84501306785934       -0.94374038996822       -2.41054375919085
N           -0.06236071812701       -2.09999852161847       -0.00563591460172
H            3.19794094834730       -2.86278311210620       -0.33951169981987
H            3.21074776724984        1.34150528570774       -0.76863527657226
H            5.41252207378816        0.43240490960024       -1.64557821551403
H            5.33577339634563        0.51585067488899        0.10897931123815
H            5.12598583707597       -1.03848740653764       -0.71782215743055
H            1.85048327586414       -0.22412836516735       -2.31851049691924
H            3.31989905979197       -1.17030358432416       -2.49231304108236
H            3.29036184435216        0.51301904854384       -3.04152098206792
H            4.43956265527281       -0.86734954575418        1.57295014572881
H            2.91959628138775       -2.62025623228284        2.43461505266985
H            3.66760906563624       -1.68893885635892        3.74432988560883
H            1.98613792358756       -1.40356231508941        3.29717324875713
H            4.05062819419220        0.84659465235327        3.39648736471005
H            3.81584673790836        1.53774313835881        1.78539022361258
H            2.41707055164429        1.09705705292534        2.76765764210855
H            1.69318592319271       -4.85563686384808       -0.86072690255003
H           -0.59178365626781       -5.80669823304767       -0.92708569790433
H           -2.52864049930613       -4.35622267345716       -0.32169774581067
H           -3.36041067112002       -2.03445442946669       -0.01966744484569
H           -2.48149001208249       -1.75948569089265        1.50245998753981
H           -2.42362152054295        0.44565489028579        1.94668579705547
H           -2.34143640319673        1.66243891946691        0.65770401229432
H           -4.59462858977091        1.38211497662955        1.70405184045727
H           -4.69277469495016       -0.25971388504700        1.07677427102703
H           -4.64856193155557        1.12158616119038       -0.03282932256384
H           -2.35837602860718        0.97465551590818       -1.59514193417395
H           -3.61760187155558       -0.26509676407158       -1.43377097009645
H           -0.76275955430496       -0.91832131390242       -2.28355055584670
H           -2.08881624323618       -0.56079527770754       -3.39947257353765
H           -2.17020200286918       -1.97888878639659       -2.35383128348870
C            0.31439559961787        0.99174468194250       -0.89782083712362
O            0.44489311718745        2.00626171292749       -1.43930673247630
C           -0.05654499881771       -0.32829967881175        2.24221035363218
O           -0.20883613145867       -0.10026891193704        3.37094466907526
