66
 energy: -98.534623982466 gnorm: 0.000297999180 xtb: 6.7.1 (edcfbbe)
Mn           0.00065284722943       -0.13421774925474       -0.26759313836940
N            0.01215744168334       -2.27260247520318        0.53847900155813
C            0.73041962347464       -2.31441139921972        1.81258719483696
C            2.13926167593726       -1.77373372296776        1.58974698346708
P            2.01080784745577       -0.15521469227861        0.66906688227132
C            2.36989667002717        1.09312028906035        1.95249434439674
C            2.09414572554038        0.92235625705840        3.30428624172390
C            2.33413996855438        1.95317237767378        4.19674073882402
C            2.83777786120225        3.16218501844021        3.74836800854700
C            3.09146013523982        3.34711419067102        2.39772688486871
C            2.85276081459194        2.32142628210534        1.50389438846219
C            3.63416528157823       -0.13768729487595       -0.17055857829430
C            3.69172997171700        0.16447719885580       -1.52483240584970
C            4.91132955631043        0.18990065259647       -2.18002915797763
C            6.07614977284625       -0.08362685249350       -1.48252659612394
C            6.02380784418506       -0.37239378277759       -0.12669915199708
C            4.80881061763899       -0.39643854577847        0.53161459014788
C           -1.29375003159611       -2.94574108196906        0.55402445425461
C           -2.42108425584394       -1.93604136295998        0.76068725540144
P           -2.14434557491564       -0.59633800084374       -0.49149208479574
C           -3.50123553715537        0.55954731224729       -0.09768998886025
C           -4.81425363876814        0.10877085448583        0.01596520388426
C           -5.82892252177447        1.00274579948069        0.30163784991622
C           -5.54461865441433        2.35043098615842        0.46306941955128
C           -4.24399098583928        2.80583446769617        0.32556095678240
C           -3.22386656916024        1.91430144875514        0.04103039659361
C           -2.83514286281211       -1.26515214332568       -2.04645981022599
C           -3.49439151596451       -2.47488346587098       -2.22571392238748
C           -3.96683940848984       -2.82245617692898       -3.48109149696135
C           -3.78959478604624       -1.97134663425490       -4.55819409429570
C           -3.13222313016939       -0.76217547083320       -4.38487827669625
C           -2.65541771134295       -0.41436704153297       -3.13694814152850
H            0.60627809925824       -2.76551919599464       -0.13266317594064
H            0.78039991198086       -3.34482638636804        2.20391743039604
H            0.19351385579643       -1.70171592517795        2.54569681496804
H            2.68592348387088       -1.66898094887158        2.52934833320576
H            2.69719327383058       -2.45861983185022        0.93850517607938
H            1.68218507514428       -0.00776581572520        3.67300532550498
H            2.11999064954558        1.81246728330398        5.24718229085715
H            3.02257135937112        3.96337322375249        4.44944142791342
H            3.47034057894974        4.29502789172983        2.04310462504104
H            3.02899660257436        2.45867341832578        0.44399160324053
H            2.76950351597520        0.38760575467919       -2.04841499153151
H            4.95235124715997        0.42477840628488       -3.23401602771331
H            7.02878661421925       -0.06578914544357       -1.99221251441725
H            6.93525875542002       -0.57534226154140        0.41774291577077
H            4.76902829410496       -0.60584108933936        1.59245965530304
H           -1.44087949639479       -3.43042384356489       -0.41832499728433
H           -1.32082157012731       -3.72346687097384        1.33167757349169
H           -3.40224605434794       -2.40790503009877        0.67407275411590
H           -2.35489628028873       -1.46552989067541        1.74840343778548
H           -5.04436237793075       -0.93812590224407       -0.12994152582684
H           -6.84640965587421        0.65001413010567        0.39516191113545
H           -6.34092062626197        3.04558195179401        0.68740301183815
H           -4.02282267654324        3.85752086050327        0.43825398080131
H           -2.20173762238469        2.25408904337117       -0.08010840014782
H           -3.64785897391125       -3.15798951826112       -1.40140920275802
H           -4.47671322418271       -3.76628686628468       -3.61668354691469
H           -4.16031415430980       -2.25154126130371       -5.53367324450294
H           -2.98873694658089       -0.09763261674500       -5.22470962678594
H           -2.12203384782069        0.51789744983274       -2.97717028681649
C            0.39071499948914       -0.73830720640183       -1.89069053382535
O            0.56932894239328       -1.14478774294763       -2.96270745016890
C           -0.53595251104987        0.57841979955700        1.25818912486622
O           -0.91888710945524        1.02967608245342        2.25690780130755
H            0.09194228508901        1.32992447079523       -0.87417707960533
