57
 energy: -81.804926634628 gnorm: 0.000118364553 xtb: 6.7.1 (edcfbbe)
Co          -0.31830589350496       -0.99218440890866       -2.25330477139337
C            2.34542571289293       -2.21429581121934       -1.79302817392893
P            1.75351643299860       -0.44214654071854       -1.75673582214077
C            2.98767755598413        0.30590795142233       -2.87259137782919
C            2.60785175862334        0.54890739067031       -4.18758275760773
C            3.52065366625190        1.06134094316137       -5.09251037436458
C            4.81726475643548        1.33410278936653       -4.68703733258539
C            5.20043654612217        1.09150056110699       -3.37703436868214
C            4.29190882466145        0.57713689315967       -2.46975497339581
C            2.32863373828214        0.17736583779683       -0.13907843600358
C            2.28975046359277        1.56305420243201        0.02383210886616
C            2.58896970828122        2.13817477524588        1.24265592806117
C            2.91261132944145        1.33361746392453        2.32572516988995
C            2.93226643260735       -0.04289883228953        2.17941645064984
C            2.63765858005343       -0.62245155524365        0.95626051510000
C            1.31043471111059       -2.95109716658800       -1.00969721622864
C            1.59015250882548       -4.02872187294616       -0.18567131294095
C            0.58692084571100       -4.53693635327716        0.62823714721630
C           -0.64557892880635       -3.90098833144102        0.63340737534006
C           -0.86239310478509       -2.84137247601606       -0.23181692309982
C           -2.13681071243431       -2.05083851353755       -0.25963564412954
N           -1.82661926076515       -0.62262987474081       -0.41987769040638
C           -1.13162049345753       -0.08911568934360        0.75941291852847
C           -1.93853351363729        0.02581414931983        2.05715181608920
C           -3.05315263685746        0.11458489757398       -0.74085524448834
C           -2.80883815965089        1.59357083562502       -1.00797820215537
N            0.08284952784643       -2.41423627433289       -1.07751656462026
H            2.31494755134170       -2.50407965911366       -2.85014501810090
H            3.36035754860516       -2.36102034756832       -1.41367135294554
H            1.58823654817773        0.33377470437252       -4.48159328535216
H            3.22092986844943        1.25042675252309       -6.11327141892619
H            5.53090455408029        1.73723270184274       -5.39115170105899
H            6.21249036624419        1.30348331511020       -3.06218751463075
H            4.59309143489060        0.39196809397021       -1.44743443762840
H            2.02431728697622        2.17948762920293       -0.82676648620939
H            2.56639360202238        3.21283135044267        1.35431774911616
H            3.14438218300631        1.77942062515364        3.28210402842031
H            3.17821161044874       -0.67255938370470        3.02322072894465
H            2.65322398118428       -1.69950978429707        0.86507098546155
H            2.58277032679324       -4.45384793620737       -0.17376106070295
H            0.77540941658981       -5.38246063585298        1.27170382061174
H           -1.43122508656585       -4.22099591316353        1.30061006498435
H           -2.71725787988636       -2.36194683861404       -1.13701322936571
H           -2.74004008144755       -2.25607296215100        0.63750779688304
H           -0.74408922973473        0.89654786216085        0.49304616403696
H           -0.26623837313655       -0.72987585834800        0.95385414224708
H           -1.27652991924049        0.38758701145745        2.84079995673735
H           -2.76141666868660        0.72908189724295        1.95951199012668
H           -2.33567892338390       -0.93660902234286        2.37239246908021
H           -3.80313803371524       -0.00500697917925        0.05717077237164
H           -3.45862505879809       -0.33180733578658       -1.65317691843890
H           -3.70000363654360        2.03127339015955       -1.45153943285803
H           -2.57586385978462        2.14172331797972       -0.09862726178455
H           -1.98353051413808        1.69622983609972       -1.70908991154808
C           -1.13974188223185       -1.94040307091637       -3.44877279035061
O           -1.59034013009503       -2.52394007448269       -4.34651882617456
H           -0.61878809323914        0.14563643803527       -3.10032495785879
