65
 energy: -97.649078066130 gnorm: 0.000609261003 xtb: 6.7.1 (edcfbbe)
Mn          -0.05334960195967       -0.61355918962201       -0.52297630159265
N            0.13969122904596       -2.81211034688981       -0.53296108257842
C            1.38812456788732       -3.17313406321282        0.17032136193636
C            2.55894893527591       -2.40565028930572       -0.44841157455674
P            2.17974544242435       -0.58440823385889       -0.47899235968966
C            3.05908996944692        0.11053648272199        0.95777757790869
C            3.34161191029905       -0.62858694522572        2.10271976061141
C            3.94891643694866       -0.01686124701097        3.18539181405544
C            4.26384119830624        1.33158319734912        3.14204919898294
C            3.96476111963207        2.07650381699210        2.01177635681396
C            3.35999049715644        1.47176138802924        0.92610650380063
C            3.20993998290754        0.05467953953740       -1.83197903242555
C            4.47520863146143       -0.45677816920868       -2.10576334488703
C            5.23028764613440        0.09884117623572       -3.12262770978689
C            4.73788334996743        1.16672606560258       -3.85784245082420
C            3.48649194228441        1.69019099592484       -3.57464750317994
C            2.72439100452394        1.13485712837460       -2.56295615906260
C           -1.05575080713211       -3.57331907116790       -0.06287518311172
C           -2.04838936753633       -2.69644293521838        0.71520818663201
P           -2.17390940174337       -1.07833476748953       -0.18336472737253
C           -3.45159550561996       -1.40631896762505       -1.43560883456926
C           -3.05700777824109       -2.09058834287330       -2.58404828634061
C           -3.98284823726201       -2.39302142410870       -3.56436484918101
C           -5.30452643992747       -2.00284831190039       -3.40929301986119
C           -5.69582209427832       -1.30768408719784       -2.27634200010207
C           -4.77516706429359       -1.00518469285123       -1.28753106460867
C           -2.89394081820581        0.13489838499215        0.94290019190902
C           -3.87515784285700       -0.10012043335290        1.89889821987177
C           -4.29659274049478        0.94449876681788        2.70474483040184
C           -3.74756573562707        2.20925465630730        2.55806095275517
C           -2.76107532084003        2.44511939706443        1.61037832660810
C           -2.33383670093798        1.40646494025465        0.80704814391292
H            0.29434183419295       -3.07717175455552       -1.51337720823398
H            1.26604896664019       -2.91719070776344        1.22814796502888
H            1.57132960379273       -4.25213961190457        0.08416299357691
H            3.49034877692697       -2.60412394156846        0.08820062634166
H            2.68560042231362       -2.70788139629051       -1.49589304804189
H            3.09319374871058       -1.67875584623971        2.16013503012720
H            4.17393838003411       -0.59549397474776        4.06941394590994
H            4.73651941820954        1.80383764182764        3.99034717863998
H            4.20164738040000        3.12982566047015        1.97822791815932
H            3.12291277251257        2.05380292309273        0.04375156248872
H            4.86961069075524       -1.27922050625057       -1.52677532332653
H            6.20989297173584       -0.29962927657289       -3.34211120435844
H            5.33311910593232        1.59466426720622       -4.65073739888099
H            3.10671610087811        2.52730447527516       -4.14198726216270
H            1.74424178665189        1.54077711214258       -2.32899414736599
H           -1.57166795962553       -3.98284729418107       -0.93504323475131
H           -0.73026368425104       -4.40630645041113        0.56721283444785
H           -1.68335733568145       -2.47961021318167        1.72495848275691
H           -3.02148498000555       -3.19129775720919        0.78337253382615
H           -2.01578622198878       -2.36499895075790       -2.71031074353348
H           -3.67598541781500       -2.92401582272985       -4.45330496090553
H           -6.02804891477358       -2.23203114129923       -4.17734848198441
H           -6.72332392311738       -0.99471804725997       -2.16288542867081
H           -5.08621246942382       -0.45310246321167       -0.41213398055086
H           -4.29533650350136       -1.08944244301358        2.01526501170618
H           -5.05522265310404        0.77194013775732        3.45376161854163
H           -4.08360872543783        3.01695771057122        3.19100806872161
H           -2.33132921534370        3.43100488632677        1.50899422236220
H           -1.54236234197800        1.56061577493361        0.05346477475471
C           -0.21131492960618       -0.34700101692178       -2.28273723091973
O           -0.36479301869252       -0.01573368291821       -3.36831696980941
C            0.05503087334003       -0.43146708497182        1.24728356999961
O            0.13945133431746       -0.14062874856376        2.35099966896929
