58
 energy: -86.371768006522 gnorm: 0.000645237869 xtb: 6.7.1 (edcfbbe)
Mn           0.01877676849385       -0.26554215721230        0.19909061155323
C            1.81369462084648       -2.53333071384132        1.35441290046614
P            2.06019566069431       -0.72597538800082        0.95487193869567
C            3.52548725490039       -0.77228566549061       -0.11813977826395
C            3.61404650814044       -1.73885757197569       -1.11835858072511
C            4.69481137639916       -1.74093971926029       -1.98020733250190
C            5.68307500872769       -0.77560647882474       -1.85794040069224
C            5.58604487421657        0.19905047693452       -0.87779094449968
C            4.50667445005621        0.20959427649154       -0.01233212894230
C            2.70871282274346       -0.02922261785537        2.49530620752921
C            3.70355075537173       -0.66416030478488        3.23355476379465
C            4.16642063912638       -0.07537629969781        4.39598282256867
C            3.65048347260454        1.14218826925403        4.81620948832442
C            2.67106324546769        1.78236004632212        4.07311742170867
C            2.20058530975955        1.19698417620286        2.91152008436634
C            0.76216886501637       -3.09247323007113        0.44156373865406
C            0.64244126945657       -4.44676814601554        0.16612250129215
C           -0.37619634333779       -4.88421355981916       -0.66606954974227
C           -1.24900227046287       -3.95396733657470       -1.21361658011351
C           -1.07069380339437       -2.61422095182709       -0.92012749669701
C           -1.90636576320016       -1.50362658452225       -1.50476219523752
N           -1.96265739892729       -0.38825196724260       -0.53815762486092
C           -3.01631313041384       -0.66437214566495        0.47112782751520
C           -4.46528840824911       -0.60890305889643       -0.01425964180737
C           -2.11790134698136        0.95214943644462       -1.13712751285382
C           -1.47942628746254        1.99164451245105       -0.20673261781016
N           -0.08316080203009       -2.20095678323760       -0.10354050869205
H            1.45202416489149       -2.56811272978354        2.39126649990035
H            2.74779444452579       -3.10003000066736        1.29313475729085
H            2.83496959463271       -2.48387004806373       -1.22282019970777
H            4.76667544153941       -2.49295512936281       -2.75194418057057
H            6.52557813572317       -0.77909755458396       -2.53341478625470
H            6.35126377641630        0.95616562819468       -0.79056363796283
H            4.42384124269828        0.97346907204720        0.74901665085274
H            4.11193509151470       -1.60636987352398        2.89575812542505
H            4.93369245163585       -0.56461647041494        4.97768380068559
H            4.01679791336113        1.59479831896984        5.72569904530558
H            2.27741430856673        2.73313725139392        4.40103450985160
H            1.43381785599097        1.68023092870362        2.30937421270998
H            1.33739636568820       -5.14596273104562        0.60428417096205
H           -0.48878921056644       -5.93424999188622       -0.88561202954808
H           -2.05032055486079       -4.26325790132863       -1.86598062816875
H           -2.90112308881534       -1.86932859428121       -1.77698185275622
H           -1.41431678808819       -1.16031841380117       -2.42306917889277
H           -2.81424682961653       -1.66100100602739        0.87479320885240
H           -2.90493235803164        0.05658793019832        1.28446891606668
H           -5.10054465783452       -0.98191171001728        0.78562922484482
H           -4.64087438780063       -1.22866477049003       -0.88959540275567
H           -4.78613866272712        0.40556961715817       -0.23681608000443
H           -1.60329409419957        0.96891203969671       -2.10298855573193
H           -3.16814721315384        1.20144987334657       -1.31443717470288
H           -0.41871097228408        1.71713282638859        0.09066830421198
H           -2.07506505374594        2.13583812063808        0.69505905057838
H           -1.41001447337773        2.94985102129252       -0.71968024905044
C            0.80233167937197       -0.02576292790070       -1.40294765956874
O            1.43557161884042        0.10025136743159       -2.34797752723767
C           -0.42313414521208       -0.43948848685293        1.92239321348150
O           -0.57623326128565       -0.59032516775862        3.04823683490989
