54
 energy: -70.171480651075 gnorm: 0.000174936379 xtb: 6.7.1 (edcfbbe)
Co          -0.84529665415927       -0.62205237768618       -1.73749790478905
C            2.02548221083613       -1.86169234627094       -1.62660719245083
P            1.62941211760314       -0.04574350236038       -1.28781353907094
C            2.86067271516102        0.28296656735992        0.09112454277310
C            2.51812060504215       -0.53788399230055        1.33355499722688
C            2.87100986599735        1.76761617244240        0.44735577677045
C            2.41997446055563        0.71419448500614       -2.81069719041929
C            3.94316933147823        0.68271039989664       -2.86672961142580
C            1.86878941850929        2.12325245371827       -3.02610462798782
C            1.01505044811080       -2.71554003444104       -0.93978308397334
C            1.33612109041180       -3.86470635531170       -0.22254588869750
C            0.34917443198563       -4.51612513450817        0.49784228419309
C           -0.92406204565674       -3.96191800092170        0.56538400756414
C           -1.18026876212759       -2.82415141582781       -0.17429095435201
C           -2.41717492135835       -1.97670823401387       -0.12920854395717
N           -1.93886247712981       -0.57482953553440       -0.11415159730304
C           -1.31614739966315       -0.20966401265464        1.16903900345124
C           -2.21085944427696       -0.34031833175594        2.40199267924430
C           -2.94455312871915        0.41623907179930       -0.54480183474086
C           -2.26575014520226        1.29439523301903       -1.59737331392074
N           -0.24363843020028       -2.27683261061469       -0.95987464774325
H            3.03775378669128       -2.12748671109546       -1.31478440744295
H            1.94733992968608       -1.99650145051418       -2.70887727140855
H            3.85109542756157       -0.01951655619326       -0.26750337280640
H            2.37927470367809       -1.59246464978261        1.10367538934275
H            1.61547104663822       -0.15732992515936        1.80561630009016
H            3.32824469111848       -0.45685600736856        2.05698035166069
H            3.27059733662800        2.37417042705425       -0.36067138034309
H            1.86346965770031        2.11391291925986        0.67339099512573
H            3.49171739461473        1.93432534335215        1.32652661412814
H            2.03788212904253        0.09047140126434       -3.63064477260318
H            4.32723010238852       -0.32123214449566       -2.69659600490987
H            4.38692644010415        1.35866973650473       -2.14049115467975
H            4.27062714611779        1.00120802554240       -3.85548205210300
H            2.20914468004626        2.81015761404162       -2.25585879848845
H            2.19674999017531        2.50998177126807       -3.98946681327728
H            0.77914931380540        2.10561879688928       -3.01794277052626
H            2.34933775214151       -4.23564040082373       -0.22740081514041
H            0.57929988103663       -5.41759953442486        1.04435495444697
H           -1.69003291578393       -4.39905292125794        1.18564642332096
H           -2.98769710893209       -2.13814287180409       -1.05204836680915
H           -3.05883577968377       -2.21157795170619        0.72484160009543
H           -0.97635559169885        0.82428751918300        1.07230690126179
H           -0.43615264215090       -0.84131277231796        1.30842552517382
H           -2.37285028008209       -1.38067655633041        2.67309778744347
H           -3.17746479427386        0.13806079735267        2.26278830529685
H           -1.71822118008527        0.14382297125961        3.24160995957190
H           -3.80563941426908       -0.09362409746583       -0.98320418354673
H           -3.30326780041878        1.02285450820808        0.29068253401319
H           -2.99445074751307        1.92326937100663       -2.10574459471559
H           -1.51124805584389        1.93965974064488       -1.14377919242380
H           -1.79791561606182        0.65841657202409       -2.40205211467319
C           -0.44004874318556       -1.03133532297324       -3.39676022937225
O           -0.33444126481284       -1.35658343093436       -4.48772801297596
