60
 energy: -70.708513792997 gnorm: 0.000165020489 xtb: 6.7.1 (edcfbbe)
Fe          -0.10450497249757       -0.61709205998882       -0.47596129032968
N            0.09431812891739       -2.55931742115265        0.23926405979416
C            1.48542888846994       -3.06192172418732        0.21146880429191
C            2.46408461956647       -1.96066922663852        0.60048679276075
P            2.04311163849540       -0.42306458228276       -0.34571093533615
C            3.16403412911703       -0.44526729582654       -1.84117715973683
C            2.60252108252357        0.53242097882216       -2.87550738519365
C            3.28503027754307       -1.82776716674857       -2.47389674478765
C            2.85057023269708        0.85570706343511        0.74948643392240
C            2.06076822448099        1.06210209240242        2.03805329204363
C            3.03154263139518        2.20423608218559        0.05450004026688
C           -0.50469231622556       -2.59039854696346        1.59150769079440
C           -1.97283657351615       -2.17764953209068        1.50740061932007
P           -2.11923945368445       -0.85216979146780        0.21846711828465
C           -3.62736264010440       -1.40032809942844       -0.72805655446439
C           -3.86974904023081       -0.47891661851093       -1.91904493115907
C           -4.86966522511399       -1.51622368803383        0.15166286672058
C           -2.54460984766306        0.81777848141872        0.91842364046399
C           -2.08222126900815        0.97871803105891        2.36128206586793
C           -1.83089343897665        1.78911783940991       -0.03706258498093
H           -0.46043421123379       -3.20840250165772       -0.32790348919624
H            1.69142414428652       -3.39691429027429       -0.80665197512608
H            1.58600196300018       -3.91916173852486        0.88680021576766
H            3.49566929979394       -2.26643055011252        0.40872196043346
H            2.37430631066665       -1.73077930393102        1.66451316574096
H            4.15508745923557       -0.11294972090102       -1.50604392554790
H            3.33871426220179        0.72399263947246       -3.65473815786393
H            2.31804403433948        1.48434860207004       -2.43249389215743
H            1.71908350185424        0.10736309560943       -3.34709464591346
H            3.86808278489773       -1.75125761754048       -3.39101104524814
H            3.78862797860649       -2.53879639210828       -1.82363852625132
H            2.30196360938088       -2.21340868697783       -2.74006107842790
H            3.83923955121134        0.43486942463753        0.98971019378881
H            1.13489819223775        1.59185248614978        1.82971141267799
H            2.64782114155328        1.66351674062870        2.73139837346080
H            1.81757219628693        0.12519775226828        2.53172471921425
H            3.43217001915557        2.92586871720007        0.76591851874507
H            3.72677403594647        2.14672493113266       -0.77973306397255
H            2.07401835780768        2.58466432819341       -0.30230185186018
H           -0.42355621004118       -3.59959159201937        2.01201183717772
H            0.05090882187012       -1.90142925728593        2.22579975040787
H           -2.57636122950232       -3.02807441755724        1.17087689523946
H           -2.34393536887511       -1.84861403516502        2.47928298554072
H           -3.35852944009356       -2.39670327418312       -1.10973540524285
H           -2.95371880819861       -0.33457138190967       -2.49135573132899
H           -4.23798605435462        0.49204358618083       -1.59298448956641
H           -4.61870709231457       -0.91152042697846       -2.58054836581708
H           -5.68024923977934       -1.96093521561142       -0.42394018699870
H           -5.20483264289727       -0.53828692767497        0.48953507307933
H           -4.69544312533175       -2.13971480381487        1.02572884351948
H           -3.62556171350748        0.99532574208293        0.86570459113433
H           -1.04456162560757        0.67604051473202        2.47006668016706
H           -2.69781194032052        0.38674015923464        3.03569184747052
H           -2.16835973583309        2.02170757774990        2.66259757725228
H           -1.80367355081944        2.79365176419270        0.38298640372975
H           -2.33680637675668        1.83584896422658       -1.00070470662371
H           -0.77868017147819        1.47192350462601       -0.21770033908571
C           -0.29199335186011       -1.10745733207368       -2.14527559224081
O           -0.47610979541305       -1.46069794396103       -3.22199298911298
H            0.01132160822609       -0.22783623610605        0.86711119441254
