55
 energy: -71.018945351307 gnorm: 0.000148880965 xtb: 6.7.1 (edcfbbe)
Co           0.07028927674207       -0.34939774010696       -1.81497480080866
C            2.40301150000796       -2.08060081810468       -1.26907273437260
P            2.09374433482076       -0.28220599499518       -0.86453542483564
C            2.75099091526045       -0.16947660044598        0.90434893134842
C            2.06584727109345       -1.21567520224025        1.78473271515825
C            4.26575603276272       -0.27634984243574        1.06990109867649
C            3.44117015961658        0.57449625871973       -1.83008403627055
C            3.25594014713812        0.33440339812688       -3.32609011847364
C            3.35963954140836        2.06930935185422       -1.52703249674037
C            1.14961261109669       -2.77371423309105       -0.85214205963112
C            1.13479645336990       -4.01448293347877       -0.23770430262856
C           -0.06896076816260       -4.53106279019413        0.22019862107003
C           -1.21389736187187       -3.76480496115688        0.06907678977289
C           -1.13307407197258       -2.54066173084891       -0.57600593659399
C           -2.33556520950870       -1.66590985588582       -0.78645872490495
N           -2.00530154609745       -0.26422628166954       -0.51821664451861
C           -1.74142718546550        0.02037116744416        0.89841438829255
C           -2.60363934658023       -0.68452695131565        1.95255141008571
C           -2.96048126511279        0.65869329859349       -1.13331903916333
C           -4.39769125146251        0.64262869602901       -0.60274391503504
N            0.02574362549404       -2.06609668898978       -1.05113518605207
H            3.29575424110247       -2.51056726389188       -0.81066221485192
H            2.49700803819979       -2.12818096733328       -2.35787199978158
H            2.42682978985554        0.82352736210633        1.24582999690669
H            2.22073363017384       -0.98148184788138        2.83769032068104
H            2.47227957807998       -2.20768866042313        1.59649059772682
H            0.99244341222154       -1.24971901977700        1.60448245710065
H            4.78169437014231        0.58472081238053        0.65420909047482
H            4.50594827178442       -0.32600522964933        2.13185207846188
H            4.65271921611311       -1.17800535522988        0.59854145169325
H            4.41510359365886        0.17762340636541       -1.52279477083052
H            2.20655659507239        0.46725116276127       -3.59487283110264
H            3.56695573755822       -0.66704214807276       -3.61642924921432
H            3.85167168028734        1.04612739085481       -3.89532707995367
H            3.48838165746711        2.27240415611614       -0.46529476078922
H            2.38360569389608        2.44394312612783       -1.83162500312469
H            4.12637948594266        2.61418926307790       -2.07624441205973
H            2.05554443795446       -4.56447964416432       -0.11285039788276
H           -0.10822410915410       -5.49604518066832        0.70171644954400
H           -2.16491075840586       -4.11458362971232        0.44182078904371
H           -3.18020684827819       -2.03739727670382       -0.18998638076482
H           -2.61105603897239       -1.73193917737703       -1.84671241054445
H           -0.69827471657266       -0.24082571949807        1.10082443730993
H           -1.82630406813404        1.10172640296679        1.02599509977891
H           -2.37057676888729       -0.25886425918380        2.92652800413650
H           -2.38109585971962       -1.74923279693529        1.99327992235483
H           -3.66692769734513       -0.55592406205616        1.77282666139910
H           -2.97341777312865        0.43501634553797       -2.20353685058879
H           -2.55194553013858        1.66614474830439       -1.02398757909764
H           -4.44948462703353        1.01784373599221        0.41634040715958
H           -4.82512201203335       -0.35701381627523       -0.63905815898445
H           -5.00738801003175        1.29093725007445       -1.22817653293864
C           -0.46802408163185       -0.77802261500958       -3.40735219859388
O           -0.66947446414964       -0.99392692247106       -4.53166946566945
H            0.05142181192834        1.03410660543141       -2.26045884582436
