56
 energy: -80.886878362906 gnorm: 0.000220415642 xtb: 6.7.1 (edcfbbe)
Ru           0.37728291713614       -0.07113705478562       -0.14161955264217
C            2.58421551566350       -2.29776147211469       -0.42652342734995
P            2.58161568259558       -0.62610089178079        0.10972076150249
C            4.24367378195113        0.02722163258275       -0.16273581224997
C            4.92595556848096       -0.33144021321209       -1.32147084683849
C            6.18870755909229        0.17731074284870       -1.56445385926942
C            6.76918551241316        1.05334610064619       -0.66033327455694
C            6.08108096248106        1.43129666678595        0.48256818618064
C            4.81735208733062        0.92770072472935        0.73022424629707
C            2.37349579456252       -0.72705673687694        1.93457503349545
C            3.25698376120414       -1.30980482134393        2.83668402573301
C            2.85370111164193       -1.55054813474932        4.13880062999354
C            1.56271502110324       -1.24338846397205        4.54101219469964
C            0.66550292192279       -0.67687805580686        3.64522611368625
C            1.06931761313035       -0.42304410139857        2.34711385138250
C            1.33655412359668       -2.90712861126790       -0.34057998867513
C            1.12152111245161       -4.30664287013822       -0.49624889298485
C           -0.12905144168317       -4.83024691661787       -0.34632490247149
C           -1.20047935125746       -3.99078490780060       -0.00030943185243
C           -0.94694718992653       -2.64101000602796        0.12746966232123
C           -1.99702845679928       -1.66817991632796        0.61400836373858
N           -1.87869154520333       -0.34111173452894       -0.02286154790529
C           -2.51654439379628        0.69490535730967        0.81661321038373
C           -4.01638176597375        0.53273361577776        1.07557108078539
C           -2.49433354814679       -0.42262381704774       -1.36443172161179
C           -2.49075779068873        0.89637900156466       -2.12822950121069
N            0.25636607920568       -2.11028600009321       -0.07464689365304
H            3.49262465155402       -2.86782455114759       -0.54608535106501
H            4.45449547375318       -1.00670897095731       -2.02332022437979
H            6.72166406717344       -0.10599174590262       -2.46092270135157
H            7.75624177222397        1.44928370993027       -0.85074393954120
H            6.53140379470157        2.12347423752956        1.17984822640166
H            4.26930373925725        1.22643982214652        1.61429146842730
H            4.25732982112857       -1.56213702099073        2.51092951065307
H            3.54548050195010       -1.98670589127824        4.84521754469766
H            1.25114737836436       -1.44146691921057        5.55608236447747
H           -0.33717710599061       -0.43322619978482        3.97351309065973
H            0.39184502323806        0.13302066559748        1.63573904884075
H            1.96995054450764       -4.93192379228661       -0.72949017660397
H           -0.30079684523957       -5.88983345146248       -0.47218104264298
H           -2.18961175129565       -4.38725457727122        0.16276527171291
H           -1.85341265474648       -1.55054377854366        1.69939402901320
H           -2.99711745298467       -2.09502554366017        0.45358123732541
H           -1.99743572800971        0.70402400337837        1.78419752242193
H           -2.33184847099679        1.66033516994964        0.34041300400716
H           -4.34086808433385        1.34120534424329        1.72659441812139
H           -4.24194494128818       -0.40847360550789        1.57211045453287
H           -4.59300885102366        0.59370586322720        0.15678460144751
H           -1.92465209366833       -1.16779856662653       -1.93163193646146
H           -3.52719983018200       -0.79046315237923       -1.27621392815882
H           -1.51752578258494        1.38091311840573       -2.03439884040458
H           -3.26106153124976        1.57339835074967       -1.76744001274686
H           -2.67761977409754        0.69954482062339       -3.18075342913183
C            0.57326170471894       -0.00655647483733       -1.95343669030836
O            0.80651298608506        0.01958347241504       -3.08660113222529
H            0.39166947915879        1.50107852843529       -0.06000650545725
