56
 energy: -71.017887746363 gnorm: 0.000228097398 xtb: 6.7.1 (edcfbbe)
Fe           0.31334237961135       -0.18134600045539        0.00318627115708
C            2.41443203851914       -2.30239840327839       -0.68504830131136
P            2.38782160575950       -0.68722026299383        0.25166749480977
C            3.78689057062379        0.21495059593319       -0.61226540359376
C            3.72569059008405        1.70873951971294       -0.30095418345217
C            5.18452644809120       -0.35643075309396       -0.39160110543741
C            3.10143240429388       -1.21696571940498        1.89960513602164
C            3.17306763723179        0.00705503795354        2.80704673894582
C            2.21259136291954       -2.28598645563784        2.52761774241754
C            1.06627247171052       -2.91636916168106       -0.47034879621066
C            0.84104730808574       -4.27114808671448       -0.62057482111425
C           -0.42587388535527       -4.79417952954662       -0.39502667627918
C           -1.42430625617780       -3.91974229923357        0.01286296059437
C           -1.13488077924982       -2.57779012515680        0.15813524815308
C           -2.12138754729004       -1.57989457701317        0.68556488595548
N           -2.05804624310018       -0.34039636311847       -0.11106524611051
C           -2.69258532662546        0.74422071443244        0.65768546550137
C           -2.64152153229543        2.10067282919310       -0.02761127528117
C           -2.78851548629818       -0.57885810785234       -1.37554952621389
C           -2.17443867138734        0.06147049405754       -2.61420880508838
N            0.08496944553159       -2.05635584773656       -0.10833548282969
H            3.22319507151532       -2.98327460472631       -0.40539778213920
H            2.52872416865034       -2.03869143968412       -1.74425238059899
H            3.52463033423600        0.09232505178134       -1.67370078148674
H            4.28280837438043        2.27748968958292       -1.04515956440996
H            4.14539070264740        1.92910312632205        0.67766617387694
H            2.68596596988500        2.03594805191097       -0.30920958403845
H            5.52938702177691       -0.16858104830212        0.62287141576991
H            5.88421643247983        0.12389948492876       -1.07555317187361
H            5.21006683344426       -1.42808613930164       -0.58053746400065
H            4.10251679493845       -1.63401120484319        1.72985917319400
H            3.94425720618299        0.70060522111090        2.47988415552855
H            3.39097743848054       -0.28482697658823        3.83425275852480
H            2.21247238679160        0.52021510052294        2.78033731098282
H            2.56220327979678       -2.52145627436124        3.53282090173002
H            2.20968649012251       -3.20648863225569        1.94548855604852
H            1.19197363266362       -1.91288004118970        2.59518684108569
H            1.65671714409139       -4.91564429715603       -0.91445220752240
H           -0.62312894814130       -5.84723549107374       -0.51924110752671
H           -2.41912287204450       -4.27962441910126        0.22941403593377
H           -1.81330716569295       -1.33314280081124        1.70883473944041
H           -3.14254824607497       -1.99128563704438        0.71204223813622
H           -3.74157296477946        0.47659493298733        0.87496889941433
H           -2.14340408972396        0.82571203661808        1.59760920061315
H           -1.60968123661918        2.31201649094429       -0.30235718800773
H           -2.98141177499985        2.86427757970794        0.66878120737398
H           -3.27347464143929        2.14035979512550       -0.91131036825526
H           -2.82928965375548       -1.65813122214793       -1.55474994646016
H           -3.82287475125970       -0.22622152215739       -1.25634160613227
H           -2.90049815058623        0.05186171229769       -3.42578660127351
H           -1.86836406107387        1.08491195866121       -2.42665777165383
H           -1.30167648719033       -0.50030817934514       -2.93329719145600
C            0.70453150590438        0.18495507757633       -1.65218945545408
O            1.10672369228371        0.52042084115598       -2.68998313105336
H            0.15008202206182       -0.15592729820283        1.47271438750581
H            0.39712436026515        1.27237328908040        0.16815164967830
