50
 energy: -81.809302603131 gnorm: 0.000232112558 xtb: 6.7.1 (edcfbbe)
Co           0.15768767795433       -0.33427134372859       -0.88352759510900
C            2.41545890695545       -2.27604505457687       -0.56358220485364
P            2.22094676002116       -0.51965689911337        0.03532415715883
C            2.65093458093489       -0.63540797221029        1.80489253024041
C            3.11390366461682        0.52436875947028        2.42692456382926
C            3.37755295393509        0.53488073366349        3.78262284968252
C            3.16259220425151       -0.60720802774668        4.53963144091877
C            2.67426429040511       -1.75319850861490        3.93473162248036
C            2.41163841418628       -1.76917179354098        2.57550806734041
C            3.75581238178338        0.19317173757518       -0.64542830760110
C            3.66062143978963        1.08121509925942       -1.70991470014498
C            4.80674339769613        1.60173085538211       -2.28601677329733
C            6.05163923254350        1.23600352798697       -1.80115434477799
C            6.15069040027771        0.34844125033992       -0.74025972981712
C            5.00882545394426       -0.17418163454826       -0.16195935639596
C            1.10049410858735       -2.93195425480463       -0.29178643412986
C            0.97138574716696       -4.26657787952628        0.03637947570196
C           -0.28289340073389       -4.75901816965600        0.40003175725986
C           -1.34041309261204       -3.88130657265840        0.48766993403699
C           -1.14998863912541       -2.54010337558703        0.14066734684302
C           -2.12873957362391       -1.48837311945074        0.31174662224005
C           -3.46955786494248       -1.69869360698575        0.62771714366176
C           -4.28794425038494       -0.60926457705352        0.85541516905719
C           -3.75042920242071        0.66418160660091        0.76720586415691
C           -2.40992841926937        0.80750201929007        0.41567189170848
O           -1.90063995172532        2.03753570590257        0.34147861085166
N           -1.60796559601004       -0.23797480373188        0.17940717492435
N            0.04714406830717       -2.09991289051878       -0.30687161140194
H            2.59448276423341       -2.19923715642063       -1.64282651142343
H            3.25427214845771       -2.80535543675295       -0.10297678124161
H            3.27190725845537        1.41405368683067        1.83019699898552
H            3.74817535124118        1.43422112847509        4.25311166609398
H            3.36872220251417       -0.60125943746142        5.59997476238664
H            2.49528835668087       -2.64146746301787        4.52420249652738
H            2.02008750444637       -2.66885334842942        2.12131537902568
H            2.67994410122571        1.35517363859729       -2.07658983067731
H            4.72820779553520        2.29346179803419       -3.11226940046933
H            6.94693818327423        1.64319690811188       -2.24820847011477
H            7.12259430434829        0.06337506104388       -0.36335027126268
H            5.08727028611279       -0.86083583586187        0.67015590552664
H            1.83604743872348       -4.91239750438832        0.02004588996309
H           -0.40816935241151       -5.80216565498269        0.64629496226619
H           -2.30367709717893       -4.21690214988511        0.83542910142913
H           -3.86323696059631       -2.70012641956346        0.68437097356456
H           -5.32909979861451       -0.74466685537257        1.10455868402001
H           -4.33165636600789        1.55028478124985        0.95980431357555
H           -0.97944693503337        1.97141508689603        0.01919628380055
C            0.15629096561852       -0.65402327926671       -2.60353574733644
O            0.17823655735590       -0.78920684923929       -3.75270888894521
H            0.19916200344596        1.07095626506139       -1.25284900865716
