53
 energy: -69.995047757855 gnorm: 0.000096971422 xtb: 6.7.1 (edcfbbe)
Co           0.17330482909928       -0.31595112186364        0.13950479823410
C            2.19359881179590       -2.57662926304326       -0.27914248804318
P            2.30144928917829       -0.85378445773755        0.06566887553870
C            3.52857102134660       -0.20643171280653       -1.19256930963589
C            4.95553606963129       -0.66599399734751       -0.90639942762517
C            3.44633510849934        1.30274157570185       -1.39960216994951
C            3.10986940225072       -0.72631928829626        1.75046403352625
C            2.08619499792855       -1.31990808994039        2.71644372271155
C            3.47327896874053        0.69419032264346        2.16651451489490
C            0.90730608698415       -3.06123377933320       -0.23661923661184
C            0.57426346364091       -4.44113567937217       -0.42150336920843
C           -0.71514419050057       -4.85846855332328       -0.32785414990556
C           -1.72724976418482       -3.92320233309669       -0.03701869311497
C           -1.36479916083601       -2.60611348663802        0.12146391794142
C           -2.36081494054771       -1.53923051882153        0.48511702687441
N           -1.92213345205293       -0.25936522230189       -0.09156791992071
C           -2.66883994761945        0.85262091752482        0.51532006124007
C           -2.35178883275857        1.04737437022093        1.99541915624386
C           -2.18176352245094       -0.29956387874903       -1.54603515383374
C           -1.25600258999218        0.60691760816547       -2.34622194712489
N           -0.11005612396123       -2.16147579792207        0.00193196659809
H            3.04889723954083       -3.21062166082604       -0.45359215866614
H            3.18997694510106       -0.69425825257628       -2.11871864230295
H            4.98437483648400       -1.73671589175789       -0.71366778278181
H            5.59243949458927       -0.45816321965694       -1.76596903924624
H            5.37137644241428       -0.14775157269240       -0.04563660389091
H            2.42843378621523        1.59458317553760       -1.65103861403811
H            3.74323178819949        1.84388625017747       -0.50517379357721
H            4.10321476240892        1.60441152616639       -2.21527868344668
H            4.00834952090333       -1.35672999658921        1.74201453404415
H            1.89974834212207       -2.36641447735966        2.47897754506463
H            2.42957747409575       -1.25146905555234        3.74788295367631
H            1.14051874450822       -0.77435716098882        2.62069185811829
H            3.80342097895135        0.70423106550409        3.20556071229753
H            2.60736508675801        1.34682829064851        2.07761864509667
H            4.27711233951618        1.09945302016202        1.55723362636102
H            1.37826377495741       -5.13245346612137       -0.62842020117178
H           -0.97327274122482       -5.89978944244991       -0.46676301203792
H           -2.75637408340392       -4.22923556847028        0.06528287706509
H           -3.37492494266987       -1.80026396295700        0.14790296817076
H           -2.37565950993104       -1.45302484849363        1.57463900922171
H           -2.40006181951465        1.76209116090661       -0.02501230978620
H           -3.74947565562981        0.68600708859912        0.38777125751003
H           -2.93083837587423        0.38037900069661        2.62970888787482
H           -2.57503035268577        2.06945787728775        2.29037628926603
H           -1.28934466268457        0.86234153180841        2.16776638591120
H           -2.02233493028840       -1.32546204712614       -1.88789909290890
H           -3.23192264289310       -0.03813519548783       -1.74060413711265
H           -1.46818970522881        0.50038715109319       -3.40782257499588
H           -1.37727949842910        1.65243744642201       -2.07401428675343
H           -0.21637504839372        0.30942969956416       -2.16372796885062
C            0.43611734593248        1.37698015798752        0.33050984119733
O            0.62980157554163        2.50853820669265        0.48308291206525
