64
 energy: -92.386689759987 gnorm: 0.000178476150 xtb: 6.7.1 (edcfbbe)
Ru           0.19392724918913       -0.31921719925721        0.01293109675387
N            0.11659038783641       -2.50007455086607       -0.39636727068364
C            1.32743224318540       -3.31362524036083       -0.10131174280786
C            2.28559481291678       -2.61475980381077        0.86558945866608
P            2.38707015026546       -0.83420797238598        0.39050478349757
C            2.76996804832226       -0.88601799080618       -1.39367052037397
C            3.93634249257259       -1.36917658505190       -1.97429444287008
C            4.05083236541225       -1.39497234205464       -3.35470126758981
C            3.00891268117839       -0.94680325898960       -4.15238471953734
C            1.84142781643885       -0.45672467479197       -3.58147196538897
C            1.72387483667929       -0.42628589088241       -2.20389810981793
C            3.87136549483055       -0.17158886881439        1.17730078547534
C            4.44463331552698        0.96605839196104        0.60943290409096
C            5.56894287862085        1.52813064360666        1.18251927483367
C            6.11358334314707        0.97039548193773        2.32999570718564
C            5.52908262699191       -0.14502237995912        2.90846884415578
C            4.40382171066430       -0.71786176219645        2.34130479872742
C           -1.12291015019259       -3.02985380705201        0.21920833205317
C           -2.34127521242033       -2.34678529004864       -0.40626561793077
P           -2.01712987796356       -0.51397483449586       -0.54830592044246
C           -3.35934011163947        0.21313087297799        0.42564866577461
C           -3.05878471708501        0.99285166861789        1.53647071306488
C           -4.08605109063054        1.53319475520576        2.29171355200792
C           -5.40510082625619        1.29587265327348        1.94007006579334
C           -5.70499701588034        0.51365304572286        0.83350675664309
C           -4.68699841962136       -0.03023496593449        0.07396769294551
C           -2.44159034850758       -0.08684486330002       -2.26989046878512
C           -1.97153947570683       -0.86192326236018       -3.32920600620927
C           -2.19181887659383       -0.46558224173219       -4.63554553625396
C           -2.86463074219603        0.71756870364245       -4.89743872654489
C           -3.30699256615478        1.50868780906412       -3.84874039430241
C           -3.08964933703625        1.11674908595276       -2.54010046849686
H           -0.03523076232219       -2.58546599444524       -1.40975791663341
H            1.02895856798892       -4.28108933299694        0.31486190896928
H            1.85914882025212       -3.50026890453639       -1.04060233773188
H            3.26825274594911       -3.09604425532161        0.84827038057332
H            1.88730520997641       -2.63574102717871        1.88733119279081
H            4.74446058052065       -1.71124613183279       -1.34306866493319
H            4.95651241867987       -1.76491950794761       -3.81121341565650
H            3.10495187659028       -0.96960762959810       -5.22727075580497
H            1.03711048910518       -0.09580153906904       -4.20672229824967
H            0.79997522972058        0.03234783150277       -1.74999520721021
H            4.00647373074382        1.40116040211656       -0.28079220119165
H            6.01961915994164        2.40344139784490        0.73893857555821
H            6.99236383054825        1.41077634835847        2.77659668533026
H            5.94991542912057       -0.56954373719974        3.80778307077207
H            3.94549057222300       -1.57936296096137        2.80436042520868
H           -1.08379980189220       -2.82821417564691        1.29426724294559
H           -1.19354188304332       -4.11377535083052        0.05868912313115
H           -2.55324154994675       -2.76143047789415       -1.39758227749378
H           -3.22211722696648       -2.49939617944758        0.22254369286919
H           -2.02095804381392        1.16072932501780        1.80111931539257
H           -3.85672754249425        2.13997065747474        3.15483138650663
H           -6.20464225759675        1.71992283584092        2.52913576157607
H           -6.73460012603537        0.33030385500985        0.56389615784935
H           -4.91398087417219       -0.63451763648611       -0.79501678034766
H           -1.43643184011672       -1.78645185897288       -3.14371723156688
H           -1.83688448049297       -1.07894047585059       -5.45125994805441
H           -3.03719859399787        1.02532130406467       -5.91776770054013
H           -3.82053394509359        2.43679199617720       -4.05084523687984
H           -3.42496736951226        1.73997047910431       -1.72222177732885
C            0.24356335409267        1.50298591578299        0.32364439458969
O            0.28684211367617        2.63449923278289        0.50706089829076
H           -0.18783909404616       -0.55805690267470        1.46913342317042
