56
 energy: -80.986343900584 gnorm: 0.000257507820 xtb: 6.7.1 (edcfbbe)
Co           0.09613594998326       -0.24364205554971       -0.19057354373144
C            2.25875325816929       -2.28245696716997        0.58983687024364
P            2.22434461703158       -0.67321158786740       -0.32061799441289
C            2.55427789146683       -1.20141614598113       -2.02394459365729
C            1.51380559195977       -1.11395324789233       -2.94299374717169
C            1.70048053317162       -1.54590031215974       -4.24339307243146
C            2.92932600676280       -2.06068814340266       -4.62660865344034
C            3.97123908770469       -2.13980260230779       -3.71420793922864
C            3.78965906138933       -1.71116617519158       -2.41178883258415
C            3.71893284401878        0.23478048012328        0.14553136775768
C            4.07462736073312        1.30407303211940       -0.67687192540173
C            5.19139652997561        2.06213919362471       -0.38385402267451
C            5.95495751740012        1.76436987510282        0.73566186871990
C            5.59652920387801        0.71170098085358        1.56174973588745
C            4.47759328342721       -0.05220824863244        1.27556154745505
C            0.97531413458109       -2.93867160886445        0.19578725071800
C            0.82207029138186       -4.31441999980759        0.12140456830207
C           -0.40281111601758       -4.84001372677478       -0.25936895646087
C           -1.44397400986059       -3.97305570598954       -0.55093429378581
C           -1.22172838823996       -2.60813381401934       -0.46408927426525
C           -2.26975956577098       -1.58310185695930       -0.77573828660626
N           -1.95504367048872       -0.33562485118539       -0.05819779298205
C           -2.24737860665303       -0.49418323368165        1.38595270705996
C           -1.31513662716101        0.34822007026983        2.24842654137294
C           -2.69935316630150        0.80461464241836       -0.63957541670847
C           -4.20815438749971        0.61342572252440       -0.79831499343435
N           -0.03437770152701       -2.10818818130367       -0.10205618700273
H            3.13346832703541       -2.89389456635091        0.35195970850062
H            2.24888185303191       -2.07163743601429        1.66526716156644
H            0.56249220831411       -0.68972292895324       -2.62054355286712
H            0.89586488855359       -1.47870455194609       -4.96067279191110
H            3.07905219593121       -2.39648742943414       -5.64194205187901
H            4.92799101941961       -2.53566544975737       -4.02140939807346
H            4.60242251923784       -1.76163742595770       -1.69966106490893
H            3.47063407174526        1.52797297613719       -1.54706204396409
H            5.46826980296403        2.88599031409882       -1.02460312580968
H            6.82853579848954        2.35600409780221        0.96512668996049
H            6.19092746587114        0.48421673110587        2.43439641346193
H            4.20828997500475       -0.86723192552454        1.93098603969077
H            1.65180375658740       -4.96105584444748        0.35925833703081
H           -0.54366852092193       -5.90766229416262       -0.32446923363924
H           -2.41185222101967       -4.34528708970695       -0.84723659562756
H           -3.26604554456906       -1.96149502592987       -0.51635953533778
H           -2.24939419482598       -1.37887665498587       -1.85257121001827
H           -3.28756289933507       -0.22941479894539        1.59558612053121
H           -2.11064424863985       -1.54494739622838        1.65317398289476
H           -0.26575768348108        0.10028866766788        2.02378610072581
H           -1.49847748217217        0.13762676518575        3.29959307513993
H           -1.46888280240502        1.41186265223709        2.08402514400428
H           -2.51511173996812        1.67136317076044       -0.00305482131723
H           -2.27080157882302        1.01418865757863       -1.62356743750127
H           -4.44773392630916       -0.13752372420584       -1.54678269966370
H           -4.63730939156366        1.55652181247924       -1.12798632078874
H           -4.69234525507211        0.34227195923643        0.13646503258886
C            0.28428777157427        1.46897018234268       -0.44178742795782
O            0.51001060724182        2.56989733964182       -0.64936531874871
