54
 energy: -70.105348292054 gnorm: 0.000126734699 xtb: 6.7.1 (edcfbbe)
Ru           0.07328416113474        0.02554773203986       -0.76665444827216
C            2.31089845770176       -1.99941257866859       -1.65075212191570
P            2.23888755708968       -0.25498397811510       -1.43539467663504
C            3.01041420142604        0.16738136428431        0.23584721318337
C            1.90038061471544       -0.26333770024737        1.20894569128299
C            3.29204561451840        1.65658856094974        0.40316460931566
C            3.29063502756383        0.43725572811495       -2.80217926484869
C            4.77805462422786        0.16517623588624       -2.59607613533230
C            2.98156983053142        1.90670563423433       -3.07343747800697
C            1.21340004409255       -2.70706107773979       -1.19368073298089
C            1.10424397710627       -4.13132390309481       -1.23033468037866
C            0.03645865135849       -4.75307266375803       -0.65755382620430
C           -0.93815779462591       -3.99483031961284        0.01699618203028
C           -0.80468338515631       -2.62302468368403        0.00536155032408
C           -1.69640919898487       -1.72551711250912        0.83408411936820
N           -1.91460843675841       -0.40062246173842        0.22092539854272
C           -2.22803528257307        0.60347160636792        1.25879546096433
C           -3.48635925969516        0.35026529527130        2.09285990375075
C           -3.00278861965705       -0.53478754982885       -0.76950698478436
C           -3.38370325860694        0.77031267755528       -1.45833581311137
N            0.18570798419966       -1.99842174707926       -0.62557115619470
H            3.13431014308180       -2.48957301353452       -2.14655754929673
H            3.91923164456158       -0.42145004725903        0.42214179788823
H            1.82338898904022       -1.35361090452225        1.24974377351347
H            0.92282820926156        0.20100849519801        0.86813055652736
H            2.10054468815477        0.10018354789837        2.22074295397213
H            4.14759366744028        1.96914992811435       -0.18884999388339
H            2.41823650013895        2.22913911990951        0.08918319927342
H            3.50714511371620        1.88617525403733        1.44773892857501
H            2.93898779501507       -0.14809790298510       -3.66652821814061
H            4.94900831062536       -0.88524845114092       -2.36710185381057
H            5.17787640065698        0.76330731809190       -1.78081286316847
H            5.33010737034270        0.41300996616312       -3.50192236719012
H            3.42106662837412        2.55124487299099       -2.31754312149109
H            3.37532931727691        2.20120325741512       -4.04525405016510
H            1.90124104817590        2.05801411330204       -3.06859417153250
H            1.88819784661818       -4.69154965671161       -1.71770397300770
H           -0.05702413348784       -5.82978690663115       -0.69126042565074
H           -1.75863989766937       -4.46995514149123        0.53044653020217
H           -2.65173539119297       -2.23221870399805        1.03134944577510
H           -1.19176944077025       -1.58209433281001        1.80267504050443
H           -2.31210342457685        1.57237623235498        0.76176797679623
H           -1.36429663805799        0.65688982885941        1.93651132409356
H           -3.44015206328834       -0.60161317941919        2.61734998735749
H           -4.38413213121193        0.37172910497426        1.48117700958602
H           -3.57049696551919        1.13939797354398        2.83645964385010
H           -2.65806056850008       -1.25161780966918       -1.52337612190605
H           -3.89324300602549       -0.96341979720588       -0.28586816882564
H           -3.96504749469478        0.54628462072757       -2.34917331645008
H           -3.98363818058282        1.40657076410236       -0.81232844297442
H           -2.48488676650111        1.31141334379851       -1.75812140653756
C           -0.46209057373840        0.03764672869482       -2.50720842681663
O           -0.68766910452843        0.03608916179153       -3.64483518829114
H           -0.03429727859131        1.58855345048536       -0.67182360720673
