59
 energy: -70.479420831779 gnorm: 0.000266312444 xtb: 6.7.1 (edcfbbe)
Fe          -0.02609887988087       -0.11771060276672       -0.05866791972541
N           -0.09554108012521       -2.18867074150522       -0.18806990102330
C            1.16590460082940       -2.86103297452213       -0.44825278278880
C            2.24638303367302       -1.93551327876880       -1.02100017026271
P            2.10664390043423       -0.29550655432128       -0.17649828706573
C            3.14835846036146        0.88802366675536       -1.21195822194348
C            3.36279140208660        0.46357474687642       -2.66071491267558
C            2.45600354976839        2.25249906545881       -1.16029887982656
C            3.25193876065613       -0.43992679966530        1.30108426522805
C            3.21984362555843        0.88190946053065        2.06585671630233
C            2.82655640674974       -1.57224760020685        2.22623056405983
C           -0.73833594239625       -2.80797155472221        0.95070395897001
C           -2.08382671429097       -2.13491526760507        1.26405298810369
P           -2.07845906988899       -0.61535555833829        0.23363544429556
C           -2.78148095488866        0.79643200228886        1.25593485921779
C           -4.28283679497317        1.01898409296583        1.39123104278411
C           -2.09324260045004        2.03035979482165        0.65789835100432
C           -3.32975183591929       -0.98088557321447       -1.10776136873400
C           -4.61977178721565       -1.65157338935258       -0.62772258539466
C           -2.66483091232791       -1.85573157902391       -2.16604682274004
H            1.54988770135969       -3.33058910615356        0.47197386416091
H            0.98745274329618       -3.67762606250237       -1.17029250140505
H            2.02308596183421       -1.74780492828643       -2.07325523229352
H            3.24310570195328       -2.37983587374703       -0.93382813104261
H            4.13200390027980        0.96980840438759       -0.73111518288680
H            3.93587534893286       -0.45899469169709       -2.72401919080090
H            3.91525412570029        1.24148613163079       -3.18914940959947
H            2.41263345501479        0.32511699576851       -3.17155498042302
H            1.53794790222829        2.22585314125358       -1.74557350436394
H            2.19059771560174        2.51917930832834       -0.13666583491222
H            3.09865808889186        3.03288330896500       -1.56863561366126
H            4.26623418624207       -0.63259680955792        0.92113380872076
H            3.78755889242689        0.80153194975119        2.99291285058932
H            3.64212052854839        1.69931115428065        1.48434016218786
H            2.18626636807608        1.12307209112092        2.31519218110504
H            1.75837269522765       -1.49248418602183        2.41951683028944
H            3.35757135151940       -1.50631150445081        3.17620777300992
H            3.03921497014469       -2.54474447523390        1.78862677372998
H           -0.09275941610462       -2.77600779421687        1.84765089988374
H           -0.89860432179146       -3.87370947965056        0.71816289053867
H           -2.13334811335844       -1.83941994281113        2.31462911564128
H           -2.92742483158785       -2.78852572219587        1.04026152581827
H           -2.35319901357888        0.62093682167559        2.25228499533333
H           -4.75721304233794        0.19606943642675        1.92183312532198
H           -4.46157250431636        1.92955938766592        1.96466241532327
H           -4.75537238658809        1.13691306046207        0.41839220303302
H           -2.47756560786932        2.23670797139861       -0.34190247271308
H           -1.00096998059890        1.84668286674451        0.58124131855516
H           -2.25070687635106        2.91352403948912        1.27731514429619
H           -3.56755089449116       -0.00288577877717       -1.54940021369174
H           -5.41525386898509       -1.47540018342777       -1.35150817370891
H           -4.94921000298835       -1.28013110211292        0.33743953154613
H           -4.48025123466042       -2.72787110693962       -0.55007775606839
H           -3.37566862383248       -2.10361466399963       -2.95474177579658
H           -2.29944696903060       -2.77535352886756       -1.71362357491016
H           -1.81354059630192       -1.35194604559387       -2.60967528589596
C           -0.11073681301356        0.15001300522959       -1.76763136003367
O           -0.16143945138743        0.47964757368308       -2.88222534166166
H            0.03481952437739       -0.19124146018593        1.41685650261185
