50
 energy: -80.966132243271 gnorm: 0.000196303401 xtb: 6.7.1 (edcfbbe)
Fe           0.11191406695037       -0.37460709514444       -0.03274906206826
C            2.40660552797903       -2.40741604468962       -0.03604180936044
P            2.22161274536941       -0.58686468122529        0.33969722899419
C            3.53738167728755        0.16053762125067       -0.66907493182798
C            4.82230688235180       -0.37263411667029       -0.73215458861511
C            5.77938530700512        0.24267728941727       -1.51798847787031
C            5.46377080472524        1.38880737747292       -2.23312583735406
C            4.18902154051486        1.92811058611589       -2.16202276324754
C            3.22546736425468        1.31469431048483       -1.38071090737504
C            2.86595590722218       -0.48839753530187        2.03594565848196
C            2.27596559809506       -1.31175847085493        2.99262887947649
C            2.69500981532423       -1.24972498923638        4.30742801709321
C            3.69273357626711       -0.35877160326447        4.67636581462232
C            4.26521528563633        0.47487096006454        3.72997470578587
C            3.85227464525406        0.41757910560686        2.40933149526683
C            1.07370588860130       -3.07108286591168        0.11663344880417
C            0.93143952461348       -4.43662154932800        0.28919514842400
C           -0.33893623229596       -4.99142286064412        0.38390809705118
C           -1.44319036555986       -4.16296768093184        0.31357889954716
C           -1.25234136445670       -2.79670069501038        0.15607221276760
C           -2.27633059371454       -1.77460470485027        0.12038721039086
C           -3.66103484332471       -1.85200421165689        0.23318044912138
C           -4.39028794159824       -0.67395123125584        0.23787162940071
C           -3.75890873946003        0.56769341982432        0.14621557977540
C           -2.38566272629219        0.56970577797007        0.02714513242545
O           -1.51557713196615        1.59664512872359       -0.06995094513028
N           -1.69331101214057       -0.56778710488102       -0.00466060547228
N            0.00012336173979       -2.26301243431648        0.05015265990981
H            3.16540885360209       -2.88551284619395        0.59225657895672
H            2.72561064116290       -2.48298933457399       -1.08479872423196
H            5.06977449193643       -1.25750390427773       -0.16315566039574
H            6.77641657967858       -0.16926199829378       -1.57335428513163
H            6.21603474708083        1.86419383312551       -2.84529783868921
H            3.94953503582944        2.82348909043853       -2.71655204574326
H            2.22105884288133        1.72048462429115       -1.31100870431961
H            1.48063911854707       -1.98400370567829        2.69994920824165
H            2.24351882390673       -1.89129960060159        5.04997529240218
H            4.01836569260424       -0.30929612887556        5.70519551062691
H            5.03424813558917        1.17564878372765        4.02099142850946
H            4.29551882939700        1.07461899417810        1.67379814766310
H            1.81022275573966       -5.06023142588831        0.34541379811700
H           -0.45876400072715       -6.05545556488838        0.51530554852810
H           -2.44318803453257       -4.55820338530909        0.38958204323809
H           -4.15415470143286       -2.80544952596217        0.32485707992274
H           -5.46481357851738       -0.71076927561685        0.32777373432277
H           -4.32569714859301        1.48518431079380        0.17638944341301
H           -1.93624931439713        2.45967066246995        0.05638317009183
C            0.32797656412118       -0.42025686560256       -1.77932070104077
O            0.44957763517399       -0.54784472121870       -2.90640855706027
H            0.05186229729719       -0.34238772251330        1.38540532777099
