59
 energy: -70.606666336796 gnorm: 0.000400905226 xtb: 6.7.1 (edcfbbe)
Ru           0.06268528109664       -0.30637790313454       -0.17599503002748
N           -0.01578804298417       -2.40891581383354        0.25356309025886
C            1.27758704240896       -2.91224034425916        0.66591562519245
C            2.42909981663900       -2.36665305996276       -0.19237563823915
P            2.32725526439569       -0.52198557626402       -0.09281621043518
C            3.35166508179974        0.19378029925374       -1.49474364070752
C            3.53834164323225       -0.74007597411518       -2.68534994337583
C            2.64670144953811        1.48745948661833       -1.91407609100878
C            3.49122937117793       -0.11235647707317        1.32325827758908
C            3.51945697626736        1.40131770984798        1.52976575878453
C            3.09759301572042       -0.79691501099339        2.62765356479780
C           -0.95136858948965       -2.52017276457883        1.34405627277291
C           -2.35566801417999       -2.09532602244811        0.90759585060930
P           -2.22018694513972       -0.45409657187194        0.06266072139413
C           -2.86083389805681        0.86257501943757        1.22661427363650
C           -4.33342356061024        0.86858593207307        1.61706601665109
C           -2.44594616881928        2.18622934986977        0.57761042925013
C           -3.59497307355673       -0.53838480758293       -1.22001994324342
C           -4.77780124440530       -1.42827049169458       -0.83247065487097
C           -3.03114777251367       -0.99514309910874       -2.56207427925496
H            1.46871639760837       -2.66741307932707        1.72741268823953
H            1.26059759305703       -4.01129987028137        0.58158306002008
H            2.25510909472978       -2.65300991284095       -1.23222223732506
H            3.39220752881071       -2.76004834568116        0.14527913396932
H            4.34464145367114        0.44302208754034       -1.09877710520455
H            4.10825431835222       -1.62299932352945       -2.40352272452772
H            4.08367195385938       -0.22047042251885       -3.47344234711153
H            2.58142936257081       -1.05509846014235       -3.09329411368293
H            1.65041216543635        1.26467311932918       -2.30566856230362
H            2.52417048868622        2.15952537761713       -1.06281924621138
H            3.20954385658487        2.00861187365289       -2.68848956454985
H            4.48776545458901       -0.46463529828459        1.01851870642566
H            4.09599359605586        1.65202440051889        2.41980247499169
H            3.96909564798386        1.91916843519599        0.68509307263123
H            2.50159992256353        1.76916441751549        1.66704219049373
H            2.04608120628854       -0.60711241357732        2.84190429187253
H            3.69124190326057       -0.39922578194040        3.45076099100839
H            3.26802212296154       -1.87017028327787        2.58165469764672
H           -0.62515778249184       -1.88901057021463        2.20091202291518
H           -0.98082699868986       -3.56338330509311        1.69758545498821
H           -3.04005577468518       -2.06216842069428        1.75921156924298
H           -2.71932417291282       -2.81712013464536        0.17304399159761
H           -2.25704864935846        0.71926585400118        2.13278032984877
H           -4.61764656116207       -0.06514245558923        2.09852029847050
H           -4.51128749815700        1.67693748452395        2.32659901353872
H           -4.97577845041642        1.03472938112100        0.75538076582848
H           -3.07924358473832        2.41743366690151       -0.27911767425563
H           -1.40162907672445        2.11187084751831        0.22523474531921
H           -2.51175268380969        3.01248816852949        1.28423487081821
H           -3.94951261591164        0.49463342392020       -1.33009264790897
H           -5.63756625276982       -1.17376948520484       -1.45181179565435
H           -5.06222587169735       -1.31140798890972        0.20842904569681
H           -4.54332347073166       -2.47522855417501       -1.00968315382281
H           -3.83720998733912       -1.16260846765219       -3.27616092434597
H           -2.47371765877691       -1.92450240588737       -2.44326561102725
H           -2.36158083928075       -0.24490572555111       -2.97730086979190
C            0.08954689439683       -0.68311696577854       -1.96582149077512
O            0.13620653924478       -0.74334258946258       -3.12426799198750
H            0.07317657669477        0.32655139977131        1.28433090871274
