56
 energy: -80.886888276136 gnorm: 0.000620529710 xtb: 6.7.1 (edcfbbe)
Ru           0.00041238855372        0.02073924891572       -1.14131961168202
C            2.12801789275779       -2.14750217345713       -1.96690832253111
P            2.10956887714173       -0.39262858685020       -1.92023617096361
C            3.29882631828069        0.18930393103452       -3.14907646551635
C            3.37565885102326       -0.46965773325665       -4.37285511466707
C            4.25575698247290       -0.02474281607157       -5.34218422998461
C            5.05229034676223        1.08396552318971       -5.09930033289071
C            4.96010319663101        1.75618402623564       -3.89011460738151
C            4.08093483508099        1.31739359344112       -2.91709451183907
C            2.82573302390375        0.03518220253729       -0.28098855236797
C            1.85224052489557        0.42289196165291        0.64915733063638
C            2.17168871663640        0.55188393195996        1.98853229074145
C            3.46833652540395        0.28812997057414        2.40976456299248
C            4.43578963184172       -0.10078506004844        1.49576810378383
C            4.11615937582750       -0.24314853499660        0.15645036855505
C            1.19397610423204       -2.73202937999912       -1.11765412658102
C            1.15874959796217       -4.12196891917397       -0.80755713441128
C            0.23718503960068       -4.60571148539496        0.07414134124726
C           -0.65308472639971       -3.72350233164302        0.70791559830805
C           -0.58957028962615       -2.38847580857924        0.36741703288339
C           -1.41588457941576       -1.33718319865129        1.07281831999656
N           -1.84097130259427       -0.25111220289730        0.16706801923117
C           -2.16064335953590        0.96971889707735        0.93659400087113
C           -3.29966133888367        0.85489248581571        1.95267736704451
C           -3.00087864334899       -0.73502565218062       -0.61101572665769
C           -3.58328531513494        0.30225269378993       -1.56392178651159
N            0.26364950724702       -1.91395482838877       -0.53666071776194
H            2.94479559812121       -2.70898072648380       -2.39356842436209
H            2.73849247166733       -1.32604135491086       -4.55122873707677
H            4.32050408974110       -0.53981937141824       -6.29015236722217
H            5.74047762312213        1.42994521600166       -5.85708437159008
H            5.57458021882456        2.62670721981518       -3.70787888179701
H            3.99471085085171        1.84363664859240       -1.97548595524520
H            0.83500588799713        0.73415277314650        0.27155869826349
H            1.42692520969633        0.86296758210570        2.71037815354801
H            3.72174383370045        0.38974046166270        3.45482925032708
H            5.44279669958415       -0.29992648688955        1.83360872816132
H            4.86142076129628       -0.56163624419810       -0.56028737361156
H            1.87708934998436       -4.77104731842096       -1.28487977570418
H            0.19786160820295       -5.66059845811342        0.30596172788733
H           -1.36275427215577       -4.07657316563154        1.43856708520661
H           -2.28271178383079       -1.81145965604427        1.55418914612058
H           -0.78618347990030       -0.90581358371233        1.86650766573038
H           -2.39317070927776        1.75758722619028        0.21680043391546
H           -1.25031263160818        1.27370954897157        1.47006519428732
H           -3.40366740584103        1.81114789832049        2.46006917508477
H           -4.24729853232954        0.62837874683647        1.47209799132169
H           -3.09541346616789        0.09669229078009        2.70547363777143
H           -3.78744819859886       -1.08355104126418        0.07435290457408
H           -2.65764376753850       -1.60092343781443       -1.18895122447485
H           -4.21518980791914       -0.19824786584281       -2.29310963214752
H           -4.18742067944078        1.03798063767103       -1.03887651079504
H           -2.77995965496780        0.81451792436528       -2.09598513398597
C           -0.71141758198114       -0.43877310768926       -2.75606594151575
O           -1.05712173443710       -0.73689720646483       -3.81946604390513
H           -0.20707720684446        1.54891741200297       -1.45800625671539
