60
 energy: -71.520486025547 gnorm: 0.000105526665 xtb: 6.7.1 (edcfbbe)
Co           0.32833803758558       -0.21086095582544       -1.08325828955041
N            0.07127085550940       -2.14123774182877       -0.43031322573702
C            1.28154687299356       -2.94957824947662       -0.31424042105838
C            2.27641201993128       -2.19877394171586        0.57203819069478
P            2.18718275535416       -0.37806452053461        0.15185342858392
C            2.69123941333775        0.40975246103044        1.77662345810425
C            3.03518182711136        1.87820772081858        1.53639729182381
C            1.51889913770444        0.32780960614623        2.74929725766246
C            3.73321539835776       -0.13638330114777       -0.87813899058247
C            3.58478098198928       -0.92214641782442       -2.17943652413053
C            5.06528036572806       -0.46570454179450       -0.20724103316571
C           -1.10314193258991       -2.85065557614800       -0.93133543798194
C           -2.27840576075078       -1.87684271238449       -1.10905413599728
P           -2.01550601136267       -0.29365605578004       -0.14340659276989
C           -3.11252763708633        0.86431147347803       -1.12014568396397
C           -2.91782152302794        2.27691697719181       -0.57167841313866
C           -4.59316674755119        0.51820202247362       -1.23459916167187
C           -3.02933874427652       -0.60285553990256        1.43674245361834
C           -2.06297081751248       -0.91554678361627        2.57999656728148
C           -4.12386075288713       -1.66605286919603        1.40456055084084
H           -0.16696365339762       -1.86142784478437        0.52582649608671
H            1.05499348710147       -3.93637259661880        0.12189782822641
H            1.69172239433278       -3.10818855136689       -1.31547495042599
H            1.99488554225119       -2.32029702298520        1.62199161072986
H            3.28509932290747       -2.59272669703830        0.44705571838932
H            3.55115640159152       -0.12804396338639        2.19217930433293
H            3.15067033467845        2.39993115251105        2.48603299594373
H            3.95598339167797        1.99752011520974        0.97135732918663
H            2.22876710878122        2.35482054434274        0.97848180761431
H            1.23305524619904       -0.70180873543667        2.95999670460291
H            1.77260699455495        0.80451658348804        3.69532191709397
H            0.66450214161167        0.85146962387830        2.32000217597649
H            3.71034717901402        0.93082228669470       -1.13237678873374
H            2.59195392793998       -0.75145349132068       -2.60052794804744
H            3.72021020568316       -1.98914053409507       -2.00984956889315
H            4.32774644191211       -0.59886421470722       -2.90692522093873
H            5.87155050856521       -0.29139992621814       -0.91926969199203
H            5.11444217252816       -1.51004247191582        0.09496513926447
H            5.25299016772084        0.15393972002573        0.66528502647037
H           -0.84966408773237       -3.31075175502848       -1.89218061229402
H           -1.37988300709184       -3.65969415015770       -0.23673777854746
H           -3.22087467054223       -2.36483244954949       -0.86478373483724
H           -2.32604289806972       -1.55256132546934       -2.15123954532372
H           -2.65998976999338        0.83254326766759       -2.12078386491524
H           -3.33346457652280        2.37220938462825        0.43058244585158
H           -3.40818238487480        3.00679290097135       -1.21399353365652
H           -1.85449093099439        2.50977901973873       -0.53246628921622
H           -5.09325128097440        0.61252171921071       -0.27323289993802
H           -5.06991900326009        1.21229267729455       -1.92666592301615
H           -4.73959052279018       -0.48890012755439       -1.61945147554350
H           -3.48859650351218        0.37067630004781        1.64764585703826
H           -1.58809397289390       -1.88628195706440        2.43287338976482
H           -2.59352637648201       -0.94804683122444        3.53124376236890
H           -1.29148050859314       -0.15228566348122        2.64719870819465
H           -4.68784607181709       -1.62072823181517        2.33672439347443
H           -3.69498044960872       -2.66424556659643        1.32969710451289
H           -4.82234918339597       -1.52144643266697        0.58608335770461
C           -0.08499501468339       -0.39730905372404       -2.75644688845564
O           -0.23452286564998       -0.41640005811022       -3.91030425053175
H            0.50255272089985        1.19935231397288       -1.39120897192904
