55
 energy: -75.372076241995 gnorm: 0.000147706161 xtb: 6.7.1 (edcfbbe)
Mn           0.12971091202697       -0.05906358752070        0.10567045247636
C            1.85822483942071       -2.04008730923088       -1.52166857611527
P            2.12892946558489       -0.39984618851917       -0.91833136789872
C            2.48689970189902        0.66903484942633       -2.42308558900717
C            2.19475098362661        2.13551117013203       -2.10270235419211
C            3.85324242891904        0.48391796910298       -3.07268502768854
C            3.80057724766061       -0.49245398279009       -0.06242048969406
C            3.81477105923600       -1.64523919255551        0.93661364341431
C            4.18830135249202        0.81979288172178        0.60950996194311
C            0.80407618821464       -2.72681707948519       -0.94290117546384
C            0.49451519297933       -4.10171451974899       -1.18331050304594
C           -0.56633733079351       -4.68955138290997       -0.56347122720549
C           -1.36862600658202       -3.94842848399182        0.32444745666894
C           -1.04632447495027       -2.62446180266181        0.52697926420240
C           -1.79258172978689       -1.71253034589146        1.47908947801991
N           -1.93934567679228       -0.37051744285556        0.87019258943304
C           -3.09253326695914       -0.46111190728772       -0.04815027489358
C           -3.46288328961828        0.81584277446192       -0.79198476708637
C           -2.12304186222620        0.70556604272788        1.86038238444484
C           -1.46609660460970        2.01321888487895        1.38815457268415
N           -0.01640589418370       -2.03494638368355       -0.08409325240913
H            2.58351235320531       -2.53966132647447       -2.14854748348894
H            1.73418343813730        0.31268121993858       -3.13881396308929
H            3.03863308180702        2.60609103760225       -1.60348030184075
H            1.97988419245111        2.69839037276046       -3.01024200897726
H            1.32479141426587        2.20230383165097       -1.43426745939424
H            4.05578276993525       -0.57226591743593       -3.24106863093901
H            3.86866636942459        0.99010266418872       -4.03797778665206
H            4.64927468808454        0.90399637602262       -2.46182787157435
H            4.51788045181455       -0.73244461358760       -0.85747420085231
H            3.17722654621801       -1.43304463649085        1.78973214744928
H            4.82769379061908       -1.81138244207566        1.30236241584750
H            3.45824130403624       -2.56085016898850        0.46691047721587
H            4.32701457297674        1.61485178895195       -0.11873132027947
H            5.11960561738721        0.69920736128217        1.16294050200234
H            3.41190702182322        1.12703916730704        1.30849109957197
H            1.12415573498653       -4.65537409067160       -1.86360716541152
H           -0.80038828803323       -5.72907771059146       -0.74616053334018
H           -2.20614029276298       -4.40115593279602        0.82984579327925
H           -2.76752625366932       -2.14108294437689        1.75134524792697
H           -1.19013629513663       -1.62853680166317        2.39142246168094
H           -3.97498461934627       -0.79184072043361        0.52416139134584
H           -2.85852709188670       -1.24201047997273       -0.77829794794456
H           -4.17896577555021        0.56576284796864       -1.57222871729307
H           -2.59502369331679        1.26644970682777       -1.26791138012140
H           -3.92975626293108        1.54593701737732       -0.13477763556011
H           -3.18746954225372        0.87161258531234        2.07383006622614
H           -1.64335373297698        0.40010716986983        2.79539696958990
H           -0.53022899299952        1.80684351944953        0.79934908126136
H           -1.18029973379462        2.61882234005720        2.24672958002173
H           -2.12823833352837        2.60412607634707        0.76037200418832
C           -0.41491829187341        0.05895839223908       -1.58368468979160
O           -0.69954718387245        0.03052909538929       -2.70141204523657
C            0.87320507775953       -0.11567186000090        1.71555531083525
O            1.35507260337022       -0.07399488214622        2.76928501358298
