64
 energy: -92.386950626870 gnorm: 0.000135375277 xtb: 6.7.1 (edcfbbe)
Ru           0.17804759831072       -0.86831003644615       -1.07595342900148
N            0.70665756215975       -2.72818979966383        0.01244894086580
C            1.90722399333069       -2.52242624307789        0.84645667978053
C            3.06342087918223       -2.02664509478800       -0.02530877879888
P            2.45246711698441       -0.58440340334997       -1.02893411664701
C            2.40926324387202        0.71214530644258        0.24994594090281
C            1.14639144283820        0.84485902796287        0.83571497542849
C            0.92142808550666        1.77643921434341        1.82953003988933
C            1.97505900960937        2.58080187441451        2.24608796898968
C            3.22839251366834        2.45911824453361        1.66684921200781
C            3.45312523512882        1.52799929733220        0.66484909335865
C            3.76208313392712       -0.14686381102163       -2.18962069641707
C            3.34321340689511        0.42067755551473       -3.39172402045408
C            4.28193499858342        0.81504691579123       -4.32738223306520
C            5.63236726204564        0.63933557552120       -4.06614310680439
C            6.04727467941485        0.06676019843801       -2.87283939039218
C            5.11767837491941       -0.33124861810052       -1.92880280740606
C           -0.43244614479416       -3.34546760549975        0.72720311646893
C           -1.36265393104738       -2.28430355070833        1.31011728554433
P           -1.89139864287537       -1.18910588405350       -0.10121512419938
C           -2.66548014936034        0.25005300611327        0.70049741125036
C           -3.04349267822248        0.30144969089206        2.03928497416925
C           -3.63047258316429        1.45180367656461        2.53940483886194
C           -3.84377040735678        2.54536160232237        1.71556379436191
C           -3.46923278636756        2.49526869591070        0.38109571320349
C           -2.87955377950936        1.35288596897113       -0.12627051619140
C           -3.31290218623035       -2.06714672146380       -0.81044922491299
C           -3.27303623178333       -2.46101602489474       -2.14286537156610
C           -4.35004413119933       -3.13350684641287       -2.69396688761718
C           -5.46567602623406       -3.40504038420226       -1.91834780620762
C           -5.51224131529487       -2.99723361067472       -0.59284909388583
C           -4.44115801489795       -2.32540395418289       -0.03496266710262
H            0.99019082410941       -3.39531332068294       -0.71280711169014
H            2.19513948303049       -3.46227757862965        1.33712778455215
H            1.68124902629545       -1.78770580010187        1.63015244198905
H            3.38319774691185       -2.80762661323078       -0.72521117594837
H            3.91554639801326       -1.73939734476188        0.59705963407457
H            0.29848020530046        0.19314421084559        0.48277716023984
H           -0.05886576866406        1.88435232419923        2.27140882483298
H            1.80934578788194        3.31161418605619        3.02289176846379
H            4.03494557043244        3.09827919683335        1.99335709081458
H            4.42332515125992        1.44342787740212        0.19618021263817
H            2.28080722171789        0.53996167667474       -3.57398184791002
H            3.96273606874141        1.25489350853047       -5.26019125119691
H            6.36617641725717        0.94551792297582       -4.79664493617535
H            7.10067095437757       -0.07130251787626       -2.67843780719690
H            5.44716022734480       -0.78273235382062       -1.00380579805162
H           -1.00146037243925       -3.94113813566762        0.00436862944254
H           -0.06904689089016       -4.01334851904647        1.51780118964385
H           -2.22568928020443       -2.76150514034785        1.78211876953712
H           -0.84081724197550       -1.67441904177509        2.05940314783542
H           -2.88740364947978       -0.54231467321498        2.69640256452879
H           -3.92367522979974        1.49265823437175        3.57835158541971
H           -4.30165374867630        3.43802074680315        2.11482417798917
H           -3.63462877775424        3.34735324150334       -0.26097490706118
H           -2.56953764818200        1.29887296399058       -1.16362969916889
H           -2.39973141369528       -2.22427319789495       -2.73871754479958
H           -4.31986682716249       -3.44152846878953       -3.72834463384691
H           -6.30619278769288       -3.92893156741422       -2.34831059522676
H           -6.38886425992332       -3.20037891424777        0.00428748248283
H           -4.48454685923179       -1.99153047767454        0.99306390325442
C            0.04493801315570       -1.69390547788042       -2.71117472463489
O            0.03849113519044       -2.13500354608492       -3.77171635629268
H           -0.15489155575387        0.45245972235598       -1.79656617365353
