47
 energy: -70.197165370371 gnorm: 0.000079888665 xtb: 6.7.1 (edcfbbe)
Co           0.21922403069711       -0.35656309867584       -0.20787828903035
C            2.54371502332295       -2.41059196466610       -0.10807980095477
P            2.36197364471198       -0.58014960478024        0.05237061161035
C            2.73934320671019       -0.19947631369683        1.83423455609279
C            2.17987129416066       -1.26779610247243        2.77136536761495
C            2.06464313359243        1.13933370585365        2.14183395701410
C            3.79886353998289        0.02989444840647       -0.95398036805389
C            3.43866661666973       -0.10258654245966       -2.43391033440238
C            4.17755540207432        1.47222507682519       -0.63148182094380
C            1.20552797893362       -3.01101609950421        0.18142261953916
C            1.06882257557476       -4.37109686975500        0.43617768568929
C           -0.19192012164375       -4.90068301561721        0.65076490039520
C           -1.28786932846035       -4.05450483720885        0.60398083153171
C           -1.08583789083001       -2.70156558094208        0.35844831627842
C           -2.14967940942653       -1.70116867204003        0.30951779806539
C           -3.49292508561813       -1.96966765505525        0.52633463013933
C           -4.40337250769068       -0.92261834293735        0.47953921647529
C           -3.94245294862100        0.35581785919183        0.24305382168623
C           -2.57316524184552        0.55545590460622        0.04165527142403
O           -2.05177617335579        1.76647236726139       -0.16060742185965
N           -1.70072367748150       -0.45350073219965        0.04953232857521
N            0.14689442194266       -2.19198604681352        0.15972327160635
H            3.33207211733419       -2.82290650737365        0.52777756721556
H            2.80910188471591       -2.63370085987060       -1.14746764593273
H            3.82642731488009       -0.12621230297101        1.96269669248174
H            2.33504833664242       -0.95659892281262        3.80328530934213
H            2.66421161763618       -2.23271314374203        2.64281988849599
H            1.10672073920153       -1.38373376519086        2.61584623474302
H            0.98655508329817        1.04438095819267        1.96726087184009
H            2.22733059313974        1.42020539000919        3.18084834876954
H            2.44093456929766        1.93939215651042        1.50918762595574
H            4.64540126832064       -0.63004891768051       -0.71513326837418
H            4.28622371977886        0.18679977117328       -3.05226761212552
H            3.16275253801742       -1.12124702761091       -2.70103148498564
H            2.60205122544969        0.55129643873265       -2.67610075633915
H            4.99148403456880        1.78702750308403       -1.28274975973055
H            3.33504135231132        2.13938765719416       -0.80424810527456
H            4.51444865359451        1.58141491145322        0.39667830874427
H            1.94438820093840       -5.00108942172244        0.45741670339071
H           -0.32031913095559       -5.95385322275237        0.84613184168982
H           -2.28000863372241       -4.44457480683460        0.75675230810194
H           -3.83298519120837       -2.97080027715085        0.72894465673863
H           -5.45509375863838       -1.10460722019135        0.63539451241203
H           -4.61890364299111        1.19674397521076        0.21400088488821
H           -2.72805793392472        2.45948277633605       -0.18098458254899
C            0.33363599549741        1.25101179787387       -0.87050214467310
O            0.53352593931733        2.22828589486935       -1.42691064554506
