57
 energy: -76.456981684046 gnorm: 0.000222250237 xtb: 6.7.1 (edcfbbe)
Mn           0.24365060157159        0.07040962689000        0.02614372486745
C            2.30583194245802       -2.13334218118543       -0.62471069542146
P            2.43165225901137       -0.46009414622680        0.17059492339977
C            3.89936579738840        0.30660024687706       -0.71418985728293
C            4.95772005537291       -0.68739495644618       -1.19065943625899
C            3.43332855679967        1.18914231841655       -1.86769640029892
C            3.28189131233140       -0.89123497950028        1.78557380794260
C            2.52427760496055       -1.96662659954805        2.55964103624051
C            3.43669259240400        0.36477100295878        2.64073151760156
C            0.99841412043977       -2.72012916617048       -0.19429221652386
C            0.83152121758700       -4.09102908372952       -0.08301786412446
C           -0.39430960005196       -4.60408698750571        0.31270923017447
C           -1.42161425912194       -3.70594229077304        0.55767340434637
C           -1.18752228682329       -2.34789487522339        0.42200466052090
C           -2.28478305454184       -1.34874869442371        0.68139462117465
N           -2.12109694776460       -0.15669071026801       -0.16497246749386
C           -2.77926914256906        1.02298481333719        0.44475065178430
C           -4.27954289726067        0.91407769099533        0.74092702113761
C           -2.72896843792940       -0.38431384520409       -1.49352126923369
C           -2.25024642753658       -1.61025133251504       -2.26443051847431
N            0.01084437887740       -1.84508163804594        0.07692373041318
H            2.27357433871930       -1.93850228897267       -1.70498232338908
H            3.14866580495612       -2.79332597264611       -0.40719519961566
H            4.34778770129592        0.96348841999765        0.04212144118337
H            5.83262272070761       -0.13731785915554       -1.53469970754969
H            5.27748030710862       -1.36010417770777       -0.39771680550233
H            4.58936007188328       -1.28014749552308       -2.02521758018522
H            2.63455051112861        1.85053809461893       -1.52932885483855
H            3.05774923738521        0.58780828855828       -2.69342080594495
H            4.25929780144363        1.79445127006540       -2.23844314555110
H            4.27829034858794       -1.27686654484818        1.53114985354073
H            2.50709891829934       -2.91541662313179        2.02619467676377
H            3.00053399954145       -2.13192702192942        3.52584439013271
H            1.49710299352240       -1.65483791480363        2.74455687020540
H            3.93576085250779        0.12335192986153        3.57854905485296
H            4.02057094229187        1.12833305911013        2.13121310647197
H            2.46141691778644        0.78939370443681        2.86826412045049
H            1.65889312687731       -4.74850985269601       -0.30541015347741
H           -0.54682311909875       -5.66686478153119        0.41675110740386
H           -2.40108643968744       -4.05245767595296        0.85277753192080
H           -3.26574283590504       -1.82440585112171        0.52994401760828
H           -2.22010752998733       -1.03748124637640        1.73310791185782
H           -2.26585417260924        1.24292094020803        1.38408372023552
H           -2.60466538759270        1.86973944028862       -0.22454501627281
H           -4.57797851869657        1.80954090287245        1.28098495408543
H           -4.50622912409229        0.05572032023103        1.36945726915658
H           -4.88139044997688        0.86056188355040       -0.16259631647869
H           -2.52587655570639        0.50806435361543       -2.09302214021729
H           -3.81756468812193       -0.48505877255552       -1.37993917376344
H           -1.16902733033384       -1.62426224638894       -2.37446466413346
H           -2.68448518829339       -1.57668394463194       -3.26222303342304
H           -2.56498643288887       -2.53862567878815       -1.79191173721536
C            0.37525598708539        0.22351355707914       -1.73731174975392
O            0.45576459481618        0.39245207010914       -2.88276224681423
C            0.05224557863177        0.32024785554509        1.77256653910003
O           -0.11406762311526        0.55064396523130        2.90041522981625
H            0.23233690287071        1.63336456057128       -0.01645012949304
