55
 energy: -71.017222842218 gnorm: 0.000783360931 xtb: 6.7.1 (edcfbbe)
Co          -0.45409110830745       -0.43032446886598       -1.25894535298142
C            1.77236588646600       -2.20870139855496       -1.68422732416572
P            1.80864521964110       -0.37087063443139       -1.34794874414440
C            2.47888949127547        0.31818916777030       -2.94798578147203
C            2.48968415907755        1.84322076554975       -2.85915181107867
C            3.82562667244838       -0.21030531176227       -3.42957370954203
C            3.25775120588661       -0.21434614003343       -0.13969161057047
C            4.31408989887100       -1.31626800081168       -0.18227759448077
C            2.70159748746721       -0.10884631887054        1.27948653168859
C            0.97164126943186       -2.72884793599664       -0.54090097158678
C            1.35104957437782       -3.81098234723153        0.23366920258315
C            0.59359502090803       -4.14460337827883        1.34879531914720
C           -0.52659806704359       -3.38127470561259        1.63660440769307
C           -0.86724521109051       -2.32938199808483        0.79892507716719
C           -2.12828909605433       -1.53902187306958        0.99558657781390
N           -1.93832800370030       -0.10932355811679        0.72489807228507
C           -3.25957521561146        0.47909482714463        0.47317583036653
C           -3.24808318943404        1.92133321453402       -0.01410674509586
C           -1.25338542320281        0.51133579067929        1.86468137393487
C           -0.47571898217654        1.76658379728970        1.48456568145307
N           -0.12350098524939       -2.00073729617243       -0.26295605030893
H            2.73861817470777       -2.70073463478274       -1.78515240066506
H            1.20311057333843       -2.31273088286059       -2.61546514852326
H            1.70130843106526        0.02898511420669       -3.66967748268142
H            3.25125400153071        2.19271626842135       -2.16346435357648
H            2.69654672136996        2.27847974960939       -3.83549582347903
H            1.51825894348862        2.20097363241450       -2.52114829318689
H            3.83384574258005       -1.29689727595162       -3.48416191600047
H            4.02324887557561        0.17475701416375       -4.42967846873075
H            4.63161230029833        0.12473680430074       -2.78041600400642
H            3.73013247506829        0.74301669805243       -0.39341081508693
H            3.91281423544986       -2.24541810457485        0.21851658917077
H            5.15658282021177       -1.02279493310076        0.44443621333676
H            4.69176634829237       -1.49777253379348       -1.18386292889202
H            2.02023825001055        0.73310398950781        1.36128820390559
H            3.51059228643085        0.03121219469145        1.99632730936057
H            2.16417001075820       -1.01851174333564        1.55028937340428
H            2.22953171373337       -4.38153785784792       -0.02859435342544
H            0.87442224328912       -4.97483474264051        1.97847773462647
H           -1.13974639221193       -3.60207942849928        2.49712355223354
H           -2.85064674219009       -1.92666362712169        0.26668619873331
H           -2.53986514221023       -1.71207093639468        2.00391374244464
H           -3.88424013042300        0.40168049416664        1.38093990393424
H           -3.72585863405681       -0.12271924902270       -0.31120205828932
H           -4.20715067846094        2.14594828293783       -0.47591298643191
H           -2.46672012655446        2.04056170215517       -0.75954821614733
H           -3.09521091051445        2.62676748722857        0.79689099160636
H           -1.96995049168185        0.73271276820214        2.67251723764418
H           -0.53563941804212       -0.22111869723627        2.24782182300485
H           -0.01135919073734        1.60080386506690        0.51002224164258
H            0.29257027031225        1.96535115629874        2.22963523376840
H           -1.10800421520104        2.64421647243183        1.41563220044277
C           -1.67551473357587       -1.07498469558215       -2.30059931075217
O           -2.40066286470120       -1.47347724039769       -3.11604248526856
H           -0.63263147870075        0.82207368262833       -1.97519936177836
