59
 energy: -87.233675612357 gnorm: 0.000198813070 xtb: 6.7.1 (edcfbbe)
Mn           0.21283710590355       -0.07342935271218        0.17298015539858
C            2.41461562263759       -2.27074675892538        0.58693237370132
P            2.33756542392938       -0.41756249021153        0.65706059092301
C            3.78002542254186        0.03906396693697       -0.36455858493933
C            3.64234961841329        1.06428528688720       -1.29238769760732
C            4.71840555871646        1.43590968360033       -2.08016963539564
C            5.93412555805673        0.78632214977905       -1.94112503158855
C            6.07848664551954       -0.22797055542377       -1.00634880020953
C            5.00781672879312       -0.60038336976258       -0.21484227433747
C            3.03102770250057       -0.06507311200712        2.30852851994391
C            2.80653272158434       -0.89894238483252        3.39968240479696
C            3.29042718361503       -0.55352551226236        4.64893133943328
C            3.98912311363685        0.62973387166166        4.82240627649084
C            4.19326546327780        1.47724202437760        3.74457261762278
C            3.71067448457152        1.13658211942718        2.49510497695012
C            1.01970950332420       -2.79445576957869        0.74782325267553
C            0.78320332497605       -4.07478680048627        1.22133080029536
C           -0.51203103839379       -4.57223918955830        1.23891359384751
C           -1.51410075808530       -3.78790061524352        0.68721073900474
C           -1.20301029732110       -2.51916941871510        0.22818025906807
C           -2.18917550444245       -1.69461142060299       -0.54974068223395
N           -2.17152439997287       -0.27059327544935       -0.16705789733129
C           -2.94601948176070       -0.18084883648587        1.09110089079453
C           -2.97386003849635        1.18875905225720        1.76109454579624
C           -2.84345481856711        0.48002307408672       -1.25311820377813
C           -2.61886771345636        1.98663595251843       -1.28096134836636
N            0.02602577569897       -1.98743910276431        0.33359336740911
H            3.11654444683345       -2.71240096506352        1.29839879142641
H            2.75228847859904       -2.51098430201650       -0.43186363108361
H            2.68191634942050        1.55985710671576       -1.37705936560109
H            4.60891712422978        2.23156750607418       -2.80293324525483
H            6.77408274172315        1.07265260752533       -2.55764867497152
H            7.03057508159627       -0.72709415443929       -0.89354099363843
H            5.12485385498522       -1.38110828532298        0.52509361228906
H            2.24174234867652       -1.81547745175092        3.28149887361987
H            3.11510967017244       -1.20711052843063        5.49218373074483
H            4.36502982255522        0.89575037921532        5.79984091940061
H            4.72481103571209        2.40806627439604        3.88159616212547
H            3.85068837398873        1.79838306158228        1.65011922018770
H            1.61062163437253       -4.67695401268742        1.56626879176913
H           -0.72549769484140       -5.55386733685366        1.63189616037425
H           -2.52577010945695       -4.15557078766826        0.60534622149734
H           -1.88632597179288       -1.77658251881826       -1.60363870007920
H           -3.20365994454964       -2.11622208935948       -0.46098157043751
H           -2.50707397748054       -0.90119205675020        1.79044047494844
H           -3.98235379837363       -0.50569219807793        0.89460930240220
H           -3.13635266076999        1.06268429466038        2.82952396922182
H           -2.02270553806421        1.69703280323457        1.61407776512838
H           -3.77605081880732        1.80880491902077        1.37205966492879
H           -3.92315187652860        0.26472167645928       -1.21819130201108
H           -2.45458564004285        0.09307914529558       -2.20006813850093
H           -2.91990690876385        2.36203945754844       -2.25688916553345
H           -3.18895037507664        2.51379222567247       -0.52555258820909
H           -1.56019647071319        2.19434801457547       -1.13725862672290
C            0.50409441401875       -0.10893499269109       -1.58101006486502
O            0.73627716890577       -0.17451937116397       -2.71575333682169
C            0.01004760093752        0.06689495714349        1.93366242504982
O           -0.04009966062069        0.08987963397641        3.09010180325444
H            0.22635227841298        1.47718163876776        0.12475124495387
