51
 energy: -81.824515100426 gnorm: 0.000222601976 xtb: 6.7.1 (edcfbbe)
Fe           0.17688658532800       -0.23692682929270       -0.00834091057507
C            2.38227720434771       -2.39070774013718       -0.04583966461037
P            2.27113121392023       -0.56578262644100        0.30782513852513
C            2.99654476550240       -0.44910021427761        1.97486530477007
C            3.83161578472191        0.60938156351874        2.31795531243044
C            4.30600351746673        0.72683075040066        3.61262787513132
C            3.94321074796455       -0.20257298911841        4.57375102474369
C            3.09110260081979       -1.24484871413424        4.24245931957516
C            2.61229749254835       -1.36417197143483        2.95119990690823
C            3.64657522581562        0.06675700262886       -0.71273966615908
C            3.40712398075600        1.12157251951780       -1.58452614868419
C            4.42914224771930        1.61135302908114       -2.38028345915371
C            5.69325000343897        1.04974433764965       -2.30510946069567
C            5.93887695203875        0.00252444213587       -1.42918193741410
C            4.92174717643280       -0.48825711244805       -0.63193919824109
C            1.02262271834417       -2.97057183757780        0.20224649104448
C            0.84994794136050       -4.32368555784388        0.40270013866263
C           -0.43338707922453       -4.84192218673618        0.56929722892056
C           -1.49935799575674       -3.97210477442762        0.50794320359946
C           -1.27086976685037       -2.60939297592741        0.31214718836927
C           -2.31274814693399       -1.60765826427779        0.22700419925371
C           -3.67937229357404       -1.87063373138477        0.30982785319170
C           -4.57739115214699       -0.82471063217958        0.21023396655807
C           -4.09515619941289        0.46093592417345        0.04681914607572
C           -2.71573127763373        0.66334602864856       -0.01803899173995
O           -2.25761352754008        1.90194138840639       -0.15463328070169
N           -1.83872693501375       -0.34731501731716        0.04738283395437
N           -0.01391516530200       -2.10168327000696        0.18129764527476
H            2.61263495683901       -2.47629480825237       -1.11688624824421
H            3.16256992279379       -2.90605486042677        0.52147142972675
H            4.10470870523900        1.33978038825521        1.56770246261109
H            4.95712599719912        1.54895913922537        3.87430256144341
H            4.31526734006655       -0.10935080796973        5.58403541574145
H            2.79611309335378       -1.96162610501229        4.99604648393391
H            1.92537265555819       -2.16153502982860        2.69773344610531
H            2.41331501086406        1.54866097483271       -1.62111910902596
H            4.24036487869049        2.43140339805119       -3.05839639062659
H            6.49130140030718        1.43039212132365       -2.92638470345981
H            6.92802259139477       -0.42893611705865       -1.36820394551353
H            5.11406911786708       -1.29573577222740        0.06163692623368
H            1.71180437301171       -4.97362840925271        0.42269894284040
H           -0.58367638837520       -5.89762428265860        0.73163889991688
H           -2.50713455644790       -4.33804930805926        0.61596431200078
H           -4.03264882615455       -2.87843798263817        0.44964418217192
H           -5.63983089278403       -1.00522796733071        0.26655253926499
H           -4.74433528314812        1.31746935019504       -0.02519036396308
H           -1.27242895567655        1.86129645813908       -0.09797758462076
C            0.30260871981457       -0.22423002455496       -1.74990411186657
O            0.36814029739564       -0.20815382961532       -2.90347247267020
H            0.08794464517912       -0.00574320352507        1.44331511203520
H            0.30478098221255        1.23667791228101       -0.05629117146886
