55
 energy: -71.015527611085 gnorm: 0.000338409509 xtb: 6.7.1 (edcfbbe)
Co           0.36452033477776       -0.26828276178562       -0.97882907126116
C            2.41955382362481       -2.26619331889567       -0.68647307335201
P            2.30516636758632       -0.55976664493635        0.08199664131074
C            3.82102972167803        0.21952885084066       -0.69000209371850
C            5.16289972639528       -0.38346591150544       -0.28454886783539
C            3.81271218370305        1.73658129714608       -0.51539592913962
C            2.81990677117063       -0.97103899466308        1.84625359656971
C            1.75442234976453       -1.85084277899011        2.49692623880467
C            2.99177727922595        0.31390356947396        2.65281162968480
C            1.07720247637280       -2.89075146348786       -0.48422147054779
C            0.89483521893773       -4.25532205302118       -0.33439622531116
C           -0.36676163825023       -4.73754504760445       -0.01476616081445
C           -1.37440286821047       -3.82041575632204        0.23890676710632
C           -1.12096158240319       -2.46656499501040        0.07442454423553
C           -2.11241163041532       -1.43574679952168        0.54607722837313
N           -1.99751259432701       -0.15079732127926       -0.14269033624255
C           -2.24889617811794        0.96419483628313        0.77329194076899
C           -1.07140539229439        1.19276968586191        1.71256136988589
C           -2.94414090426747       -0.14733078510481       -1.26507861497965
C           -2.84960247461107        1.07789388870179       -2.16637009103541
N            0.06186158955514       -2.02065191388785       -0.36138781591591
H            3.21598143306967       -2.89649482298975       -0.28044786968954
H            2.60473252998681       -2.10325654522249       -1.75408719253188
H            3.65092355816720        0.02157737838882       -1.75898491141183
H            5.16778968527166       -1.46506083234186       -0.40344278905010
H            5.94835723641166        0.02712384311686       -0.91819051445266
H            5.40831575971716       -0.14219889795634        0.74721984605509
H            2.82900968730071        2.12905786932948       -0.76725685679833
H            4.05146769455160        2.02820187592605        0.50408020997147
H            4.54594775885429        2.19350258143615       -1.17865129384107
H            3.76670074534936       -1.52240201330492        1.81601408835805
H            1.68914646656810       -2.82651111581775        2.01841738009991
H            1.98871330298621       -2.00815277877035        3.54982254799186
H            0.77863535593952       -1.36977665906913        2.43502088329523
H            3.12189176706133        0.08344537501502        3.71013568011686
H            2.11201216560617        0.94815004831033        2.54631567862741
H            3.86183966470153        0.87585653536889        2.32374870501884
H            1.73005102523041       -4.92772234926171       -0.46139202960234
H           -0.54612529871252       -5.79755875723411        0.07888608376795
H           -2.34760692159214       -4.14759624162723        0.57183651339669
H           -3.13521913310971       -1.83968522078456        0.48198530290053
H           -1.89501173827272       -1.28801486501308        1.61050126814419
H           -2.36485211516984        1.86064324805042        0.16634138818102
H           -3.18015271391425        0.80567430311873        1.34288904653228
H           -1.02847531964967        0.46025232285366        2.51682296988665
H           -1.13224256799410        2.18186626978107        2.15995235691987
H           -0.15469981133290        1.12795395401156        1.11749562218808
H           -2.72423388682858       -1.03527357458375       -1.86415229277873
H           -3.97775246850119       -0.24055674106502       -0.88470987143071
H           -3.30894443729423        0.85538215027495       -3.12645822523798
H           -3.35995602440884        1.93832932676226       -1.74090543136339
H           -1.80348436463578        1.32593952365353       -2.32814969276974
C            0.03062367966056       -0.66714761847633       -2.64008779785194
O            0.05832865086133       -0.92524414798700       -3.77230056681384
H            0.58728308619761        1.10163999900132       -1.41294697106084
