47
 energy: -70.114992868195 gnorm: 0.000198489910 xtb: 6.7.1 (edcfbbe)
Ru           0.02898014201807       -0.23280894910978       -0.34197948945992
C            2.36817824848737       -2.31951306581804       -0.02668797003190
P            2.30011254422199       -0.51031044754189       -0.50851460751172
C            3.12384051054781       -0.51922146850903       -2.19335044995521
C            2.45834231737761       -1.60176772224791       -3.04741688432497
C            4.63967676809715       -0.68876574926487       -2.21756627976217
C            3.40488148138412        0.29482524712487        0.75403109598489
C            3.38477238223386        1.79080191042063        0.44292327128247
C            4.80917586901283       -0.24470276407814        1.00895144193583
C            1.04683156819709       -3.00348243788819       -0.27104351958620
C            0.91828544913274       -4.38317124306987       -0.32255234009875
C           -0.34933016822711       -4.95299337324029       -0.39051851357824
C           -1.46413993526195       -4.13392443273265       -0.34939676360224
C           -1.29464540254284       -2.75324283354248       -0.31302729934475
C           -2.35623127611863       -1.74606061187388       -0.21095947859612
C           -3.74624399997510       -1.85201580387275       -0.16735676755349
C           -4.47362274306764       -0.66595640963179       -0.05843803007139
C           -3.87656176909383        0.58325086301220       -0.01131026968386
C           -2.46673823529316        0.64574840571202       -0.07227621124964
O           -1.64986970422446        1.62866304333378       -0.10341866453609
N           -1.82410949702509       -0.53035121140568       -0.14087714058202
N           -0.03756166978980       -2.21662274415446       -0.33608800906849
H            3.19587273875791       -2.86097033369786       -0.49055987137711
H            2.52232331201466       -2.31354859061196        1.06106576582666
H            2.86688915575178        0.46248955536143       -2.61596888610495
H            1.37942345142106       -1.63036527904127       -2.88051429889934
H            2.86679859587542       -2.58362871425741       -2.81779366028745
H            2.63038570657060       -1.40280548146708       -4.10380565640771
H            4.95226705476445       -1.54924405675540       -1.63124836769758
H            4.96349496481741       -0.84351050357093       -3.24618399332986
H            5.14096225515207        0.19883597475492       -1.84345262966200
H            2.80290876437463        0.13585886707001        1.66220114551656
H            3.80000444753488        2.36578123158544        1.26834046249087
H            3.95816358752989        2.01275925899976       -0.45637161848896
H            2.34711126308225        2.11005664141195        0.28292682709142
H            5.51733613883343        0.10149770608053        0.26335190098074
H            5.15052810926949        0.11470491523683        1.97890396731984
H            4.82246487465897       -1.33196754798006        1.02973368816537
H            1.79818511863433       -5.00669133327094       -0.29155942993818
H           -0.46101307457136       -6.02458455085879       -0.44123668081090
H           -2.46041621417136       -4.54614226974452       -0.34293338738835
H           -4.24638793412211       -2.80504653159989       -0.21624141529825
H           -5.55226083045846       -0.72478439886589       -0.01697484041385
H           -4.46411629108835        1.48492420849802        0.05675049861450
C           -0.24075824477903        0.14605239108506       -2.13921389382529
O           -0.49912880102106        0.53172108804724       -3.19113836277589
H            0.18755925866057       -0.25766225512004        1.21283997922134
