66
 energy: -98.539431194575 gnorm: 0.000180709337 xtb: 6.7.1 (edcfbbe)
Mn           0.01443766682549       -0.27791839017841        0.42466804039637
N            0.01053006960623       -2.51763865173068        0.08994507311883
C            1.27239641928115       -3.02026601163601       -0.44789867198231
C            2.42134230690233       -2.45413807354800        0.37946307903399
P            2.20267172297836       -0.60884919203828        0.39461126036449
C            3.39153124459322       -0.12764222028628        1.69451479091403
C            2.98196487419217        0.74692476523316        2.69328236963271
C            3.86865342701575        1.13404839676456        3.68348048515525
C            5.16754739189823        0.65329298541131        3.67555025317828
C            5.58497441065280       -0.20540855144108        2.66956417484183
C            4.70417070796719       -0.59244990134992        1.67717479358511
C            3.16157531644844       -0.03331791655624       -1.04890973392453
C            3.26857679177217        1.35467465654416       -1.13667631812189
C            3.94274325853592        1.94112064352029       -2.18867451643431
C            4.51018708835610        1.14549171595700       -3.17332427105891
C            4.39392670460158       -0.23144843316523       -3.10019655585432
C            3.72049765172267       -0.82445375279771       -2.04419070063120
C           -1.16043013829573       -2.98015665466015       -0.65095334417620
C           -2.41362897098889       -2.39860191059496       -0.00586260153496
P           -2.15842109072719       -0.56022968286372        0.10766676067431
C           -3.49138940537811       -0.09854788711956        1.26768381475275
C           -4.79484587545230       -0.55333657406436        1.08512458380134
C           -5.78550152175722       -0.18030174694069        1.97398888935148
C           -5.48642940086795        0.65445005831262        3.04043797755223
C           -4.19536420190280        1.12530145253737        3.21263388727250
C           -3.19920742583299        0.75189283478348        2.32671053096474
C           -2.91742046463870        0.09204449925901       -1.41954289242446
C           -3.30105575148836       -0.64681665591432       -2.53110642906916
C           -3.82858010359708       -0.00335335594322       -3.63914836933804
C           -3.97077381342717        1.37308809678871       -3.64891437253926
C           -3.57426462003336        2.11749610075445       -2.54753272174827
C           -3.04598924180679        1.48077526087259       -1.44265938767356
H           -0.07552407263705       -2.88210600318132        1.04386629224586
H            1.29415646032295       -4.12306337410030       -0.44599970696797
H            1.35940801940679       -2.67929151088180       -1.48752292560093
H            2.34218408214139       -2.78918106049514        1.42171901223834
H            3.39444325636094       -2.76253132004255       -0.00760135315284
H            1.96458034928041        1.12003063997373        2.67313028631009
H            3.54644922110094        1.81238173569525        4.46043370523692
H            5.86030504978243        0.95276682459691        4.44889033178432
H            6.60247076457493       -0.57006461893057        2.65838016100101
H            5.03728145215023       -1.24710211550750        0.88285482886686
H            2.79664353993650        1.95683596419440       -0.36738313759639
H            4.02199093271743        3.01711072229036       -2.24901347646692
H            5.03504608276135        1.59944553635297       -4.00159345405238
H            4.82617916405595       -0.85213115192407       -3.87302212249298
H            3.63700715974051       -1.90238818206996       -2.01749243344595
H           -1.07249930562623       -2.62367431079233       -1.68512899816153
H           -1.20775060909870       -4.08203833571884       -0.67177046325360
H           -2.51621980615903       -2.76549794307660        1.02353325998256
H           -3.31661017345555       -2.66572984361156       -0.55837910759286
H           -5.03445733208039       -1.18943644656299        0.24352030134152
H           -6.79614363096396       -0.53746551723902        1.83450810079577
H           -6.26445933328456        0.94258799121242        3.73274519913563
H           -3.96414857256328        1.78463594336048        4.03692188817934
H           -2.18475042389740        1.11731578646452        2.43626368295577
H           -3.19080902565869       -1.72245580707090       -2.55458285921813
H           -4.12575959948512       -0.58350880998849       -4.50192553767933
H           -4.38155882554236        1.86707823528243       -4.51772459391493
H           -3.67240955991918        3.19360693158122       -2.55721138683748
H           -2.70861298873081        2.04432348997059       -0.57947930154165
C            0.12714094376263        0.04280635065359       -1.31455094509842
O            0.20055094633539        0.23734597906159       -2.45370166654406
C           -0.09460778208519       -0.52806358395214        2.17555189224462
O           -0.16289165107361       -0.74112676306494        3.31604663418945
H            0.01182818783328        1.29131815540148        0.65666267856483
