54
 energy: -70.212800643512 gnorm: 0.000186908290 xtb: 6.7.1 (edcfbbe)
Co           0.06190855984495       -0.19516083560510       -0.26262365229533
C            2.43579251807553       -2.00848322345321        0.40076129466445
P            2.22789446450443       -0.37163426669124       -0.43654275447512
C            3.54128332136837        0.70164694754175        0.31244359060437
C            3.22274340640979        0.89843207493211        1.79480114811095
C            3.60111873353625        2.05391298838767       -0.39515939900607
C            2.70322631232890       -0.81573409499146       -2.18115613440243
C            1.97223907820264        0.11994782770383       -3.14241543150224
C            4.20496819382211       -0.87782589930326       -2.43900832141687
C            1.22751187379799       -2.78936999881302       -0.00045971590997
C            1.21594661104300       -4.17480519962729       -0.07185658602454
C            0.05193109716114       -4.82548314576135       -0.44882082450266
C           -1.07360153013893       -4.07043399588477       -0.73951906328060
C           -0.99189989489666       -2.69013065014604       -0.65462328031416
C           -2.13471298357962       -1.77363629910240       -0.95926488873157
N           -1.97574266031289       -0.53893454517744       -0.17137014777254
C           -2.89477487202570        0.49921504797591       -0.67506912450484
C           -2.56084385025647        0.95773683249273       -2.09072044890965
C           -2.28267279312209       -0.82988278152752        1.24984984405336
C           -1.49513049896135        0.05830154311347        2.20361792857348
N            0.13827662372621       -2.06725874091547       -0.29942428764963
H            3.36582911373023       -2.51729533799842        0.13374111132970
H            2.42405078228201       -1.85526795289859        1.48411312313150
H            4.50195022474020        0.18257930786867        0.20302297943882
H            3.89106891720471        1.64467763178638        2.22006526063044
H            3.34910669869413       -0.01943522785071        2.36419563119924
H            2.19866190826519        1.25355169257422        1.91732840560414
H            2.65467200882808        2.58046269170558       -0.29444686117663
H            4.37882632368387        2.67026747348508        0.05287667897526
H            3.82646318775001        1.95036525517846       -1.45345060484043
H            2.28756422608610       -1.82590256433773       -2.31608177507754
H            0.90585045960954        0.13115791507153       -2.89914915935576
H            2.34918900165710        1.13751293546554       -3.07082521106654
H            2.09355641893687       -0.21698214552405       -4.17023541608844
H            4.65993093351749        0.10839962299863       -2.40117778046967
H            4.38401883961484       -1.28804515656399       -3.43170325802101
H            4.70716211335869       -1.52004631185463       -1.71711660162906
H            2.10785053804358       -4.73190161918918        0.16818930309793
H            0.02142773474849       -5.90216304448283       -0.51034438050629
H           -1.99961735309144       -4.53991902065437       -1.03108074704359
H           -3.10118383039006       -2.25460176083593       -0.75771762740769
H           -2.09401456294951       -1.52211504286271       -2.02310056799036
H           -3.92531642771552        0.12057964311665       -0.64422216083723
H           -2.82684096976938        1.35097591303266        0.00319076653931
H           -2.97539985207807        1.94763791976555       -2.26145412148742
H           -1.47810245224733        1.01443767238225       -2.22166976755627
H           -2.97352833290503        0.29328699914523       -2.84608521368720
H           -3.35867910159676       -0.71674634184968        1.42710823142084
H           -2.01862551503801       -1.87005488503087        1.45668282986164
H           -1.76166268608057        1.10620300138534        2.09124941389736
H           -0.41825620012431       -0.06233928519764        2.01773421614220
H           -1.70009816148104       -0.23534303561596        3.23060636504002
C           -0.00240145207467        1.54035500784675       -0.23371307623968
O           -0.01577911130204        2.68318538375219       -0.18250460569425
