64
 energy: -92.259543942091 gnorm: 0.000324976617 xtb: 6.7.1 (edcfbbe)
Fe           0.21814192763157       -0.86224196562092       -0.39916563569326
N            0.43980326008277       -2.90760292826841       -0.65030854268094
C            1.16139012232239       -3.42705107075198        0.53568601868330
C            2.50302498774463       -2.71465964718566        0.68445939428137
P            2.23394726683329       -0.91962891700099        0.34174584565571
C            3.84884893882289       -0.34206700926535       -0.25308874589729
C            4.66524045243438        0.49949983212539        0.49337755716047
C            5.88241427375862        0.90471120387909       -0.02708350147048
C            6.27962108261709        0.48283669514775       -1.28565686808574
C            5.45790667128853       -0.34535893898698       -2.03657292758852
C            4.24161545924340       -0.75368709449414       -1.52455963519215
C            1.90013736758819       -0.01618411160107        1.87844379156017
C            0.90485423000773        0.95042157254570        1.70327827340025
C            0.38288714569236        1.61635136756401        2.79001126765549
C            0.86244630942303        1.32384076168367        4.06180256527623
C            1.85512600497563        0.37609466035994        4.23797215082293
C            2.37689871289614       -0.30368726436621        3.14652186866696
C           -0.85803970200261       -3.58977810182706       -0.86266125006637
C           -1.93655165592097       -2.99542137157521        0.03891592526594
P           -1.90669695103011       -1.17437004091719       -0.29142551760938
C           -2.57091448903342       -0.35098165715418        1.18250355662118
C           -2.17214306277747       -0.74338672670797        2.45686204982318
C           -2.55844880537429       -0.00531676461378        3.55936275923375
C           -3.32789335697612        1.13687185927077        3.40083589107940
C           -3.71039849967138        1.54348324185870        2.13260255811810
C           -3.32801039690316        0.80891717218020        1.02458546206020
C           -3.22967936187623       -0.99988625337763       -1.53012444166931
C           -2.93416025026269       -0.59249883824742       -2.82397134962814
C           -3.94506123337825       -0.49819706428703       -3.76577994044966
C           -5.24885067119597       -0.80705929339045       -3.41455713861699
C           -5.54633776938898       -1.21120015606168       -2.12081674153818
C           -4.54151389863100       -1.30978506307614       -1.17776449101179
H            1.02405980028266       -3.13192688791340       -1.46243061961532
H            0.54646207575561       -3.24313772664824        1.41578617314095
H            1.31841977562806       -4.50641743267768        0.42865128146501
H            3.22031984871969       -3.07414463106218       -0.06414417116193
H            2.93257487859427       -2.87269218428826        1.67741979028950
H            4.35196091862270        0.83497619180636        1.47197179382787
H            6.52262849565254        1.55542402569046        0.55058698915806
H            7.22897071954003        0.80594378889040       -1.68696099713141
H            5.76671434719555       -0.66349916001172       -3.02151124766662
H            3.58235463192695       -1.38327155022117       -2.10917190386540
H            0.53379585197203        1.15858591473613        0.68065727142148
H           -0.39910280744290        2.34935615424031        2.65944067208674
H            0.44865775110214        1.83643110921100        4.91758800970547
H            2.21699250916487        0.15123291994971        5.23078406839148
H            3.14007423963776       -1.05667928425318        3.28622669533570
H           -1.14377064114201       -3.43297769847504       -1.90754813191449
H           -0.74956000315624       -4.66457144888544       -0.68095803615353
H           -2.91533440892800       -3.42059787173151       -0.20074180475730
H           -1.72047676760342       -3.17638360671481        1.09322891468782
H           -1.54798009560185       -1.61212205269496        2.59295801467077
H           -2.25254921897637       -0.31679432393262        4.54738519203160
H           -3.62323353457402        1.71460750187879        4.26477948127753
H           -4.30167840119061        2.43900963677699        2.00533642690812
H           -3.61923967257264        1.13098218668649        0.03298466488387
H           -1.91466626241295       -0.34804022759912       -3.08574353502049
H           -3.71714847464767       -0.18168811212019       -4.77314827184925
H           -6.03760997499219       -0.73121098339400       -4.14878709612710
H           -6.56520271187630       -1.44771400299172       -1.85031869312770
H           -4.76808599414304       -1.61556185414344       -0.16492114706880
C            0.51111692161337       -0.38300972193959       -2.05974348152404
O            0.77403947253042       -0.00476950848242       -3.10919189707882
H            0.01794684464933       -1.17627696796277        0.96238945821052
