48
 energy: -70.191835496567 gnorm: 0.000284818466 xtb: 6.7.1 (edcfbbe)
Fe           0.08853010977564       -0.24960561478539       -0.10224273350153
C            2.41170603637373       -2.21903359766499       -0.23831907587863
P            2.23031342246542       -0.41025951042931        0.17305293981450
C            2.86716593512108       -0.32047669690445        1.92093242743349
C            2.32546744250988       -1.47590459884746        2.75938550965408
C            2.41770810851802        1.00178585610508        2.54101257585295
C            3.62011821533605        0.27842746776508       -0.87343609563378
C            3.16705761119756        0.33412180140619       -2.32979187329450
C            4.04811151828855        1.66989154826395       -0.41583167936470
C            1.12641807625369       -2.91104932712734        0.07631544562448
C            1.03266012839142       -4.26745934748319        0.33077665296156
C           -0.21055389524206       -4.84104430428447        0.56512866071514
C           -1.33718243936814       -4.04062015238442        0.54400160429578
C           -1.19343371566275       -2.68183335592198        0.30032368974589
C           -2.24049515375274       -1.68395189228889        0.30071235085031
C           -3.60858500930921       -1.78018772026378        0.53307657236602
C           -4.35935396718722       -0.61602036584704        0.54679048508425
C           -3.76390443475454        0.63141833593405        0.35114204944075
C           -2.40604685766209        0.65189487025448        0.11800941008007
O           -1.56555184856500        1.68685670490084       -0.08479811479730
N           -1.69721313043855       -0.47440529374066        0.07268243634666
N            0.03174606573836       -2.12943691490282        0.06463773751199
H            3.26664426619904       -2.68061041258295        0.26393284524698
H            2.58184229625871       -2.28773006337120       -1.32006219020867
H            3.96419942008454       -0.37083091254872        1.87635385023427
H            2.55971971134026       -1.30053517448290        3.80814285019404
H            2.75646794076856       -2.43400452418971        2.48021880912982
H            1.24261398806618       -1.53084995344193        2.66286416287920
H            1.33164489155894        1.01570152179704        2.60360337232095
H            2.82218808984428        1.10101691625060        3.54721977714861
H            2.73675227489642        1.86199394367040        1.95831882955850
H            4.46491880944730       -0.41625319336926       -0.77100320317503
H            3.98987012488673        0.66255884126040       -2.96318593610110
H            2.83201329518313       -0.63377401481934       -2.69717127555830
H            2.34954315026845        1.04599042542161       -2.43939308909434
H            4.77788235113790        2.07702883713119       -1.11506417620534
H            3.19206878509883        2.34425215560436       -0.39302619105276
H            4.51220009295841        1.64563801936996        0.56711627941917
H            1.92713404637341       -4.87088393431783        0.34074460885058
H           -0.29270840492949       -5.89828125993313        0.76347268911289
H           -2.31740127589391       -4.45138607431550        0.72367080660515
H           -4.07160291472487       -2.73694467988934        0.70831786315169
H           -5.42174562282000       -0.66723484440163        0.72779821396838
H           -4.34519001613620        1.53933681692220        0.39117640147983
H           -1.99641889491636        2.54752599145987        0.01988066254595
C            0.06524162959880       -0.39237484954690       -1.85802220618588
O           -0.11002983897405       -0.62561607983809       -2.96116429430799
H            0.10483496229538       -0.16927067154090        1.30336246252341
