55
 energy: -75.372838142645 gnorm: 0.000178421756 xtb: 6.7.1 (edcfbbe)
Mn          -0.01169643611425        0.01407380722106       -0.02019172839052
C            1.99736429986441       -2.07053870218307        1.05014305728473
P            2.15173704548364       -0.38113703333729        0.55514786307199
C            3.04727319048169        0.58687636948364        1.89796961527440
C            2.47302935474017        2.00311205959792        1.96044676846940
C            3.00358654343179       -0.09843341528325        3.25852473253380
C            3.46859198347611       -0.37409029905981       -0.79388163511507
C            4.75626730407224       -1.09209528123182       -0.40187508814215
C            3.73856858764891        1.03373130792353       -1.31517459450685
C            0.81939605458730       -2.70930652869587        0.69841114693348
C            0.55767015746401       -4.09933707941422        0.90451014561094
C           -0.62232781432220       -4.64669526372492        0.49983784940741
C           -1.59355195133735       -3.84851697616066       -0.13232132566812
C           -1.31308182459261       -2.51054592872922       -0.30420459070673
C           -2.24659340765814       -1.54509146664861       -1.00984737907291
N           -2.16067260952635       -0.22516938252535       -0.35517535454928
C           -3.02334100851618       -0.21678154719892        0.84349668472697
C           -4.53767831197464       -0.20945413328132        0.60770045719315
C           -2.41650003238525        0.93149950150756       -1.22540747866026
C           -1.66563328261176        2.15553637128571       -0.68124642538016
N           -0.16982610990286       -1.96057183967726        0.11154755191620
H            2.81311869552427       -2.61614831025059        1.49960401936360
H            4.09497049862921        0.66022191124516        1.58546193535664
H            3.12638271599205        2.65963496763112        2.53483248721069
H            2.36216343261883        2.41327013193601        0.95504786284898
H            1.49489782910766        1.99878742843581        2.43800337252661
H            3.48548343877773        0.53092583616703        4.00697978313583
H            3.52380309329039       -1.05260249956976        3.22545318724187
H            1.97937639692917       -0.28198764116183        3.57183894543075
H            2.99408329564480       -0.96325410451800       -1.59070093253108
H            5.40216624010404       -1.18654384058378       -1.27446923414078
H            4.53526833636961       -2.09055965626618       -0.03191795688212
H            5.30768349293798       -0.55092626373645        0.36411506370178
H            4.32862149193993        0.99362886069927       -2.23033011314491
H            2.79705445769844        1.53930342431248       -1.53484343900191
H            4.28663622711718        1.62386732547720       -0.58316848021974
H            1.31899842265483       -4.69782911526810        1.38169259794223
H           -0.82084851107112       -5.69791712511525        0.65593068536132
H           -2.52532620926214       -4.27000315512176       -0.47337521056459
H           -3.26873741982387       -1.93973747382076       -1.02661848328451
H           -1.90698178254334       -1.45207116710242       -2.04838992499740
H           -2.77352073514721        0.65925071708787        1.44832893381410
H           -2.76231154821441       -1.10576736972661        1.42525759970468
H           -5.02981441614489       -0.38668597334271        1.56107974577442
H           -4.88763101999209        0.74838804979346        0.22955398665422
H           -4.85206096200989       -0.99100347584688       -0.07937051079015
H           -3.48574781275616        1.15883151948161       -1.31513251775817
H           -2.04246150788875        0.70358863697858       -2.22893660692108
H           -0.58612222802605        1.91653753629529       -0.45027132988100
H           -1.66079630471293        2.95108023105270       -1.42492686279973
H           -2.13870859559374        2.53897674756155        0.22287607049883
C            0.44778954180861       -0.13914837875814       -1.72932256604626
O            0.80240770195010       -0.27805062639904       -2.82266764441728
C           -0.21998817018097        0.12202820607008        1.73910152773125
O           -0.32749196610896        0.10698983492331        2.88928470449111
