61
 energy: -76.090144786824 gnorm: 0.000113980006 xtb: 6.7.1 (edcfbbe)
Mn           0.16542824501713       -0.12308368284519        0.38592544474458
N           -0.12093519396175       -2.23496843188653       -0.17956594470148
C            1.11538012101245       -3.02112349654736        0.02105430765582
C            2.29110187004129       -2.35121728228059       -0.68522023608038
P            2.30706071409044       -0.54829565284407       -0.22392486915309
C            2.98179090003584        0.25487804829550       -1.77547292658071
C            4.44322279808557       -0.07183389768948       -2.08299829731851
C            2.10579157486932       -0.10653530320004       -2.97985919825596
C            3.69538525735671       -0.32767292950613        0.99071761477363
C            3.67493174651514       -1.34375406952710        2.12914526663968
C            3.55660329896721        1.10588418304885        1.50769721291763
C           -1.24668669841601       -2.82818855091330        0.57665918048301
C           -2.52634069209703       -2.00884714182119        0.39971820046078
P           -2.08292489153459       -0.20009652479940        0.41263563201519
C           -2.87731227240477        0.67057014380147        1.85091913173747
C           -2.04782213074216        1.95113542565325        2.00841129353713
C           -2.90200687022006       -0.17091525028073        3.12309437689450
C           -3.06255476283751        0.44689014978127       -1.04045634944342
C           -4.57331089941397        0.24619872836359       -0.91484745788988
C           -2.55136682322473       -0.18266812243396       -2.33896981065708
H           -0.36115662583465       -2.28927778597524       -1.17927289489770
H            1.30375248594708       -3.06467332990652        1.09838194957981
H            0.97709392840917       -4.04236389516491       -0.35512568120834
H            3.23494013471766       -2.82835875941992       -0.41351054970563
H            2.16330715108524       -2.42492643928723       -1.76816925935395
H            2.89109023489393        1.33476534158856       -1.58970432066769
H            4.67457006027564        0.26714065571204       -3.09181734650306
H            4.62594162341091       -1.14393263088065       -2.03784206138625
H            5.12824736217983        0.43579043373648       -1.40842602101222
H            2.16120398496020        0.67930144602996       -3.73090449312488
H            2.44818365704073       -1.02907295555946       -3.44387157798488
H            1.05795485706604       -0.22868855753378       -2.69700760888940
H            4.64290357638221       -0.44225425795989        0.45400138939477
H            4.51195871393496       -1.14482445347414        2.79699277375371
H            3.78090897805043       -2.36122122952586        1.75967824240206
H            2.76407843353537       -1.27619501689635        2.71524178381929
H            2.53959466392996        1.27431310927514        1.88478359575213
H            4.25445884078606        1.29783541764782        2.32048765089327
H            3.75006420206582        1.83017976624084        0.71611884363129
H           -0.95746099290959       -2.84390935574476        1.63173457053630
H           -1.41410529277848       -3.86077379199971        0.24607517344135
H           -3.24277218676807       -2.24346374415533        1.18834154224413
H           -2.98629890964762       -2.23705057196721       -0.56528572010973
H           -3.90581513421431        0.94399471650407        1.59441752396570
H           -2.20964038801772        2.62399482279480        1.16473837606553
H           -2.31521998692711        2.48283408926191        2.91977097834870
H           -0.96900999701709        1.71628068131231        2.05633894151246
H           -3.21508352668307        0.44878613850961        3.96197855552851
H           -3.61207887829458       -0.99024904493250        3.03598538892817
H           -1.92345093213550       -0.58115200251060        3.35618768588880
H           -2.84748984793136        1.52489604914223       -1.06503400004687
H           -4.82249920203504       -0.78473890795644       -0.67267358524598
H           -5.01436666179789        0.89512211189141       -0.16278719904865
H           -5.04174267440102        0.49102790502094       -1.86694817294087
H           -1.46206016187046       -0.25993428681139       -2.34248614271657
H           -2.97215405063153       -1.17499346643498       -2.48714925048906
H           -2.84655152008206        0.42926598126691       -3.18936909942044
C            0.04979693255917        1.08760886446405       -0.93700603130530
O            0.02849102598528        2.14099817390697       -1.38789956056304
C            0.37909298583617       -0.51988175477435        2.10344303119138
O            0.53191653768275       -0.51806588356426        3.24503110595825
