49
 energy: -75.581045651040 gnorm: 0.000275877366 xtb: 6.7.1 (edcfbbe)
Mn           0.13264401123062       -0.26035114080268        0.09487361547804
C            2.35087016009848       -2.46055187919342       -0.19420317676366
P            2.26731832825259       -0.62046188034573       -0.46870215479730
C            3.51983285071843        0.10035621383808        0.69545954842869
C            4.97793291880789       -0.07241219880525        0.28950898665750
C            3.12484606190711        1.56286519509916        0.92396506775398
C            2.92538697526500       -0.47870488888311       -2.19597020512625
C            2.06832752909419       -1.33561012391019       -3.12774511186281
C            2.93154355607538        0.98398189776888       -2.63342757162631
C            0.98221175955290       -3.03426716817764       -0.43774709700811
C            0.76858593821458       -4.36303525623847       -0.76857108313270
C           -0.53159392832481       -4.83845141535392       -0.88278253608430
C           -1.59038995086724       -3.98653036122845       -0.62215325221575
C           -1.32719147439192       -2.65813522305460       -0.30069464948494
C           -2.33028092970630       -1.65874127496383        0.06380957070474
C           -3.70111869511347       -1.86720083219200        0.12303417733950
C           -4.52703090949604       -0.82533985825868        0.52439169169923
C           -3.97767184189060        0.39808846111699        0.85790185403493
C           -2.59447540099037        0.54275652831679        0.77191150447240
O           -2.02493067878793        1.71787083688067        1.06695578464205
N           -1.79929903405635       -0.45261992489431        0.38893022344958
N           -0.05372453590826       -2.19240933248931       -0.25927972958502
H            2.59879876003924       -2.61174401139248        0.86537226958547
H            3.11903168508715       -2.94746074487957       -0.80078994661509
H            3.34440899567432       -0.45222962819985        1.63140689747064
H            5.20724221697243       -1.12017003863829        0.10414021858395
H            5.21569399340431        0.50338831581847       -0.60137611256516
H            5.62211019941548        0.27751377691669        1.09427838112064
H            3.53662486553615        1.93626794591453        1.85913306319508
H            2.02185343338260        1.65243927579934        0.96983642979942
H            3.47998003964897        2.20137278916091        0.11867631995253
H            3.95170168259407       -0.86866200736369       -2.18207407310703
H            2.22009446503313       -2.39849278083121       -2.95464912968132
H            1.00820124062898       -1.11494042493769       -2.99473579317184
H            2.32816639950843       -1.12474171360336       -4.16343290719089
H            3.21026770052253        1.06099298623887       -3.68285008027691
H            3.64246668607335        1.57023700043766       -2.05619391473022
H            1.94233178586738        1.42564778994755       -2.51279559491776
H            1.60978864528050       -5.02042928261028       -0.92446721967483
H           -0.71338108890206       -5.86783121361932       -1.14916649747722
H           -2.60478864578434       -4.34690943167793       -0.66619119843983
H           -4.12269259588859       -2.82259656070178       -0.13935262913298
H           -5.59473947413883       -0.96834723678736        0.57658378062848
H           -4.57379098687668        1.23752674774995        1.17438862417720
H           -1.04588213521999        1.68107077111015        1.01681199989032
C           -0.37704370086877        0.39796322132066       -1.50278546955064
O           -0.87418610630313        0.91575112513471       -2.39049435570833
C            0.50291875391794       -0.54257424614508        1.82697799553345
O            0.67745221919919       -0.67699879639775        2.94857387006238
