48
 energy: -75.420472217961 gnorm: 0.000165865755 xtb: 6.7.1 (edcfbbe)
Mn           0.00886551317874       -0.22589679634231       -0.13640669610352
C            2.39818735862567       -2.26181374660684       -0.24209696100476
P            2.25218297155266       -0.41940890262482        0.06496920254028
C            3.07653736527006       -0.28598853683684        1.73626873708024
C            2.40806853089139       -1.21643537228977        2.74533461668857
C            3.03662117515616        1.16065158977432        2.22209876118156
C            3.59645378815131        0.27857395162038       -1.03427244773677
C            3.00380859429196        0.64966919054828       -2.39011610657170
C            4.82765013447445       -0.61057469613916       -1.19984083540571
C            1.14555176748664       -2.95008272702003        0.21887956165490
C            1.10526816906959       -4.29549592254685        0.54998504152690
C           -0.11312095896900       -4.88817922443555        0.86529539830272
C           -1.26678727988286       -4.12825728383442        0.80343551679512
C           -1.17323524388129       -2.78025801724143        0.47572822437822
C           -2.27763797279921       -1.83761840519278        0.31082982640257
C           -3.66043739129224       -1.96830404901801        0.42040901531137
C           -4.43197115119232       -0.83611430468380        0.15949394458000
C           -3.87649265573492        0.38442345042058       -0.18746879977353
C           -2.47059650811350        0.46624614677141       -0.27638534556465
O           -1.68314700260765        1.44309031693403       -0.54114881290614
N           -1.77668460196632       -0.65467816018900       -0.03365080877379
N            0.03649360926516       -2.19404947413951        0.23036312076805
H            3.29974537477554       -2.69406589273378        0.19701234469384
H            2.44858849423286       -2.36925543917647       -1.33352103398035
H            4.12282852277713       -0.59106213780946        1.60753054553719
H            2.80534759604553       -1.03009216821331        3.74188589887325
H            1.33222988021735       -1.04114867050521        2.77161702443998
H            2.57809806352461       -2.26283452113469        2.50254732371101
H            2.00736798837740        1.50826096100315        2.29343830265100
H            3.49514827616032        1.24160085086200        3.20642279919556
H            3.56920984693209        1.82474782778473        1.54441321966117
H            3.89420502783737        1.20887119600149       -0.53297012673843
H            2.69525725936222       -0.24054559316459       -2.93662465872167
H            3.73584250627015        1.18371894206339       -2.99351110967876
H            2.13160291039183        1.29185338139197       -2.25310347711945
H            5.22283446768738       -0.94215286445475       -0.24299171597839
H            4.60183352153841       -1.48239435452040       -1.80842477332021
H            5.60825843776833       -0.04461812269141       -1.70562957139309
H            2.01377758990039       -4.87748802534385        0.54908873957859
H           -0.15839140802851       -5.93261435940128        1.13201084418132
H           -2.23450153499016       -4.56020531553374        1.00298874310085
H           -4.12175479511555       -2.90293470322219        0.69415432339631
H           -5.50790127655693       -0.91292174032085        0.23504839893167
H           -4.48993548325481        1.25115830264339       -0.37711355094804
C           -0.00750875422059       -0.35279146294712       -1.91610422003613
O           -0.19637049713706       -0.33018729955147       -3.05170469783561
C           -0.25976619867165        0.45202983964989        1.49833317788745
O           -0.67497532524936        0.96674732039005        2.43966281772623
