58
 energy: -81.809997931950 gnorm: 0.000087709075 xtb: 6.7.1 (edcfbbe)
Fe           0.08436506315999       -0.07735448520639        0.47197119547772
C            1.93671194735516       -2.13961384089725        1.78873899581383
P            2.05446929138159       -0.37152575622822        1.20946093881732
C            2.79235439174672        0.41838865208024        2.67650044318269
C            4.01316113963694       -0.00352580474617        3.19719107268124
C            4.52314151832725        0.60416216534640        4.32991289616420
C            3.82238047778921        1.63222208341370        4.94309322246280
C            2.60933528338055        2.05507285461719        4.42342086571125
C            2.09341271198905        1.44917230672549        3.29047408058440
C            3.49371117364047       -0.43213480564226        0.08406427337765
C            3.65051486662528       -1.49713790986349       -0.79865616118800
C            4.67190080396743       -1.48670405676118       -1.73075519399841
C            5.53655914500585       -0.40598038203854       -1.80153998666795
C            5.36960166874517        0.67029151965868       -0.94444891231697
C            4.34910411644175        0.66196311379744       -0.01133633172488
C            0.86562885186216       -2.78649937737947        0.96985999037681
C            0.76770480046788       -4.15785081148977        0.82798273407104
C           -0.28493489258111       -4.70650701062226        0.10696304853781
C           -1.21851475193266       -3.83938880042124       -0.44585702441160
C           -1.05532051350743       -2.47817147910538       -0.28616072046687
C           -1.97942540302299       -1.46481817322819       -0.89676882027080
N           -2.07218836291832       -0.27951548134714       -0.02705689925544
C           -2.79451083375604        0.80783745718045       -0.71226841669362
C           -2.01380470693186        1.51876258413031       -1.80777795932844
C           -2.79835719478709       -0.61895032805419        1.21978162035559
C           -4.29073170867104       -0.94019249308585        1.09702715578307
N           -0.02221299852012       -1.94135948217233        0.39793416214566
H            1.58650574109284       -2.06311292701271        2.82689350402083
H            2.88034430310954       -2.69223913270739        1.77104861603367
H            4.56226749843520       -0.79899024155634        2.70992020517523
H            5.47039007726343        0.27843659700649        4.73714168439334
H            4.22673029843227        2.10454942273978        5.82750785820416
H            2.06769633825909        2.85816801690657        4.90308356145254
H            1.14851898230486        1.74551832835491        2.85722939335646
H            2.96311306827593       -2.33367142108090       -0.76110205530310
H            4.79135699158210       -2.31953868816103       -2.41025519051736
H            6.33259007591522       -0.39776070289701       -2.53262308098175
H            6.03360513300644        1.52103282983879       -1.01031322645476
H            4.20427191875413        1.50586779427792        0.65130181077151
H            1.50884391566963       -4.79376236873299        1.28928879860912
H           -0.37882358163623       -5.77425786597096       -0.01246197148975
H           -2.06139979840220       -4.21716635322099       -1.00491020226217
H           -2.96570648212566       -1.90283437615494       -1.10387203059441
H           -1.54248690273098       -1.14685680245806       -1.85055870490967
H           -3.72541836459246        0.41189278288393       -1.14402057372115
H           -3.04441921257659        1.54841034593072        0.05075951015167
H           -2.61403237795246        2.34023214747686       -2.19394842555137
H           -1.09129982772932        1.91820149376935       -1.39442876802667
H           -1.77031238368566        0.86068659815842       -2.63873067291887
H           -2.29438416517928       -1.47623467094289        1.67080980065798
H           -2.66791004779203        0.22800447052216        1.89516310730556
H           -4.86972471398178       -0.07644166902582        0.78122347713936
H           -4.48093928369671       -1.76282204952435        0.41142989488965
H           -4.65016798786681       -1.24064874225816        2.07871692626454
C            0.67467284554493        0.15201428709238       -1.15105905444745
O            1.19008035890610        0.31197076092179       -2.17748925914291
H           -0.24579559464956       -0.07794336432046        1.90713531443979
H            0.07783739770668        1.38071136909492        0.61396521817914
