57
 energy: -81.802234827182 gnorm: 0.000134997146 xtb: 6.7.1 (edcfbbe)
Co          -0.32515858384659       -0.78199074487529       -1.65975366875209
C            1.81068778730543       -2.74299397391517       -1.48692710149833
P            1.88298123696401       -0.87518466674828       -1.32154428440627
C            3.00586539806919       -0.39030318018221       -2.67180794450981
C            2.71237783635943       -0.80942563911152       -3.96682840985397
C            3.50022924736350       -0.40530047165279       -5.02821473142272
C            4.57597133601869        0.44189094182073       -4.81214456915743
C            4.84793815287288        0.89727769992771       -3.53268588656897
C            4.06430899112663        0.49031046189684       -2.46726455205056
C            3.02544179174952       -0.84623021052036        0.12217420384505
C            2.58213698855824       -0.30889021394720        1.32296239064722
C            3.38668386762045       -0.34070552732641        2.44985825208787
C            4.64587082633013       -0.91088726104584        2.38192613049021
C            5.09906764859964       -1.44539929210883        1.18471023533997
C            4.29494716695231       -1.41730291105871        0.06127667166008
C            0.75150556895338       -3.10426480313392       -0.50209936106853
C            0.86905362753872       -4.13686124978476        0.41111210182981
C           -0.13588111887370       -4.32599425325586        1.35038185875230
C           -1.21571022819755       -3.45730860501053        1.34819744948551
C           -1.27382519054999       -2.44831343708346        0.39912213270234
C           -2.41425560147261       -1.47262335141637        0.32460620969645
N           -1.91128766370650       -0.12253680478779        0.04928108569010
C           -1.34287823753499        0.44729401118495        1.27295980204848
C           -0.60886207642859        1.75670083679772        1.01241600356293
C           -2.94754279713424        0.72771550960571       -0.54973401119824
C           -4.18077268861552        1.01561296375437        0.31245149286512
N           -0.30902581251682       -2.28070245235428       -0.51236468231756
H            1.46853920186383       -2.96784037896988       -2.50168331227560
H            2.75913843922574       -3.24792318719734       -1.29466331156274
H            1.84578001024343       -1.43329606811749       -4.14190821929202
H            3.27045059661424       -0.74367293247684       -6.02855776884339
H            5.19116545296784        0.75851397878352       -5.64196972183686
H            5.67156887522805        1.57648294104851       -3.36379113766391
H            4.27518786549738        0.85927870341095       -1.47249123586568
H            1.60177502559242        0.14209366470359        1.36530900490616
H            3.03105472230737        0.07992641727132        3.37987345242868
H            5.27719352021487       -0.93773591604496        3.25832162484707
H            6.08483989194863       -1.88540812065016        1.12932399373130
H            4.65753522444267       -1.82631588979059       -0.87261070219353
H            1.73743826285301       -4.77740981689920        0.39045639764915
H           -0.06855574263822       -5.12179219048308        2.07605641479630
H           -2.00689332949175       -3.55635926657387        2.07572552243655
H           -3.00771287147904       -1.51736853653212        1.25103930560916
H           -3.05310079872950       -1.77018374322630       -0.51532579311278
H           -2.11794860323796        0.59543815848623        2.04183931229987
H           -0.63568891024789       -0.28960236461686        1.66900813199333
H            0.01063345452267        1.64821687445429        0.12088844261682
H            0.02408340304839        2.00752505655458        1.86147512696765
H           -1.30166764895692        2.57911766856971        0.85458616375194
H           -2.47724414493633        1.66876135913112       -0.83545860863597
H           -3.26392344887477        0.23872159237339       -1.47475894709426
H           -4.67873413228998        0.09780107116065        0.61744561897639
H           -4.88471301595789        1.60094438600531       -0.27412566750781
H           -3.92749888543038        1.59063835755018        1.19997639826591
C           -1.29651257955372       -1.46230764540980       -2.92219881714792
O           -1.82028963327950       -1.88956319768900       -3.86677478063172
H           -0.30669697945761        0.43915196554599       -2.44974159773004
