54
 energy: -69.961287498869 gnorm: 0.000190971578 xtb: 6.7.1 (edcfbbe)
Fe           0.27200511074034       -0.39236236109807       -0.22509313847939
C            2.35600120346603       -2.60098731276938        0.06255271750382
P            2.36272059821274       -0.90693175492235       -0.40384197154759
C            3.47933620979252       -0.86556993756351       -1.92033082384457
C            3.65853061431227        0.52616403482576       -2.51602236395068
C            2.93596500161048       -1.82950764884308       -2.96873714451127
C            3.34418760948245        0.20366517036883        0.75734457115475
C            2.63379037106519        1.56145465586339        0.70458963560805
C            3.34299065690546       -0.37750036601913        2.16390715490009
C            1.08766210177336       -3.15001684798261        0.09287157484498
C            0.81126100134569       -4.52527896328259        0.35874718255020
C           -0.47193543815241       -4.97928555524793        0.39521361446387
C           -1.53679689318487       -4.08816155805239        0.17322507049877
C           -1.23139439256763       -2.77013514743538       -0.08748901772781
C           -2.27950287238856       -1.72258307582209       -0.36807167535516
N           -1.87920397989217       -0.43043968814073        0.22455998599880
C           -2.15293336677540       -0.47097027318098        1.67280718686655
C           -1.72585713259689        0.79862200278702        2.39549246809558
C           -2.55171269284197        0.69923353450486       -0.44027220205049
C           -4.06790589913129        0.79285034061101       -0.25239221644186
N            0.02094028739933       -2.31540671673735       -0.14220321520032
H            3.24991532402493       -3.19768971424690        0.17509766277693
H            4.45009341088955       -1.24178955127563       -1.56351614219373
H            4.23589737193884        0.46664707112604       -3.43940533365702
H            4.18655937976730        1.19088037535139       -1.83575925844550
H            2.68822222488507        0.96138092217051       -2.75088778466220
H            3.64287057490079       -1.94179722464150       -3.79099545679681
H            1.99756718666746       -1.45983236306166       -3.37403332003205
H            2.75171975854217       -2.80901462855121       -2.52956454031873
H            4.38061822150227        0.30910857669401        0.41108973411414
H            1.53709317713847        1.39754971679937        0.69519071530035
H            2.89695089373977        2.11565198061266       -0.19441813239193
H            2.88155773336953        2.17212407925522        1.57263871790598
H            2.31902960264138       -0.55671886670020        2.48253144516259
H            3.82136900473980        0.30444368080235        2.86716752494548
H            3.87386831305360       -1.32728545876806        2.18112214180882
H            1.64669300553738       -5.18756482796292        0.53174693774343
H           -0.68225760809853       -6.01994367367130        0.60103169385948
H           -2.56072875628277       -4.42384907865080        0.20785548242895
H           -2.34137838048837       -1.59247348216723       -1.45391124550467
H           -3.25885129317014       -2.04938781188060        0.00415617794809
H           -3.21830903168291       -0.66833793831151        1.85250790388288
H           -1.58039184920192       -1.31148272603436        2.06850712539481
H           -2.39754705015779        1.63142700162177        2.20037932370136
H           -1.71269034096087        0.61529147143905        3.46711526026031
H           -0.71656669793077        1.06822820773637        2.08281020317108
H           -2.08025606921649        1.62166363707849       -0.08544184102274
H           -2.34149028714368        0.61684639642287       -1.50922174203424
H           -4.33848405464567        0.99004320289133        0.78144117205796
H           -4.56053350425581       -0.11977154728726       -0.57871243093008
H           -4.44368268611824        1.61350318004794       -0.85953336696435
C            0.03343495107844       -0.19778865875181       -1.93526592610027
O           -0.10528400159382       -0.02081289885307       -3.07354001755505
H            0.57273481837622       -0.56913791000777        1.19454702911993
