47
 energy: -70.194302414189 gnorm: 0.000194115350 xtb: 6.7.1 (edcfbbe)
Co           0.02214245333034       -0.33993662008298       -0.49464520930095
C            2.35586662517135       -2.29424183042102       -0.04138531589477
P            2.15800463283795       -0.62041559123879       -0.81622975311197
C            3.19832798306064        0.51527840862626        0.21550878254212
C            4.65757989829737        0.10659759509194        0.39412901139283
C            2.47602500347565        0.64781277282067        1.56119302177957
C            2.84776128580521       -0.77098022854553       -2.54234324143965
C            4.03766723253051       -1.71580098123444       -2.70321336474069
C            3.16019083973505        0.63136109651180       -3.06478378083821
C            1.04376837854912       -2.97894668430553       -0.23061801827076
C            0.92089757460494       -4.35617267778679       -0.36589368341349
C           -0.33997097608729       -4.91299251309703       -0.50977719343296
C           -1.45004800255142       -4.08380709085437       -0.48144625959339
C           -1.26186207275269       -2.71471780821041       -0.33505101214858
C           -2.32718505228150       -1.72338267227738       -0.20202342061190
C           -3.68220175230713       -2.00610546847488       -0.12427527564753
C           -4.56960471677051       -0.96369171017008        0.11060795551045
C           -4.07970632828019        0.31498272605115        0.28652025041648
C           -2.70181610528313        0.52790281555821        0.18811776014693
O           -2.13329545755811        1.72187264747807        0.36471672478962
N           -1.85417603610888       -0.46393131888247       -0.08023828708349
N           -0.02824292210560       -2.17859679579851       -0.24165331754973
H            3.19459979185166       -2.87680322272297       -0.42326008562673
H            2.50784640322842       -2.12811696494038        1.03095675609046
H            3.15077151775460        1.48454034723481       -0.29711995641895
H            5.20955966652478        0.17662944158841       -0.53969495072490
H            5.13245906128322        0.77759826330308        1.10848649712440
H            4.74330753261095       -0.90748725565166        0.77943631207264
H            1.38598766828864        0.67703866188136        1.41161860555985
H            2.71596195528512       -0.18435203589466        2.22022660392526
H            2.77512328015209        1.56461317355368        2.06405376895687
H            2.00510364184812       -1.17209785374260       -3.12517051578761
H            4.43696332419963       -1.60817690357769       -3.71050116010353
H            4.83625146989786       -1.48909187772671       -2.00207492366309
H            3.74104340022600       -2.75512916831402       -2.58103825218806
H            2.32568771793887        1.30825020986973       -2.88395353467058
H            3.34018479392823        0.59745163823738       -4.13767524623776
H            4.04954398420053        1.03707329799265       -2.58746692024243
H            1.80183069116528       -4.97878743684665       -0.35783451533187
H           -0.45696714716089       -5.97854734496360       -0.63197192521527
H           -2.44067954822559       -4.49543475351548       -0.57987903827463
H           -4.04595496694045       -3.01316210224505       -0.23862814954666
H           -5.62984498595112       -1.15339449246837        0.17098137695233
H           -4.74093299087416        1.14181361133655        0.49753792836561
H           -2.78391081452044        2.41910406412718        0.53251212324135
C            0.04154840895001        1.31755911517258       -1.03083391497989
O            0.11698090234662        2.35779335403963       -1.49758922043500
