56
 energy: -80.869532844955 gnorm: 0.000181736747 xtb: 6.7.1 (edcfbbe)
Ru          -0.10407780277861       -0.18722534094633        0.40734493735484
C            1.97829582884461       -2.48307331648402        0.64495092025021
P            2.03024496029850       -0.75820546569099        1.02982071398439
C            3.40469587840782       -0.03204811743857        0.06786629037245
C            3.84727064812977        1.24482050108648        0.40239691755643
C            4.84400745038744        1.85281327804901       -0.33651982920806
C            5.40142797391230        1.19123945046247       -1.42090149831433
C            4.95689971076830       -0.07494585516350       -1.76474119956508
C            3.95891304868327       -0.68481664736285       -1.02474256920155
C            2.77902923089937       -0.65445038784763        2.69744848229060
C            2.02381887825126       -0.26362429490570        3.79517938003819
C            2.58498625896642       -0.25366446051469        5.06006959550821
C            3.90307292110681       -0.64186753591766        5.23660977903937
C            4.65922052791114       -1.04267942138432        4.14544238721983
C            4.10167898254379       -1.05027069053651        2.88069154845576
C            0.73203502020344       -3.01619780295852        0.35943742768944
C            0.45108131033674       -4.39872220194851        0.13170502159443
C           -0.82329666508399       -4.80790745280788       -0.12826760976289
C           -1.88208772405465       -3.87986100325770       -0.14335689982816
C           -1.57849898952444       -2.55260569055180        0.07319031185723
C           -2.62962411344191       -1.46369107085024        0.21948858683904
N           -2.12131114019761       -0.19114195009564       -0.32871450046217
C           -2.30503810500852       -0.15254047105957       -1.79034328586035
C           -3.75207150176304       -0.16669017513578       -2.29329152346160
C           -2.55451532938868        1.05744902705630        0.32013581531660
C           -1.36575154005260        2.04176640389448        0.34636631326967
N           -0.31928996076369       -2.14969975581946        0.26200996491573
H            2.83612756097336       -3.11759494924892        0.82520864427447
H            3.39755842612547        1.75004482335405        1.25076436594955
H            5.18762268803215        2.84375580420654       -0.07340390377837
H            6.18004184877508        1.66656027698718       -2.00072241616154
H            5.38778434810337       -0.58636678184125       -2.61455092421406
H            3.59488200414439       -1.66952728397646       -1.28876740530040
H            0.99480808834084        0.03094985692260        3.64074325339993
H            1.99528531936546        0.05746978762831        5.91125836964426
H            4.34263788033781       -0.63403872578774        6.22404311361043
H            5.68692556785711       -1.34914954119412        4.28373856300613
H            4.68966373110641       -1.35779893768393        2.02534929799352
H            1.26895340941341       -5.10157529951180        0.17627742943081
H           -1.03556679414974       -5.85263531771039       -0.30473811781553
H           -2.89942484540650       -4.19966064168165       -0.29859337541190
H           -3.57588264145148       -1.76840574607528       -0.24048674754413
H           -2.79753581806018       -1.33321697841328        1.29615269327133
H           -1.78086419118857       -1.01725161377003       -2.21131043684241
H           -1.81652572797478        0.75015834671422       -2.16944923432981
H           -4.35372454434059        0.61398525154606       -1.83425767128552
H           -4.23381848809316       -1.12507930552815       -2.11956181900632
H           -3.74034852850418        0.00642686929814       -3.36663451848497
H           -3.40852690446702        1.51950969825624       -0.19127581953832
H           -2.85073633375783        0.83463092175610        1.35035229576997
H           -1.15814659488089        2.44184702048844       -0.65083700804638
H           -0.40746039009346        1.56924609105651        0.78791157250321
H           -1.60287212517922        2.88169740038298        1.00185097767750
C            0.63668425676676        0.01515742067370       -1.26966587730878
O            1.15294240362844        0.18571246401513       -2.28932996772033
H           -0.64585257949439       -0.33916437314977        1.87767676503730
