48
 energy: -71.019453587698 gnorm: 0.000265178205 xtb: 6.7.1 (edcfbbe)
Co          -0.07728411701288       -0.46614778723799       -1.43835547684755
C            2.24002723769001       -2.38835820861833       -1.19342592049230
P            2.15840325479877       -0.53264667162564       -1.00566313898865
C            3.48782279170562        0.08314040808903       -2.17643579852736
C            3.13517508961932        1.51947326468738       -2.56345788331402
C            3.60324683485603       -0.76410669239736       -3.44039557423967
C            3.03014206327293       -0.33823889643202        0.64534500242517
C            3.29522660430707        1.13721613511288        0.93338059355744
C            2.16715672885559       -0.93340617113319        1.75492232795997
C            1.02214705665293       -2.91675058360370       -0.50564409418081
C            0.98632203014503       -4.13629181765081        0.13789998794984
C           -0.16809172176645       -4.50738607518960        0.83407099027919
C           -1.21194389134481       -3.61584580301816        0.91123575866745
C           -1.11881438260729       -2.39042886533863        0.23954021844996
C           -2.06066592482759       -1.30660745855803        0.33135308040583
C           -3.33213857651848       -1.40166766078886        0.90374732707841
C           -4.11996651909312       -0.27741648752204        0.99113043252645
C           -3.61301919713536        0.93057701735616        0.51556592752365
C           -2.35336629243004        0.95468575786332       -0.06025447995983
O           -1.80548331495115        2.10068417363083       -0.51140323068747
N           -1.57945718368469       -0.13475571604259       -0.18320547913539
N           -0.03263281712639       -2.08641733849566       -0.51236120501895
H            2.16201130151901       -2.59963359680483       -2.26360148213928
H            3.16067606375174       -2.83160954641800       -0.80417721948253
H            4.44658029443176        0.06584677678218       -1.64294162781079
H            3.92865584228221        1.96063565141542       -3.16515713470005
H            2.97323656074203        2.14307459458589       -1.68764609894040
H            2.21293306130571        1.51972463877010       -3.14224170892236
H            2.62406042923737       -0.88661266809800       -3.90338453922412
H            4.03053475222227       -1.74342431738586       -3.23570215046553
H            4.25071364618246       -0.26028563085162       -4.15710324651704
H            3.98255978831779       -0.88261998148070        0.58689622857929
H            3.67524091443573        1.25947455740956        1.94726175003012
H            2.36898881398392        1.70470924757060        0.84366673544507
H            4.02953007237128        1.55270560893410        0.24756780678946
H            2.07433230455584       -2.01378230728031        1.65979357584987
H            2.60379926964205       -0.71760070637762        2.72972525154304
H            1.16813241902829       -0.49539388906565        1.72656307886035
H            1.84536439921459       -4.78911572657689        0.10848017494271
H           -0.21873065123171       -5.46361709715629        1.33199608213659
H           -2.08885059511913       -3.84464060821517        1.49502500851515
H           -3.69048000747566       -2.35333449274470        1.26094143596369
H           -5.10679337533815       -0.31989457484399        1.42518040714583
H           -4.18743385787806        1.84184032252156        0.59568592040182
H           -2.43082244047309        2.83331981202810       -0.42761238069568
C           -0.31967652425887       -1.03971907411392       -3.06816699954003
O           -0.49749426503430       -1.32758360703004       -4.17842665772728
H           -0.15787167653514        0.84004832527909       -2.03618681868835
