50
 energy: -80.965696235658 gnorm: 0.000264713196 xtb: 6.7.1 (edcfbbe)
Fe           0.01988904561748       -0.32280637191961       -0.03725105550033
C            2.25609617388575       -2.27984240296822       -0.76974440144526
P            2.03162952037490       -0.43254699501012       -0.78379397803605
C            2.47175185445993       -0.01482640527743       -2.50289669924893
C            3.24973318792297        1.09928830141599       -2.80048194897422
C            3.50178137316287        1.43085829850826       -4.12027471996825
C            2.96822999815972        0.66559620015319       -5.14468798354747
C            2.17328892403386       -0.43231124276564       -4.85154241549038
C            1.91914231699995       -0.76995807668445       -3.53560133296533
C            3.44318291080066        0.16849280413269        0.18066589569563
C            4.75074977088696       -0.21610701335638       -0.10611163607035
C            5.78711594473412        0.26810255860120        0.67074205654076
C            5.52409147852999        1.13548917026877        1.72146759519216
C            4.22302922391337        1.52364171144751        2.00142606535364
C            3.17974890901755        1.04062063030546        1.23117497295774
C            0.91538582137111       -2.94265011870810       -0.77419608741217
C            0.73611273280028       -4.28008068774841       -1.08145195817267
C           -0.51717907611513       -4.86047739886587       -0.92724568729703
C           -1.55161339577569       -4.10367838606478       -0.40903973013915
C           -1.32759161670473       -2.76309749596328       -0.12478507808773
C           -2.24499269976637       -1.83574890193587        0.50131588792539
C           -3.53271013009957       -2.00718494135780        0.99957800529850
C           -4.14308721377033       -0.93903995917939        1.63635609761227
C           -3.48971316058358        0.28649514481672        1.77994014451518
C           -2.22166137335941        0.39145732446391        1.25096902683502
O           -1.36952876630648        1.43720975003212        1.21973152717412
N           -1.64257697775709       -0.63683622545466        0.63120477546022
N           -0.11918006144746       -2.17986605502881       -0.37800123188855
H            2.90759512315528       -2.63958354456104       -1.57246595437143
H            2.72973397477410       -2.50509862001989        0.19627931172527
H            3.66009287446845        1.69967216148278       -1.99993358436362
H            4.11330782245307        2.29106991117193       -4.35064203132432
H            3.16628991019212        0.92808248059351       -6.17352937358304
H            1.74985682311232       -1.02146881328302       -5.65182001109351
H            1.28767001207269       -1.61909796573883       -3.30413015472469
H            4.94945724432506       -0.88282849112712       -0.93409326196436
H            6.80393284128778       -0.02816836418586        0.45798140462699
H            6.33900540747417        1.51037681845304        2.32342700649080
H            4.02676016972612        2.20050321051388        2.82005022962059
H            2.15023410153773        1.31670757160337        1.43472221905397
H            1.57598048164410       -4.86578391388866       -1.42186523362153
H           -0.66896761133305       -5.89921977758165       -1.17584036909350
H           -2.52026555446188       -4.53683178507170       -0.21914835557559
H           -4.03959163758881       -2.95263199550159        0.90047755054774
H           -5.13874226538810       -1.05262126762949        2.03597072707770
H           -3.96123536439371        1.11352046851487        2.28747007950878
H           -1.70060035974184        2.20784945491220        1.70359169280504
C           -0.61836201963807        0.11849758537287       -1.61587884999744
O           -1.05953550420670        0.29689099684016       -2.65184062970743
H            0.67490144911458       -0.70889304946406        1.17296657651468
