54
 energy: -70.091094417095 gnorm: 0.000102448167 xtb: 6.7.1 (edcfbbe)
Ru           0.09570146982445        0.06039347052009       -0.22095812138036
C            1.89507992287412       -2.30327790165390       -1.14693232048265
P            2.18202698494768       -0.56391378542429       -0.96584772954303
C            3.71859333500824       -0.38934666364598        0.09730481946053
C            3.58328432264313       -1.30542081227179        1.30823682447338
C            3.89183432881563        1.06107003347618        0.53485305067392
C            2.72070959529727        0.02192196964833       -2.66551561019146
C            2.62844308707519        1.54164553944404       -2.79585840420907
C            4.07547044134840       -0.50401927388464       -3.12512211973099
C            0.76514010854517       -2.79835434166407       -0.52299532519719
C            0.42618902396739       -4.18181466677586       -0.38669788483313
C           -0.68748797316872       -4.55290484124581        0.30507961066370
C           -1.51276445234472       -3.58192461068220        0.90464999677937
C           -1.18054342427541       -2.25536227506051        0.72645537966320
C           -1.93736016986151       -1.11122048519853        1.38387752505063
N           -1.93529185048790        0.08265549527553        0.51506985734534
C           -3.10923725913008        0.06291239528958       -0.37251934902563
C           -3.26546490121395       -1.20805250398938       -1.19915602204013
C           -1.86253318473833        1.39013899922787        1.19205679569280
C           -0.99662036652898        2.34579202193975        0.34869874849885
N           -0.11720138105157       -1.89557154460094        0.00665449211512
H            2.64436588657136       -2.96909377259575       -1.55263318346919
H            4.58105397273807       -0.71378118976625       -0.49666176443811
H            4.43320024423351       -1.18099178375121        1.97837416864050
H            3.52980168601633       -2.34763914605620        0.99915142356801
H            2.67045464185009       -1.06624955946657        1.85049949614151
H            2.97131928380832        1.40436280992955        1.00856821787758
H            4.70634966282404        1.15031879217936        1.25322564231011
H            4.10855603710150        1.70986367662874       -0.31037928065601
H            1.94710808643042       -0.42716863061460       -3.30471069551838
H            1.75149006723254        1.91368144844874       -2.25502694169326
H            3.51304622810070        2.02529016954374       -2.38725488407731
H            2.53828704458693        1.83289491801985       -3.84187684455466
H            4.88964898886290        0.00620800776641       -2.61416349260286
H            4.19391856951864       -0.33678776010322       -4.19551710287754
H            4.15540632780558       -1.57260237901955       -2.93573481797475
H            1.08176168617952       -4.91513143025273       -0.83143488810212
H           -0.93967752273442       -5.59827201902026        0.41378457046214
H           -2.37215950366409       -3.86683406320694        1.48965443259689
H           -1.39688794054107       -0.86938166800594        2.30781445288536
H           -2.95883208361456       -1.41254602181995        1.65257322899807
H           -4.01608792024362        0.20099290000576        0.23922254765158
H           -3.03146018241994        0.91436268045239       -1.05604600368271
H           -4.03755604961229       -1.04791461292983       -1.94882700856147
H           -2.33832099318067       -1.45605060864688       -1.71282519622328
H           -3.55401486940738       -2.05901149938197       -0.58816885168813
H           -2.86288100895774        1.82104369062430        1.34992524306660
H           -1.38624176259440        1.26021023249831        2.16935217676067
H           -1.50220626115155        2.63024363886680       -0.57908727355364
H            0.02984045097343        1.88506512517689        0.11272810459197
H           -0.79384006818520        3.25578520140323        0.91571646630064
C           -0.41870630670280        0.11444105701500       -1.98709974440924
O           -0.69422768680242        0.25284809404848       -3.10367095047053
H            0.60693761471408        0.08583970793752        1.27262716894646
