56
 energy: -80.737427741831 gnorm: 0.000144652037 xtb: 6.7.1 (edcfbbe)
Fe           0.09001110082057       -0.37598003004097        0.24867605575081
C            2.15698373777753       -2.59217427112744        0.33071467491497
P            2.13286006942450       -0.88620485730128        0.77150143464855
C            3.48701867466431       -0.05479177538455       -0.13741680469343
C            4.15739445350453       -0.66374073641404       -1.18960265086244
C            5.13745268593280        0.02710379813507       -1.88147160243114
C            5.44569738732794        1.33222731021487       -1.53367372458463
C            4.76868068714813        1.95217776177314       -0.49354372614675
C            3.79110661098383        1.26261851887957        0.19808817896806
C            2.84290794943679       -0.83450460306454        2.46574476309727
C            4.21734204418680       -0.89375243180804        2.68158682353336
C            4.71400012994045       -0.98162212572256        3.96990718660310
C            3.84819752358707       -1.01761767453981        5.05132418791215
C            2.47869664791705       -0.97514216157125        4.84032973874772
C            1.97963921676714       -0.88993259005933        3.55383196478999
C            0.90776799923736       -3.14707202951615        0.10501878120243
C            0.66887399329024       -4.52780772588582       -0.15910909477803
C           -0.59869297087735       -4.97767742819288       -0.37868406547584
C           -1.68088959276107       -4.08337071103246       -0.31457037807208
C           -1.41011355591105       -2.75621712989286       -0.06024880515974
C           -2.48710293456265       -1.72591208397623        0.16311980359928
N           -2.02035095808324       -0.37842036693828       -0.21853075535319
C           -2.65763770092134        0.66743766888743        0.60191799349877
C           -4.16158879939672        0.85759482792578        0.39821304691359
C           -2.25377143199212       -0.17671549266535       -1.65957124606983
C           -1.79475299181403        1.19136962613183       -2.15161730325402
N           -0.16791806194123       -2.29543898081662        0.10234215328710
H            3.03963110510573       -3.20286599835569        0.46648392860781
H            3.90065357437322       -1.67897511068816       -1.46030092840275
H            5.66244926667304       -0.45188007703625       -2.69667348196618
H            6.21102758992430        1.87007089616958       -2.07572290560519
H            5.00501091694894        2.97378897343221       -0.22853733614645
H            3.25256948815357        1.73335791591282        1.01410385651675
H            4.89882031629378       -0.86923768148790        1.84135173802548
H            5.78274160648853       -1.02377430779857        4.13194317320564
H            4.24169949604908       -1.08335734096019        6.05628064145645
H            1.80241936491871       -1.00980129714761        5.68347781341386
H            0.91633142266340       -0.85845233326632        3.36607559661724
H            1.51561924789433       -5.19745635701790       -0.18053363490346
H           -0.78250831157819       -6.02269020408319       -0.58578085135662
H           -2.69468701789199       -4.42685827812918       -0.44067588865842
H           -2.68643105813712       -1.71641298263268        1.23903545457121
H           -3.40864413509813       -1.99813664371585       -0.36578961078370
H           -2.47171070134635        0.40419807043957        1.64462054087456
H           -2.13060764540936        1.60963983482242        0.40729271830903
H           -4.52316140400753        1.57963945068357        1.12673037588602
H           -4.69640758731537       -0.07593065758318        0.55501111137264
H           -4.39776917058690        1.23658069744232       -0.59269552700198
H           -1.69279669045369       -0.95683877130285       -2.17917057155867
H           -3.31766291125162       -0.31631702431532       -1.89320249366253
H           -0.83321076604766        1.44902785011317       -1.70146668645642
H           -2.51318244447888        1.97212719678650       -1.91370129722342
H           -1.66502736439706        1.16574748011390       -3.23065868053679
C            0.75554820152267       -0.35117063246816       -1.36297661067564
O            1.26241829426719       -0.34475149116091       -2.40090454758926
H           -0.30828291423142       -0.42591350161198        1.65916106207263
