54
 energy: -70.112535969810 gnorm: 0.000171031383 xtb: 6.7.1 (edcfbbe)
Ru           0.01973989486544       -0.34071064379528       -0.63650024279439
C            2.22430665704785       -2.41109830212492        0.25248890268772
P            2.28381135021033       -0.75965079793006       -0.36453252493574
C            3.46108034714160       -0.74230448080446       -1.81934781202704
C            3.28675848744526        0.55987560417301       -2.59395301143144
C            3.19121378027622       -1.94883791859493       -2.71050169823603
C            3.29397204705486        0.25162182438143        0.86198335965222
C            2.36411805218318        0.81496824301012        1.93252350911130
C            4.41069679319091       -0.56941791597934        1.49906953813108
C            0.98111030941260       -2.99888238067093        0.35678115458015
C            0.76621013917123       -4.32912264770457        0.84084598522690
C           -0.49658582976130       -4.80838882156364        1.00546725639172
C           -1.60423164238675       -3.99130330465268        0.70835923986261
C           -1.35049513620797       -2.73187013519838        0.20906006070356
C           -2.46554189743405       -1.78051415876834       -0.16458745390666
N           -2.00724615215695       -0.38160867187616       -0.16070209978960
C           -1.41068386914921        0.00836923019403        1.11771336617785
C           -1.75114976238265        1.38348902600052        1.68596609362183
C           -2.99746462300986        0.50752326267107       -0.78404168907633
C           -4.41964292535921        0.40491673111345       -0.22381952467180
N           -0.12394316983316       -2.26009020812555        0.01540478288056
H            3.12285964328411       -2.96935070776442        0.47068958887698
H            4.48540912049811       -0.80419646987525       -1.42809822655229
H            3.94987331876982        0.58403278991977       -3.45766985622817
H            3.50226252143672        1.42285223407176       -1.96739117927351
H            2.25362998536868        0.64326643472748       -2.93310437804648
H            3.82747664409042       -1.92178714216491       -3.59408646549229
H            2.15064038798655       -1.94566884716872       -3.03290659431965
H            3.37810370771094       -2.87719352586980       -2.17395868325066
H            3.72889822566787        1.08469907806063        0.29793500957967
H            1.62222041887202        1.47015589316774        1.47202253324174
H            2.92470496692234        1.39033767449353        2.66876052899599
H            1.85720636924576       -0.00105137221162        2.45400478416472
H            3.99089498732732       -1.34731577762394        2.13430238023457
H            5.04263226250462        0.07131341191614        2.11351452822492
H            5.03617317549863       -1.04325597393395        0.74519485518638
H            1.63114951538435       -4.93163944410246        1.07511753196264
H           -0.66199678081092       -5.81131177248160        1.37424859937996
H           -2.61432191029782       -4.34191366563447        0.84802619784215
H           -2.80560179618806       -2.01516910203729       -1.18163869325116
H           -3.31107196898749       -1.92050999832086        0.52409610942756
H           -1.63821270289137       -0.75661113166755        1.88062754985141
H           -0.23681510079846        0.00112341251099        0.99748688206914
H           -2.81543988577108        1.48360802849632        1.88715331477696
H           -1.21773055177425        1.50761751748324        2.62821456776667
H           -1.43413841386882        2.18161749943698        1.01640247137281
H           -2.63375684164595        1.53286922640159       -0.70284133948837
H           -3.01635857456586        0.26017109400036       -1.85161001151497
H           -4.43442220315846        0.44322537507225        0.86285919246369
H           -4.90787986126490       -0.51299315194956       -0.54275114338826
H           -5.00346609611028        1.24077857324856       -0.60070841984371
C           -0.03341718523459       -0.71363374063574       -2.42213504787209
O           -0.24647139059136       -0.93455798113338       -3.54202504513255
H            0.08682460351150        1.19049169880859       -0.96782162770001
