56
 energy: -80.941016903114 gnorm: 0.000322462920 xtb: 6.7.1 (edcfbbe)
Co           0.22576070116862       -0.33590277924076       -1.72775595680021
C            2.31632277332991       -2.19522537440060        0.12181878304289
P            1.96350700450406       -0.41243191126081       -0.25235146260194
C            2.29866806809313       -0.26477018792715       -2.04613693451927
C            2.80205294771838       -1.24059102296386       -2.92081281867500
C            2.94582642191982       -0.95614913826100       -4.26318168107990
C            2.57984270352041        0.28804425940193       -4.77348404692327
C            2.06488719785753        1.25807198939763       -3.93713626097629
C            1.89866690420150        0.98973009066620       -2.57777816198993
C            3.39894171856656        0.39872409764635        0.52783986019864
C            3.31766702599504        0.65998832488024        1.89373455995912
C            4.37672233008591        1.25965179969671        2.54925574979515
C            5.51560388711823        1.61271487824300        1.84161513740135
C            5.59364721666229        1.36472123784046        0.48028632450310
C            4.53893454750702        0.76115264364758       -0.18184097979742
C            1.09612558589743       -3.00031483523043       -0.21682151495049
C            0.96805808398626       -4.36458031328721        0.00273808034076
C           -0.27629904767403       -4.94814418140415       -0.18940108018479
C           -1.36544054730472       -4.15715121461717       -0.52699252473662
C           -1.15296591039065       -2.80357022508608       -0.74423490250564
C           -2.25309161678396       -1.81898401880251       -1.04882828177849
N           -1.79510987440747       -0.43226666726554       -0.86885954010414
C           -1.64001452292068       -0.10353025689217        0.56882517331126
C           -2.92972485547217        0.06652933664181        1.37319163091649
C           -2.68841435530252        0.51812167938339       -1.55399788507500
C           -2.06286428738070        1.90468861309360       -1.61594528837138
N            0.06290025191116       -2.28147061029354       -0.64116789425292
H            3.22121291786929       -2.53486309950845       -0.39106060909432
H            2.51059442472947       -2.28150778660605        1.19830870141835
H            3.10963077248347       -2.20784565780747       -2.54987293511339
H            3.35242933785228       -1.70535803582447       -4.92643148987776
H            2.71166549849074        0.49348849316709       -5.82490404041571
H            1.79684580835527        2.22814576011312       -4.32923335583355
H            1.65604472354030        1.80620902470966       -1.89857853960108
H            2.42064131994544        0.39151128111558        2.43741694590291
H            4.31478502010058        1.45783025513577        3.60918129675303
H            6.34219562861506        2.08495561915716        2.35122689421794
H            6.48093018967482        1.64286560448157       -0.06958789083353
H            4.60476360092967        0.57189902515602       -1.24448052008457
H            1.81189509410500       -4.95096106301277        0.33149166997358
H           -0.40460532779270       -6.00900274684347       -0.03563620351913
H           -2.35314194401066       -4.58122218938847       -0.61588427002098
H           -2.56569101185648       -1.95562386440521       -2.08873702304118
H           -3.11883211640779       -2.04291724011446       -0.41391752282560
H           -1.06242695882177        0.82083770995826        0.63385071269760
H           -1.04936836988820       -0.90045944466976        1.02279620689558
H           -2.66556993135828        0.15900918305654        2.42408089035823
H           -3.47200918859981        0.96500578665782        1.09102206554478
H           -3.59386611652423       -0.78852611109373        1.27490022353099
H           -3.66540254230394        0.55667544899344       -1.06137398855737
H           -2.84253988375343        0.15692511815697       -2.57314704563331
H           -2.57054753718413        2.50896106176588       -2.36276679843206
H           -2.12275062101783        2.42257631152731       -0.66270353098758
H           -1.00883485337469        1.80447676964475       -1.90681255731359
C           -0.36732785404622       -0.65095114006661       -3.32599568733472
O           -0.60464112832560       -0.89745617275237       -4.41507237417063
