50
 energy: -86.201244934941 gnorm: 0.000089735064 xtb: 6.7.1 (edcfbbe)
Mn           0.03164902940484       -0.28979065213650       -0.28243300979715
C            2.30370964223373       -2.30692826007422        0.55758916350374
P            2.08285973844686       -0.44044547108891        0.54596668185654
C            3.62302345618260        0.10982006422218       -0.24965743534251
C            4.86734017815982       -0.41581643248631        0.09022919814546
C            6.00420347534871        0.05475128558621       -0.54070948399110
C            5.90790890595664        1.05120105321963       -1.50109835694291
C            4.67271860348667        1.58639269047680       -1.82987821721711
C            3.53086665332448        1.11733202182406       -1.20374229428455
C            2.40414201629474       -0.04029552752140        2.29410252062787
C            1.77704085839992       -0.79365113867304        3.28449403498076
C            1.94596213177132       -0.46553262653550        4.61663480237035
C            2.73066970925600        0.62177638343809        4.96937179726664
C            3.33959155270055        1.38546536193507        3.98682820694532
C            3.17423453774353        1.06183639022048        2.65141816660403
C            0.95705886717311       -2.97563992468379        0.59674280728731
C            0.79652649531482       -4.29772217213228        0.98228339713748
C           -0.46269890761464       -4.88460333209664        0.91307839649776
C           -1.52643643835374       -4.14037247014503        0.43687502279654
C           -1.31789887926949       -2.81404416403392        0.07540929679530
C           -2.30867250431445       -1.88349606993764       -0.46206253056923
C           -3.66522979590104       -2.00075150737100       -0.75520987038335
C           -4.30781934858358       -0.87240154249741       -1.26648224973778
C           -3.65634051931676        0.33203395203138       -1.47464153035220
C           -2.28280191581206        0.39851566604492       -1.15670916524495
O           -1.42861341945320        1.35417083948091       -1.21011650718123
N           -1.70870581163911       -0.71895587814829       -0.69036644834977
N           -0.08511700578140       -2.23491350896366        0.18802707668016
H            2.78224876218456       -2.54946395264858       -0.40124646051394
H            2.95237143104460       -2.64507276861501        1.37025179057355
H            4.94103341876123       -1.18186378552261        0.84917554603983
H            6.97062098530305       -0.35361660734885       -0.28295888536575
H            6.79957677712495        1.41399116108149       -1.99121242832244
H            4.59986389514610        2.36734903381771       -2.57282697828038
H            2.55124145234842        1.52317850809269       -1.43914184750075
H            1.14874345928680       -1.63066530563307        3.00357707368466
H            1.46068873125279       -1.05364792827470        5.38226788517944
H            2.85940662246279        0.87864753504046        6.01061216873073
H            3.94071935171453        2.24023201467351        4.26116854216283
H            3.63892713878853        1.66258265218991        1.88129142024908
H            1.64929447277422       -4.86457010875062        1.32209213008433
H           -0.60187967968865       -5.91168803172507        1.21261980232818
H           -2.51224818338364       -4.56712581592674        0.34244761759584
H           -4.20355046463515       -2.92053031621122       -0.59573998585437
H           -5.36055633025165       -0.93953716788577       -1.50379563414082
H           -4.17544765288789        1.19584952617915       -1.85890165744362
C            0.66494435341053       -0.49765243497968       -1.93810114430457
O            1.06459311554306       -0.52858770965778       -3.01889666272543
C           -0.46774110937095        0.46518626893017        1.26386383033880
O           -0.77811250784959        1.05112227268909        2.20344615465638
