49
 energy: -80.784082116238 gnorm: 0.000194294907 xtb: 6.7.1 (edcfbbe)
Fe           0.06803594706355       -0.37748745467889       -0.36252204837899
C            2.27945571731134       -2.25495669323718        0.64039830676369
P            2.03809796448014       -0.39184182696399        0.52743121909782
C            3.60497583017008        0.10003012902554       -0.27221002105881
C            4.84372579899138       -0.37508050236173        0.15166907102635
C            5.99548770294978        0.03235620201718       -0.49568170065354
C            5.92054885479536        0.91711711662186       -1.56144457156361
C            4.69147980623789        1.40170994155714       -1.97859779792351
C            3.53541674995975        0.99437714823196       -1.33468858403177
C            2.34278841666698        0.09600905988354        2.25806286061091
C            1.64496361805005       -0.57034065134837        3.26231046123506
C            1.80122350930416       -0.19533104575408        4.58322618658773
C            2.64364836310367        0.85629307875497        4.91118356363835
C            3.31985892287469        1.53851362986232        3.91339399089813
C            3.16808358696758        1.16562296366068        2.58877230474824
C            0.94290066521883       -2.94078545728111        0.63245209323210
C            0.76749648944340       -4.24107898953719        1.07859801083900
C           -0.48742800032786       -4.83361407764195        0.98815528754697
C           -1.53769780966269       -4.10929962200168        0.45432485597897
C           -1.31610955104477       -2.80299534899293        0.03404325349967
C           -2.29447749304604       -1.87030724297751       -0.51258645000051
C           -3.65535989047551       -1.96265637687574       -0.78857267673993
C           -4.28688745677368       -0.81638349734416       -1.27591899465504
C           -3.62189688722096        0.38026321228102       -1.47627355433247
C           -2.24001292810893        0.43263272611877       -1.18308967241059
O           -1.37432853043410        1.36233557143232       -1.24138965151730
N           -1.67947008257386       -0.71339703688388       -0.74526389779213
N           -0.07847258033902       -2.23279710689388        0.12943031066055
H            2.82282354044844       -2.54235238182819       -0.26978824718880
H            2.87694812233635       -2.54931639206238        1.50824436088591
H            4.90194663660752       -1.05337409427453        0.99156115565877
H            6.95673968518137       -0.33784305774754       -0.16888733483133
H            6.82337041202104        1.23204452557729       -2.06445284746120
H            4.63431857519746        2.09604777785602       -2.80456808899216
H            2.56404615805532        1.36454541814588       -1.64342300857122
H            0.96742183422042       -1.37088183041410        2.99568534596331
H            1.26209718928419       -0.71808229751100        5.36035789558323
H            2.76432761824406        1.15019468889789        5.94389711139683
H            3.96492359349520        2.36792411086664        4.16661042789621
H            3.68963699247184        1.70594377192772        1.81000589380490
H            1.60503860256336       -4.78557364746050        1.48680035772680
H           -0.63635635876180       -5.84609986492152        1.33030273463378
H           -2.52473512547725       -4.53439301860282        0.36603627689770
H           -4.20633050736517       -2.87501812762675       -0.63014543788428
H           -5.34464716682991       -0.86520532614049       -1.49622350934125
H           -4.13929345975821        1.25613406874607       -1.83533609336543
C            0.67053382193522       -0.69268054795473       -1.97619128835102
O            1.04189552026949       -0.91957994668522       -3.04140236264195
H           -0.40684307346772       -0.01928960798260        0.98164025009593
