54
 energy: -70.088122600504 gnorm: 0.000153100820 xtb: 6.7.1 (edcfbbe)
Ru           0.07193295663290       -0.38374257757124        0.09567368642275
C            2.35627049353522       -2.47179613087689       -0.24101233488928
P            2.31592197785756       -0.80901165318033        0.37134434391916
C            3.51062146319070        0.15457188387238       -0.70879136616669
C            3.23656632202859        1.65638676827934       -0.62977285588365
C            4.98359452875842       -0.16813998089392       -0.48857366234607
C            3.14110194468378       -0.86040065012456        2.05428519241212
C            3.00439503087366        0.48695118343601        2.75475980261081
C            2.49660947912663       -1.96870801133335        2.87886949917362
C            1.13099268198116       -3.10304198311062       -0.34502411589478
C            0.91758671739346       -4.47956213518090       -0.67313503381032
C           -0.34518569857726       -4.99141574510842       -0.71086133567569
C           -1.45735379198423       -4.18224268759565       -0.40632087882210
C           -1.22183605474988       -2.85524494296821       -0.11209436258009
C           -2.29886603675565       -1.88227389831742        0.33639364556681
N           -2.06976538867902       -0.54282402203567       -0.24971753123893
C           -2.50659435084330        0.60439560043768        0.56636432164656
C           -1.45976846657625        1.73576337529830        0.48015283171801
C           -2.69905603646079       -0.55304635951078       -1.58286979306660
C           -2.57748163163855        0.72293582789264       -2.40677741616489
N            0.01022793425061       -2.34945280092201       -0.12612490747500
H            3.28203477361687       -3.01765762906217       -0.36002829786293
H            3.23378732579820       -0.19447496023945       -1.71333973669363
H            3.62131562265090        2.16570662174023       -1.51269591552244
H            3.70705428869924        2.09703089445940        0.24627159305123
H            2.15651785611378        1.83658467908955       -0.56603776357732
H            5.34373422784706        0.25187744255855        0.44846758100781
H            5.57979222709816        0.25350830014814       -1.29763572652947
H            5.14018339102543       -1.24508492762688       -0.47524014898550
H            4.19848746506341       -1.10721601299023        1.90014322138259
H            3.59966770462459        1.25347470771736        2.26436371889156
H            3.32962231157772        0.41396217247873        3.79215366218873
H            1.95811909655073        0.79521167674147        2.73934569285834
H            2.93204415959540       -2.00541461493144        3.87685919999163
H            2.63693140676038       -2.93569113581466        2.39855307206472
H            1.42739274980197       -1.78776444995622        2.96823829776391
H            1.77938038216892       -5.09479301943957       -0.88358350352625
H           -0.50419437381985       -6.03098897981062       -0.96055275810040
H           -2.45552892584792       -4.58812577026153       -0.39254434878003
H           -2.21423641801756       -1.80459944613827        1.42728146651326
H           -3.29962365635610       -2.26574664568188        0.09051031961913
H           -3.49422099077381        0.96947307654035        0.25359604147081
H           -2.58000236755728        0.28449936175359        1.61103522856083
H           -0.39259676557826        1.33605179282372        0.62048660864863
H           -1.62331538495005        2.44590123756874        1.29230506766995
H           -1.52125780007471        2.27840485560479       -0.46413378852419
H           -2.24571270425098       -1.37799699081584       -2.14302520468112
H           -3.77142420228893       -0.77761756574029       -1.45888114251883
H           -2.97364869938888        0.52508922960627       -3.40067314728451
H           -3.15028158171471        1.54227982871044       -1.97853182270135
H           -1.54079350576037        1.02949846526423       -2.51953146388438
C            0.47756273853220       -0.15941638544917       -1.68490356271240
O            0.80951186096825       -0.06397782594211       -2.78971630759296
H           -0.18519888964802       -0.60246465312303        1.63717325541134
