56
 energy: -71.169216024921 gnorm: 0.000244836585 xtb: 6.7.1 (edcfbbe)
Ru           0.28533852327663       -0.00581842664815        0.02699214811313
C            2.32540205151821       -2.34123436965870       -0.52603293015844
P            2.46227792248940       -0.62028307639493        0.19049255178095
C            3.77948011461721        0.09486458263983       -0.93200626652794
C            5.16696121100235       -0.52725955442787       -0.80828703228698
C            3.82265494584386        1.61515992479955       -0.79169326426435
C            3.33653732359173       -0.98826453705286        1.80212982911729
C            2.49179017949077       -1.93926734776409        2.64546600231272
C            3.56436914756473        0.32430360696131        2.54571601868422
C            0.96220417707083       -2.87700692049877       -0.20555188993590
C            0.69233339139347       -4.23503559115176       -0.21219685873941
C           -0.59615016455348       -4.68649665990250        0.04213769899374
C           -1.57899668639449       -3.74368613262214        0.31006075599460
C           -1.24117590350417       -2.40222674628198        0.32421077635753
C           -2.21927801760969       -1.32575752232019        0.70525502791536
N           -2.01752521729153       -0.10071913780121       -0.08988345967897
C           -2.86695599873795        0.98827899534358        0.43946791049501
C           -2.62486716029319        1.38163180182718        1.89100610227688
C           -2.48366354014010       -0.39392938503876       -1.46274208674173
C           -2.41738847300971        0.79264725651312       -2.42101079146121
N            0.00576369362675       -1.96688437021638        0.06519422713245
H            3.11387566480279       -3.02173866842676       -0.19221953383171
H            2.41115758438352       -2.22539323419059       -1.61502172767311
H            3.38229397580101       -0.12909742652763       -1.93352925894616
H            5.12405888872313       -1.61308027483489       -0.87202850843423
H            5.79822139121093       -0.16560142598270       -1.61933386297547
H            5.63812103741214       -0.24666903200861        0.13098997756594
H            2.80344581154376        2.00141826331800       -0.71956296414054
H            4.36693607163832        1.91625052223281        0.09999179425225
H            4.31098082517382        2.06313099790214       -1.65621217038291
H            4.29427127919363       -1.47118169915484        1.57042241131704
H            2.37916845598651       -2.91325230308845        2.17056762695056
H            2.95711705321454       -2.08871239989374        3.61914275788341
H            1.50208544063435       -1.51043072866684        2.79964910379800
H            3.88183063877941        0.13611252870888        3.57065432660944
H            2.63270545960924        0.89097971131032        2.56208749589903
H            4.32602857388856        0.92812406198881        2.05837823094261
H            1.48730085847282       -4.93463837253945       -0.42375844701355
H           -0.82568090595003       -5.74005144042745        0.03206357598769
H           -2.59444741170588       -4.04521336681407        0.51732669396186
H           -3.25625803332815       -1.68922485989585        0.61185590463639
H           -2.02488981412626       -1.07603911136029        1.75567438250798
H           -2.66699015501352        1.86962562783698       -0.17158352499800
H           -3.92430614187524        0.70035539509659        0.31400999057172
H           -2.99975404320912        0.64072712013804        2.59388046086913
H           -3.14027406568437        2.31919871287826        2.08661835929915
H           -1.55867332518554        1.53052264676060        2.05193523229057
H           -1.87322112003167       -1.21170455933548       -1.86222835082719
H           -3.52621308448106       -0.75447636948581       -1.41700586635663
H           -2.39730707297173        0.42976842425825       -3.44631662264000
H           -3.27806152914395        1.44775252647602       -2.31081678810505
H           -1.50990112874470        1.36960740289531       -2.24243850004572
C            0.55265617792206        0.01078471283865       -1.79327285314152
O            0.83568356727016       -0.04840876479558       -2.92028851649601
H            0.15573135342609        0.05745330594711        1.59066493453287
H            0.36198323440542        1.57218469174667        0.07539123803225
