59
 energy: -70.715101349423 gnorm: 0.000218989924 xtb: 6.7.1 (edcfbbe)
Co           0.07919958210923       -0.39699785076862       -0.39281315755865
N            0.20358631345123       -2.37621932975907       -0.26025030215526
C            1.29641551611081       -2.82841325790182        0.61960750178408
C            2.60705391942862       -2.19951539753944        0.15680092271375
P            2.27399317254074       -0.41965830196713       -0.24515721048661
C            3.42227708059711       -0.17283900369695       -1.68927361307979
C            2.71202867029519       -0.75980423593778       -2.91165961210403
C            3.78662246014403        1.28501849998452       -1.94403518486427
C            2.93964081571331        0.49591261732836        1.23091611280957
C            2.56640845448389        1.97685182996347        1.18226695493221
C            2.31032054060078       -0.11333170635712        2.48568644740603
C           -1.04877250453303       -3.13205266547634       -0.04068239206639
C           -1.97271201055547       -2.36379428166183        0.89768732853102
P           -2.01530478504647       -0.63916664283863        0.23826791295629
C           -2.75400052714522        0.34017450816049        1.63564787033235
C           -4.19451079275893       -0.03217479704803        1.97526520809485
C           -2.62491233313160        1.83534527141109        1.35274602038854
C           -3.21463439754632       -0.61467148446381       -1.19104512892882
C           -4.35281898142536       -1.63097234828638       -1.12974803546007
C           -2.42594173019111       -0.77779878447818       -2.49564805965188
H            0.51325510374769       -2.57820338358358       -1.21681700203179
H            1.06024462942982       -2.53194096279257        1.64334230983237
H            1.38101695584703       -3.92317766614766        0.59255413174108
H            2.95176437581243       -2.69513528977203       -0.75513299173030
H            3.39286376462054       -2.30073692403641        0.90702508876282
H            4.33832784205125       -0.74074902282520       -1.47731756956309
H            2.54485701891710       -1.83114702060244       -2.81169848931098
H            3.30977843058596       -0.60316359172112       -3.80745722770472
H            1.74890718239792       -0.26474489744605       -3.05403794430594
H            2.89119071856133        1.89290743992540       -2.06460050142362
H            4.39303192106616        1.68948454392636       -1.13712452741339
H            4.36728756844053        1.35984735646051       -2.86253827860835
H            4.03096632188483        0.37852664349118        1.24648270940134
H            3.03106582341857        2.49929901470072        2.01693918707213
H            2.88141324190415        2.46334901041976        0.26490865230520
H            1.48632598454328        2.08559317361577        1.27401142436704
H            1.22470712319167       -0.16083873699989        2.35642949931036
H            2.51847085573789        0.51976490943794        3.34629516742400
H            2.69557223716240       -1.10528022222707        2.70740740240857
H           -0.82907000554196       -4.12745167421841        0.36175539066470
H           -1.55143779410518       -3.26414106271612       -1.00151325520453
H           -1.54901219073846       -2.31724257289515        1.90516791045606
H           -2.95802775700457       -2.82780929023212        0.95567517275679
H           -2.11390987727702        0.09644842868594        2.49593415992607
H           -4.30469433227956       -1.10059060945815        2.14855866531035
H           -4.49381499789339        0.48514696073010        2.88558841545017
H           -4.87253309619357        0.27678558354210        1.18292605702787
H           -3.19121058355907        2.11961753133194        0.46743566336146
H           -1.58305134826006        2.11122888153182        1.20007020101971
H           -3.00867992745224        2.40859790014570        2.19455532657143
H           -3.63535824125577        0.39933440267507       -1.17079797096338
H           -5.03323088030707       -1.45093578498152       -1.96095911458575
H           -4.92499927263622       -1.55665414296688       -0.20966552903597
H           -3.97926803139332       -2.64852599683984       -1.22630914841369
H           -3.00698499298058       -0.40801839850660       -3.33834482356896
H           -2.20046105362860       -1.82502002796742       -2.68766450791204
H           -1.48484579222901       -0.21747722745174       -2.45851379723764
C           -0.00983808219288        1.28027735546195       -0.80709733049078
O           -0.05570215835084        2.34532018030764       -1.22784048916909
