52
 energy: -87.253941575515 gnorm: 0.000286293613 xtb: 6.7.1 (edcfbbe)
Mn           0.11726903310190       -0.15748670372959        0.23864798300374
C            2.31109107835873       -2.32932856270702       -0.10278326901628
P            2.25214826894840       -0.61975093016543        0.59567244418410
C            2.84892038124402       -0.84732050109002        2.30059388820843
C            2.60296620805603       -2.00772840635979        3.02775596150962
C            2.99657819765058       -2.09092877288663        4.35184042974278
C            3.62190881352716       -1.01613327003521        4.96186099399322
C            3.84669562537722        0.15152540312940        4.24873019248798
C            3.45634291582475        0.23982976063426        2.92617950104314
C            3.71935417102962        0.12986718446299       -0.17928287678604
C            4.97936444783208       -0.44066710619557       -0.01418685663128
C            6.07724811027358        0.13003352766158       -0.62992478514370
C            5.92550169920563        1.27004485356738       -1.40576672915727
C            4.67482230728918        1.84445423327170       -1.56280336355494
C            3.57088530972677        1.27698373211061       -0.94900716577250
C            0.96078945415232       -2.92747809453653        0.14729790005339
C            0.80574512191387       -4.29293038518954        0.29732706900059
C           -0.46625415316290       -4.81919261472289        0.50101252994191
C           -1.53658015823190       -3.95120825169373        0.50647638823238
C           -1.31814359063629       -2.58122500052449        0.34278927912769
C           -2.38962326884358       -1.60291761740302        0.24654755779871
C           -3.74260098919377       -1.92600769500721        0.32448123893794
C           -4.69029129259309       -0.93768875445774        0.13153528787151
C           -4.26580104370904        0.34577433311200       -0.14769575818984
C           -2.89451660882616        0.61261507988462       -0.19500099551725
O           -2.52263030399593        1.85920165177504       -0.47088529089623
N           -1.96800715233564       -0.33176375767391        0.01668128039752
N           -0.07177765174196       -2.06811678655953        0.20786670411712
H            3.12733648762284       -2.93984933772872        0.29242177184797
H            2.45835345711218       -2.19848037038057       -1.18429547995426
H            2.09770258072689       -2.84753674124312        2.56759977535459
H            2.80776382683925       -2.99633228934317        4.91156473399171
H            3.92453468800096       -1.08520110044166        5.99664019677015
H            4.32098658775785        0.99548944351764        4.72845977800303
H            3.61230632652023        1.15072416851259        2.36178118928108
H            5.09595713091961       -1.32189125966028        0.60319469634109
H            7.05547828920450       -0.31159327350836       -0.50397711093665
H            6.78711086554240        1.71223459058196       -1.88469198884947
H            4.55928880453226        2.73600128808877       -2.16184656932983
H            2.58406027988181        1.71348666129027       -1.04870622342118
H            1.67080655823721       -4.93753591368422        0.25337735935194
H           -0.60947279600623       -5.87990349646225        0.63609301611097
H           -2.53700126330776       -4.32881306572769        0.63813981911659
H           -4.05217989621329       -2.93613292122220        0.53308720124750
H           -5.74295032795117       -1.16665484339964        0.19071288583963
H           -4.94983370046450        1.15815651371795       -0.32611780009758
H           -1.54435254423824        1.92924644554445       -0.43059341935659
C            0.43911064524931       -0.03751025706459       -1.50945357806078
O            0.70049988041463        0.00332497622501       -2.63710004063496
C           -0.12098128076230       -0.09084281853702        2.00614332253384
O           -0.25502658893190       -0.08802927643735        3.15218278742203
H            0.21376151413153        1.40478202806891        0.32536195604275
