48
 energy: -75.420474110537 gnorm: 0.000217669404 xtb: 6.7.1 (edcfbbe)
Mn           0.04226095727848       -0.23089402870057       -0.00441497977698
C            2.39622620685438       -2.29860303924478        0.21016187120030
P            2.28447470559606       -0.46727537997404       -0.16905936897644
C            3.62757039102508        0.25011858858262        0.91903928228644
C            3.02572069679613        0.68306095309120        2.25221877573320
C            4.84097166926157       -0.65289289474913        1.13359590313702
C            3.13012090889261       -0.40849849853015       -1.83389855847106
C            3.11381646855784        1.02002612788848       -2.37205478179302
C            2.46104254241941       -1.36755789799580       -2.81534844288396
C            1.13833785969486       -2.98376781022187       -0.24078256486983
C            1.08040469662362       -4.33938632350077       -0.52422893667289
C           -0.14366060894701       -4.92395879200472       -0.83275375778485
C           -1.28571849120292       -4.14452930109919       -0.81136371556845
C           -1.17434661647381       -2.78718106861684       -0.53117254418522
C           -2.26526668616849       -1.82178957749068       -0.41496377145537
C           -3.64874975592629       -1.93517532323274       -0.53465133437064
C           -4.40467964609446       -0.78163104289735       -0.32698197323831
C           -3.83331975422394        0.44302809909937       -0.02295286418111
C           -2.42729023937657        0.50634838344937        0.07873060445114
O           -1.62705585811922        1.48041772634459        0.31336464553591
N           -1.74907733246695       -0.63422526619533       -0.11137286642813
N            0.04170408730149       -2.21137288726734       -0.29285173782583
H            3.29606851120985       -2.76226318062821       -0.19935322151027
H            2.43038279991786       -2.36406108588132        1.30558081047829
H            3.94733520970954        1.15508957591475        0.38602697485780
H            2.69329379438348       -0.18002616026048        2.82748699856730
H            3.76051408974627        1.22545384782527        2.84473563121175
H            2.16792191635468        1.33598971734648        2.07995098093491
H            5.24190424558093       -1.02687233037352        0.19492121156385
H            5.62512631985388       -0.08164331840145        1.62785202337450
H            4.59269071211076       -1.49725231492004        1.77143230443780
H            4.17079158496482       -0.72178205950989       -1.68190730076490
H            3.66265785832777        1.69815612465921       -1.72173696679853
H            2.09041860771528        1.38381015621300       -2.44990731146824
H            3.56746223483773        1.05718536505461       -3.36124691838050
H            2.87362111121524       -1.22545376365760       -3.81295417235414
H            1.38830663555526       -1.17860534471753       -2.86267882243422
H            2.61303228542733       -2.40600974822617       -2.53025262459986
H            1.97938982026151       -4.93508677034871       -0.49190048577036
H           -0.20241217150302       -5.97633722456332       -1.06314565003097
H           -2.25782781321804       -4.56835817559173       -1.00692856005066
H           -4.12218777606524       -2.87258204272706       -0.77636189175887
H           -5.48087058703826       -0.84460788242865       -0.41117756059824
H           -4.43484190154020        1.32604484389373        0.12524990621329
C           -0.19939806937857        0.37930432695179       -1.66953954059291
O           -0.59990054757431        0.85495241744399       -2.63729857530102
C            0.00290830263777       -0.28462060064201        1.77872510295819
O           -0.19897582489264       -0.21155575852266        2.90992244774608
