48
 energy: -70.186566844405 gnorm: 0.000158990598 xtb: 6.7.1 (edcfbbe)
Fe           0.06515781243253       -0.26465617224342       -0.31964233036689
C            2.28646715433907       -2.29086320926758        0.14679753072177
P            2.20213524304998       -0.52857626562502       -0.42360610008094
C            3.26405158690094        0.52795375445714        0.68828216005068
C            4.23173814164589       -0.24469916563999        1.57952594754671
C            2.32275811826586        1.41146972951902        1.50944826153345
C            3.12800893145211       -0.59621677059453       -2.04636404608597
C            4.63029315692046       -0.83670710528658       -1.91384319028059
C            2.48834738656325       -1.65915608333398       -2.93916222621262
C            1.00893596371309       -2.95588614493059       -0.25571852683386
C            0.87023135958053       -4.32611129235418       -0.38276929900400
C           -0.38849681733264       -4.87400727327761       -0.60102436052566
C           -1.49389247845612       -4.04407281527917       -0.60248359482038
C           -1.30550203431316       -2.67412451771125       -0.47508326832108
C           -2.32610881807528       -1.66173211646708       -0.31505950497576
C           -3.71123376516557       -1.76664880228915       -0.24359392813427
C           -4.44863672347459       -0.62665019868921        0.02986947735092
C           -3.82300379843914        0.60469749461416        0.22830971125379
C           -2.44870264877477        0.64126123741240        0.12625939351499
O           -1.60069467974365        1.68234198661851        0.23805631883069
N           -1.74346180322787       -0.45663305491524       -0.14377752323520
N           -0.05271076147917       -2.14039452195195       -0.39806773512341
H            2.28766313209790       -2.25059403470282        1.24357049059607
H            3.17201667041080       -2.83639396327606       -0.18708689290785
H            3.82973538738707        1.17560422099894        0.00359112353721
H            3.69246534550340       -0.80624526674024        2.33898665131618
H            4.89082111226139        0.45526602091523        2.09147012704780
H            4.84872349163222       -0.93121920601325        1.00441604355932
H            1.82883313682988        0.82789217225975        2.28176788317037
H            2.87628696953901        2.21877201880979        1.98601754313970
H            1.54806644945047        1.84539621864375        0.86457795820976
H            2.96438912924256        0.39290216994611       -2.49745228815423
H            4.83953375555318       -1.78294977814991       -1.41981323675247
H            5.12480457706818       -0.03877152498680       -1.36622949901641
H            5.07246849477725       -0.87840348295002       -2.90839609720412
H            1.40025050119375       -1.60895007413077       -2.90041212001243
H            2.79440657290820       -2.65827350710711       -2.63558086147244
H            2.79696417292813       -1.51452376314040       -3.97303148056077
H            1.73714183961621       -4.96216711905242       -0.29269556053178
H           -0.50372880683663       -5.93990974531510       -0.72073974001053
H           -2.49141857610691       -4.44269389336355       -0.69088210452186
H           -4.19822086245986       -2.71660636732912       -0.38841382998562
H           -5.52368339845222       -0.68723658814772        0.09729193132274
H           -4.39512003365278        1.49119847544336        0.45359435645883
H           -2.04511172693301        2.49963915969764        0.50573127934200
C           -0.20075210982754        0.05213452073804       -2.02966139574897
O           -0.54849475506607        0.25458711743205       -3.09860249564849
H            0.31264428785893       -0.50265598396147        1.06271699391065
