48
 energy: -75.418607313787 gnorm: 0.000248940508 xtb: 6.7.1 (edcfbbe)
Mn           0.02327888908609       -0.14407276505477        0.08911678047388
C            2.37919226448906       -2.21877002740604       -0.17067679371756
P            2.26221200441919       -0.39155816816692        0.24999655702033
C            3.10576135605133       -0.39326393892623        1.92129991749904
C            2.55355464776076       -1.51011670058715        2.80767120661318
C            2.91897016911877        0.94937358500767        2.62758642148526
C            3.63384154933950        0.20648971490798       -0.87769906931154
C            3.11431182905367        0.29539061399381       -2.30956529757408
C            4.18296133278039        1.56810646732078       -0.46110306988338
C            1.10434040241232       -2.92042350857603        0.19451631168511
C            1.03190355460119       -4.28828516845708        0.40890752479868
C           -0.20478885398806       -4.88271354668886        0.63529727679152
C           -1.34317935721713       -4.09781898725098        0.60959633521540
C           -1.21704240956180       -2.72851489258349        0.40452406385515
C           -2.29983460314294       -1.75010498298606        0.32479573304966
C           -3.68648791931449       -1.86181633283346        0.40120182341548
C           -4.42995558427113       -0.68885925919713        0.27191600226295
C           -3.84382390236571        0.55228542598044        0.08564412077017
C           -2.43545664279700        0.61204680752795        0.02247792610525
O           -1.62305951682737        1.59528051337549       -0.10936532065458
N           -1.76957426593349       -0.54634622415531        0.12985862838794
N            0.00808015804999       -2.14761946509491        0.23670890155290
H            3.26102753836144       -2.68845509811945        0.27037473708398
H            2.47708654097958       -2.26977827865289       -1.26179392332321
H            4.17399406681938       -0.56628613090144        1.73360964252940
H            2.88218533337822       -1.35761067183076        3.83444753460422
H            2.88745019602082       -2.49481294500676        2.49235097882650
H            1.46238752651580       -1.49439054428511        2.79690314871568
H            1.89066520262296        1.05336787562445        2.96492126928552
H            3.56869647720162        1.00772160421112        3.49991849532624
H            3.13661108400206        1.79063126497579        1.97600843738703
H            4.43246750808521       -0.54608443526567       -0.81956512471424
H            3.92946275564738        0.53363986813112       -2.99101066418071
H            2.65584254036180       -0.63452994760141       -2.64227835458054
H            2.36858676641315        1.08671720335581       -2.37805010327519
H            4.85389934928574        1.94407838892897       -1.23234144360700
H            3.36533418933440        2.28030952925581       -0.34899322303487
H            4.74201219756537        1.51110144055998        0.46899347163059
H            1.93072086488299       -4.88454002816623        0.38633063697217
H           -0.27571317827918       -5.94512149678167        0.80941233237251
H           -2.32323092701913       -4.52585728668885        0.74800176306936
H           -4.17149422698365       -2.81202858711448        0.55336965936904
H           -5.50824340415713       -0.74983861586892        0.32491585333087
H           -4.43623401997379        1.44953580328689       -0.00068955640647
C           -0.02096396303567       -0.02889862270629       -1.69200064065993
O           -0.25096918839573        0.16331600040122       -2.80310617161022
C           -0.25266069182966        0.27693299505373        1.80432945985572
O           -0.69365335802649        0.61293261913834        2.81238174540074
