56
 energy: -71.026629369681 gnorm: 0.000240173991 xtb: 6.7.1 (edcfbbe)
Fe           0.13362911495484       -0.17615360752588       -0.50462916439184
C            2.42569353447564       -2.22962868956909       -0.18660325644521
P            2.22532552021289       -0.48642581562766       -0.82240519070319
C            3.58942227928216        0.42217296466334        0.07818490475164
C            3.34041942974417        0.47747507414397        1.58088496331589
C            3.64784921134627        1.84509882378486       -0.47317392977637
C            2.90722628522437       -0.70767727543234       -2.56474185742144
C            2.56846440608556        0.49798871159971       -3.44283310906169
C            4.38459644133578       -1.07385943109983       -2.67822897944967
C            1.06268710941093       -2.84753401086336       -0.11385031090728
C            0.89968377151186       -4.20890751351620        0.06609743266100
C           -0.37367352333317       -4.74820781724784        0.18628924511230
C           -1.45478815879496       -3.87902850502001        0.11761500555825
C           -1.22789337929077       -2.53310697928406       -0.08325964639235
C           -2.34047435534611       -1.53816189109972       -0.24521806476633
N           -1.94408044185922       -0.22771347841164        0.29636075262745
C           -2.93077815963874        0.79712714189019       -0.09000216907834
C           -2.95949399925133        1.15933587271514       -1.56684781023894
C           -1.96632654062564       -0.34175253989070        1.77184902276496
C           -1.53286741085410        0.92278194982633        2.50307891579285
N            0.00993569795955       -2.00688703148439       -0.20633937580148
H            3.09886491665923       -2.84023452564725       -0.79458064539695
H            2.83709530182314       -2.17438989654246        0.82649106474586
H            4.53172056474001       -0.10943916212435       -0.11354101322719
H            4.13484384818731        1.04411857906202        2.06675805638761
H            3.30854625047029       -0.51248074122067        2.03210693652874
H            2.38976879106397        0.96917613997627        1.76946366004197
H            2.63966837513241        2.25873374340763       -0.47985258051935
H            4.28202088121378        2.47349649452824        0.15185929339110
H            4.04032151131345        1.87037569553827       -1.48619446370683
H            2.30519875215925       -1.56047042802410       -2.91924299242998
H            1.67319475642020        0.99275411626292       -3.06687421883844
H            3.37932852793799        1.22274128344565       -3.45063084651871
H            2.38844589080076        0.18889601565775       -4.47201838702798
H            5.01621122169844       -0.22551510220089       -2.42445105252790
H            4.60913116344247       -1.36205048241772       -3.70535862983819
H            4.65050733426628       -1.90648630923650       -2.02967146201208
H            1.77162366023511       -4.84414713324174        0.12151974801280
H           -0.51872373083404       -5.80704194646601        0.33182924945681
H           -2.46663813891167       -4.24449966293019        0.20973681129018
H           -3.26646503813789       -1.90173472957116        0.22952973258492
H           -2.52731619064296       -1.42443338892977       -1.31809083801894
H           -3.93276886218827        0.46480423595807        0.22971667262414
H           -2.67219279062432        1.70444859201609        0.45390819143018
H           -3.64416672376227        1.99250427067474       -1.71245048571408
H           -1.96269677748890        1.46447688477618       -1.87560439310477
H           -3.29159845083194        0.33920812288507       -2.19945666621088
H           -2.98220314412261       -0.62582769433185        2.09462972962756
H           -1.28591767214372       -1.15227815977012        2.04160700489152
H           -2.33820422257946        1.64879028344266        2.58318639840574
H           -0.69549499695676        1.36466931292992        1.96883103598030
H           -1.21009933526663        0.66454499539378        3.50886151340042
C           -0.31348849185407       -0.33708344284816       -2.17866787563282
O           -0.56600524916137       -0.54049542049592       -3.29473856136265
H            0.60901102605675        0.01977227304551        0.85817922673440
H            0.19705534179966        1.28605815337810       -0.63155146619429
