55
 energy: -70.299869130678 gnorm: 0.000584195820 xtb: 6.7.1 (edcfbbe)
Ru          -0.01433593663547        0.01027246274482       -0.00797629794107
C            1.92148943470812       -2.05648805179304        1.31043078343782
P            2.15959273407432       -0.35217107178142        0.59098887245387
C            2.95996394875227        0.71752140705274        1.88479863704737
C            2.40906275329175        2.12515055001617        1.64010501298915
C            2.67219857904912        0.26716551904063        3.31197165273405
C            3.47396188651842       -0.64104789746297       -0.70082335918129
C            4.72810168278815       -1.34969318842569       -0.19421835926611
C            3.82369534136823        0.69612926900611       -1.35261109906103
C            0.79541920247571       -2.74373140359904        0.60001137267929
C            0.62903164300319       -4.12140771253173        0.55974844866167
C           -0.51342932894313       -4.65262797751624       -0.01864504235767
C           -1.47820556699049       -3.79723854673051       -0.53883881127267
C           -1.25317152934737       -2.43391306560487       -0.50254526687579
C           -2.18852279200839       -1.39826252285357       -1.09125624120516
N           -2.10884751483728       -0.16085018923267       -0.29014924088842
C           -2.94811202572618       -0.28617621269987        0.92566186058665
C           -4.44742538902143       -0.45923448451018        0.68912954534229
C           -2.33604487139253        1.12080512238205       -0.98430481596821
C           -1.42110067226430        2.18778913883532       -0.34850635087768
N           -0.12394768901661       -1.94112007463894        0.04401215624800
H            1.58891302542820       -1.88787046248234        2.34286789525322
H            2.82865585989686       -2.66327514213384        1.33004317424067
H            4.04227872685782        0.71591645972761        1.71093563380908
H            2.87887984422153        2.84184623556803        2.31094149334832
H            2.58918909247254        2.44730615407417        0.61335569309025
H            1.33180113069228        2.13010266172323        1.82639476285481
H            3.04954835581366        1.01486944898426        4.00756271850430
H            3.16104192466656       -0.67770893139169        3.53953123946037
H            1.59950711758931        0.17194449683740        3.47073955915950
H            2.98122421821052       -1.28216414564261       -1.44842174631378
H            5.48592936465020       -1.32907314430702       -0.97564902521333
H            4.53680936804654       -2.39197951587028        0.04633931814346
H            5.14257198938514       -0.85792156090138        0.68274871369087
H            4.40190279533538        0.53395004104940       -2.26052963446301
H            2.91987119561917        1.24733193713666       -1.62040036960628
H            4.41881127123281        1.31021111877688       -0.67956835324866
H            1.38079110501243       -4.76487976975977        0.98901137637514
H           -0.66011719687651       -5.72042731649557       -0.05410106631226
H           -2.38526413799560       -4.18546010700141       -0.97458236178098
H           -3.20973900509512       -1.78921822837937       -1.14411771628663
H           -1.86450413143333       -1.18613083402766       -2.11899682745894
H           -2.78143734705783        0.60858392151589        1.52838439316363
H           -2.57294132721557       -1.14290054882095        1.49313107077378
H           -4.95249065925090       -0.35798682707847        1.64652173991413
H           -4.85329774243899        0.29573334015962        0.02044534958621
H           -4.69440136800624       -1.44164706474247        0.29483024789279
H           -3.38041655441005        1.44489612442253       -0.91779958364156
H           -2.08860317359314        1.00339286884455       -2.04534321675852
H           -0.32760703085572        1.84100807731837       -0.19676610165913
H           -1.37123093166520        3.06400647973733       -0.99690694180024
H           -1.80993173384144        2.50640236829871        0.62204089700965
C            0.39744739939981       -0.05666196223167       -1.82662409521901
O            0.74586658982149       -0.17557168423883       -2.91331061153331
H           -0.26187309028713        0.06080704147889        1.51160467427767
