65
 energy: -93.248772333838 gnorm: 0.000111701963 xtb: 6.7.1 (edcfbbe)
Ru           0.05005169618483       -0.44488297615056       -0.65575874634843
N            0.41178649028571       -2.64666724262270       -0.36594774471589
C            1.48848300957503       -2.82670496085526        0.61460392904949
C            2.74571495634991       -2.12093094633760        0.10991854714731
P            2.29074338458659       -0.36197107167210       -0.35814046132132
C            3.09797666082717        0.63910897552368        0.94310135848732
C            2.35650891825925        1.64414302022420        1.55150788906708
C            2.93578907535815        2.44664109847594        2.51910994079028
C            4.25913137596808        2.25220013671164        2.87919029243734
C            5.00721657386607        1.26110191557803        2.26209343414312
C            4.43397392677750        0.46008504280397        1.29184506904872
C            3.46267002665788        0.02025941153121       -1.71238911443654
C            4.64785638167997       -0.64916605656852       -1.99426050170030
C            5.44970671758518       -0.22397634945185       -3.04037240237534
C            5.08287644675547        0.87071416353881       -3.80484620248915
C            3.90617789191354        1.54789495594238       -3.52338930066718
C            3.10204131347450        1.12309927692657       -2.48339240543429
C           -0.79963527778665       -3.44178110084863       -0.10274562491547
C           -1.83629448190245       -2.64581708339055        0.68707002543269
P           -2.09689365463079       -1.05561692919841       -0.25078173778343
C           -3.37028586334610       -1.61063093983899       -1.45518462253116
C           -3.10882317872301       -1.52663970870247       -2.81581075282577
C           -4.04909152647807       -1.95221072673078       -3.73887542031272
C           -5.26135627926255       -2.46089809295381       -3.30457965606136
C           -5.53530482607874       -2.53392336025384       -1.94685560326388
C           -4.59749493735000       -2.10870099338588       -1.02502295833930
C           -3.17984719440932       -0.06863800825476        0.83332611368809
C           -3.73254759430659       -0.48962537140060        2.03655128220741
C           -4.55256828443602        0.36546838197447        2.75510503010711
C           -4.82792084974402        1.63642040075291        2.28028027063324
C           -4.27449107950442        2.06296998259039        1.08231947121533
C           -3.45284274952996        1.21511822145933        0.36528874314051
H            0.79347414451643       -2.96467750796745       -1.26038324237004
H            1.17327973582310       -2.39039737153839        1.56807546579518
H            1.69849195598462       -3.89853271221924        0.76742167467735
H            3.52999561574704       -2.14836778476148        0.86990301376656
H            3.10276712344448       -2.62957756486509       -0.79410570915362
H            1.32249532562065        1.77255477176383        1.25575291322580
H            2.35423953355962        3.22467698775195        2.99265890568035
H            4.71251888620356        2.87542007681351        3.63677134686861
H            6.04302190732375        1.11639898948070        2.53563733404533
H            5.03061245001518       -0.29727169923116        0.80146796444985
H            4.95673340665614       -1.50457363138016       -1.40938024724789
H            6.36746511415104       -0.75181764767892       -3.25955403646942
H            5.71265081035313        1.19473262619691       -4.62093026714313
H            3.61591229155213        2.40201615864144       -4.11851191744295
H            2.16854660994880        1.62759061361836       -2.25342303724275
H           -1.24590384406536       -3.71413090317476       -1.06802004182274
H           -0.53864343898695       -4.36917190313621        0.42846683869340
H           -1.44587565629068       -2.38561737506732        1.67567493222577
H           -2.75619904830779       -3.22726351301932        0.79236195520957
H           -2.16353953063919       -1.11484600612732       -3.14401289574876
H           -3.83595867768036       -1.88356829171104       -4.79638445387495
H           -5.99705082590984       -2.79374866456171       -4.02254912425595
H           -6.48616960089871       -2.92067902815280       -1.60838521556176
H           -4.82175492673649       -2.15081392058297        0.03254845818859
H           -3.52688927647324       -1.47684943277395        2.42545489224165
H           -4.97866237927988        0.03591157781102        3.69255690105602
H           -5.46937418844843        2.29706103811730        2.84579343047180
H           -4.48209203631265        3.05730083170362        0.71333386419390
H           -2.99086335458371        1.53420539488634       -0.56274701342377
C            0.18935709912226       -0.55532223315711       -2.48264273553043
O            0.37104994337974       -0.63457233695858       -3.62986969799734
H           -0.01287044636710       -0.28123940034232        0.91857746828163
H           -0.20783751129769        1.09561367139566       -0.75696853972413
