50
 energy: -76.463511217934 gnorm: 0.000256223740 xtb: 6.7.1 (edcfbbe)
Mn           0.05462434973558       -0.11421473306594       -0.19518817728449
C            2.32602105515313       -2.21894462726501        0.24658534591530
P            2.26092056730643       -0.47701153374421       -0.37576996048747
C            3.15645425359350       -0.65297232840877       -2.00461693889854
C            2.43638405025895       -1.65554277196681       -2.90349758891125
C            3.23771486168170        0.71200609570642       -2.68251535463781
C            3.49182197179407        0.33454174761219        0.77424525286068
C            4.93389226530108       -0.14586643255140        0.63771305538794
C            3.39579158004995        1.85701441229951        0.70341161582504
C            1.02426786848944       -2.85595396084571       -0.13461092868178
C            0.93072233100631       -4.21745178018324       -0.34600302979941
C           -0.30383399144823       -4.78225293563101       -0.66385994636335
C           -1.40382247670942       -3.95621878766873       -0.70865457198978
C           -1.24923074368961       -2.58661863239884       -0.47393494105593
C           -2.34820862682795       -1.64868991258602       -0.39152530620186
C           -3.69515356654184       -1.98302245027768       -0.55464989434410
C           -4.66022158221161       -1.01826282352857       -0.36272836604522
C           -4.26417204146923        0.26037382801306        0.00843613832973
C           -2.90726620695544        0.53210216142260        0.13901393051218
O           -2.45513983400486        1.74485384286550        0.50287631670485
N           -1.95735203343616       -0.38473919272895       -0.08026682455111
N           -0.03184471356688       -2.02929549760544       -0.23985158184624
H            2.38149850126030       -2.15752367913362        1.34171611653632
H            3.18651473052764       -2.78457561796034       -0.11951559870771
H            4.16328471757290       -1.03269453098795       -1.79029550668061
H            2.94185982129698       -1.71914730200762       -3.86668506130356
H            2.41685557997744       -2.65310289463978       -2.46718859713104
H            1.41038093565658       -1.33761113691921       -3.08456411585906
H            3.93044949844990        1.36911337259113       -2.16349966732480
H            3.57352190904977        0.60793089834147       -3.71351067907409
H            2.25313048545698        1.18307535708352       -2.68124787847976
H            3.10721494673157        0.03052237337165        1.76101959890135
H            4.99833871956790       -1.23237164256357        0.65051453677998
H            5.51957627502482        0.23674626686469        1.47253421673050
H            5.38325058720362        0.22448421396425       -0.28081148975580
H            2.34738340413344        2.15697186009976        0.66430118150586
H            3.89973052214005        2.24730169767343       -0.17673598255654
H            3.85662907387685        2.30238954823015        1.58365221502452
H            1.81259205284160       -4.83488492553978       -0.26245017722801
H           -0.39336754669659       -5.84076203702993       -0.85260661468473
H           -2.37974779293761       -4.35996970044415       -0.92434100857633
H           -3.97641646046702       -2.98578723561285       -0.83022321006782
H           -5.70651118254354       -1.24980770739356       -0.48814777627933
H           -4.98968865245169        1.03951366387245        0.18796074287978
H           -3.18651195965058        2.36873420274003        0.61730521140082
C           -0.30707797604572        0.14864290640065       -1.91816445055022
O           -0.72522800306902        0.36021437957580       -2.97848267386980
C            0.21310985998872        0.08083941167533        1.56660572679954
O            0.30527611497215        0.23587093402632        2.71060013410387
H            0.07021467442643        1.42590427648029       -0.21030316336693
