60
 energy: -70.804130752181 gnorm: 0.000732238965 xtb: 6.7.1 (edcfbbe)
Ru           0.20133159505285        0.11996015435317       -0.20018305088645
N           -0.04185923976498       -1.92683683162353       -0.77402574020724
C            1.21847516307521       -2.70792052715591       -0.82455006925200
C            2.42567632020606       -1.83286305961236       -1.18561912094977
P            2.43702916298398       -0.36391009926656       -0.03904726799772
C            3.76278465133188        0.80691056660788       -0.62412376901804
C            3.21080385674795        2.21830413865370       -0.39764048738142
C            4.19662746529701        0.60308195187436       -2.07175349527524
C            3.09625543465785       -1.05447288103122        1.55546335066101
C            4.40766639200299       -1.82537787005835        1.43410153768933
C            3.19786235055230        0.09216701021244        2.56053255710753
C           -0.85609443980884       -1.98544957611900       -2.00917128562339
C           -2.15861907660723       -1.14986933105029       -1.91871870882007
P           -2.01817859473927        0.09627206616863       -0.54038171155348
C           -3.42503718586578       -0.29381401514397        0.60482888816965
C           -3.06653774967047       -1.53360006066555        1.42293246727589
C           -4.76806007936239       -0.46360150560135       -0.10710771560464
C           -2.16819255373777        1.89449514170559       -1.03596406791822
C           -3.52045552568417        2.59706384944272       -1.00617649662282
C           -1.17998968525414        2.55816175345443       -0.04389516127127
H           -0.61771771257721       -2.32002436434722       -0.01704376156654
H            1.12050764108204       -3.52692346425572       -1.54616536879303
H            1.38384828939874       -3.13708753862669        0.16853529954521
H            2.33373157934025       -1.45773603129491       -2.20994517487476
H            3.34568989646122       -2.41728900660093       -1.11759205278878
H            4.63343800474265        0.66232558696242        0.02691096610677
H            3.99440553691891        2.96347912012348       -0.52284706525076
H            2.79770594409108        2.31732342549832        0.60989253818084
H            2.41942732608678        2.43853123605770       -1.11766468997121
H            4.94582648337704        1.35040146274049       -2.32959047513377
H            4.63784997509512       -0.38027551819835       -2.21863298260809
H            3.36124104534329        0.72397525001125       -2.75850476798454
H            2.30366662326963       -1.73247288984763        1.90382847633076
H            4.28202031361893       -2.75435911593284        0.88296094761156
H            5.18155404454444       -1.23424163701390        0.94863865982482
H            4.76312750292484       -2.07934229828683        2.43128691392327
H            3.37808388532067       -0.29868500362359        3.56007852539466
H            2.26221666508570        0.65488297807010        2.57844573935652
H            4.01335333690643        0.76885506773970        2.31181384356403
H           -0.23101207263084       -1.62980837247706       -2.83475893797479
H           -1.11690009966079       -3.03090720913342       -2.21686481916604
H           -3.01630313473909       -1.79942296539789       -1.72655135065627
H           -2.34050483793608       -0.62757284711076       -2.86228630192989
H           -3.46550181586873        0.57003851508177        1.28286676664459
H           -3.00969044710231       -2.41825626808376        0.78791904264205
H           -3.83142276845602       -1.71386390777319        2.17549296332382
H           -2.11287862598956       -1.39300697556589        1.93175477306858
H           -5.57612243516079       -0.33145244065957        0.60968905371033
H           -4.90310633012125        0.25860016633482       -0.90804099012565
H           -4.86541135570853       -1.46273048475217       -0.52646469270560
H           -1.76099761727710        1.95939040599872       -2.05553699469414
H           -3.37466873115519        3.65955390431353       -1.19844309082714
H           -4.17908374192673        2.20948411318674       -1.78016470741388
H           -4.00747042601303        2.49443681268884       -0.03911571410848
H           -0.19654545976904        1.97380336179676        0.09488117071609
H           -0.91256283960951        3.56226824823177       -0.37728790591666
H           -1.64239088579917        2.63457549042137        0.94342662305546
C            0.50321492772839        0.64047752972388       -1.95235892426343
O            0.72390892005508        1.06728823524242       -2.99715686919491
H            0.03307065782879       -0.18718456698119        1.30715490166133
