56
 energy: -71.163606675793 gnorm: 0.000164437847 xtb: 6.7.1 (edcfbbe)
Ru           0.10378596607046        0.08845497183995       -0.71994600901746
C            2.26897366724242       -2.14980289803584       -1.11607219336735
P            2.34515058530324       -0.31664148127154       -0.77228789462324
C            3.37879372119545       -0.27394142181022        0.79743865818655
C            2.71406748502145       -1.12669397975394        1.87764060273754
C            4.84215041820281       -0.68614701786853        0.63777676409692
C            3.55273218733339        0.32528134713920       -2.04394018147940
C            2.97058101514780        0.23796974861551       -3.44941773724241
C            3.81450187957617        1.79069903569207       -1.69643901785597
C            1.05020684751990       -2.68819616549735       -0.42505948219841
C            0.92700671187057       -4.02728847047501       -0.09673978768131
C           -0.23681783327817       -4.48836587940859        0.50551266039076
C           -1.24517511202941       -3.57237454953607        0.77124925232882
C           -1.05438466485744       -2.24314134707890        0.43783789873361
C           -2.05299558892115       -1.16867879178278        0.77520763860785
N           -2.13774481717773       -0.16683551731713       -0.30015465347224
C           -2.75970049041182        1.09569947603161        0.16499340764956
C           -3.91872780115130        1.00006261172370        1.16266316483204
C           -2.82875346779929       -0.72960795967029       -1.47839769635171
C           -4.32962626197600       -1.01633756784297       -1.37035949841293
N            0.06889646018265       -1.80303584111870       -0.15749596294950
H            3.17137551735162       -2.69846711200906       -0.83439580311089
H            2.13159925315127       -2.25155616989601       -2.19980047879083
H            3.32432202226529        0.77452901780281        1.11847978135998
H            3.17510185919599       -0.93094088414045        2.84499098272281
H            2.81577954602271       -2.18964615968578        1.66212897258772
H            1.65520294747038       -0.88053124232200        1.95095750459643
H            5.40672376967125        0.02421617503080        0.04060706969725
H            5.30546728057293       -0.73227067729055        1.62293281572170
H            4.93046111458149       -1.67139491084854        0.18341514142025
H            4.47581463770788       -0.26398078613346       -1.99972843359232
H            2.04254324372183        0.80743524579587       -3.49521056477554
H            2.76588749215247       -0.78912440689799       -3.74753688900810
H            3.66971528773849        0.66180418020802       -4.16949950195126
H            4.36426701722111        1.89730441998461       -0.76418874731331
H            2.85471042268248        2.30055878692295       -1.58784129240008
H            4.38290903134269        2.27722948083980       -2.48787062836729
H            1.73606826187646       -4.70724189490298       -0.31865604304890
H           -0.35260846918709       -5.52985930722903        0.75979223325518
H           -2.16551797359384       -3.88341007532597        1.24182656690046
H           -1.68241662199900       -0.65044082894400        1.67079622728529
H           -3.02922591261216       -1.61538062999047        1.00550349583095
H           -1.96658198984981        1.68727356357643        0.63290792924951
H           -3.08347509682909        1.63712270950486       -0.72813292664178
H           -4.30323716857544        2.00569474295026        1.31880204707425
H           -3.58298055654640        0.62466332012560        2.12651653901031
H           -4.73790964865858        0.37888299375787        0.81593074823539
H           -2.32575127037165       -1.66982509381622       -1.73637222781629
H           -2.67934543377624       -0.03077821469871       -2.30869192115175
H           -4.90641580954483       -0.09857076415433       -1.29965318957067
H           -4.56740540193706       -1.66114158368122       -0.52767248355829
H           -4.63786775092589       -1.53217921377456       -2.27770513245229
C           -0.07887527698577       -0.38559362998108       -2.48597941691920
O           -0.22362442898125       -0.74077290364833       -3.58360056986840
H            0.22853484924922        0.60750200830058        0.76670958456111
H            0.00893608977623        1.61713726352063       -1.12054616688607
