66
 energy: -98.529817419227 gnorm: 0.000490034600 xtb: 6.7.1 (edcfbbe)
Mn           0.09749472897685       -0.64358489367472       -0.66136645023823
N            0.15283257636495       -2.55572940005405       -0.20198250862003
C            0.67179608019728       -2.66533401873175        1.14790197917476
C            2.08143857862465       -2.07070543960478        1.23154542294342
P            2.20469020139198       -0.84467267612336       -0.15330237865029
C            3.34956018613646       -1.60956183407305       -1.35154151783348
C            3.58136236197350       -2.97227210357163       -1.50195160510857
C            4.37972648065632       -3.43022162984732       -2.53700215351516
C            4.93812691500456       -2.53841146472217       -3.43599103680998
C            4.69010451072899       -1.17938254205899       -3.30742706524692
C            3.89472298390355       -0.71972115874053       -2.27778035295246
C            3.30895535341054        0.40193945631023        0.57689026617641
C            4.56266596278200        0.03270247166023        1.05849560229279
C            5.38161035861453        0.98291594080594        1.63798807466601
C            4.95655822169636        2.30003849898784        1.73533820202755
C            3.71312145638640        2.66955901461434        1.24942832145508
C            2.88725143155457        1.72214648407993        0.66831025570607
C           -1.08977291855940       -3.30323342282671       -0.40575912708677
C           -2.28319373461920       -2.53688773766854        0.14838982821463
P           -2.08595956659714       -0.85573997112739       -0.60246064212048
C           -3.17367552239725       -0.89616612771488       -2.07514380381365
C           -2.74006057167058       -0.19776844387252       -3.19715775502649
C           -3.52718431282116       -0.14376786228201       -4.33349647180783
C           -4.75646468327097       -0.78216466270955       -4.35375346713678
C           -5.20502916893270       -1.45624220196044       -3.22863987545081
C           -4.42389383263628       -1.50709814145073       -2.08852744570410
C           -3.15121007267079        0.20364714569827        0.43210636206682
C           -4.18123889413790       -0.26386814370494        1.24015638572674
C           -4.95564349799363        0.63333863044430        1.95582604690852
C           -4.71460791828939        1.99413659871796        1.86493003762957
C           -3.69344106914587        2.46455281296966        1.05379185479731
C           -2.91597484779753        1.57323156758605        0.33929153238469
H            0.85149370222170       -3.01488585289668       -0.79708380336428
H            0.00178201229888       -2.15180088234185        1.84295850026288
H            0.70499605962113       -3.72543296105578        1.46731792681016
H            2.85729973192169       -2.83893707017251        1.16875959610566
H            2.21942656799380       -1.52666688163370        2.17098878859035
H            3.15514207341228       -3.69422336802596       -0.81521679997929
H            4.56147470514823       -4.49094559881282       -2.64310695311911
H            5.55777780559009       -2.90250272179110       -4.24267192901284
H            5.11237046937910       -0.48263906682268       -4.01725004603722
H            3.67191355775242        0.33620074542676       -2.17393426974373
H            4.89130308502708       -0.99547014205428        0.97156914479522
H            6.35435847255244        0.69950868343808        2.01461949743004
H            5.60066674309717        3.03946152204705        2.18938165181982
H            3.38647621962327        3.69687371962890        1.32297553702393
H            1.91183974234566        1.98628264658630        0.27594601357718
H           -1.23610285238030       -3.42495355786805       -1.48725865021921
H           -1.01998135872345       -4.30685567701411        0.04503550411036
H           -3.21543295645087       -3.03570891447821       -0.12118306679556
H           -2.22634312193673       -2.44129837051642        1.23778145242583
H           -1.77831356668617        0.30117214524490       -3.15839913436016
H           -3.18152827714680        0.39577062003860       -5.20359174750677
H           -5.37099830424453       -0.74762089702871       -5.24193218412337
H           -6.17148821168349       -1.94059412809996       -3.23888351398143
H           -4.79929383173082       -2.01470308494132       -1.21075089564410
H           -4.38249618560457       -1.32273259501584        1.32419493482534
H           -5.75159260362812        0.26718526003610        2.58946522156567
H           -5.32189856560547        2.68777327124726        2.42876310730942
H           -3.50259993544166        3.52583593382812        0.98355861015032
H           -2.10135645908941        1.91389194766059       -0.29120359553169
C            0.32977246222411       -1.04458959614475       -2.37401323086671
O            0.54702226047388       -1.29882786779057       -3.48413635058896
C           -0.07950806799936        0.03749192950955        0.95864963627915
O           -0.19175850488342        0.53749498461457        2.00134452803522
H            0.13323812489599        0.78077136060756       -1.13464589893581
