50
 energy: -86.201221929707 gnorm: 0.000235179930 xtb: 6.7.1 (edcfbbe)
Mn           0.07641406878737       -0.27017215220748        0.07929554041401
C            2.36108015937368       -2.43994013682126        0.00148062297486
P            2.25000453135409       -0.59918632642026        0.36452512623262
C            2.99025686541256       -0.53079641273490        2.02794853593647
C            3.89770269824640        0.46436491731839        2.37623444567413
C            4.38703666316456        0.53104857845270        3.66919922742522
C            3.96642336001681       -0.38284402740351        4.62166217007478
C            3.04652369380092       -1.36370291268675        4.28384160871650
C            2.55455326900176       -1.43558689603552        2.99409982137148
C            3.58848317362244        0.06947751471542       -0.66919887290967
C            3.33210885117236        1.24504830986536       -1.36682906701886
C            4.31651384781130        1.81118250420475       -2.15804361481268
C            5.55887999282642        1.20441412666414       -2.25096506900653
C            5.82148236707181        0.03862427677893       -1.54626181792606
C            4.84302082018384       -0.52988077631209       -0.75155160300469
C            1.02341552431257       -3.08370412951483        0.24351291689458
C            0.88010791663484       -4.45055796918891        0.42634898571191
C           -0.39300891533760       -4.99558891659640        0.55694020670200
C           -1.49323423984570       -4.16184139501304        0.47604443996977
C           -1.29752830699175       -2.79577812793893        0.30605546087412
C           -2.33009756147496       -1.76896360012665        0.18027719116049
C           -3.72218067950597       -1.81083653755952        0.19290999335043
C           -4.39894046170678       -0.59965633272757        0.04263278479434
C           -3.74436175080108        0.61219374884496       -0.10339230312209
C           -2.33305722916920        0.59955896331414       -0.10387614443285
O           -1.46066604263909        1.53616054755581       -0.19072024068334
N           -1.73234497823185       -0.59175985230156        0.02111559198073
N           -0.04058113893358       -2.26543488157993        0.22378428724424
H            2.59055888229260       -2.51265055278037       -1.07056084146794
H            3.15885919640765       -2.92922370593492        0.56688961999624
H            4.21571932316855        1.18323200898352        1.63330816387730
H            5.09487790715644        1.30256925317039        3.93558751907145
H            4.34870339852276       -0.32649148561834        5.63032502930278
H            2.70871079207375       -2.06880827454108        5.02968782120850
H            1.82092209313573       -2.18835054733552        2.73043595431736
H            2.35090872172946        1.70194348362527       -1.27330018394524
H            4.11523336365525        2.72270407663103       -2.70189476760348
H            6.32711149130878        1.64250619890001       -2.87129366340638
H            6.79434184596785       -0.42593569876034       -1.61668226267268
H            5.04998435293530       -1.42995478705612       -0.19004094373584
H            1.75412072812082       -5.08242976807791        0.45538984407135
H           -0.51852836473216       -6.05713775239125        0.70304901581657
H           -2.49720840323274       -4.54944814124707        0.54424433117888
H           -4.26167479167832       -2.73576218655890        0.31419678713872
H           -5.48014577276342       -0.60715469776354        0.04659925328776
H           -4.28690122118026        1.53864205417550       -0.20644365372115
C            0.30785428483023       -0.18603285468606       -1.68848695320944
O            0.45376783637724       -0.02618031292228       -2.82078101396718
C           -0.01170104988804        0.20851093912991        1.80374949173139
O           -0.06045146779274        0.63031547581805        2.87260032194367
