47
 energy: -70.194915979921 gnorm: 0.000097289451 xtb: 6.7.1 (edcfbbe)
Co           0.03801928632555       -0.32399276779194       -0.40478147187486
C            2.36237099036366       -2.28599183638248        0.01386647419786
P            2.17200460510727       -0.61312558763227       -0.76379667680482
C            3.26557388514039        0.51045307947811        0.22462589453692
C            2.60317643100416        0.65619249662838        1.59959864082004
C            4.72161683642537        0.07027502221496        0.34422918581556
C            2.79164261195817       -0.78533274058411       -2.51387211830621
C            3.93176227404195       -1.78286058757620       -2.71269655125227
C            3.14827903293379        0.60144217453734       -3.04974458661299
C            1.05962268450931       -2.96928184770578       -0.23082290883293
C            0.93649042676448       -4.33523099854755       -0.44683559384606
C           -0.32279758117370       -4.87277389704307       -0.66346290717035
C           -1.42945021748500       -4.03958580001050       -0.63097217928396
C           -1.24246907807233       -2.68176783755759       -0.39708352314340
C           -2.31228020243879       -1.69764690213740       -0.23754006502918
C           -3.66558694940191       -1.97251190673189       -0.32103148927474
C           -4.57605521088161       -0.95850476163712       -0.03602033992452
C           -4.11074070579028        0.27207668314117        0.36677634919795
C           -2.72584048844891        0.48336713824276        0.43195889877548
O           -2.28395853909024        1.65293193058401        0.86722190599724
N           -1.85357222822267       -0.46457918781452        0.08971207037190
N           -0.01018097265398       -2.16632334844344       -0.22476117566227
H            2.47498674291321       -2.11891583181255        1.09090460677966
H            3.21828409939811       -2.85998441954718       -0.34207774756860
H            3.21744400217747        1.47880606305670       -0.28986920909344
H            2.90374569993365        1.58897924004070        2.07074118836968
H            1.50718109917177        0.65533349467077        1.50100265519101
H            2.89198097603275       -0.15747759303104        2.26174874158353
H            5.23251431135363        0.10898466960595       -0.61442528258637
H            5.24375484609068        0.74270057020058        1.02324774724313
H            4.79990480412730       -0.93809072834642        0.74572367513148
H            1.91275052755825       -1.14904932085136       -3.06747190528240
H            3.59442402059013       -2.80701055677525       -2.56859706006565
H            4.29459040011417       -1.70049028947847       -3.73600934652892
H            4.76736928163739       -1.58537261952618       -2.04638788377901
H            2.35088706290595        1.31581353117194       -2.84838591632071
H            4.06871241525825        0.96986371969996       -2.60228120972499
H            3.29351823532768        0.55625370229022       -4.12743636595747
H            1.81346339367003       -4.96332808052687       -0.44531824608436
H           -0.44124093511696       -5.92923376522252       -0.84783388660797
H           -2.41696993910357       -4.44022421275898       -0.78734263085448
H           -4.01619993431064       -2.95060502433863       -0.60376684440103
H           -5.63621538815744       -1.14448340018120       -0.10728946887939
H           -4.76758802076977        1.08106265932662        0.63976159177095
H           -1.31323726937187        1.65511556457195        0.94563518392574
C            0.06329659460331        1.31567175317949       -0.98946983910352
O            0.12921842317195        2.30544431511118       -1.56195946574606
