55
 energy: -71.023598767615 gnorm: 0.000185772692 xtb: 6.7.1 (edcfbbe)
Co           0.04304672585622       -0.66716937023784       -1.95633248345290
C            2.22826501167937       -2.44632259326296       -1.31108929128755
P            2.09397020208704       -0.59475665135025       -1.07128373385193
C            2.56554724037031       -0.47599723239544        0.75202576735203
C            2.85680827691543        0.97446060590124        1.13326752288517
C            3.70534753204258       -1.38413180505337        1.21010094542284
C            3.60392118661025        0.05782938305137       -1.96330606776775
C            3.39607332179196        1.54336969484137       -2.25641636827855
C            3.80970114831501       -0.68860220574963       -3.27920172036658
C            1.00741108372054       -2.94437049340966       -0.61963026728697
C            0.98472590348076       -4.03006554749853        0.23792779098152
C           -0.19364719591576       -4.34162018036418        0.90304732227592
C           -1.29902279524034       -3.52919879249745        0.70353635305793
C           -1.20942857957883       -2.46409898006687       -0.17917689881849
C           -2.36078641267345       -1.53595280530720       -0.44252147775843
N           -1.87946012749663       -0.15636214999142       -0.55193364584940
C           -1.54481040873611        0.35604335522882        0.77790700335086
C           -0.85462628744008        1.71142083674494        0.71112064597147
C           -2.83175899764111        0.69312023768026       -1.27414282735939
C           -4.20563793680747        0.88904279427352       -0.62427062399122
N           -0.08145173203950       -2.19035751563454       -0.84422322391671
H            2.11864676532837       -2.61160515440478       -2.38755388606593
H            3.15111063934447       -2.90812918523610       -0.95994257961467
H            1.64889348475735       -0.78614246196698        1.27554258931176
H            3.83861795554799        1.27481131830473        0.77266034819414
H            2.10830405662492        1.64367784075409        0.71300517394132
H            2.84698043496914        1.08892676138592        2.21706872439948
H            3.99527627024795       -1.11038558355615        2.22431787407191
H            4.58159886272658       -1.27864465230913        0.57329532012417
H            3.40383127507212       -2.42870374614531        1.22494225121102
H            4.48572881859724       -0.07219478992280       -1.32452816786030
H            3.26188001125428        2.12352790944148       -1.34734762836147
H            2.50706854158624        1.66677426291971       -2.87283411578390
H            4.25224218651716        1.94639375926440       -2.79620651465421
H            4.15800959781940       -1.70651128332311       -3.11825422939288
H            4.55204681830537       -0.17192208473999       -3.88626542354352
H            2.87297681772439       -0.71418186747659       -3.83769264227789
H            1.87571131922496       -4.62233765727428        0.38349951705305
H           -0.24144874084744       -5.18476001723362        1.57497868612926
H           -2.22470506577184       -3.71709705876737        1.22605840779774
H           -3.12302508506648       -1.65389591633174        0.34407860525132
H           -2.80539583732991       -1.81378768809075       -1.40536239153873
H           -2.43670482596397        0.41272614837891        1.42277666679180
H           -0.86041318948015       -0.36499779931649        1.23680978748930
H           -0.34222518557987        1.91588234664306        1.64835398660299
H           -1.56264706999684        2.51527768460864        0.52681368336861
H           -0.12851751354206        1.68992832157964       -0.10207757004025
H           -2.96434703580527        0.25010746074347       -2.26466162943164
H           -2.36023047062245        1.66464995836176       -1.42299149862392
H           -4.71516854013249       -0.06015341265088       -0.47333375805508
H           -4.81859984405833        1.49836659855430       -1.28395330889860
H           -4.12947662859660        1.40332702972274        0.33087115498700
C           -0.69107076695711       -1.36208106137973       -3.36198540349526
O           -1.05006397897276       -1.79821673220000       -4.37808744466181
H            0.14130316877255        0.55907620043916       -2.73086587142153
