57
 energy: -76.454875181478 gnorm: 0.000155310081 xtb: 6.7.1 (edcfbbe)
Mn          -0.05742875680918        0.21205970553202        0.44458462168393
C            1.83089011803704       -1.76131311403593        1.89767695394285
P            2.05698282547089       -0.10382753300677        1.09438790906196
C            2.84993657466046        0.85271917956699        2.49157293824614
C            4.22067853410397        0.38857166345545        2.97277670840336
C            2.83708375734116        2.34757623423689        2.17684697701931
C            3.33506346469540       -0.47885448469201       -0.22861300687368
C            3.87264436892178        0.84460871848216       -0.77031805931719
C            4.46267505779671       -1.46125200943143        0.08054612116615
C            0.83732066925699       -2.49019118572458        1.04985352553842
C            0.86517356888120       -3.86896088721362        0.92489590191901
C           -0.09828985477601       -4.50852085374958        0.15918093267765
C           -1.07339201475123       -3.72512483939960       -0.43889686704296
C           -1.03554817151380       -2.34981594936287       -0.28008034101396
C           -2.06511715569648       -1.47129176536103       -0.94019949252163
N           -2.28704833403563       -0.23754594422401       -0.16965839176212
C           -2.79171878237592        0.84398644349615       -1.04937691045135
C           -4.09687132217507        0.57842144706380       -1.80809109339469
C           -3.28813525189008       -0.47267497853078        0.89173113849992
C           -2.96689123681874       -1.57723391993288        1.89263830970577
N           -0.08193802755372       -1.72329520567716        0.42982157121180
H            1.38203959651957       -1.54939768599958        2.87780600872455
H            2.74769923186529       -2.33185686874391        2.05124166346161
H            2.12216426825737        0.68477729030387        3.30112737383990
H            4.99414544060158        0.64455766967504        2.25317280239195
H            4.45906820138447        0.89411597604535        3.90828743563908
H            4.23985747728047       -0.68379204442651        3.15596916471795
H            1.88045075706844        2.61319407482310        1.72154327463608
H            3.63516627944964        2.61655746959794        1.49016344181175
H            2.96361572404640        2.92548785487789        3.09099919619478
H            2.71297000282070       -0.93609363539956       -1.01471148420311
H            3.06025450713796        1.56964952081277       -0.84910393712607
H            4.64078951414695        1.24704235440293       -0.11407498347280
H            4.30896572472121        0.70487674407622       -1.75871480437217
H            4.07859683224369       -2.45658428090342        0.29400531512279
H            5.07881504951216       -1.13395010417330        0.91125176142571
H            5.10078589896924       -1.53920796157426       -0.79994318794003
H            1.63319704065734       -4.43487696009689        1.43084117227755
H           -0.09567407298706       -5.58086989530623        0.04191724697861
H           -1.85843230779901       -4.17334529620978       -1.02996849158326
H           -2.99958836543948       -2.03531733021852       -1.08279779653448
H           -1.68331453121913       -1.19394493709272       -1.93275764603220
H           -2.91291574951581        1.73492003074412       -0.42747907972982
H           -2.01111532427014        1.06549295587779       -1.78241162921344
H           -4.03898575835313       -0.32473090826913       -2.41151259681535
H           -4.95622151057023        0.50851282808433       -1.14628691075324
H           -4.26765174652652        1.41637699648253       -2.47990676439770
H           -3.40164163133704        0.46942663004262        1.43629011536084
H           -4.25279247616170       -0.72745304318713        0.42983095212635
H           -1.99971791312896       -1.41998623730357        2.36425166233004
H           -2.97606048782432       -2.56291329512108        1.43107722589771
H           -3.72458063305586       -1.56391566524872        2.67419514249728
C            0.41930284433819        0.35719489918882       -1.25914976290100
O            0.75728503174723        0.49697053782549       -2.36206133626950
C           -0.43401769920684        0.46910029638112        2.15881520462848
O           -0.58660956554911        0.72250735074832        3.28365987530590
H           -0.25730473267712        1.75722101826031        0.35770691031093
