54
 energy: -69.966636658038 gnorm: 0.000466032710 xtb: 6.7.1 (edcfbbe)
Fe           0.10817678937014       -0.10299253787868       -0.15141485026330
C            2.09088319579701       -2.16188788529952        0.86984829987579
P            2.16156860724591       -0.45647075235471        0.43115360214584
C            2.81734170156475        0.54927253644350        1.87801046361213
C            2.26654443017795        1.96919382673061        1.75907086637680
C            2.36599255135786       -0.09027099499085        3.18406132522161
C            3.56266082842944       -0.34026228834386       -0.82816801841328
C            4.88023733075812       -0.93846196289434       -0.34704957733894
C            3.75517569639133        1.07721538699508       -1.35723869482678
C            0.88452524458335       -2.77357366664941        0.60158529150340
C            0.59758246195879       -4.15211926571634        0.85035533170989
C           -0.61792109900538       -4.67357661039401        0.52992514179822
C           -1.60249570909000       -3.85627505706745       -0.05694010402191
C           -1.28975187419987       -2.53423202726978       -0.28088195133524
C           -2.22701501022603       -1.55236803648954       -0.94369858457446
N           -2.03200256772895       -0.22878487777339       -0.32539892089190
C           -2.72142851474023       -0.17749292499992        0.97907524087823
C           -4.24925554310845       -0.10724238701633        0.94398075382267
C           -2.38667218331188        0.89836016007414       -1.19730505645261
C           -1.68192158873315        2.16731893749975       -0.71133766272597
N           -0.10686363796682       -2.00891309878496        0.04289333901787
H            2.91406759245501       -2.70136501685118        1.31477140880511
H            3.91308748909545        0.57350999740842        1.83979447444042
H            2.55699238600671        2.57119564695528        2.62047008259493
H            2.62441516135706        2.46336530788730        0.85748163837604
H            1.17695415831526        1.92082402442127        1.71790878190437
H            2.62522153471368        0.54232467279897        4.03322667404375
H            2.83082436149842       -1.06419098381538        3.32011599323861
H            1.28697292045511       -0.22821601764962        3.16208494400552
H            3.18471254867949       -0.96881090113426       -1.64710528861141
H            5.58513494844949       -1.00155332891350       -1.17656962793883
H            4.72514762737798       -1.94095118488214        0.04418617196802
H            5.33464588764770       -0.32779442414794        0.43072266392767
H            4.37847155143681        1.06865204776964       -2.25197815877009
H            2.79139571039247        1.51869868380233       -1.61420468849079
H            4.24379985825626        1.70540525358374       -0.61424804635095
H            1.37078859269546       -4.76130164686156        1.29490169483734
H           -0.83738276787440       -5.71530092988872        0.72090025470940
H           -2.56892247451599       -4.25207693760841       -0.32469643359549
H           -3.26701076249949       -1.89126615495588       -0.88412103289494
H           -1.94894273614831       -1.48488071258395       -2.00088360876004
H           -2.33804173631018        0.68286177405016        1.52748063128922
H           -2.40718972561350       -1.06923135757763        1.52361385394187
H           -4.61914515707311       -0.24546856713405        1.95709077616349
H           -4.60449598154911        0.85836765610829        0.59148323745201
H           -4.68274411250557       -0.88731305526518        0.32310814974495
H           -3.47080066116420        1.05295407584904       -1.25033618515783
H           -2.02991147359204        0.66465151632623       -2.20405812867981
H           -0.61256262314260        1.94906265768619       -0.49981184466538
H           -1.72472569190679        2.93802816789855       -1.47775630290431
H           -2.14173549987435        2.55531108408105        0.19480846925570
C            0.48549721515171       -0.27720452503521       -1.83821297715598
O            0.78220889711070       -0.40720469322304       -2.95045924835933
H           -0.06715029491634        0.01462112551681        1.29817640418808
