50
 energy: -76.460944461567 gnorm: 0.000463528917 xtb: 6.7.1 (edcfbbe)
Mn           0.11050317343389       -0.04894793163714        0.02832098194431
C            2.35098008339413       -2.18984245041689       -0.31185249972446
P            2.32227834021672       -0.41414154231928        0.20839348811946
C            3.16914460216175       -0.50346591711712        1.87756217456636
C            2.64193042875851       -1.66131051380012        2.72366128263942
C            2.96501406508507        0.80595470020384        2.64113216646382
C            3.71251937438885        0.22722128083012       -0.87021420379185
C            3.21842418596173        0.38485982185456       -2.30521696283710
C            4.26115809800207        1.56689349988342       -0.38675531886370
C            1.06175604452191       -2.79341863666445        0.14972944973644
C            0.96656488106013       -4.13643873897753        0.45696024591159
C           -0.26171912804777       -4.66828235736330        0.84655759507168
C           -1.35494373557101       -3.83178491181314        0.86860332906240
C           -1.19909912561545       -2.48251857041860        0.53793574721004
C           -2.29342333601270       -1.54050561354279        0.43521712493257
C           -3.63585578822616       -1.84888822323724        0.66936896836996
C           -4.59878513196292       -0.88636232919264        0.45567660172022
C           -4.20582823243088        0.36366793557602       -0.00529639729975
C           -2.85279730519201        0.61156100566836       -0.20400308153506
O           -2.40173935055749        1.79519635241526       -0.65339220024449
N           -1.90449828492082       -0.30297677059771        0.03130348137715
N            0.01293883021605       -1.95391421026271        0.22546252896509
H            3.23055811437599       -2.73282105436186        0.04262004409846
H            2.36036658953979       -2.19087709632636       -1.40881830957865
H            4.23869716068082       -0.65710406977985        1.67755088368708
H            3.04174097721151       -1.58518907239578        3.73436797071747
H            2.92367129863390       -2.63334818137790        2.32501085102624
H            1.55425612399327       -1.61523920034938        2.79297685960642
H            1.95235819246407        0.85024118105017        3.03495565385930
H            3.65906905039929        0.86857706258311        3.47804475983663
H            3.10088948958638        1.67464624151186        2.00282521261287
H            4.50644766249517       -0.53339323813082       -0.83280046524178
H            4.03546869601228        0.70543375572015       -2.95009823857707
H            2.81732022596170       -0.54228131185485       -2.71112697389593
H            2.43381107671362        1.14056049123489       -2.33639296724591
H            4.95726152246455        1.96466484122293       -1.12420605391374
H            3.44349435381906        2.27789343196347       -0.27190038061171
H            4.79252399936727        1.47090668966914        0.55627836516872
H            1.84216040717497       -4.76469163816276        0.39205487389653
H           -0.35299546513218       -5.71101706620566        1.10823999700864
H           -2.32619885767230       -4.21196501226283        1.14080318278601
H           -3.91530271036130       -2.82977680779550        1.01635178548899
H           -5.64152592915142       -1.09826298881678        0.63391027498221
H           -4.93040251492053        1.13936599067138       -0.20245068722248
H           -3.12975760706629        2.42120073938270       -0.77746918543092
C            0.05697012904855       -0.04408749421226       -1.75177898583349
O           -0.11671157948703       -0.05099665731405       -2.89582472946676
C           -0.22898032448500        0.31478079261417        1.73540281265584
O           -0.68312662667315        0.53521809156159        2.77911844743363
H            0.20077923223664        1.49257641913976       -0.09513660186074
