56
 energy: -71.031280002622 gnorm: 0.000207550962 xtb: 6.7.1 (edcfbbe)
Fe           0.30060143048028       -0.14306058865252       -0.05802383396418
C            2.33170364636970       -2.36916313999360       -0.59909781283869
P            2.37202238217703       -0.65070800412521        0.12653905052305
C            3.71571029440078        0.12323189111358       -0.92535998589506
C            5.12120383415570       -0.43488776440420       -0.72356208427939
C            3.67722410498957        1.64356768989001       -0.79128139686183
C            3.17281578991851       -0.97978435188937        1.78378681667485
C            2.31595059434026       -1.95846300950722        2.58064910573834
C            3.28968016178826        0.34602193417701        2.52875537424102
C            0.97278604689394       -2.91207410108863       -0.28301502820019
C            0.69518620588728       -4.26503547718425       -0.29189881000255
C           -0.58811180134097       -4.71315525946054       -0.00426398985848
C           -1.55247112688182       -3.76495716515033        0.31056589896161
C           -1.20949976957803       -2.42812320101757        0.31849170494456
C           -2.14763295197090       -1.33948340581097        0.74253068225241
N           -1.92256963840881       -0.12799577250793       -0.06327171404191
C           -2.66431706425787        1.01136278898098        0.51302235344018
C           -2.26547355653217        1.40122720825093        1.92881118506974
C           -2.46499712305600       -0.39068445291579       -1.41202080662531
C           -2.35359285749859        0.78935586803963       -2.37096973183008
N            0.02846931838890       -1.98731678113942        0.00599257906325
H            3.12922165261529       -3.03305469269627       -0.25396708823731
H            2.42566761278460       -2.24741939927887       -1.68578371336909
H            3.38503456697171       -0.12269928831010       -1.94550675765456
H            5.12828786017209       -1.52198150657301       -0.78169616240531
H            5.78060766079880       -0.05007047975448       -1.50160289373730
H            5.52849382444742       -0.13068977932651        0.23827067807690
H            2.63888273223891        1.97402765704039       -0.76730025317170
H            4.16263443137709        1.97420912357824        0.12369193200098
H            4.18251100823222        2.11569086154066       -1.63351877386192
H            4.16368969187281       -1.42079740895482        1.61450107635682
H            2.27631375757519       -2.94065022268467        2.11166769158344
H            2.71885473544109       -2.07803219810283        3.58633395638971
H            1.30239407783300       -1.56889999495845        2.65796964817228
H            3.55005328399391        0.18189869695854        3.57424591841587
H            2.33070127568844        0.86053468113192        2.47804689570897
H            4.04898757416656        0.98605417896583        2.08520675376686
H            1.48177124382355       -4.96701238341571       -0.52768305425866
H           -0.82455157645637       -5.76539194603297       -0.01709877956925
H           -2.56006429503355       -4.06195082433114        0.55978175513466
H           -3.19778193761642       -1.66777898004860        0.68870415759009
H           -1.90044561726481       -1.09336169935721        1.77979758659143
H           -2.46425047255589        1.86950948111643       -0.12735180516638
H           -3.74308176950024        0.78485131997078        0.48018795871630
H           -2.63152489003938        0.70006740707973        2.67534867868764
H           -2.68052567110975        2.38064324251412        2.15576261176497
H           -1.18153354862038        1.45417425987714        1.98133947182117
H           -1.91619930200162       -1.24102612619305       -1.82622686000153
H           -3.52456228965526       -0.68579359201049       -1.32439475969552
H           -2.38463771860149        0.42971753533746       -3.39706829241184
H           -3.16682481549702        1.49856045268309       -2.23648899952443
H           -1.40687589650396        1.30053028682409       -2.21199829767829
C            0.56778889205490       -0.04769595928594       -1.77328405103887
O            0.87539032693422        0.02885615972327       -2.89163590019214
H            0.25366305109364       -0.01799468195245        1.39564127648158
H            0.41600965206298        1.31519991853078       -0.04585969051407
