64
 energy: -93.100509323819 gnorm: 0.000434324013 xtb: 6.7.1 (edcfbbe)
Co           0.20120353934357       -2.22830125592708       -1.91365194326863
N            0.01201265932269       -3.55033163531935       -0.27622029768263
C            0.79461554365507       -3.18152646247042        0.90742480133352
C            2.18547211600318       -2.74296257665914        0.47316091181030
P            1.90908887070804       -1.40246330906633       -0.77990083121107
C            3.61009468301988       -1.25427199746409       -1.43051778506581
C            3.88605686481245       -1.85665790444070       -2.65219285515851
C            5.16818706772139       -1.82571367661431       -3.17124206049702
C            6.18030019469073       -1.18871699881118       -2.47166904550947
C            5.90841677060852       -0.58335720186757       -1.25430447471672
C            4.62819142666674       -0.61450617657942       -0.73141940436270
C            1.80510671429261        0.14050207129449        0.19054801860446
C            1.88929388366883        0.26179531394406        1.57226937749023
C            1.77586242132978        1.50737651854755        2.16676303921349
C            1.56626906249287        2.63675341116021        1.39497028819678
C            1.45767223051763        2.52061930405172        0.01775143302579
C            1.57063800167218        1.28047216621972       -0.57720933747599
C           -1.40277899999118       -3.78505630995434        0.02995006167819
C           -2.13295319323552       -2.47664996426127        0.33923585954168
P           -1.59512122522681       -1.17509562499998       -0.89100098656926
C           -3.15103552556202       -1.02647389086100       -1.84862706561809
C           -3.14317576835325       -1.30560374446683       -3.20826764297970
C           -4.31166666154617       -1.22185927021463       -3.94691785407917
C           -5.49533915289451       -0.85436809059001       -3.33007298177421
C           -5.50859569105869       -0.56767794483167       -1.97305382485435
C           -4.34395533208862       -0.65186111096023       -1.23404411262806
C           -1.73814042053888        0.38333243168336        0.05882657132765
C           -1.48185985658964        0.51875586482037        1.41848684002045
C           -1.53766405436706        1.76147749290137        2.02456936474361
C           -1.82064779584686        2.89199664797403        1.27893634710614
C           -2.03189192730790        2.77574119236520       -0.08632332515647
C           -1.98298624979891        1.53566186333307       -0.68997074298417
H            0.40397480117227       -4.42323076216207       -0.63169564949643
H            0.30250810775294       -2.33434483762165        1.39469826607158
H            0.84066399817905       -4.01773351463917        1.62208167988321
H            2.70134369865682       -3.55867520061909       -0.04514658922769
H            2.80663861821341       -2.42399314555069        1.31219324664614
H            3.07600843234182       -2.33704159435742       -3.18876518019322
H            5.37816987055506       -2.29355147914265       -4.12258753965857
H            7.18194793128846       -1.15949137241004       -2.87620431445607
H            6.69858073651787       -0.08406979834685       -0.71151166737825
H            4.41721971184094       -0.13583335700454        0.21519714215412
H            2.05028119930697       -0.60444436575229        2.19878234458043
H            1.85201675924135        1.59486467100598        3.24175213760428
H            1.48006824202348        3.60515465017503        1.86579516857142
H            1.28090376102930        3.39789818679390       -0.58791059664131
H            1.47428279672430        1.17041381821221       -1.65068468870414
H           -1.86120949913975       -4.24598715514389       -0.84940333536388
H           -1.50678817756682       -4.47896095033203        0.87910908965038
H           -3.21134647130611       -2.63154605042184        0.26512458537073
H           -1.91001477557731       -2.14407684996336        1.35346850810448
H           -2.20917858960588       -1.58585722707821       -3.67748591296129
H           -4.29693273566299       -1.44225771049595       -5.00487427755786
H           -6.40823957753333       -0.78753777689039       -3.90452556199559
H           -6.43149145771167       -0.27556178946995       -1.49186523974032
H           -4.35542329388103       -0.41678687247117       -0.17751983747120
H           -1.23947403647500       -0.34097311036956        2.02787730056145
H           -1.35514598514889        1.84600977242614        3.08672686023133
H           -1.86656901775072        3.86002087236589        1.75626963085807
H           -2.23529001165560        3.65610764919194       -0.67957325144639
H           -2.14154652066164        1.44335441523922       -1.75706130461483
C           -0.23439028386129       -3.41711469846443       -3.08921967093970
O           -0.50927562027775       -4.18406185826269       -3.92013280713783
H            0.42936596229098       -1.36172140936604       -3.05404078128200
