55
 energy: -75.373946840418 gnorm: 0.000109792715 xtb: 6.7.1 (edcfbbe)
Mn           0.06302005516140        0.06807250730758       -0.06809828464930
C            1.97504785230853       -2.17675338858407       -1.01459636731618
P            2.14170123615846       -0.42268251805902       -0.88244552958216
C            3.72160730007215       -0.03582851557692        0.07845865080427
C            4.06583724808078       -1.15071981355293        1.05923508331512
C            3.59196566382881        1.30938584075591        0.79150460832483
C            2.64729004645653        0.13500311730252       -2.60621677467023
C            2.74875734174148        1.65512807490130       -2.69745707878602
C            3.90091284925219       -0.53884713815957       -3.15821927137867
C            0.82736051713819       -2.74738904668080       -0.49163525357022
C            0.58118272431614       -4.15494567869061       -0.44014457449726
C           -0.55266920193238       -4.63624004316821        0.14005160980003
C           -1.48479395674192       -3.74906656740932        0.70939967741568
C           -1.22519453827618       -2.39927740740769        0.62460214294325
C           -2.10798004882570       -1.34868767703210        1.27272465545025
N           -2.03745278148903       -0.08691725939256        0.50905750866827
C           -3.11994021074213       -0.06739537966098       -0.49376573052705
C           -3.14416395090138       -1.26583631164037       -1.43526280240321
C           -2.13655152640509        1.12928460813925        1.33516971339230
C           -1.37102475556489        2.28389660196027        0.67412763270312
N           -0.13972830539171       -1.91487985031941        0.01395671802434
H            2.76741866276727       -2.79616862489326       -1.40808424397870
H            4.53006561369520        0.03741071429477       -0.65647939883527
H            4.95535615996580       -0.88589980260156        1.63077711080629
H            4.25719728883316       -2.08199262683151        0.53128039841005
H            3.24843317035559       -1.32203888275965        1.75544085472798
H            2.91443683152468        1.22674822143819        1.63864763905908
H            4.56114917908838        1.63863538187033        1.16611374517539
H            3.20219211389285        2.07151129397545        0.11797684786346
H            1.80302524813291       -0.20276401384694       -3.22064450232351
H            1.88135765054413        2.12049380414482       -2.22453177825750
H            3.64971987007408        2.01256421697870       -2.20217114948767
H            2.78514194212126        1.97336859597996       -3.73893884768504
H            4.80808116782674       -0.14121339707261       -2.70832334537387
H            3.96181779649189       -0.36424832032287       -4.23216177175787
H            3.86906067798594       -1.61245315749696       -2.99093480442034
H            1.32089700596372       -4.81857473990201       -0.86176138797016
H           -0.73930833965766       -5.70019427893222        0.18234681630368
H           -2.37000233463318       -4.11410431411967        1.20511197070604
H           -1.71873577866682       -1.18105766247367        2.28456013134133
H           -3.14196037035352       -1.70275220894840        1.37311922110388
H           -4.08808143932270       -0.01271624895681        0.03111947716947
H           -3.01149233048767        0.84106282993407       -1.09242335038195
H           -3.84149973038049       -1.06263202916464       -2.24547683980481
H           -2.16091361024446       -1.44495737843908       -1.86495477792732
H           -3.46318807378844       -2.17388559961155       -0.93070414256867
H           -3.18578480104341        1.42167586113517        1.49440584281335
H           -1.69291934351576        0.93224522506573        2.31685968186999
H           -1.87295709356596        2.62609985830348       -0.23170108795152
H           -0.30925648937178        1.99569451187041        0.42002569523291
H           -1.30765340463599        3.12560931198547        1.36272682843189
C           -0.34396940147303        0.28345367488961       -1.78192322311193
O           -0.55166760033708        0.50379584801524       -2.89880582169757
C            0.68417466215628       -0.13769118376414        1.58422983452459
O            1.08209551919187       -0.40098681004736        2.63826467446646
