58
 energy: -81.950450669111 gnorm: 0.000130688222 xtb: 6.7.1 (edcfbbe)
Ru           0.10054117626879        0.03981226223463       -0.69885693271240
C            2.03234672875650       -2.27276128963817       -1.59708950298867
P            2.24075246345277       -0.45633533784441       -1.19744198888081
C            3.16286519349662        0.09958407663023       -2.66963525622968
C            2.68341911124455        1.19781826007895       -3.37274767466814
C            3.34275514326759        1.63725499384981       -4.50813672236536
C            4.48420360014327        0.98215617379748       -4.94092431794567
C            4.97258374030606       -0.10703938947745       -4.23443457458431
C            4.31786735069142       -0.54847755192587       -3.09950033720942
C            3.56848934287618       -0.49389224971830        0.05143578825763
C            3.57558238366406       -1.46579030231511        1.04762546245725
C            4.54846460955727       -1.44712871131685        2.03050578550609
C            5.51281985849134       -0.45189287000293        2.03516084876085
C            5.49459483447905        0.53379525822390        1.06112147952318
C            4.52384508545380        0.51815325875708        0.07615192342099
C            0.88320450022230       -2.80692060238312       -0.79618456743286
C            0.72866493748778       -4.16278830965893       -0.55968016828102
C           -0.37464250777454       -4.61938564092096        0.14926903905810
C           -1.28559127342672       -3.68312974041299        0.61828052420723
C           -1.06067076506322       -2.34006517370869        0.37134575929288
C           -1.93330792300307       -1.25623110769809        0.94303088534025
N           -2.04800195064824       -0.10364325874924        0.02990723497939
C           -2.46796412025587        1.10056561187649        0.77977297507865
C           -3.82222524446501        1.02394355620913        1.48855533857351
C           -3.02784076484518       -0.45243589426139       -1.01913658292310
C           -3.32127263048161        0.68172410862261       -1.99531508855869
N           -0.00249820749531       -1.90291829695071       -0.33312867903634
H            2.94140794089724       -2.86311982967985       -1.44912468278822
H            1.77231064207279       -2.30244379140437       -2.66492468049711
H            1.79177659411205        1.69447250304240       -3.00605445156931
H            2.96726181258686        2.49046265274648       -5.05465148221519
H            4.99881636129490        1.32229854471765       -5.82800642523671
H            5.86713541257899       -0.61158211242528       -4.57098026865866
H            4.70422201638765       -1.38970027663450       -2.53940954025897
H            2.81203488977935       -2.23384871000243        1.05798705680849
H            4.55364487628732       -2.20864150939397        2.79783694707431
H            6.27232528398860       -0.43960844123773        2.80349037936067
H            6.23728696364640        1.31872197981613        1.07230815196887
H            4.49664119212414        1.29105442900583       -0.68093719578842
H            1.46580195714127       -4.85560457420643       -0.93700569960083
H           -0.51718783584226       -5.67240506120527        0.33235190662147
H           -2.15445551360614       -3.98882932054827        1.18089748708863
H           -1.44727972205028       -0.90233594477179        1.86345313023238
H           -2.92148991162836       -1.66608362513616        1.20039151362422
H           -2.46640779575115        1.93895870849957        0.08058076328734
H           -1.68645414353934        1.30420103164968        1.51730494682231
H           -4.64453066587852        0.88639821527815        0.79086321666221
H           -3.98351351823862        1.96501544548002        2.00885916699381
H           -3.84933274851673        0.22713990193371        2.22819614034808
H           -2.62771394442138       -1.31001771489717       -1.57431492871114
H           -3.96945927567400       -0.78032409981328       -0.55227496821495
H           -4.00021171857274        1.41499100529825       -1.56747647957103
H           -3.78036207551337        0.27624469034006       -2.89424105478631
H           -2.39461008755884        1.18346458611337       -2.27583939934052
C           -0.27337324811115       -0.21198053700473       -2.48325289353434
O           -0.39572128750886       -0.44492490257812       -3.61535187348071
H            0.50768884113579        0.31868136309648        0.80744108055661
H            0.08774475888408        1.61038657476179       -0.86827584442145
