49
 energy: -71.042147337283 gnorm: 0.000319885330 xtb: 6.7.1 (edcfbbe)
Fe           0.07072890939706       -0.22413665759164       -0.34779966215195
C            2.31775977800906       -2.31333147504401       -0.12238357929256
P            2.19798402878439       -0.52690434151852       -0.61538433648209
C            3.58520334377666        0.32006344425853        0.32017195139996
C            2.99226797790050        1.14306616752959        1.45959574523846
C            4.68311202830105       -0.60730238439575        0.84209618757503
C            2.83843588650782       -0.55286936895932       -2.37957370361174
C            4.24968303638217       -1.08634631872268       -2.60706343752363
C            2.70048619181854        0.85319550240574       -2.96197253267163
C            0.98188921253240       -2.93281665986905       -0.38443278119329
C            0.83067686360852       -4.28527514756597       -0.60490343245777
C           -0.44801529420779       -4.82566426687394       -0.73919674532886
C           -1.53125389853826       -3.98831244934389       -0.58291531156739
C           -1.32260387330179       -2.62788198265902       -0.35947850988126
C           -2.36302367338465       -1.65641622751799       -0.09887119341309
C           -3.72042825097483       -1.94265704762732        0.03060470926557
C           -4.59536688983907       -0.92572569889319        0.36549795009201
C           -4.09852790897700        0.34656549206255        0.58641896585573
C           -2.72966179376911        0.57280987194591        0.43705790226280
O           -2.24253568643104        1.78653575518728        0.66541021522321
N           -1.88211551239949       -0.39706297242131        0.07250458289157
N           -0.07164679094540       -2.08995699983506       -0.32887449171613
H            2.46251604412105       -2.30225802911019        0.96505084511254
H            3.13510001011975       -2.87041520272225       -0.58336597416398
H            4.02077365398382        1.01664504684323       -0.40917794381620
H            3.76049693117814        1.75694854290836        1.92839433360847
H            2.19802782957745        1.78231734411131        1.08098268133837
H            2.55457580803648        0.49154140380405        2.21253660227285
H            5.05253751212274       -1.28253602130035        0.07495617845057
H            5.52001148429569       -0.00553311045815        1.19605201649319
H            4.32365270474542       -1.19717726232788        1.68277784184534
H            2.12128372804650       -1.21311376451328       -2.89263065306874
H            4.36976051452235       -2.10005962271816       -2.23171527402911
H            4.45578642687466       -1.10349070468261       -3.67730381482257
H            4.99013581660657       -0.44385872617329       -2.13640543201505
H            1.74405920750011        1.28921292335242       -2.67454140149972
H            3.49256898345059        1.50476045812256       -2.59631338597074
H            2.75918348698266        0.82726555856790       -4.04952176095714
H            1.70217838727440       -4.91981390434803       -0.66263729319788
H           -0.58211269084453       -5.87839231704663       -0.93313914840706
H           -2.53541218446683       -4.37663571650396       -0.63654608103980
H           -4.08153737109020       -2.94601124515614       -0.12265469347345
H           -5.65174177772146       -1.12200504169566        0.46697488608239
H           -4.73000690386651        1.17151756007612        0.87095498568269
H           -1.26667909580038        1.74093456908291        0.52089207130696
C           -0.33982772101743       -0.06878214000116       -2.03396938663817
O           -0.73755090230106        0.03189450700658       -3.11405934133548
H            0.33187510658239       -0.12795870497404        1.09723597457519
H            0.17149966695013        1.25241932306661       -0.34192441072618
