57
 energy: -86.149748527981 gnorm: 0.000177901217 xtb: 6.7.1 (edcfbbe)
Mn          -0.13982536889125       -0.48396703136773       -0.34470534424818
C            2.09440359408299       -2.62661376899874       -0.42640668962494
P            2.02118129403021       -0.91284651716169       -0.83614238787312
C            3.42488580671773       -0.12953476645411        0.03815925277050
C            3.91923530604999       -0.71830594385037        1.19639241166511
C            4.95918220334273       -0.12730364683467        1.89071622979626
C            5.50950885602140        1.06014345467830        1.43656614483002
C            5.01383443260480        1.65753698342350        0.28801543071900
C            3.97426683749046        1.06868693317783       -0.40798281344483
C            2.65217429505436       -0.67760310402830       -2.54540187499726
C            2.17777579775191        0.37990359109448       -3.31342125997485
C            2.65854998208937        0.58691086292511       -4.59326093431367
C            3.61946774678014       -0.26464333350959       -5.11481705470130
C            4.09858319604731       -1.31845729442704       -4.35308876238294
C            3.61912907835565       -1.52456445313741       -3.07163468521198
C            0.89074281044916       -3.23114645711745       -0.09302872164146
C            0.71148757352654       -4.62096876982628        0.17896358678802
C           -0.53423515040686       -5.11859322021901        0.42299948079291
C           -1.65782034930067       -4.27196819536007        0.38138223619066
C           -1.44244744747847       -2.93527935199022        0.13537778404146
C           -2.53880852987194       -1.89989538850867       -0.03815766753959
N           -2.02217604373441       -0.62390159542059        0.48625222444993
C           -2.17168881512966        0.64103920630722       -0.21790659387679
C           -3.19795409289031        0.69978633675515       -1.34668765522428
C           -2.28645210808607       -0.52531044379474        1.92777685838668
C           -3.74643711135185       -0.24140230706023        2.28894732677780
N           -0.21574198411359       -2.42800658654155       -0.02881340953131
H            3.01833312960688       -3.18438532414279       -0.47551371237275
H            3.47169642577357       -1.63921036031347        1.54685815283730
H            5.33973658003905       -0.59066250051376        2.79038434677026
H            6.32160105357516        1.52307184075691        1.97923059110105
H            5.43905278068203        2.58769387774816       -0.06319180594981
H            3.58242727340905        1.53682388030727       -1.30127518820869
H            1.42166720975024        1.03434823329658       -2.88858317710767
H            2.28423707217203        1.40903248162473       -5.18766087490257
H            3.99379843079949       -0.10791020292530       -6.11655073090030
H            4.84837301174148       -1.98166859085426       -4.76156645399427
H            3.98910806905883       -2.34607397045098       -2.47489866906643
H            1.57989386285998       -5.26196236226828        0.17000353123080
H           -0.67232872984097       -6.17067362455299        0.62874739626380
H           -2.65362517136178       -4.65848364276493        0.52649275001629
H           -3.46145609523304       -2.20914818461716        0.46329006357223
H           -2.74734753817057       -1.81483253840036       -1.10930279129068
H           -1.11603720034597        1.00327124594569       -0.65533730549079
H           -2.43039396834796        1.41733279262176        0.51418273149236
H           -2.91799631596727        0.08365556630915       -2.19927884528455
H           -4.17163028874309        0.37637444018940       -0.97958654293801
H           -3.28613267869030        1.72682681026558       -1.69700712727771
H           -1.66002456184641        0.26956565444985        2.34575141572809
H           -1.97162275944526       -1.46760024026402        2.38546383575487
H           -3.82961651792991       -0.16129072266297        3.36995243336943
H           -4.09257631056414        0.69404516456342        1.85364432499710
H           -4.40817570981403       -1.03998587373432        1.96178635206627
C           -0.38368764294643       -0.98875188043278       -2.03638244402587
O           -0.39547410768642       -1.41966371156304       -3.11043546825422
C            0.61717636286292        0.03908580844023        1.18089982271062
O            1.21669022348997        0.36828095017976        2.11483865713720
