47
 energy: -70.115334967129 gnorm: 0.000192090244 xtb: 6.7.1 (edcfbbe)
Ru          -0.01738842692594       -0.18757233667418       -0.23435239330881
C            2.30090033595559       -2.24704984295384        0.18334544677828
P            2.26530607292419       -0.45417650839253       -0.35661515034593
C            3.48671112695705        0.47194351795518        0.71435481524000
C            4.47368936442047       -0.38280435815626        1.50455513482470
C            2.68464894584047        1.39098203493063        1.63603763708559
C            3.13419648691134       -0.56964562226470       -2.01505798696322
C            4.62774230439333       -0.88572974577550       -1.96529189581375
C            2.41244367783015       -1.59294060787856       -2.89279991589896
C            1.01590155023349       -2.94154307956769       -0.18690687780457
C            0.90738071325245       -4.32026719409296       -0.28689653349642
C           -0.34589083914910       -4.89882946933478       -0.46386824838028
C           -1.47124898225112       -4.09292640406792       -0.47173398960577
C           -1.32075296182170       -2.71248148166670       -0.38201099522506
C           -2.39457672923059       -1.71709588206831       -0.29271499146232
C           -3.78350306745622       -1.83625952088616       -0.32576588806272
C           -4.52856647788223       -0.66406043813037       -0.18901982330460
C           -3.94762565666283        0.58436866560072       -0.04120052346308
C           -2.53693466083746        0.66212008388347       -0.02502762457779
O           -1.73403715259979        1.65332989787328        0.04471610893253
N           -1.87785850378116       -0.50308812830451       -0.12817910710864
N           -0.07091479280890       -2.16514573500083       -0.31199518717155
H            2.32631605172674       -2.20832399281860        1.27981211758425
H            3.17831198219284       -2.79435607770180       -0.16703584600852
H            4.03371502096310        1.10849937803632        0.00412948172360
H            3.95945448802896       -0.93916652540982        2.28482397030125
H            5.20470995381790        0.26539679540290        1.98556189150114
H            5.00563653771592       -1.08259484694356        0.86569878217012
H            2.23544980186466        0.82159513465089        2.44710435297150
H            3.32160337670999        2.16329173698342        2.06351258489833
H            1.87011914883023        1.87102708970725        1.07766995497231
H            2.99856163538131        0.42888751110092       -2.45557793986493
H            4.81219427443790       -1.84928245439889       -1.49611328492970
H            5.18817481517438       -0.12177605069644       -1.43397783797994
H            5.01218251465809       -0.93296051344974       -2.98323728775227
H            1.32908713913603       -1.47989631312536       -2.82100153040443
H            2.67030780451808       -2.60816176998199       -2.59727062367448
H            2.69695260901578       -1.46088974458895       -3.93533281140936
H            1.78905331887843       -4.93710204864436       -0.20829188143801
H           -0.44115169558158       -5.96930515163080       -0.55537342967998
H           -2.46064368364289       -4.51568284417916       -0.54145292078926
H           -4.26984866374728       -2.78924767199309       -0.45233212599487
H           -5.60718211859894       -0.73362362585814       -0.20654497331800
H           -4.54694922186039        1.47656858388832        0.04707030559160
C           -0.24142276661973        0.29721629280890       -2.01372970893022
O           -0.49338603480970        0.72021444701270       -3.05281523681203
H            0.07633758319726       -0.33545593028070        1.31559897847154
