58
 energy: -86.371745362681 gnorm: 0.000557620426 xtb: 6.7.1 (edcfbbe)
Mn          -0.04868345817159       -0.16974716052492        0.44545504972485
C            1.93730798401875       -2.12775401044291        1.83319919203937
P            2.05169031349606       -0.39740012138700        1.14182397887102
C            2.73283517903236        0.57225987743175        2.51122589804904
C            3.79480073476604        0.11576121399553        3.28665987749232
C            4.28009900320820        0.91126700753658        4.30849143634696
C            3.71943087528317        2.15701230610599        4.55099234484162
C            2.67199154217826        2.61845122666583        3.76907435861724
C            2.17895179793376        1.82616177463975        2.74817780112996
C            3.46044904937896       -0.52754966094317        0.00242372002154
C            3.58473508982771       -1.64357862978748       -0.82294788066330
C            4.61692843187282       -1.70940292887445       -1.74022996614804
C            5.51806968048659       -0.66109078156258       -1.84941956267435
C            5.38352678031183        0.45906361180803       -1.04449792012266
C            4.35335093004123        0.53316624351104       -0.12428341413905
C            0.87636464937819       -2.87966462267600        1.08411129520925
C            0.82652506078436       -4.26475631295142        1.02803083923807
C           -0.20588844856742       -4.88106348303080        0.33799842630900
C           -1.16232405559607       -4.09634046064344       -0.29154261262047
C           -1.05135130213663       -2.71964042993798       -0.22035767917009
C           -1.97766099008889       -1.75907682601423       -0.92176980434317
N           -2.05583383159418       -0.51261885052410       -0.13394764713889
C           -2.33122364005905        0.70886372250463       -0.91605187538892
C           -1.68594850884563        1.91164203752521       -0.21456228167438
C           -3.02898386597695       -0.68296859021973        0.97447202584664
C           -4.49045298785460       -0.90784227555187        0.58626500170364
N           -0.05009922244494       -2.13142321473892        0.46118464673987
H            1.63053190985641       -2.01406269175587        2.88216510773305
H            2.89986163674168       -2.64753334255146        1.80726797787157
H            4.23719082923545       -0.85002676396069        3.08647302813516
H            5.10002688681533        0.56182969225186        4.91846988785413
H            4.10368899059748        2.77154347672537        5.35154210211533
H            2.24327420708189        3.59159087563246        3.95782783916679
H            1.35876848212618        2.16595973859206        2.11894524254288
H            2.87115856812616       -2.45516357170612       -0.74986726179040
H            4.71781263991908       -2.57695569988356       -2.37581753789433
H            6.32200752217943       -0.71476695304825       -2.56843555892704
H            6.08020479128679        1.27914539760171       -1.13760879297202
H            4.24006453235050        1.40903330467113        0.50045398766452
H            1.58569221424109       -4.84881453873403        1.52442137424110
H           -0.26444983215689       -5.95705904094581        0.29007430616912
H           -1.97610418929558       -4.54618754521958       -0.83814094317368
H           -2.96036079628484       -2.21035497527461       -1.08630603939110
H           -1.54560117160104       -1.53621040945222       -1.90528234129757
H           -1.89430333379893        0.59625692271640       -1.91312872895206
H           -3.40443282773200        0.88302339601201       -1.03900041065464
H           -2.21835652645565        2.17018063182114        0.70140889300848
H           -0.59016113574396        1.74127095332669        0.02846834717393
H           -1.71516952213171        2.77818520904414       -0.87376288227700
H           -2.69214661096316       -1.53601683796113        1.57142847798317
H           -2.97690711608493        0.21015440169651        1.60142292854220
H           -4.89820015269579       -0.08646410935464        0.00293279291104
H           -4.64122591486847       -1.83371164949553        0.03756745418058
H           -5.07010905506360       -0.97590190286846        1.50398875196993
C            0.63608233248753       -0.16520939027619       -1.21846269923808
O            1.21258233449671       -0.17656542271328       -2.20726818475821
C           -0.39021314937335       -0.07019247505808        2.19733826175918
O           -0.47975322949510       -0.03664921422792        3.33950510610609
