62
 energy: -92.068827443655 gnorm: 0.000128838422 xtb: 6.7.1 (edcfbbe)
Co           0.39894093453749       -0.19126116497883       -0.78288023485256
N           -0.10108159333990       -1.90985022878193       -0.34059012923793
C            0.61176499033772       -2.79975211208769        0.55644904493326
C            1.72976178433187       -2.07033942757124        1.29597210247552
P            2.26928385555423       -0.81861585379965        0.07485676671763
C            3.21925592144158       -1.80896045624506       -1.12197855078256
C            2.70091435671466       -1.94593414740152       -2.40365373832993
C            3.36483410512171       -2.71163333352687       -3.34500210159700
C            4.55270380205046       -3.34021144879124       -3.00625376639248
C            5.07643712611079       -3.20064521539480       -1.72964885611029
C            4.41460681150155       -2.43565831737752       -0.78611557782620
C            3.60727847120620        0.13098631023305        0.86083600723351
C            3.89381243745667        0.10076056570479        2.22064303805748
C            4.91674723340331        0.88309226095844        2.73036314126526
C            5.65241920799538        1.70419675962018        1.89244464581369
C            5.36336954373326        1.74774197520658        0.53652906761736
C            4.34422866680928        0.96856112899398        0.02501897244150
C           -1.25460763671845       -2.61500550232693       -0.86840890052654
C           -1.84328549654091       -1.89632157251779       -2.07981164596384
P           -1.55383040963291       -0.13113749415083       -1.69147812906024
C           -2.17053860633987        0.82150098652446       -3.11324828458139
C           -2.32137159729387        2.19438303723724       -2.92324509967933
C           -2.75100186881750        3.00140771890556       -3.95842270296182
C           -3.02658230662307        2.44611703350980       -5.19928630107485
C           -2.86750284278914        1.08503895506014       -5.39842207644914
C           -2.43681810388776        0.27295451335014       -4.36252398021513
C           -2.85012707274845        0.21012814232152       -0.45995878716881
C           -4.20207084756261        0.22648644458667       -0.78681044314315
C           -5.14355245058411        0.45562404718180        0.20031797632541
C           -4.74208198549462        0.66923507238741        1.51051677203278
C           -3.39538903757612        0.65644279434016        1.83796740176820
C           -2.45140236417893        0.42865874270593        0.85283259192731
H           -0.09097396308277       -3.25001039996136        1.28251154264097
H            1.05416130161006       -3.64044030068280       -0.01610115274157
H            1.32526885697375       -1.53851130721311        2.16232070897910
H            2.53135415427423       -2.74242759329358        1.61322163070013
H            1.76633693307467       -1.43771491657972       -2.63760423353948
H            2.96139314386767       -2.81811883230622       -4.34209886035978
H            5.07496261834385       -3.93880643236080       -3.73890931745002
H            6.00498320426030       -3.69004485211400       -1.47160661369013
H            4.82482353768387       -2.31734026964915        0.20852889615528
H            3.32372445768411       -0.53371975139431        2.88414903162518
H            5.13975764409600        0.85219807695033        3.78757044796108
H            6.44858086872045        2.31344191434959        2.29514680969683
H            5.93223160026728        2.39241033638295       -0.11807839176983
H            4.10358102107864        0.99774987859213       -1.03065374857590
H           -2.03707861434196       -2.70206369064090       -0.08813839110576
H           -0.97387022190698       -3.64717183587175       -1.14963764500754
H           -2.89772889160904       -2.13582995238817       -2.24116583541838
H           -1.26430700343372       -2.14322691258402       -2.97460729982322
H           -2.09620892379587        2.61651023713851       -1.95159313236345
H           -2.86878841212020        4.06420254142706       -3.80262355357945
H           -3.36145486265943        3.07573395101484       -6.01083088791826
H           -3.07863628462274        0.65291448253650       -6.36642296988874
H           -2.31327744224108       -0.78739450033472       -4.53010268179809
H           -4.51124657564200        0.06654183039751       -1.81169133200131
H           -6.19489567346315        0.46860418245194       -0.05034315824905
H           -5.48248580466257        0.84845347557145        2.27702023662181
H           -3.08541980249336        0.82617805349517        2.85940936717740
H           -1.38570649570027        0.41302880879354        1.07647885383880
C            0.84695546733359        1.43395179068482       -1.13043264465444
O            1.15474294616038        2.53265877956267       -1.35713868503178
