49
 energy: -80.784052885912 gnorm: 0.000198175894 xtb: 6.7.1 (edcfbbe)
Fe           0.09869862622974       -0.33850801622283        0.00978858327651
C            2.37256272572259       -2.39883921166084        0.04356371193723
P            2.21921068770129       -0.55238068218957        0.37337952869517
C            2.95527675856925       -0.44556815575182        2.03860946608467
C            3.90037320673404        0.52029302424757        2.36780307702453
C            4.38666969868414        0.59935216815552        3.66162902271262
C            3.92713390856988       -0.27384826301614        4.63358165564678
C            2.96735610294457       -1.22267538760178        4.31480350008025
C            2.47750136382771       -1.30466769917381        3.02509033965391
C            3.57579049146769        0.08842756290158       -0.66853908245700
C            3.30940063178040        1.19625583568532       -1.46552668327586
C            4.29924876649953        1.72410561372514       -2.27701352873708
C            5.55847314176113        1.14656072984836       -2.29354099744842
C            5.83157877243660        0.04759910411846       -1.49243143417050
C            4.84697864760400       -0.48061037664446       -0.67808732615792
C            1.03585878974945       -3.05851471797741        0.22926622465456
C            0.89722950511395       -4.42068625242577        0.44292608834864
C           -0.37518888139401       -4.97212174626235        0.54820687395224
C           -1.47886590740281       -4.14631415293337        0.43625636273815
C           -1.28891030144877       -2.78376585501431        0.23725030353851
C           -2.31388841677288       -1.75170896414527        0.13723124723137
C           -3.70465199582087       -1.77643869365849        0.17926520803171
C           -4.36759074493842       -0.55028731983367        0.09362170836370
C           -3.70178354956812        0.65757960197608       -0.01649341858634
C           -2.28879321964661        0.63951425505817       -0.05496122073698
O           -1.41043078637014        1.55586054738196       -0.13213370182884
N           -1.70620203750047       -0.57567403918056        0.00056091037570
N           -0.03338605587295       -2.25455522552943        0.13977053609803
H            2.66161662358820       -2.49127999600998       -1.01197431957367
H            3.14379968917073       -2.87321810633563        0.65740123051241
H            4.25367280875968        1.20934132016863        1.61233803369612
H            5.12394340560308        1.34865862184825        3.91247662698700
H            4.30911100652871       -0.20924524179352        5.64221407521475
H            2.59809197555048       -1.89464823108381        5.07638951482034
H            1.70807287546461       -2.02335055318309        2.77527305825780
H            2.31789134601234        1.63452073376183       -1.43645668265526
H            4.08918891586441        2.58425695773553       -2.89637001623419
H            6.33105950078637        1.55521287185654       -2.92872056211374
H            6.81710452912840       -0.39549486743346       -1.50293054981564
H            5.06273735930354       -1.32786052611651       -0.04219107966543
H            1.77509938899601       -5.04345786705743        0.52084319619303
H           -0.49647466976845       -6.03143344681547        0.71403585484979
H           -2.48131891013017       -4.53679971832061        0.50962216570169
H           -4.25339190700704       -2.69846786033852        0.27869536033908
H           -5.44869906680622       -0.54574539862642        0.12489370503120
H           -4.23910650821705        1.59194486106998       -0.06154413431630
C            0.29137835394483       -0.31169228309417       -1.73044087217968
O            0.39667949987891       -0.30471856379083       -2.87627932374687
H           -0.02703650074107       -0.26420156101100        1.47249685745189
