55
 energy: -75.358725651603 gnorm: 0.000150171993 xtb: 6.7.1 (edcfbbe)
Mn          -0.08063489279041        0.05813844878033        0.28538074360673
C            1.98332631620585       -1.94843400584900        1.46964615864225
P            2.06631987882268       -0.24899721921996        0.98242953670020
C            2.64342319990477        0.70263174930137        2.48883039497479
C            4.05023232088874        0.38830641761465        2.98357231990635
C            2.43069256282279        2.20539071568577        2.30501238269796
C            3.42979369882698       -0.16927739549403       -0.32001256631546
C            3.76326748326159        1.26071017514924       -0.73113186240348
C            4.68397097027969       -0.98660058797679       -0.02580820968355
C            0.89741798838851       -2.66004142601144        0.98859075639220
C            0.73970583352017       -4.07493850660356        1.11268677506171
C           -0.33969769826645       -4.70015925637890        0.56780490524080
C           -1.31921585566653       -3.94998619691934       -0.10868670846548
C           -1.15689752431581       -2.58420759907943       -0.17778293073855
C           -2.15067256589874       -1.67344978744633       -0.87005683189581
N           -2.20847052150820       -0.36864498661150       -0.17637896752044
C           -2.57249228894759        0.74109470054555       -1.07957960819823
C           -3.99578864111094        0.73984633790609       -1.64960355783002
C           -3.18994021024878       -0.43981728436004        0.92570981463334
C           -2.90846107497021       -1.50710868575673        1.97792210631577
N           -0.10079765105727       -1.95399914945982        0.35187018475561
H            2.79090740761693       -2.43851632835322        1.99110600534864
H            1.93430893598370        0.33980384547783        3.24690610797786
H            4.80189957822741        0.85669986887738        2.35311847640646
H            4.17666776699163        0.77362772918842        3.99543177245073
H            4.21946970955931       -0.68552983794297        3.00265479771053
H            1.50748270769487        2.39304604752836        1.74634972282528
H            3.25331948990369        2.65600518219642        1.75521946706239
H            2.35416994848763        2.70384758073518        3.27087976888073
H            2.91912763360616       -0.66529668451259       -1.15981628802230
H            2.85175098670813        1.85309723122217       -0.82064043935187
H            4.41549469248608        1.73375254243411       -0.00047295168087
H            4.27350925710024        1.26976712715288       -1.69405313223895
H            4.41360426646860       -1.97924066514789        0.32582769426663
H            5.31843931853712       -0.50986807322768        0.71439917904315
H            5.26303233694987       -1.09690399339785       -0.94259292210879
H            1.50491402951674       -4.62856382345620        1.63475092949470
H           -0.45407642363623       -5.77158221783014        0.64927475658152
H           -2.17621464221963       -4.42946524794359       -0.55332825221716
H           -3.13907584716762       -2.14796422311117       -0.91795372286051
H           -1.79650880583337       -1.51072882755995       -1.89508176321567
H           -2.41203703947775        1.68176942779005       -0.52850905663670
H           -1.88240134299643        0.72445783242558       -1.92948715648261
H           -4.23163987511490       -0.22095860375045       -2.10135489849009
H           -4.74170416995652        0.97250788536585       -0.89399678229762
H           -4.05900674665461        1.50112804108377       -2.42422347390450
H           -3.21169327926586        0.54147482513218        1.41129420758242
H           -4.18822574330061       -0.63891491533833        0.51318358720149
H           -1.87463403665226       -1.46811476641340        2.31667305128602
H           -3.10305168412896       -2.50594422135841        1.59746697022594
H           -3.55856363029920       -1.33370805498419        2.83325515970046
C            0.45211178044403        0.19013672237434       -1.40582469211233
O            0.82273484382906        0.46222449108961       -2.46869179337702
C           -0.44568424157515        0.48374052393174        1.97530640228529
O           -0.64012972859897        0.97011487712631        3.00626578934970
