59
 energy: -87.243592660979 gnorm: 0.000177772571 xtb: 6.7.1 (edcfbbe)
Mn           0.12587525481758        0.02976608000593       -0.66723768747478
C            1.96242912505540       -2.23190414605373       -1.72711679865648
P            2.19440899744998       -0.46154880638885       -1.21653727889709
C            3.16454694768298        0.17394852734884       -2.62323667693837
C            2.72251554378069        1.31720657008707       -3.27778677262301
C            3.43383275665951        1.81564439384320       -4.35599055704667
C            4.58830315178017        1.17672221188948       -4.77803016869770
C            5.03825146138114        0.04228790725849       -4.11852577681483
C            4.33241483507301       -0.45939345602808       -3.04111150242751
C            3.50411134033300       -0.58974029792949        0.04497330226691
C            3.57773562719012       -1.66595402011656        0.92398619835920
C            4.53344801830904       -1.68069246989066        1.92433575709268
C            5.40999624431689       -0.61736117513592        2.06546795430027
C            5.32294329791666        0.47028417216661        1.21019780526511
C            4.37020872168761        0.48903245800908        0.20931651489257
C            0.83944254539338       -2.77297041554087       -0.89693753470217
C            0.70952643106417       -4.13389127164922       -0.67260262862476
C           -0.35266922714859       -4.60893997470046        0.08262625476906
C           -1.24546541928556       -3.68227397857284        0.59870305718476
C           -1.04256786699444       -2.33461964367027        0.35385553002293
C           -1.93656888328505       -1.28852883113250        0.95765367943499
N           -2.08603589429987       -0.13577588852802        0.05429776454364
C           -2.55748756237109        1.04573726912437        0.81209668634354
C           -3.91782725713022        0.91606837842586        1.50266573767340
C           -3.04969283003945       -0.51223705794488       -1.00283651683994
C           -3.37475565397436        0.61261419322698       -1.97835443858288
N           -0.02087184932138       -1.87125132265081       -0.38576177369711
H            2.86806236747863       -2.84002524200928       -1.64884018401083
H            1.65895005858315       -2.19301281732014       -2.78242097400663
H            1.82046056654334        1.80100926500130       -2.92001500127372
H            3.08847296709254        2.70328306688700       -4.86617588551877
H            5.14391476431780        1.56451652880464       -5.61977847759627
H            5.94346255953219       -0.44949830444957       -4.44569897360935
H            4.68907688185803       -1.33599649715324       -2.51592285228043
H            2.88528594692919       -2.49396905256378        0.83397242974388
H            4.59048436538924       -2.52251351143748        2.60056940238217
H            6.15386299918122       -0.63193375325776        2.84901940141809
H            5.99558443355035        1.30756228430038        1.33003214088044
H            4.28245140589937        1.33953827563678       -0.45501214979564
H            1.43528408420438       -4.81299467031086       -1.09501385776609
H           -0.47901619359763       -5.66500094107508        0.26251782371142
H           -2.08798228267567       -3.99655464507536        1.19622604840815
H           -1.46692541090299       -0.93932896608681        1.88813295137602
H           -2.90987909956291       -1.73468003984551        1.21331445834566
H           -2.57840544779911        1.89023980240411        0.12214561683255
H           -1.79984304269845        1.27135416417189        1.56866729942580
H           -4.72575761946527        0.76396422688544        0.79171248103523
H           -4.11528335941920        1.84324737659044        2.03554538283599
H           -3.92995902966920        0.10684532929426        2.22954041191210
H           -2.61662970919689       -1.35046309050203       -1.56039339123358
H           -3.98192118030430       -0.87568201936307       -0.54334081907809
H           -4.06342569961229        1.33425823225402       -1.54670800535872
H           -3.83627241604547        0.19327543150848       -2.86962213279370
H           -2.46122403320069        1.12903278831110       -2.27035787637089
C           -0.20068345694372       -0.12027072832195       -2.40379957288199
O           -0.28030975966349       -0.24955633877463       -3.55563421045521
C            0.71299274535339        0.37057843006204        0.97893007396815
O            1.20298020394050        0.57859599467810        2.00848198734536
H            0.00912425775672        1.57696302943772       -0.83839300628780
