49
 energy: -71.163690445340 gnorm: 0.000211803829 xtb: 6.7.1 (edcfbbe)
Ru           0.03292951941572       -0.01794053738016       -0.17417621347158
C            2.27972227539474       -2.16395209859100        0.32825756246009
P            2.29144007493802       -0.40442450360204       -0.26377445079524
C            3.62883200142648        0.42660874720378        0.75670267122987
C            4.67204892644716       -0.50329487556364        1.37619038702651
C            2.96995449919727        1.27234586660828        1.84384905889235
C            3.09617350076482       -0.55971912159339       -1.96027382167204
C            4.59299017838133       -0.86105511184267       -1.99659008743438
C            2.35328712630336       -1.60268747377075       -2.79569032228878
C            0.98758143449496       -2.80234713173851       -0.08376373182818
C            0.88701871233063       -4.16631585546070       -0.27072908700052
C           -0.35504317469822       -4.73577251214641       -0.55335782498501
C           -1.46145452763119       -3.91572678729268       -0.58489680180477
C           -1.30486092511444       -2.53941352517261       -0.39332612730908
C           -2.39725933020216       -1.58509309896306       -0.34631256932459
C           -3.74534991394596       -1.93304400157423       -0.46845252877752
C           -4.71321377573592       -0.95537705792032       -0.37155145065382
C           -4.31826491868349        0.35810613626244       -0.15920553954704
C           -2.96087840254365        0.64309403093488       -0.05664985073748
O           -2.50695623736325        1.89269339873464        0.12741444683611
N           -2.01374612470556       -0.29682317547926       -0.14259369027362
N           -0.08000606130851       -1.98720017369777       -0.19995864851329
H            2.27603235285580       -2.09233333791920        1.42394135356071
H            3.14865935898515       -2.74688444799460        0.01518416828307
H            4.11509454742954        1.11319620369502        0.04945078553404
H            4.23238067302183       -1.08802315084576        2.18122807981687
H            5.47352158379215        0.09756665619311        1.80424336917257
H            5.10989712415228       -1.18307258266089        0.65176622664881
H            2.49520159560279        0.63683421027304        2.58865897350895
H            3.71161895102076        1.89680480982009        2.33964244323852
H            2.19678873577330        1.90480296217103        1.40901895029766
H            2.92497294968621        0.43140224231305       -2.40778880625803
H            4.80897798472853       -1.83177230516234       -1.55497972837668
H            5.17645324190948       -0.09917690164021       -1.48823459097357
H            4.91997201484204       -0.89158959202171       -3.03573197828471
H            1.27361914552859       -1.46923348141609       -2.72793908289398
H            2.59701277432095       -2.61152198599250       -2.46511562204684
H            2.63412485126995       -1.51301320725568       -3.84451422631310
H            1.76623240870121       -4.78714218574196       -0.18812154292227
H           -0.44706399365495       -5.79769656836415       -0.71813586201871
H           -2.44003187086190       -4.33154119569063       -0.76054177347141
H           -4.02752581576155       -2.95910487460672       -0.63443919450092
H           -5.75929695380757       -1.20307213321368       -0.45996729173561
H           -5.04362421041228        1.15372233553971       -0.07975474877524
H           -3.23834093194424        2.52123509700887        0.21742555703791
C           -0.19608253931444        0.36964211901049       -1.96678433308934
O           -0.52695721447971        0.64971173470995       -3.04237121208767
H            0.06367434476904       -0.06868463875805        1.40382703165366
H            0.08610931800225        1.53266956986115       -0.00999037914772
