63
 energy: -92.038490841697 gnorm: 0.000178341812 xtb: 6.7.1 (edcfbbe)
Fe          -0.10377667073415       -0.18364565957820        0.35939014420010
N           -0.35166454359788       -2.26312381913177        0.43727070550266
C            0.86037095848691       -3.06447058290226        0.36978113089425
C            1.99653194446772       -2.31100403773704       -0.31951648731105
P            1.98074143752124       -0.66343779682858        0.52414540379610
C            3.28278680885196        0.31433337847507       -0.29857616133563
C            3.67497209794819        1.48314890014376        0.35314383373786
C            4.62417285840972        2.31528172117802       -0.20800655529927
C            5.18501263493938        1.99301388267192       -1.43494065366505
C            4.78893902560788        0.84192188534023       -2.09502442092842
C            3.83862918843270        0.00480508595239       -1.53400522684889
C            2.85381549320279       -1.08716273076978        2.07698632395723
C            2.15645642508037       -1.06810897382989        3.27738374174609
C            2.78828132804764       -1.42761093784485        4.45555790428375
C            4.12154476080392       -1.80298113862031        4.43840324141280
C            4.82382682311531       -1.81788152391359        3.24246974514733
C            4.19492972581388       -1.46260607734341        2.06353419101859
C           -1.14507675310812       -2.67985437442825        1.57341095113286
C           -2.44589752414269       -1.87193428217145        1.61103833814880
P           -2.19406424546202       -0.63544842549800        0.27026151850671
C           -3.47597265532168        0.64407838623834        0.53392012598558
C           -3.83037526470979        1.08708183443136        1.80464450524556
C           -4.72599456858775        2.13089755380784        1.95836163706568
C           -5.26346276085307        2.75824658952707        0.84627759755372
C           -4.88949089233304        2.34781113520309       -0.42401263181435
C           -3.99555148010814        1.30499969968984       -0.57914532837616
C           -2.91493204057425       -1.56151621538911       -1.13121055012298
C           -2.10902393205850       -2.06084101453681       -2.14407900769183
C           -2.66098838526202       -2.79402648762970       -3.17986337445714
C           -4.02486561047559       -3.03662586628035       -3.20912645821631
C           -4.83435497488035       -2.54978425870499       -2.19476620181845
C           -4.28374382005008       -1.81771758840340       -1.15865930866106
H            1.20149395698139       -3.33422047965167        1.38768562444761
H            0.64094258589128       -4.00118212023067       -0.16716074284873
H            1.75743952618663       -2.15929181301614       -1.37474577478782
H            2.95182627607269       -2.83477344790698       -0.21962588215722
H            3.22457696762130        1.72427045010623        1.30956775251305
H            4.92760720975350        3.21681264207924        0.30553592584831
H            5.92752795018995        2.64176394108904       -1.87719752910183
H            5.22232677002693        0.59439273124186       -3.05406123901184
H            3.53581811103273       -0.88837816863880       -2.06070076844712
H            1.11959481066046       -0.76241225153985        3.26487797335005
H            2.24345036045118       -1.41294159365177        5.38921778380920
H            4.61766202006421       -2.08169122562533        5.35742475611315
H            5.86549953955292       -2.10716922182857        3.23171936551345
H            4.74396271915332       -1.46801970837004        1.13059154147765
H           -1.36074324949029       -3.75371493737991        1.46989618247136
H           -0.58641464001608       -2.55038120855236        2.51834590837327
H           -3.33287804303479       -2.48412378892444        1.42560066147079
H           -2.55310048322070       -1.35784931556197        2.56631196912758
H           -3.40029868131855        0.61845656372545        2.67801951562994
H           -5.00422773261740        2.46022741666934        2.94991547910858
H           -5.96422611258293        3.57191873414295        0.96819184216440
H           -5.29447831099035        2.84565269771138       -1.29417943420425
H           -3.69789068930633        0.98673830499343       -1.57081967523278
H           -1.04627725616369       -1.87693978715994       -2.09579106445159
H           -2.02786574544239       -3.17900814582697       -3.96723486964096
H           -4.45731904625400       -3.60731924052745       -4.01890296840018
H           -5.89814836694159       -2.74246199959498       -2.21248031480183
H           -4.91903961651685       -1.43558956939811       -0.36962801534857
C            0.12866137684669        0.04368195774283       -1.34943817166515
O            0.32479114940426        0.49875617036022       -2.39911926117885
H           -0.30349232068243        0.07699462468092        1.80465471490058
