48
 energy: -75.416896350523 gnorm: 0.000137466126 xtb: 6.7.1 (edcfbbe)
Mn          -0.04183011493026       -0.25032719769224       -0.13519641536739
C            2.32412196311408       -2.30363613673844        0.00301874776576
P            2.16777727949708       -0.50645347308348       -0.51080886422347
C            3.60742035883852        0.35287809770972        0.32736956937722
C            4.69102403498660       -0.56178414670510        0.89404262696086
C            3.06466495477326        1.28890897757239        1.40558752813984
C            2.70296630070660       -0.56372889678849       -2.30308665755129
C            4.07209269313611       -1.17448988644705       -2.59049982937161
C            2.62105066157369        0.84891930717239       -2.88477502551537
C            1.02432515955068       -3.01227611164898       -0.25024692653336
C            0.93789389031367       -4.38409445447640       -0.43049089852150
C           -0.31285537732067       -4.98266904456944       -0.54252216972823
C           -1.44722383087948       -4.19800869052489       -0.44069238554685
C           -1.30775222274996       -2.82440543605215       -0.27697905005313
C           -2.37971471107892       -1.84038449795828       -0.13867817419909
C           -3.76900442128546       -1.94442574882130       -0.12188209036198
C           -4.49588169425347       -0.76241137915224        0.02047929127497
C           -3.89271967605605        0.48023736373216        0.12634342723456
C           -2.48283279094106        0.53140875077754        0.09405346636298
O           -1.65620138573139        1.51176444985819        0.12602257749773
N           -1.83264635129254       -0.63567022911980       -0.01087530163915
N           -0.07360675499484       -2.24186256100564       -0.22126312658397
H            3.17024840317668       -2.82145539436778       -0.44948959668508
H            2.47162679637899       -2.27449412780614        1.09031578256149
H            4.04241214579029        0.97492152741836       -0.46528578316974
H            5.04921796301096       -1.27428037689500        0.15640509802219
H            5.53449943478303        0.04679810290740        1.21717679850057
H            4.32579560281024       -1.10641615632510        1.76144790534363
H            2.20471065003311        1.84596840593998        1.02327350348763
H            2.74333431271798        0.72475255050370        2.27910457615179
H            3.82931606495544        1.99726878074994        1.71954967251894
H            1.92632153695090       -1.18664915276087       -2.77376803302846
H            4.24409155478200       -1.15782631852451       -3.66587949092924
H            4.86482439845285       -0.60009118388480       -2.11809069816147
H            4.13669297812760       -2.20844460224763       -2.26280457398967
H            1.73938968048745        1.37152897841512       -2.50901948311535
H            2.56299587517003        0.81184712201547       -3.97111524460241
H            3.49908967727348        1.43240621524811       -2.61461278351393
H            1.83606562415748       -4.98038855881008       -0.46990144399159
H           -0.39562104477961       -6.04855254668925       -0.68801455439500
H           -2.43429284987459       -4.62961844972949       -0.48966120894343
H           -4.26827350528600       -2.89477329593631       -0.21684858547010
H           -5.57569227827190       -0.81722923047450        0.03931004554907
H           -4.47421075876317        1.38409566070779        0.21817982875985
C           -0.42335075506009        0.07875388521481       -1.85013127120331
O           -0.87723234426509        0.34465547501383       -2.87246770097584
C            0.13411956637225       -0.09497144432339        1.63280962167003
O            0.11227683860864        0.10028549704274        2.76817513874007
