50
 energy: -80.907432146460 gnorm: 0.000430312758 xtb: 6.7.1 (edcfbbe)
Fe          -0.33209156378343       -0.15222307102881       -0.03681999956154
C            1.96179519324552       -1.87669221571543        0.69046407655139
P            2.71940692039491       -0.27179087749168       -0.01109003364113
C            2.04408591683746       -0.09698533910523       -1.70825023615876
C            1.98703336466118       -1.20424489567601       -2.56039071340739
C            1.74325587153629       -1.03191237868169       -3.90962941548914
C            1.59910867910061        0.24179304989612       -4.43737179342423
C            1.72811277916784        1.35065804052461       -3.61444005159292
C            1.96229484983914        1.18786505359450       -2.26337974618683
C            1.87953408698807        1.04080499861975        1.02523548277021
C            0.65872570321187        1.70783872878555        0.85899946242021
C            0.24071264903121        2.64927020562317        1.78321685930699
C            1.02536300313517        2.94918397125668        2.88711305069123
C            2.23114498403876        2.29704927007527        3.06939275920771
C            2.65153609269523        1.35774230491843        2.14309496189924
C            0.85476177797117       -2.62222595584614        0.03285940416018
C            0.92149198118165       -3.98240253509009       -0.23989160089847
C           -0.21544788913403       -4.65460196848618       -0.66631000103616
C           -1.42033310042256       -3.97565683185933       -0.74555694707221
C           -1.43031887395153       -2.61372337290805       -0.48132074210326
C           -2.56535580751414       -1.72055416091059       -0.39786476604494
C           -3.91240832094174       -2.03377183494949       -0.49947813804101
C           -4.84799417095697       -1.03458270629645       -0.27958816257117
C           -4.42832686179737        0.25035374003327        0.02857226288865
C           -3.06562965239604        0.50293126097837        0.09642659785055
O           -2.49732052298994        1.68481030288950        0.33841692598620
N           -2.16534349430790       -0.45676672214633       -0.11472488378754
N           -0.28639315849675       -1.95523745959842       -0.18314285143157
H            1.60066737139667       -1.58329124377111        1.68660371781148
H            2.81500164532860       -2.54866372211028        0.82321553445382
H            2.12916746265979       -2.19927479830163       -2.16425100959720
H            1.67450845397583       -1.89481058519366       -4.55528435500396
H            1.40724652214099        0.37129773250785       -5.49177112178370
H            1.64933908492630        2.34469526201929       -4.02951222937845
H            2.08621384184891        2.05403162938895       -1.62623488940631
H            0.01638057025805        1.55485983026439       -0.05123823542973
H           -0.70569406861476        3.14486967289841        1.63789474638606
H            0.68978023026411        3.68570558479224        3.60120560530283
H            2.84677589376584        2.51640390350618        3.92883722753648
H            3.59845921893149        0.85198430021765        2.28100500169397
H            1.85172393785700       -4.51108173900820       -0.09937640974882
H           -0.16801785310370       -5.70859648288950       -0.89156498237471
H           -2.33274222948709       -4.48787039334468       -1.00241156083063
H           -4.22079389852914       -3.03921564048503       -0.73277144897276
H           -5.90214018997075       -1.25462540088478       -0.34462474388168
H           -5.14012227377096        1.04164947066618        0.20930547483787
H           -3.15726676507247        2.36195117617024        0.55387542981566
C           -0.50195251803409        0.02948847375624       -1.78800958162568
O           -0.90314458669992       -0.03282609278389       -2.85374504032030
H           -0.35731303930747       -0.34369461567885        1.35326544946678
