55
 energy: -70.212437086994 gnorm: 0.000559768268 xtb: 6.7.1 (edcfbbe)
Fe           0.14045333459097       -0.49917112173710       -0.24270806903774
C            2.49424384395350       -2.38468689328946       -0.69842891494750
P            2.20696719882878       -0.72722893685527        0.08104928252584
C            3.51869225220271        0.34823998002141       -0.68018196732726
C            2.98313234312516        1.77573427209832       -0.76645446316900
C            4.86447851960540        0.26567305365079        0.02918755095265
C            2.53894718026493       -0.97382926105878        1.87810965494713
C            2.11620797313270        0.29812197250212        2.60373727967244
C            1.75437574368884       -2.15905844079023        2.42364213594757
C            1.19931806822088       -3.10193795888786       -0.53507088617275
C            1.04866441013441       -4.47392362168939       -0.52717297068888
C           -0.19005747325846       -5.02298660660256       -0.23506956247438
C           -1.23722102011467       -4.18382605441739        0.11278882030146
C           -1.03274794622915       -2.82084357676100        0.08650196768700
C           -1.98293682792658       -1.79310475415011        0.57548691008285
N           -1.75096529349314       -0.55156112095485       -0.17231237712573
C           -1.87659998080746        0.66725230864503        0.64465119767663
C           -0.66112479533828        1.53480717217854        0.32525341948077
C           -2.57162536490431       -0.54772447577619       -1.39545764840170
C           -2.32832606549304        0.66906667204866       -2.26460004198840
N            0.14178228846132       -2.30290203158452       -0.30260100308799
H            3.32307857842859       -2.94518818753850       -0.25472238724873
H            2.71614623971294       -2.21943438300721       -1.75883303213678
H            3.62795358531715       -0.03744947258759       -1.70278812333805
H            3.70737273943916        2.42056918007061       -1.26273599774943
H            2.78503275884889        2.18368877221786        0.22172256596147
H            2.05601772914808        1.78928674786570       -1.33864760915157
H            4.81095281432618        0.70061958760211        1.02458223261873
H            5.61439104011076        0.81702229426140       -0.53746798457082
H            5.19860785335012       -0.76711212018888        0.11214649517393
H            3.61536014175665       -1.15603853009203        2.00498772253003
H            2.62456071716768        1.17704356877543        2.21108249780340
H            2.34301715703175        0.21786280019630        3.66606455871824
H            1.04530288769715        0.42440647707644        2.48996153441706
H            1.92997435187353       -2.23637832452485        3.49628223958784
H            2.05130533834663       -3.10036231524962        1.96538817109233
H            0.69264032088076       -2.00728959539615        2.26998301272470
H            1.90001663284477       -5.10403593575454       -0.73258915364504
H           -0.32514805810098       -6.09341813029540       -0.23875523044711
H           -2.19332770659779       -4.57986218761573        0.41501075464882
H           -1.72482288000326       -1.61298876410871        1.62254768173423
H           -3.02541462441449       -2.11626665220536        0.51013927611179
H           -2.82144133985962        1.17637457355523        0.44382653295282
H           -1.84792619081602        0.38258750948995        1.69408163065030
H            0.13886260842325        1.00026254038922       -0.28968911089665
H           -0.16924595687878        1.88008117790476        1.22987234808066
H           -0.92279690660842        2.39647522388251       -0.28710679435408
H           -2.30077829976392       -1.45249028775619       -1.94290603446068
H           -3.62788745415273       -0.60027376296794       -1.11167728104667
H           -2.81612901098155        0.51981146744626       -3.22513938575741
H           -2.73113909085384        1.57535241439537       -1.82277833989587
H           -1.26305675685614        0.80567286966933       -2.44066508181951
C            0.42391086463143       -0.55849415110745       -1.95036094941158
O            0.75516555037690       -0.82938914832832       -3.01120378385235
H            0.03761033139995       -0.58747612226824        1.09152537223099
