60
 energy: -75.881248820667 gnorm: 0.000178939769 xtb: 6.7.1 (edcfbbe)
Mn           0.36201881436539        0.45666858833150        0.10175684955793
N           -0.25116765332160       -1.33046625283623       -0.80497530796824
C            0.53468264399613       -2.48014493471502       -0.41416059008902
C            2.04486649357753       -2.23280592606156       -0.60790626355336
P            2.38078235919284       -0.50076485312173       -0.00078388603976
C            3.77536249997369        0.01720124595695       -1.13570348269258
C            4.29359860244246        1.38653126306937       -0.70230764922242
C            3.32224810728240        0.07508348375827       -2.59276985037752
C            3.23906643766231       -0.85960879932248        1.62745561375925
C            4.59390427223019       -1.55655077949441        1.54835431881330
C            3.31607307076727        0.40008129072163        2.49310792437764
C           -0.56139571522121       -1.22598716516332       -2.21237874286304
C           -1.66137663220595       -0.15490134832853       -2.28788174554597
P           -1.74737073567078        0.38723019160508       -0.51923802577094
C           -3.11891357428385       -0.59484298679341        0.29391022074887
C           -2.59699598529550       -1.77384246432986        1.10816494886916
C           -4.19306279452151       -1.09278502890602       -0.67120543021494
C           -2.49750407268577        2.11226885136739       -0.64914082486481
C           -3.97209283136324        2.29153122014872       -0.98942263570860
C           -2.13609089701300        2.81465404636682        0.66075255458589
H            0.22605017781683       -3.36662302720617       -0.98612725353378
H            0.34745615459569       -2.67511129823701        0.64923332228585
H            2.29573033720390       -2.29132772491197       -1.66723707759085
H            2.63736378267682       -2.96796122157408       -0.06006989054585
H            4.56991299939229       -0.73313682328732       -1.04169153879379
H            5.01395136314810        1.77002403786261       -1.42439884737962
H            4.78012437842715        1.34272940693003        0.26818745189425
H            3.46599894177832        2.09440882580079       -0.63887137116525
H            4.11136470692756        0.50691863390789       -3.20751853790512
H            3.09433887283561       -0.91086978458028       -2.99017335220262
H            2.43596055271451        0.69929177374739       -2.69014037847168
H            2.51585914291295       -1.54696019742880        2.09496261000920
H            4.56224232392223       -2.42642166079783        0.89562988277020
H            5.36342516055720       -0.87914896337664        1.18497953301632
H            4.88609069703709       -1.89074698837889        2.54341878478646
H            3.26566919625152        0.14745357623347        3.55138164697222
H            2.48429652634673        1.07455690226147        2.26138375211361
H            4.24272696071783        0.94396655371129        2.32429528413663
H            0.31411649199903       -0.93950679661751       -2.82305321134503
H           -0.92726338323747       -2.19397428770906       -2.58496671341502
H           -2.60441265453697       -0.54075349823524       -2.67341951998656
H           -1.36584454321216        0.70499752439052       -2.89556378780757
H           -3.56415599355106        0.12998103507839        0.99122876856975
H           -2.21692588302411       -2.55042852747213        0.45020134526511
H           -3.40161792941103       -2.19052364149906        1.71406433982800
H           -1.79278232061254       -1.46558771260054        1.77103033068489
H           -5.04026748834842       -1.47084644598378       -0.09888730326426
H           -4.55500038753596       -0.31030474566736       -1.33161134987891
H           -3.80471002272450       -1.91149530626945       -1.27332723802817
H           -1.90644407170898        2.58065900390529       -1.45098299328401
H           -4.20032657088789        3.35596155035687       -1.05773022824817
H           -4.20516766430537        1.83800541183376       -1.95085586194852
H           -4.61503744385145        1.86091999347791       -0.22487781072001
H           -1.06332494427419        2.66846153203396        0.87912798266164
H           -2.32724133325332        3.88628534758779        0.60597382181913
H           -2.70864338146488        2.40559429987369        1.49422860134556
C            0.68617888888254        1.65574548929559       -1.15396658035152
O            0.83717381887813        2.63928723853096       -1.76221178859970
C            0.07921378565462        0.07371812592254        1.82232234808992
O           -0.06557997171145        0.18162397798819        2.96874983842257
