66
 energy: -98.532967870643 gnorm: 0.000209908641 xtb: 6.7.1 (edcfbbe)
Mn           0.06244882209872       -0.53343175731887       -0.11731615330695
N            0.20636107127684       -2.81920787234466       -0.15768023575446
C            1.10262141708867       -3.26969791114812        0.90723541532406
C            2.45586027031704       -2.59144754523410        0.71884010289256
P            2.16303912651698       -0.75770277937075        0.55367641843956
C            3.66368986528038       -0.24795727654019       -0.35620572097400
C            4.91965318515445       -0.75775115976198       -0.03741039138296
C            6.03419323311367       -0.32815321882341       -0.73345072001518
C            5.90648322717399        0.61740465054030       -1.73986348824457
C            4.66145832999036        1.14165327536567       -2.04558888556684
C            3.54194081327668        0.71159395488548       -1.35419759477810
C            2.62855426832864       -0.10009953592195        2.19247644626733
C            2.93511442573913        1.25915327773143        2.23751334626749
C            3.23847306227184        1.86840542930674        3.43916980839799
C            3.22659730706847        1.12935997582694        4.61247855310055
C            2.89897540357794       -0.21494153416187        4.57760715681876
C            2.59474577986709       -0.82979303986214        3.37480904043897
C           -1.08481872495860       -3.51659893641377       -0.19652646348127
C           -2.12938100008605       -2.74303175652485        0.60176440576813
P           -2.10505404173198       -1.02698683487280       -0.10532971293944
C           -3.24541976603069       -0.09962737779373        0.97324421456736
C           -3.95617425433279       -0.62257298445658        2.04640357271474
C           -4.80385873856733        0.19603256284785        2.77489737320664
C           -4.95032804027624        1.53062779456123        2.43803173444790
C           -4.24048019034900        2.05759627870752        1.36939576036328
C           -3.39071612850085        1.24678891379467        0.64292631738581
C           -3.24595832648711       -1.23110145022845       -1.52783371215501
C           -2.82739054667482       -0.86122636791446       -2.79900647273463
C           -3.67790513482290       -1.00024676850379       -3.88286311331187
C           -4.95458605759558       -1.50350576776789       -3.69937263260864
C           -5.38546527949864       -1.85445128871146       -2.42844442843728
C           -4.53941985151709       -1.71500359253877       -1.34477923069616
H            0.69135574537917       -3.01977201010365       -1.03588284072364
H            0.67082674321016       -2.99528496385682        1.87669619137803
H            1.22176840702743       -4.36638488378114        0.88560880420889
H            2.90705542285639       -2.92235419935885       -0.22539756189956
H            3.14277606593267       -2.82866992806549        1.53397342927278
H            5.02585989477017       -1.48232621584118        0.75858962156249
H            7.00820253480116       -0.72783394239078       -0.48866394661125
H            6.78122569724568        0.94884692940365       -2.28074034090559
H            4.56197951214244        1.88606938731504       -2.82242791599243
H            2.55958640429832        1.11497501739786       -1.57170126604398
H            2.92049970380731        1.82828432931092        1.31583676316108
H            3.47831308777142        2.92175180464060        3.46502530161172
H            3.46126234403078        1.60355136537911        5.55458493029685
H            2.87274917490995       -0.78922709364971        5.49339882464114
H            2.32311926532282       -1.87705090488492        3.37512334034919
H           -1.42268064926752       -3.56476350011449       -1.23934743299162
H           -0.98471151440174       -4.54577424617549        0.17999857016837
H           -3.11209110160569       -3.21297035954926        0.51422294769896
H           -1.84609760196788       -2.68617076124997        1.65816226196454
H           -3.85405173981620       -1.66088906772028        2.32970207431191
H           -5.35208351527454       -0.21310895749376        3.61225095639530
H           -5.61351420406806        2.16196969869083        3.01182599768084
H           -4.34823360725054        3.10075010904425        1.10898138846650
H           -2.80971752368795        1.63924735672505       -0.18480426165696
H           -1.83392761996538       -0.45271273619249       -2.92541541809828
H           -3.34418995114903       -0.71200254947368       -4.86944952481697
H           -5.61990678607274       -1.61369082478496       -4.54355799267376
H           -6.38762025464988       -2.23240738373045       -2.28297288883421
H           -4.88916457414480       -1.96689763457872       -0.35205760698504
C            0.44221895059588       -0.49629148688394       -1.84958314386709
O            0.74603338770749       -0.47122027956209       -2.97158322255592
C           -0.28742672423002       -0.37322340400979        1.60999174353149
O           -0.52954032189288       -0.25233666795570        2.73806853965045
H           -0.02207395712147        1.04987892547005       -0.18477296019490
