51
 energy: -81.949379049990 gnorm: 0.000443438373 xtb: 6.7.1 (edcfbbe)
Ru           0.00675422943576       -0.09348449545159       -0.23973769614894
C            2.25611328439973       -2.18768231003593        0.41288484004352
P            2.11108383648468       -0.33361777389978        0.57420106702672
C            3.65754685683294        0.20222419292532       -0.23131870751371
C            4.89281557825469       -0.33717085418658        0.11812274924106
C            6.03846672639786        0.09367982053765       -0.52486845627684
C            5.95993220156193        1.06633566134450       -1.51067765523758
C            4.73418224741313        1.61532889605135       -1.85056653138185
C            3.58400388876357        1.18529263679658       -1.21087836892379
C            2.53832758217544       -0.06933287216235        2.32718380289493
C            2.08237877992763       -0.94121241641460        3.31140851979038
C            2.36605922728383       -0.69549914790548        4.64282691312288
C            3.09412664657393        0.42725660867245        5.00310738572825
C            3.52763248834974        1.31286590473206        4.02914982394851
C            3.24768550766665        1.07021471958123        2.69664461902235
C            0.89018942410539       -2.79024181165412        0.55362767173347
C            0.71402506295797       -4.08099355338868        1.01257398539262
C           -0.57130523717117       -4.61839913891362        1.08240700623694
C           -1.63231308454506       -3.84672814170129        0.66140031530256
C           -1.39911609288412       -2.54581849389546        0.20510208660380
C           -2.42299908703283       -1.65626485170864       -0.31380859086131
C           -3.77034684173595       -2.00277464875119       -0.44495188453215
C           -4.65201930159045       -1.10528511687697       -1.01071897916453
C           -4.16743620679389        0.11309129730766       -1.46647415451581
C           -2.81603432870254        0.39942482044049       -1.30782182855300
O           -2.26561170906282        1.53662644360406       -1.76215674624193
N           -1.96139579402890       -0.44252468422713       -0.71635071147278
N           -0.14923611946928       -2.01940111620918        0.18286065613204
H            2.61180497540355       -2.35808300304184       -0.61399148508839
H            2.97429930024405       -2.63162995529467        1.10741331926704
H            4.95380895169521       -1.08465811876709        0.89761434151115
H            6.99713627929443       -0.32670515231626       -0.25653535183857
H            6.85786801858499        1.39967777641707       -2.01049155128977
H            4.67447368089348        2.37873601374746       -2.61281371914259
H            2.61289531439953        1.60447830242378       -1.45137333344759
H            1.49417511403320       -1.80778763297246        3.03659088414785
H            2.01497709951323       -1.37938779721593        5.40275944897874
H            3.31524712911642        0.61632062415730        6.04355009688186
H            4.08285720453161        2.19638300821257        4.30994920100421
H            3.57328061764813        1.76340703958677        1.93197735384282
H            1.57007686834590       -4.66590622519053        1.31300543506015
H           -0.72624370033551       -5.62048983952479        1.45001901143091
H           -2.63499747892949       -4.24037063604861        0.69034582213004
H           -4.11930119340034       -2.96315625701406       -0.10459853887809
H           -5.69814103641366       -1.34800581068919       -1.11115454356149
H           -4.82054957330601        0.83350547611988       -1.93532792218839
H           -2.93888884559010        2.13465479376845       -2.11886429336208
C            0.57708393032750       -0.22307728056796       -1.99451250069809
O            0.93126176263935       -0.31118095691330       -3.09359267786322
H           -0.48368697070594        0.22197362642308        1.23273707893116
H           -0.01489143219127        1.45954809234419       -0.38743549966151
