57
 energy: -86.157888875609 gnorm: 0.000096620278 xtb: 6.7.1 (edcfbbe)
Mn           0.04696459897735       -0.32849952694287        0.09448013968928
C            1.87714900157275       -2.60523147828179        1.05601359404520
P            2.07869028324570       -0.86554493883824        0.86042858094343
C            3.60406021483275       -0.62664880959661       -0.13292212756235
C            3.89025819807550       -1.56068530831632       -1.12382497928467
C            5.00379038522189       -1.40830603594932       -1.92844321265763
C            5.84086886128210       -0.31776346239504       -1.75253938435667
C            5.55674070708503        0.62108423048293       -0.77360553731782
C            4.44133416020807        0.47262849979129        0.03097252188366
C            2.68427635514899       -0.15672189858978        2.43427303439043
C            3.54039187615342       -0.86048698943298        3.27161430462124
C            3.99336268721817       -0.28040725374194        4.44326439140669
C            3.60028537454919        1.00481023425906        4.78233647877795
C            2.75208387835455        1.71490380748030        3.94745750639799
C            2.29720272413331        1.13412490963759        2.77799235918006
C            0.73548624124572       -3.15263816483540        0.48556109900646
C            0.44101201416434       -4.54864423001422        0.43957778373786
C           -0.69332242078022       -4.99332075042024       -0.17191671657837
C           -1.57645356580049       -4.07988508990459       -0.77475762033915
C           -1.26398086287883       -2.73998328239827       -0.70378601504056
C           -2.08574461723366       -1.64912779212197       -1.36160019652084
N           -2.03346612918305       -0.43603479143298       -0.52173440673741
C           -3.02026531699959       -0.55580007845544        0.57300180363398
C           -4.49876958979116       -0.44291443252744        0.18701129249506
C           -2.16860964939686        0.83422702382916       -1.25032759189713
C           -1.46983068164775        1.94877033371194       -0.45972511656753
N           -0.17191318949463       -2.29321759232778       -0.07771922757820
H            2.66786835924969       -3.22897084427075        1.44750987823248
H            3.22511421180071       -2.40636390452300       -1.25035734882587
H            5.22085352804044       -2.13858656390320       -2.69567234749000
H            6.71313207733645       -0.19780373317070       -2.37947435749000
H            6.20700202316447        1.47454188774315       -0.63902881461930
H            4.21954252509445        1.21040867341556        0.79076445876880
H            3.84612622450233       -1.86142896085059        3.00230533279729
H            4.65637951676295       -0.83066158020955        5.09631806219062
H            3.95507810467318        1.45381000091667        5.69921314693158
H            2.44680025087398        2.71798592318531        4.21196901818391
H            1.62981444395238        1.67455266146662        2.10939512331528
H            1.13945289124892       -5.23459328305511        0.89456533580856
H           -0.91868211389015       -6.04992288187884       -0.20599459966665
H           -2.46590066789378       -4.41694911426922       -1.28182090237102
H           -3.11099855315710       -1.99018099960696       -1.54295863591822
H           -1.62613379476052       -1.42927237735717       -2.33292255472427
H           -2.85056975927017       -1.52927242435358        1.04258373937295
H           -2.80630850908709        0.21216263625306        1.32149197719376
H           -5.09637698824749       -0.73285713194056        1.04798836137334
H           -4.76160998681465       -1.10112273185383       -0.63722618970037
H           -4.77526906799290        0.57509550637170       -0.07752355370909
H           -1.67740743946441        0.73089968727886       -2.22369155351530
H           -3.21635048545173        1.10170657726322       -1.43233964150881
H           -0.42850739491961        1.64372294108012       -0.14754085899478
H           -2.03829994297829        2.21995121933616        0.42993137613753
H           -1.36422460372110        2.83753791840220       -1.07999046887644
C            0.79595717775262       -0.25084000995235       -1.51883906999467
O            1.40677286365501       -0.24020203244943       -2.50092422515263
C           -0.28972834906410       -0.43695084885456        1.83743321739139
O           -0.38846639701390       -0.56529136176529        2.98080692608119
