56
 energy: -71.163530105409 gnorm: 0.000603435842 xtb: 6.7.1 (edcfbbe)
Ru           0.28394387283001       -0.01503667267594       -0.37481551629748
C            2.42605557959352       -2.40811389522404       -0.17166896164396
P            2.48592452669905       -0.57172895617905       -0.53119046636568
C            3.66917385147363       -0.03328214512587        0.81910870067883
C            3.68968391801854        1.48675488225973        0.95188103633531
C            5.07962943183327       -0.61303512675111        0.74777096188231
C            3.52102126323571       -0.51621561702463       -2.09544912433362
C            3.52338153606479        0.92322027409181       -2.60259501860146
C            3.00642868601978       -1.45318630604493       -3.18563938660426
C            1.00501620801219       -2.88878774881920       -0.23043356069893
C            0.69446932918226       -4.23331104747883       -0.35103429599007
C           -0.62526057329327       -4.65123901713750       -0.23644305723786
C           -1.58503107507186       -3.70298761646820        0.09306504698231
C           -1.20835176709646       -2.37644346216608        0.19910643993912
C           -2.12110270114004       -1.29936752880460        0.71882973845583
N           -2.02713825519007       -0.06720922972586       -0.08093094277538
C           -2.59649813539866        1.04833898473458        0.70037592101172
C           -2.62341679926227        2.37439779889154       -0.04804654724140
C           -2.75321483020228       -0.26201773662812       -1.35477932498002
C           -4.27810310377067       -0.40182037824381       -1.27907958379866
N            0.04727201489667       -1.96085204556062       -0.04749951374524
H            3.08264550539455       -2.99642360873751       -0.81574413790098
H            2.76526893610139       -2.54044095258962        0.86478469092545
H            3.16112178378870       -0.42665011489752        1.71293317727145
H            4.33179491212334        1.94366626452991        0.20250790635612
H            2.67558579305316        1.86954052373864        0.82936310528500
H            4.06082668973452        1.77536428320462        1.93411879714801
H            5.58424257466473       -0.45174054669544        1.69971052650221
H            5.66475304519677       -0.11730418736857       -0.02401038092774
H            5.06838096691552       -1.68317437324823        0.54669516689208
H            4.53977498622429       -0.82117442025937       -1.83002147163458
H            4.01110460524273        1.58937941168777       -1.89591825427708
H            2.49549752041670        1.26684974462850       -2.73000042104945
H            4.03984941386652        0.99482892432729       -3.55931594067678
H            3.04526527320688       -2.49869592944079       -2.88813600377909
H            3.61941012057695       -1.33969161208683       -4.07928152523760
H            1.98244174712153       -1.21143060268570       -3.45343595422605
H            1.48334892748250       -4.94992254398328       -0.52392463132851
H           -0.88986167109199       -5.68980359206244       -0.35632479974721
H           -2.60983137655295       -3.99073860537434        0.27261674169207
H           -1.77188498998350       -1.06037464132555        1.73481612816499
H           -3.15540839564943       -1.66216036932457        0.79281131276922
H           -3.61056692454860        0.78785782294389        1.03934127120806
H           -1.95929377773397        1.17346970742693        1.58069756210011
H           -2.85275288265087        3.17269243344164        0.65371534153566
H           -3.36846003843313        2.39224967816792       -0.83938251517676
H           -1.63879233310318        2.56096618894348       -0.47700756641370
H           -2.35573703730982       -1.16936522173310       -1.82421351737719
H           -2.51637335008506        0.58161912141575       -2.00779292595090
H           -4.58760144046512       -1.24561801622811       -0.66686260867728
H           -4.64696531373349       -0.57460629796610       -2.28777243142928
H           -4.75269123153628        0.49880366582593       -0.90029724546083
C            0.03101544507409       -0.12476432424578       -2.19048915671463
O           -0.19615053078791       -0.15005579487665       -3.33127741065046
H            0.42477590436261        0.24355736591013        1.18386983493543
H            0.41175857077261        1.53919924251261       -0.56077177506751
