58
 energy: -86.363455889692 gnorm: 0.000147327363 xtb: 6.7.1 (edcfbbe)
Mn          -0.09422154327467       -0.38856118424206       -0.18480308277995
C            2.25532131101943       -2.39573431567244        0.19972585531788
P            2.07019381458538       -0.72534833117587       -0.62570817026548
C            3.38680213750928        0.27879746995105        0.10581690507216
C            4.66271115911512       -0.22852448995415        0.33250661430665
C            5.63685564174892        0.59765193141232        0.86319262086745
C            5.34719884449190        1.92270929888375        1.15432641905217
C            4.08046117914089        2.43200151367007        0.91367764732286
C            3.09968884875464        1.61050810984243        0.38831546707039
C            2.71246947079165       -1.05541759018311       -2.29308502363243
C            3.43156529022085       -0.06711234200674       -2.95994552075820
C            3.87599649332006       -0.29136800021082       -4.25047354604754
C            3.59309301671611       -1.49074312230102       -4.88493719674641
C            2.85690946804588       -2.46706412781243       -4.23136650919315
C            2.41014739162999       -2.25166226237884       -2.94079146795919
C            0.93850963740990       -3.10998505235801        0.11621524956648
C            0.79593135299338       -4.48908261771932        0.16624929606177
C           -0.47313483116271       -5.04341158107834        0.09754360519289
C           -1.57704047224823       -4.20821004396971       -0.02624310572079
C           -1.37545254503421       -2.84335252605738       -0.08764251277529
C           -2.45701482193870       -1.80447300028126       -0.27083901979913
N           -2.00848198337753       -0.60189432474665        0.45564359456196
C           -2.14249602307036        0.74752408493393       -0.07876362355284
C           -3.08701975313665        0.94271771950580       -1.25834676056796
C           -2.38138109182902       -0.70153854192071        1.88011292710486
C           -3.87186967544624       -0.50945182811439        2.15405074136582
N           -0.13641373583368       -2.31579223581308       -0.01342278971033
H            2.48767249394466       -2.18246318217004        1.25252886404854
H            3.07143903979188       -2.98511366059485       -0.22782386281345
H            4.88994116948896       -1.25722178422697        0.09177260712389
H            6.62759785769816        0.20976770072908        1.04838705140599
H            6.11362995693569        2.56115052141641        1.56808336248914
H            3.86115823682376        3.46576157496969        1.13642159484847
H            2.09755855555787        1.98280380236627        0.18829423153165
H            3.64170287872735        0.87017482973764       -2.46262909773729
H            4.44067651312941        0.47239883080914       -4.76439871225063
H            3.94029913590194       -1.66272300338050       -5.89290830907628
H            2.62771385909646       -3.39651614681437       -4.73173331889552
H            1.82135777905000       -3.00894991745544       -2.43838446374676
H            1.66861149326026       -5.11615697082950        0.26064830955706
H           -0.60292494175802       -6.11336611839638        0.13892100341821
H           -2.57507574331198       -4.61325544280575       -0.08366726187572
H           -3.42201043280939       -2.16957008268846        0.09226775920106
H           -2.55683770323273       -1.59148263736165       -1.34020674613608
H           -1.06092148634386        1.16581539924495       -0.37339771200389
H           -2.46735327156588        1.41009182577612        0.73200312858743
H           -2.74745605919891        0.44977730198694       -2.16712243922904
H           -4.07731858929232        0.56826623451870       -1.00119689467491
H           -3.17153789146120        2.00579244673716       -1.47613425217662
H           -1.81978375198782        0.05614338513360        2.43499890523425
H           -2.06353192743482       -1.68421294098377        2.23985815652123
H           -4.03367730472582       -0.54438698062044        3.22851781679885
H           -4.22725926978014        0.45342574303021        1.79361783713050
H           -4.47776308328740       -1.29233115576846        1.70439294882523
C           -0.27888972030338       -0.58194547953389       -1.96839417992589
O           -0.23856054346891       -0.71188871745973       -3.10646916325578
C            0.55230492557725       -0.05382154698777        1.45095334277608
O            1.11113336685573        0.11808320881080        2.43829626795202
