65
 energy: -97.652026980741 gnorm: 0.000154257501 xtb: 6.7.1 (edcfbbe)
Mn          -0.02251649018041       -0.70646004710777        0.24422617932920
N            0.25886805160084       -2.84492903052087       -0.24810921175696
C            1.12240912349484       -3.43392135919817        0.80056499314178
C            2.43927380813017       -2.65634356891456        0.91877192528112
P            2.12213642915661       -0.82493086480341        0.75637965358765
C            3.48212419992549       -0.30417096918139       -0.33362645299808
C            4.49229673639691        0.56589077136215        0.05963636006668
C            5.46861175663267        0.93629837334614       -0.85033990090713
C            5.43650013709000        0.45369536604409       -2.14808338455174
C            4.41954531946614       -0.40142262671244       -2.54789944902041
C            3.44290687209632       -0.77436605580850       -1.64615045682760
C            2.50127117934311       -0.00544156553467        2.32457557289235
C            1.70795738158025        1.11436280097617        2.57493440207324
C            1.88928542776685        1.85521883189918        3.72602934354113
C            2.86752345278116        1.47361910165868        4.63323224973903
C            3.66292018666495        0.36535980851816        4.38468897141815
C            3.48916078580173       -0.37707858099465        3.22888119511016
C           -1.00092888699383       -3.60768703565192       -0.46277293758909
C           -2.18460386146793       -2.99212012706887        0.29293638269913
P           -2.15133521996731       -1.17218281087090       -0.06992416397250
C           -3.22250850624939       -0.35597853524206        1.13384546432727
C           -4.35973431149549       -0.89369566677591        1.72540129580490
C           -5.05880767456300       -0.14051561638029        2.65385314942280
C           -4.62976360297864        1.13443654872879        2.98993400570466
C           -3.48914943140651        1.66977286731156        2.40826591882155
C           -2.78612107062955        0.92204102565513        1.48452714654376
C           -3.05002272427853       -1.08337854769237       -1.65014393642658
C           -2.32394266848096       -1.30987854316045       -2.81729983523103
C           -2.96093268802645       -1.29878025611042       -4.04402669551623
C           -4.32331020969004       -1.05027037881924       -4.11186612483544
C           -5.04502955916711       -0.81022791087891       -2.95342820701823
C           -4.41507961144102       -0.82497535297604       -1.72093897380626
H            0.79657413885317       -2.91239759149830       -1.12035584123888
H            0.57521722282962       -3.40702963860260        1.74762966579437
H            1.34249580378790       -4.48136865193114        0.55752505037681
H            3.12580473938553       -2.94134361740752        0.11384770514939
H            2.92264307010336       -2.86810162062090        1.87572127906570
H            4.52025247053952        0.95486318336612        1.06769762361491
H            6.25558123349729        1.60941039341400       -0.54334454237281
H            6.19942980119992        0.75004944730133       -2.85235644946991
H            4.38885295254402       -0.76793769113979       -3.56333624874248
H            2.63151256889374       -1.42516315961293       -1.95513924630260
H            0.94112500424692        1.39295929721648        1.83938062819263
H            1.27505760701522        2.72173975705788        3.92261060473029
H            3.00992584747955        2.04477167888021        5.53845936273505
H            4.42419127058607        0.07979576136557        5.09561301622365
H            4.12080809150399       -1.23168347443934        3.03030485097510
H           -1.23314930076827       -3.58955440805536       -1.53131957569599
H           -0.85948335222643       -4.64928115061846       -0.15521213161033
H           -3.12380545805732       -3.44283348033964       -0.04089703336495
H           -2.08614506352420       -3.12405763591228        1.37563209458198
H           -4.68962504614577       -1.89047391449588        1.46780292255461
H           -5.94211086094380       -0.55046716248060        3.12101103263273
H           -5.18197500441215        1.71300080482400        3.71545957222808
H           -3.15456002271511        2.65995822616360        2.68126602715496
H           -1.87459704320199        1.31370338812285        1.01373993381703
H           -1.25426844138907       -1.47780923641538       -2.75536030760386
H           -2.39741161241546       -1.47559742276899       -4.94823819008046
H           -4.82161626054872       -1.03512941439202       -5.06969910028274
H           -6.10436658150002       -0.60704886422291       -3.00941372127040
H           -4.98271851420716       -0.62764447071260       -0.82271535550559
C            0.24953557927967        0.15074973743506       -1.30013854710582
O            0.40934018244212        0.90950682101880       -2.14354658642460
C           -0.37013845922580       -1.03595660891028        1.96250356326676
O           -0.63032667191318       -1.07552904732415        3.07707753637669
