64
 energy: -92.386712091026 gnorm: 0.000152531521 xtb: 6.7.1 (edcfbbe)
Ru           0.37566653248378       -0.18640531738383       -0.29540321465223
N            0.16968307355553       -2.38271572836445       -0.54161010944120
C            1.28996262390140       -3.25021698486836       -0.08526187008843
C            2.22945696099384       -2.53653512019077        0.88933424468863
P            2.49548946394774       -0.81435435170681        0.28076283293637
C            2.99053235919234       -1.04700705128078       -1.46104944375872
C            2.03917232105814       -0.58438839072039       -2.37918917724090
C            2.24219849568387       -0.74631233113924       -3.73754915085919
C            3.40075261615524       -1.37096031724985       -4.18109682942072
C            4.35032784772095       -1.82172781293770       -3.27675264089672
C            4.14969491521610       -1.66465485988676       -1.91501143490555
C            3.97108195055964       -0.19413290374604        1.11729848850357
C            4.37062282582044       -0.66534388162341        2.36457540323896
C            5.49785175591542       -0.13115287939966        2.96446267379594
C            6.21639805647534        0.87272307199086        2.33469073706885
C            5.80404515859590        1.35857322678773        1.10249079228820
C            4.67897638127153        0.83429801512708        0.49566635445982
C           -1.15083988871010       -2.77713429783077        0.00316206056669
C           -2.26057268911228       -2.06697806303485       -0.77502939764104
P           -1.79987450306223       -0.27259067666685       -1.00256441960798
C           -2.07260787761635        0.07170979822193       -2.77225079120491
C           -2.61843471241809        1.29371112416257       -3.15997749330586
C           -2.71150899984537        1.61695046071236       -4.50174523955400
C           -2.24551113713516        0.73708746012693       -5.46609313272895
C           -1.67424101126024       -0.46718288718099       -5.08582694928439
C           -1.57783389938751       -0.79498107693515       -3.74589190244324
C           -3.15061621343431        0.60169973324792       -0.17210000030066
C           -4.46570444555458        0.41949252403865       -0.59978517442060
C           -5.49256152191151        1.07438931578134        0.05269670260566
C           -5.21393988810405        1.90703932510256        1.12760543240888
C           -3.90765402890189        2.08497706354199        1.55395742117345
C           -2.87158888640101        1.43316834548294        0.90630758665195
H            0.09297301969255       -2.53804036244563       -1.55519301352296
H            0.88808779227399       -4.15123739028029        0.38877397829552
H            1.87020336462157       -3.56011445431930       -0.96105820300562
H            1.76177030466004       -2.44164274882292        1.87693251526328
H            3.17250309162761       -3.08340834119245        0.98486745795928
H            1.12889612114026       -0.01861861741735       -2.03144042345039
H            1.51124818330006       -0.38375209355473       -4.44634621122690
H            3.56324280847963       -1.49735761145082       -5.24070189210773
H            5.25102024621773       -2.29691267574050       -3.63521851938187
H            4.88579571510747       -2.00807227052665       -1.20174737945138
H            3.80735456706469       -1.43846609437298        2.86634330366109
H            5.81554440784138       -0.49837423264569        3.92897011130982
H            7.09580290687634        1.28339956460459        2.80759091998858
H            6.35887702820813        2.14822692090149        0.61802968048002
H            4.34433868122159        1.21492448488356       -0.46184749663480
H           -1.18417932420720       -2.49204611495411        1.05940074270712
H           -1.28748187162892       -3.86330717775003       -0.08116816783415
H           -3.20222841515081       -2.12158758190493       -0.22295753090640
H           -2.41003808734470       -2.53633706193314       -1.75328680618239
H           -2.97137741429877        1.98568852939152       -2.40742104426282
H           -3.14542622271231        2.56106875949465       -4.79560666310393
H           -2.32071810324685        0.99166597964318       -6.51266107923669
H           -1.30155123693712       -1.15033501161424       -5.83553220096025
H           -1.11998579469489       -1.73723475573635       -3.46627304620764
H           -4.67513532613526       -0.22499660402990       -1.44398835400136
H           -6.51235803232509        0.93819136256061       -0.27575559879405
H           -6.02012224848848        2.41740063789041        1.63323910623172
H           -3.69514621965876        2.73210976576500        2.39170332385028
H           -1.84412363844129        1.55404779477757        1.23044012230768
C            0.53238590549060        1.64818811023445       -0.12397229533416
O            0.63987872488770        2.78618382157963       -0.02792333888834
H           -0.11911281585511       -0.28203116982907        1.14283134539434
