59
 energy: -70.719097892237 gnorm: 0.000180128942 xtb: 6.7.1 (edcfbbe)
Co          -0.02466748519521       -0.35349407551317       -0.09371703386089
N            0.04258409402132       -2.26745552165414        0.42623732761712
C            0.83121659256515       -2.39077482107069        1.66641619391635
C            2.26065086045589       -1.92933913875081        1.38640218354700
P            2.11856955331006       -0.35927692390436        0.40785353761807
C            3.27248392402511       -0.58108079162025       -1.02786546460987
C            3.51027345859172        0.76146278829769       -1.71483506194469
C            2.59982349944277       -1.55537853687467       -1.99736976980579
C            2.84102470078006        0.95629821306501        1.49699510707618
C            1.93552031151395        1.09232656792922        2.72135466699493
C            4.29707578451257        0.71754818068323        1.88633571490666
C           -1.21769438526235       -3.04230165406104        0.44469994687271
C           -2.38776578202062       -2.16189171799174        0.86866934595944
P           -2.21050992152637       -0.55847291088511       -0.03990551120104
C           -3.16468791586604        0.57668640362280        1.08478920350607
C           -3.65059120051741        1.85746118900187        0.41398933236615
C           -2.25619583868862        0.92623519220382        2.26367815140222
C           -3.23575423938856       -0.70879366143336       -1.58813830966375
C           -3.10685904311578       -2.07850273128976       -2.25064468775338
C           -2.77117867450387        0.36754873362739       -2.57028019001916
H            0.62100548178235       -2.68413957458131       -0.30767369788190
H            0.83353726223683       -3.42947282625800        2.02201712358450
H            0.37478341695363       -1.76414632614330        2.43752689761964
H            2.80753775219200       -1.77567252749815        2.31680023361380
H            2.79781014924396       -2.67757352510215        0.79721716993237
H            4.22293309274391       -0.99775560481687       -0.67269926348606
H            2.56102782395825        1.21031478127791       -2.00620775636059
H            4.10702090318739        0.61896649554560       -2.61427951302834
H            4.04045127319410        1.45898142491122       -1.07081743870633
H            3.14369847999904       -1.58744854275044       -2.93959200159080
H            1.57756514892392       -1.21809230716071       -2.20667485595172
H            2.57560377430838       -2.56942521685608       -1.60030482764183
H            2.76862885424807        1.88218136882220        0.91161045506030
H            2.04955202783147        0.24259470588190        3.39183276016169
H            2.18479597805189        1.99292717616320        3.27853691677055
H            0.89134949544884        1.15788103352919        2.40987511468775
H            4.41465291421429       -0.20241760468090        2.45520198726260
H            4.94438891893092        0.66796348404534        1.01383822127517
H            4.64156036767767        1.53937254947026        2.51203515922110
H           -1.12463901365243       -3.90409484132710        1.11575301668120
H           -1.40007646236032       -3.42185603473383       -0.56233244751138
H           -2.33326307887762       -1.94806308400917        1.93861765929802
H           -3.34814524646003       -2.64103608718429        0.66843056735913
H           -4.03333383594513        0.00347358338120        1.43828921703575
H           -4.36147231692189        1.65529738201317       -0.38343440091656
H           -4.15150911045650        2.48303770101186        1.15155711230179
H           -2.81310203066876        2.42456893944230        0.01125423929527
H           -1.89516704357041        0.03911821716857        2.78070546561363
H           -2.79213058064540        1.53846515317837        2.98647248950747
H           -1.39834490607234        1.49564418612112        1.90362964139422
H           -4.28260030939187       -0.54078053678555       -1.30456026946390
H           -3.49035136021776       -2.87901305318504       -1.62244677468659
H           -2.06810508192338       -2.28037514249132       -2.50933797182737
H           -3.68253774571841       -2.08386594381085       -3.17506729105724
H           -1.73476633789062        0.18253923448181       -2.85539359556475
H           -3.38311912084965        0.34601596449337       -3.47027023910682
H           -2.83078991877636        1.36533982046365       -2.14421009337943
C           -0.03283528761639        1.28488200904882       -0.64116960732972
O           -0.02531627807842        2.36648158216885       -1.02024442620489
