60
 energy: -70.808825470803 gnorm: 0.000124987518 xtb: 6.7.1 (edcfbbe)
Ru           0.16725446029396       -0.26009787980382       -0.10411062432613
N            0.19537257456956       -2.40090550915287        0.23905516242236
C            0.87334185833620       -2.64502971940441        1.53527750627872
C            2.24223546506832       -1.93660899623620        1.65507825488301
P            2.31483918354879       -0.51177718435261        0.46838164371961
C            3.80558950314753       -0.90040359094706       -0.57033762542832
C            4.09299504469148        0.24389901527727       -1.53845251790970
C            3.54119824223118       -2.18652060484688       -1.35230979298009
C            2.66821229239927        1.14713030005941        1.24229823586182
C            1.75567117298447        2.08878816237826        0.42386634940026
C            2.37622795197544        1.20572919221353        2.73763038044840
C           -1.14946448044330       -3.01095244136720        0.14785501745412
C           -2.23593798188384       -2.11323629090809        0.74768424015158
P           -2.11312997237088       -0.37163589554305        0.10128183578023
C           -3.09962951484985        0.54086349777011        1.39412101246175
C           -3.36919002135678        1.97939851131827        0.95155298010261
C           -2.40681457628923        0.56528309560128        2.75375948756217
C           -3.26804753013158       -0.30691150133381       -1.36594078342295
C           -3.22711593558962       -1.56876426446374       -2.22280736535744
C           -2.88551735553470        0.89961581539492       -2.22947934753854
H            0.78084982890453       -2.83566955483245       -0.48537492938353
H            1.01295412888900       -3.72536256988934        1.66349974545396
H            0.20497785228736       -2.28706047716400        2.32155599844051
H            2.36728157754809       -1.55907467610502        2.67259340300010
H            3.06741560996789       -2.62459126661940        1.45009153538697
H            4.65313017835879       -1.03791830060765        0.11567314057655
H            3.20871483911033        0.46308452813936       -2.13904297853011
H            4.89463681789233       -0.04006153573862       -2.21820261235429
H            4.40408433661392        1.15069326747318       -1.02425353592201
H            4.39850599474234       -2.41957703697769       -1.98125292121972
H            2.67642645563754       -2.05417636228987       -2.00539900608299
H            3.36966725061442       -3.04198499283801       -0.70073525633240
H            3.71589568007847        1.43056901786166        1.08055907531932
H            1.62468791141830        3.04193503298776        0.93744330174519
H            2.18207977725885        2.28667799054246       -0.56181052051861
H            0.70329587946321        1.65719586495822        0.27733010519096
H            1.36947642402115        0.85471711846132        2.95520369465851
H            3.09224308161888        0.60244869234335        3.29245014810344
H            2.46372313245238        2.23285422549639        3.08832727762093
H           -1.15089850456237       -3.98182780104846        0.65902634783163
H           -1.35996399062651       -3.17849955242453       -0.91221981148226
H           -2.11881725347002       -2.06009726036299        1.83292202605775
H           -3.22441835413273       -2.53038668938743        0.53843120288388
H           -4.05011801829398       -0.00617706916048        1.48003053650528
H           -4.03992214700341        2.02739074484171        0.09709883701775
H           -3.83267323586006        2.53423953597310        1.76607275016479
H           -2.43043896546803        2.47789637518220        0.69878756770111
H           -2.16930418487256       -0.42925699905678        3.12251408168940
H           -3.06251645476823        1.03998637535609        3.48205563033702
H           -1.48762990897532        1.14515446406505        2.69814466397498
H           -4.28236033477445       -0.17532577128298       -0.96762458626141
H           -3.61705404299743       -2.43820284775215       -1.69902449107625
H           -2.20864360606182       -1.77166354799035       -2.55569299570445
H           -3.83888877450422       -1.41632582472992       -3.11096671273789
H           -2.04233150115761        0.64891424355604       -2.87084613794256
H           -3.71557438118763        1.18788371234744       -2.87196790831444
H           -2.59959063120563        1.76316329843613       -1.62930015794761
C            0.30611952725114       -0.32165784208202       -1.95652610491977
O            0.45361520054845       -0.31472287000499       -3.09551395586579
H            0.06288876663144       -0.13342455466253        1.41068916249447
