49
 energy: -71.180928525765 gnorm: 0.000235703359 xtb: 6.7.1 (edcfbbe)
Ru           0.02929406236394       -0.08890272789539       -0.22975562649450
C            2.29842280616361       -2.25698230732416       -0.06057822606884
P            2.27475803005536       -0.46519740003539       -0.55615239102330
C            3.74307570253458        0.28431081091181        0.33573696991738
C            3.23689350261364        1.13677770444571        1.49660086391011
C            4.79937766583244       -0.70851255368256        0.81958690768692
C            2.84445001345591       -0.53216733299031       -2.34066498531264
C            4.21691915121367       -1.14187598957691       -2.60984438395979
C            2.76540351726047        0.87852905074268       -2.92437750709056
C            0.96643676855005       -2.86757481885474       -0.36948581706988
C            0.83712933853187       -4.20925572927493       -0.67512587887367
C           -0.43188024375861       -4.75390394500200       -0.85921180942821
C           -1.53059101565150       -3.93900336522856       -0.68364000090918
C           -1.34337758687228       -2.58852239410328       -0.38137688047374
C           -2.42134981561338       -1.64563693610013       -0.12219627910549
C           -3.76844916216173       -1.99766480325102       -0.05594824629724
C           -4.70901228514076       -1.03436976583150        0.26225531950593
C           -4.28743963849832        0.25501337542402        0.52736075347643
C           -2.92479647355047        0.54867627662401        0.44600751563779
O           -2.51688299124590        1.78442757369458        0.71684329304054
N           -2.01408012246524       -0.37080711217798        0.10668545355717
N           -0.10231018236059       -2.05528073779506       -0.27680733170148
H            2.40628853485742       -2.24131274177568        1.03234647909722
H            3.12110846136112       -2.83308925171227       -0.48755782295686
H            4.19411849299715        0.95746798903915       -0.40535267423144
H            4.05159337889714        1.71648738655500        1.92761178458719
H            2.45734902164992        1.81441571675271        1.14974553509647
H            2.80675241560590        0.50815220241418        2.27376261033147
H            5.13081792738230       -1.37701339755322        0.02996458122060
H            5.66548079564644       -0.15512884173856        1.18059953145243
H            4.42095032078564       -1.30433622556506        1.64720946684579
H            2.07829958784000       -1.15566165834164       -2.82909191044782
H            4.29700265493176       -2.15610779070426       -2.22545446494150
H            4.38144105984675       -1.18231722274916       -3.68620250002974
H            5.00574426929786       -0.53279316842487       -2.17533875968083
H            1.83398818545142        1.36352202403253       -2.62448413326768
H            3.59347350829514        1.49046691897515       -2.57100238930751
H            2.80673821999713        0.84646550356949       -4.01210201611271
H            1.71703371134585       -4.82791295916289       -0.76321069768257
H           -0.55071356312889       -5.79507370501324       -1.11437030764321
H           -2.52569274403589       -4.33841083529229       -0.78999380931975
H           -4.07545583980545       -3.01237329509637       -0.24547531331868
H           -5.75652759579455       -1.28697849870986        0.31271820552354
H           -4.96856441240231        1.04485100727051        0.79522283435262
H           -1.53270733816788        1.80960010220190        0.62459646545920
C           -0.39082268200565        0.00518541317048       -2.02402730145233
O           -0.81513388980829       -0.04370906236711       -3.09960435872127
H            0.24105499661885       -0.09285499595215        1.33790912833913
H            0.12859382120385        1.49337447121775       -0.17691896199765
