50
 energy: -81.089298946191 gnorm: 0.000539940336 xtb: 6.7.1 (edcfbbe)
Ru           0.26199450294585        0.01825720062559       -0.00575090075110
C            2.40994098765070       -2.17668319095229       -0.74243812453070
P            2.50645360600727       -0.46557400438935       -0.02994001686739
C            2.42748953463739       -0.86856032429107        1.74855537542002
C            3.34291622572333       -1.63981375927826        2.45427778870786
C            3.05908588321345       -2.00787487328370        3.76010016002287
C            1.86500012791591       -1.62648568803112        4.35124806599290
C            0.94406926799692       -0.85331930826892        3.65429026580493
C            1.22650476696856       -0.47233834408053        2.35472296056845
C            4.18327389521022        0.11099920552580       -0.37327306098764
C            4.86455361249078        0.84417609107605        0.59636032827841
C            6.13675392683497        1.31411068682035        0.32704145416393
C            6.72083485907886        1.07252003685045       -0.90724318915916
C            6.03066674056245        0.36635149363540       -1.88097591461583
C            4.75845823523650       -0.11069297896152       -1.62277090617407
C            1.18486600230860       -2.81016243223943       -0.16167150319983
C            1.12789066954183       -4.16124891085175        0.14491008370005
C           -0.02544089717800       -4.67548134911233        0.71722497608081
C           -1.09564489408618       -3.83235905089131        0.95986059963637
C           -0.99087996364310       -2.48556471515564        0.62206158618335
C           -2.07499237672946       -1.51116616473374        0.78009444646271
C           -3.35399506024125       -1.86065639732492        1.18235027210087
C           -4.34481462247902       -0.88521960530091        1.23554701352026
C           -4.03845895456466        0.40463686303207        0.87375804008408
C           -2.72700528876818        0.70799575470883        0.47467204787119
O           -2.45634506147464        1.94546251600385        0.12107818232404
N           -1.76799250055929       -0.22604367882264        0.45199536566613
N            0.14665164694375       -1.99857917167323        0.08548248249804
H            3.31048939725230       -2.76435038546540       -0.53959679753466
H            2.29169960345786       -2.07214236320939       -1.82953562004421
H            4.26912568600589       -1.93732237687058        1.98265052780877
H            3.77043788631517       -2.59907216322005        4.31670620757894
H            1.64671068000955       -1.92387198536159        5.36558016647677
H            0.02247931514467       -0.54786171848182        4.12901741474725
H            0.53419629207679        0.25373608161414        1.81557866749553
H            4.39861722689003        1.03946552238902        1.55308002735722
H            6.67264820709408        1.87353929472350        1.07916795775576
H            7.71362970313325        1.44285928610949       -1.11405915819802
H            6.48409487091506        0.19134923471610       -2.84510939271383
H            4.21374719282721       -0.64737165478492       -2.38699671029790
H            1.97559710345422       -4.79482965214048       -0.06204800748057
H           -0.08827034789128       -5.72172200940683        0.97233002163876
H           -1.99330748010257       -4.21809303640376        1.41228751200911
H           -3.59116006025952       -2.87793785850484        1.44222946553438
H           -5.34437029973262       -1.14422402337263        1.54731849731411
H           -4.76365415075455        1.20129150878440        0.87743224324194
H           -1.51345648847065        2.06691755389274       -0.12199168174825
C           -0.00783819342420        0.16618028565884       -1.82020547448554
O           -0.15201731598367        0.26539982095106       -2.95105740663080
H            0.37343075549165        1.56097043710306        0.10159147905570
