49
 energy: -71.184862295080 gnorm: 0.000120752917 xtb: 6.7.1 (edcfbbe)
Ru           0.05002539961422       -0.11928067340015       -0.00852553670855
C            2.30938114851278       -2.31711581872108       -0.19008346136805
P            2.26315176743492       -0.47789582556784       -0.47388398656368
C            3.62854946459563        0.07032296446707        0.67753008868542
C            5.02963947665547       -0.41463779861609        0.31661213566115
C            3.58657406476201        1.58260510095426        0.88299584136341
C            2.98398437448099       -0.36883331394592       -2.19645205396622
C            2.18083200017491       -1.22731857251675       -3.17038598821160
C            2.97863398645099        1.09056301231284       -2.64162619666221
C            0.95079275454795       -2.88786042058204       -0.46327064308986
C            0.78504230860595       -4.20035195445642       -0.86354826961113
C           -0.49914325035356       -4.71652516586285       -1.02016776608001
C           -1.57432748019707       -3.90771625998510       -0.71789764013282
C           -1.35166717130960       -2.58824542510476       -0.31790366341396
C           -2.40171358069486       -1.66884839242152        0.09549849389285
C           -3.74890673264088       -2.01372091909285        0.19309357855497
C           -4.65764617541644       -1.08449875654371        0.66678655147351
C           -4.20436427112212        0.16294414268632        1.05302554679356
C           -2.84448110979027        0.45322087708018        0.92888555559668
O           -2.40521167922879        1.64841359576385        1.31160481343093
N           -1.96614271233296       -0.42957431770961        0.44002706146951
N           -0.09960723687125       -2.07404220425948       -0.24662049802788
H            2.51411563071338       -2.44427677112869        0.88178535276855
H            3.08997019917382       -2.82893790229059       -0.75878748275716
H            3.31717084414602       -0.39331714985611        1.62579099235435
H            5.04569133070738       -1.48476159807551        0.11847254067710
H            5.41241286210182        0.11248321833191       -0.55456986319319
H            5.70364783244799       -0.21458353381531        1.14834495504708
H            4.14723486525032        1.85674222652502        1.77506678569298
H            2.55099932998971        1.90210572525380        1.00568601398365
H            4.01678674958591        2.11311922222128        0.03708745181919
H            4.01151638700845       -0.74875258800791       -2.15820368620278
H            2.22810187789498       -2.28532470957286       -2.91820212367076
H            1.13510101935414       -0.92223627557558       -3.17720927754963
H            2.57029977935215       -1.10398273881796       -4.18037078106357
H            3.23651450579955        1.17252184404285       -3.69679952129376
H            3.69064356023350        1.67966547639987       -2.06931406316519
H            1.98509065782783        1.51814344901223       -2.49099783703327
H            1.65041076938195       -4.81920744276738       -1.04600247202450
H           -0.64648263457670       -5.73288968505455       -1.34957033281127
H           -2.57902894457021       -4.28888757153334       -0.79673940471061
H           -4.08132663269317       -2.99677675432999       -0.09466188113146
H           -5.70474283764597       -1.33213220018197        0.74354876230717
H           -4.85893013884003        0.92309590909566        1.44445491467699
H           -1.42842669895795        1.67805187478172        1.16421049071121
C           -0.53891097774338        0.27519298347311       -1.71323068887381
O           -1.09836177918724        0.50723465431534       -2.70026913767083
H            0.39286831021908       -0.29899064875362        1.52708371841151
H            0.16866053062828        1.44223711382478        0.22199299637905
