64
 energy: -93.096738805344 gnorm: 0.000372889929 xtb: 6.7.1 (edcfbbe)
Co           0.15480804543366       -0.91384628517145       -1.44111488286234
N            0.30284559447657       -3.00222415797985       -0.86775058341728
C            1.36567730613132       -3.26648551580485        0.10842079988364
C            2.54874608992619       -2.33610417774439       -0.11835279439011
P            1.91301362352193       -0.59576654323130        0.09235505721022
C            3.42968636976801        0.35365526432341       -0.26718276043832
C            3.88817576216613        1.35321443084391        0.58687939627414
C            5.00720580983108        2.09679998631878        0.25708777595425
C            5.67420721297531        1.86430629725984       -0.93431796337415
C            5.20194212092841        0.89737964791144       -1.80766303453789
C            4.08220790679878        0.15555676372986       -1.48186281415146
C            1.90491503882190       -0.53234181867007        1.92991320134491
C            0.73247171890821       -0.11307471960601        2.54556591672293
C            0.62812583467339       -0.07582504336617        3.92523566816747
C            1.70687133624344       -0.45669074262218        4.70483368472064
C            2.88888890132496       -0.85884957191206        4.09981420036726
C            2.99196762800778       -0.89517881723869        2.72158769818730
C           -0.98025409255235       -3.58742824643064       -0.45732481794258
C           -1.68275430671500       -2.67341553772635        0.54216100022756
P           -1.71430957345939       -1.00695245853404       -0.27562631792517
C           -2.43727866282375        0.09839542916048        0.98461541135183
C           -2.81349805204623       -0.27965879014258        2.26946212075504
C           -3.33659639049744        0.65982666023816        3.14207242001435
C           -3.48753648184948        1.97801751870874        2.74507401234005
C           -3.10964191981308        2.36218176215660        1.46747890599294
C           -2.58440107740189        1.42830764886607        0.59498795877758
C           -3.20890873754494       -1.24847650686664       -1.31240497925911
C           -3.05236513122372       -1.35455103992220       -2.68819134383057
C           -4.14769504246327       -1.58674538102696       -3.50164963049351
C           -5.40876560072190       -1.71080235357989       -2.94250222304904
C           -5.57192367521982       -1.60035654584442       -1.56994773986163
C           -4.47843918822568       -1.37100861122377       -0.75529163296256
H            0.58328449795154       -3.44885310212020       -1.74035986791385
H            0.97253400669229       -3.08267071086064        1.11358822870595
H            1.68557541302812       -4.31849846546810        0.05764158243734
H            2.92783987820625       -2.44994540217996       -1.13628997149312
H            3.35454083799708       -2.55707996291455        0.58441790004042
H            3.36771590513937        1.55114659637685        1.51387028184024
H            5.35845085875134        2.86425236786182        0.93251989879332
H            6.55025647392259        2.44336369344985       -1.18858691236305
H            5.70454654830895        0.72699702483128       -2.74941378129856
H            3.69876690690294       -0.57037666515122       -2.18532902037662
H           -0.09958752091617        0.19371843128706        1.92544775961599
H           -0.29290143323844        0.25274697646616        4.38596028126130
H            1.63361431770636       -0.43358563299268        5.78265860209805
H            3.73609291854620       -1.14231518217455        4.70851326363384
H            3.92639328026229       -1.18672803218074        2.26147417951159
H           -1.61352544333567       -3.67994627392312       -1.34596729729816
H           -0.83057783473652       -4.59159887568446       -0.03228784643316
H           -2.68797847545114       -3.04071171125791        0.76158147763107
H           -1.11285667276899       -2.60003204220982        1.47233583585751
H           -2.69982620515376       -1.30240052069183        2.59903940093523
H           -3.62952502334687        0.35924521477269        4.13855183052579
H           -3.89547216038352        2.70593429677722        3.43146035905590
H           -3.22160114896747        3.39069816974080        1.15546442132709
H           -2.27075432385257        1.71515456991984       -0.40101774847211
H           -2.05684975267642       -1.24031108718620       -3.10516078189171
H           -4.01842217900226       -1.66759027706523       -4.57164627184122
H           -6.26677623750450       -1.88889761205628       -3.57482647445972
H           -6.55699387579683       -1.69187132072848       -1.13431619873534
H           -4.61297426075346       -1.27862298497812        0.31438222371968
C            0.93219781160496       -1.11369645508389       -2.96833217157472
O            1.44196995709387       -1.19060826781496       -4.01134800971442
H           -0.15349120952754        0.41726497789689       -1.94210281120879
