50
 energy: -86.201228005769 gnorm: 0.000184968505 xtb: 6.7.1 (edcfbbe)
Mn           0.05470537311576       -0.30543046247248       -0.07608209660639
C            2.38063427982769       -2.43105306305377        0.00498695185731
P            2.23360300837684       -0.59421518728483       -0.36467618695497
C            3.56593160787637        0.10190626193298        0.65902739218699
C            3.29208016389189        1.27093507912906        1.36081733524407
C            4.27269004178289        1.85668046210965        2.14250597211927
C            5.52849457738274        1.27618046112529        2.22157593856245
C            5.80820350898060        0.11688571936553        1.51274401803431
C            4.83360584522219       -0.47104907514899        0.72754147770740
C            2.96430199951741       -0.51436275265098       -2.03176266125840
C            2.55406205127159       -1.43650511133643       -2.99254233017743
C            3.03724263190542       -1.35269373229346       -4.28495468638588
C            3.92193138245577       -0.34266776920350       -4.63092312985915
C            4.31701666146506        0.58785061437710       -3.68360909435195
C            3.83689839160881        0.50890724823463       -2.38797134841715
C            1.05442801030465       -3.10096547774891       -0.22935316170434
C            0.93637392678297       -4.47131018194476       -0.40397404331342
C           -0.32641138883776       -5.04077634327391       -0.53054972049054
C           -1.44187936903483       -4.22713021194959       -0.45417578998720
C           -1.27156515284579       -2.85685830637686       -0.29088457892015
C           -2.32312847411262       -1.84885689492075       -0.17003065277748
C           -3.71428927053476       -1.91578338591888       -0.18477160663022
C           -4.41282647031779       -0.71616579031641       -0.04197958025529
C           -3.78046915108928        0.50818192569177        0.09863238467878
C           -2.36925443863529        0.52086998073860        0.10177422901827
O           -1.51337534967463        1.47314923142641        0.18390703713722
N           -1.74727656107420       -0.66030381495612       -0.01521915107111
N           -0.02465394235415       -2.30263439076939       -0.21186075347134
H            2.61595752192333       -2.49499482422967        1.07628692519468
H            3.18533660462917       -2.90751130120257       -0.56154746183484
H            2.30073025207442        1.70727166438276        1.27788352384208
H            4.05829639739202        2.76333718406797        2.68944816418322
H            6.29403514161088        1.73014437438127        2.83376200763602
H            6.79147484121844       -0.32681048022287        1.57203325443380
H            5.05338477627404       -1.36593686247605        0.16260731502745
H            1.84715528322987       -2.21233658236146       -2.72312877840693
H            2.71955942986088       -2.07123839165983       -5.02681335878610
H            4.29617321700887       -0.27663125440788       -5.64201667073033
H            4.99687850302437        1.38197799063468       -3.95625815300956
H            4.13433066224696        1.24037809437957       -1.64875293586535
H            1.82196153003162       -5.08700280722551       -0.42993144050725
H           -0.43215869002300       -6.10530594705536       -0.67044614792223
H           -2.43859296909452       -4.63339227525971       -0.52056765561245
H           -4.23679181027374       -2.85087360609725       -0.30251369316003
H           -5.49371489449587       -0.74288005980344       -0.04807272739046
H           -4.34005340708884        1.42519234618855        0.19485616347532
C           -0.04624448471624        0.16029303195182       -1.80336864563525
O           -0.10846171709542        0.57119973384219       -2.87565326254609
C            0.28309023731970       -0.20711423526112        1.69138275892246
O            0.42201844686470       -0.03582019763012        2.82281790105630
