55
 energy: -75.356175587956 gnorm: 0.000218464902 xtb: 6.7.1 (edcfbbe)
Mn           0.10744030281654        0.10090849418559       -0.36570427010302
C            2.22761616624621       -2.05099146597129       -1.18298506535040
P            2.32367042199587       -0.35843287800169       -0.67962840118055
C            3.40824538723340       -0.35147661764458        0.87563032820030
C            2.86014201915808       -1.44519644339858        1.79136846156930
C            4.89666756770507       -0.58708944989561        0.63426990500885
C            3.43454730754487        0.49176693893258       -1.91258155066487
C            3.00049802836706        0.24485570472614       -3.35408080567627
C            3.48347172698527        1.98158615791351       -1.58518580659352
C            1.04915946580558       -2.68954346717721       -0.84217796004877
C            0.80863266702871       -4.09052965685198       -0.99123952446999
C           -0.37280776622616       -4.63630549902092       -0.59339734265148
C           -1.37284215951522       -3.81800565485206       -0.03379717523733
C           -1.11988852005823       -2.46951389980222        0.07451907518425
C           -2.10434522795703       -1.48651414209344        0.66762804635210
N           -2.13163577324747       -0.26060560376020       -0.15828958261194
C           -2.75365560005431        0.89659879536511        0.52349331547089
C           -3.91418957949172        0.61886625576745        1.48402124440621
C           -2.77776282765432       -0.54641371483380       -1.45778907855946
C           -4.27473384221500       -0.86704112890739       -1.46292662411370
N            0.03261477326554       -1.91276150549056       -0.32319015549111
H            3.08176275996939       -2.58389091922550       -1.57197666820196
H            3.26567660740382        0.62342285933986        1.35718795208478
H            3.22509991838435       -1.31675296821131        2.80918555247244
H            3.17119403349866       -2.42213344345250        1.42689150872438
H            1.76791447885572       -1.42825001408522        1.80260911939841
H            5.38138683043927        0.27490951670086        0.18194458517196
H            5.38838912831525       -0.78186865233616        1.58708038372998
H            5.04290805733078       -1.45663862399002       -0.00418473211571
H            4.42634980090295        0.04543691855955       -1.78397441074717
H            2.17441728329381        0.89149732580165       -3.63468889139302
H            2.68831647395966       -0.79081761728221       -3.48312824906017
H            3.82699948178878        0.44885172982581       -4.03396893113661
H            3.89647586184139        2.15132617805801       -0.59197252692440
H            2.47205793655407        2.39564449044868       -1.60569998344382
H            4.09120538467915        2.52092459068113       -2.31102736870027
H            1.59277943176868       -4.69770805087875       -1.41687984994795
H           -0.55335136680115       -5.69629689522693       -0.70014752824904
H           -2.30881598120934       -4.23551078859433        0.29936031961158
H           -1.74593738843455       -1.21572344971726        1.66805910870347
H           -3.09410904193716       -1.94565552968084        0.76353802752400
H           -1.97696987898214        1.41495848003979        1.10327750901514
H           -3.09075063147622        1.58964681493079       -0.25450769484128
H           -4.31444973265674        1.57360563452002        1.82010333518102
H           -3.57716666176950        0.07204646779431        2.36130170774622
H           -4.71844621267227        0.06091214478898        1.01581962312656
H           -2.24008227685198       -1.39134637302695       -1.89902363395168
H           -2.62638427816482        0.32211689069658       -2.10623487766859
H           -4.87308812356690       -0.00378616587670       -1.18190314620686
H           -4.51803426543216       -1.70294611065582       -0.81262342165599
H           -4.55306232826398       -1.14681887041691       -2.47689806305622
C           -0.03251485345614        0.44163813808077       -2.10967618918091
O           -0.17547557652673        0.99619491294874       -3.11401687568239
C            0.35801252076681        0.55977033220645        1.33589680851483
O            0.54569890188212        1.13592156101413        2.32382292092386
