56
 energy: -75.574526282875 gnorm: 0.000221603397 xtb: 6.7.1 (edcfbbe)
Mn           0.13680477524203       -0.01792225596824        0.03949561782313
C            2.26568268540386       -2.17815014490904       -0.62123570400186
P            2.37753235219282       -0.48904471691588        0.17731599954934
C            3.77209082134190        0.38090321670784       -0.71231023300493
C            4.76598837003834       -0.56200982624862       -1.38545182694921
C            3.22565306620985        1.41029783178468       -1.69792658298044
C            3.23286902379369       -0.92661634332045        1.77707793762542
C            2.49123486980847       -2.03308659744229        2.52488513599223
C            3.40754555834518        0.30185477461327        2.67068913106716
C            1.00301909410466       -2.83601157044412       -0.15438817086247
C            0.85661315483350       -4.20776963171847       -0.01613839069556
C           -0.35710100698868       -4.72391574170660        0.41197912125979
C           -1.40795074462091       -3.85420619350853        0.66715632937236
C           -1.21107382883998       -2.49411282385048        0.50499554691438
C           -2.28140647975436       -1.45734606199746        0.73494749103433
N           -2.01680757048287       -0.28484739345253       -0.12893374092159
C           -2.51685790163561        0.98735053030682        0.44023377420377
C           -4.03203908523635        1.19670156399557        0.44273806632604
C           -2.64138878089389       -0.50202063182920       -1.45583439336152
C           -2.14282861070852       -1.72227113486544       -2.21985065565558
N           -0.01573482929570       -1.99699383917855        0.12444629712998
H            2.18436769270742       -1.99481360939014       -1.70073152219854
H            3.14751744491513       -2.79388623151917       -0.43084093426108
H            4.29594528722608        0.92494949321654        0.08469534478635
H            5.61126230757054        0.01881455258864       -1.75099402132270
H            5.14993472446155       -1.30609657562010       -0.69137813506847
H            4.31841151010167       -1.06804229840925       -2.23718215120752
H            2.42553281586738        1.99559423524220       -1.23448154850577
H            2.84083382467469        0.92785865910848       -2.59363204973617
H            4.01376318154648        2.09686507401349       -2.00212255435806
H            4.22745771758183       -1.29047759473656        1.48200279041748
H            2.60054514296978       -2.99660457150854        2.03402919740531
H            2.89184674733172       -2.12284780338276        3.53300651149276
H            1.42754920026673       -1.80276543749900        2.60286801495504
H            4.12756020464823        0.08580234245837        3.45794325044998
H            3.76862717639688        1.16624467693068        2.11540091560679
H            2.47007790882320        0.57405130683539        3.14640013137372
H            1.68402891802736       -4.86231727817799       -0.24161031067111
H           -0.48643183914417       -5.78762648587421        0.53453545373429
H           -2.36921369652071       -4.22678812270338        0.98490391243513
H           -3.27500889559732       -1.88062148504149        0.54755010235643
H           -2.23654767680968       -1.14518237369373        1.78525278007058
H           -2.18404126361301        1.05052599402748        1.48016997445099
H           -2.04156401120633        1.80549042936637       -0.12760448210851
H           -4.25682196436294        2.07763445922871        1.04019983188990
H           -4.54159555882244        0.34836928683663        0.89411439058945
H           -4.42941678415626        1.36595324399204       -0.55425221266339
H           -2.45998890633916        0.39559682760535       -2.05276633647977
H           -3.72397107674327       -0.61183432933272       -1.32691012140576
H           -1.05562900109817       -1.75055567654430       -2.27933431800697
H           -2.53518126644219       -1.67256901567172       -3.23352934401033
H           -2.49049725115619       -2.64992043221336       -1.77276408050765
C            0.25618071744971        0.27245625433165       -1.72522020774469
O            0.26890726832083        0.69730908831440       -2.78827662796956
C            0.06808690132204        0.32753847049367        1.79934911145119
O            0.05393921389440        0.79757479656391        2.84523711055675
