51
 energy: -86.367638735154 gnorm: 0.000137701239 xtb: 6.7.1 (edcfbbe)
Mn           0.06294127949210       -0.30089528668750        0.11983710440241
C            2.36500295528775       -2.44374435623452        0.00711574826756
P            2.25743362172588       -0.61875853178180        0.41038925896957
C            3.51041798842067        0.14848740356889       -0.64569097116261
C            4.76707003199891       -0.41239062501001       -0.85740934887959
C            5.67836333527165        0.25047409407479       -1.65967154258200
C            5.34644708459719        1.46733902148051       -2.23784091218710
C            4.10024831383585        2.03313092091567       -2.01540320883129
C            3.18162801248671        1.37345746475863       -1.21924755505019
C            2.99971518102091       -0.56479576120811        2.06750237732393
C            2.54824387203065       -1.47453998492425        3.02329356791502
C            3.05085023124421       -1.42839287712967        4.30967877844529
C            3.99435019635221       -0.47040140697860        4.65158010520283
C            4.43082192542647        0.44505697349815        3.70764038476959
C            3.93262154809672        0.40623382340316        2.41647861502263
C            1.03071914411678       -3.09570970153541        0.23937245205536
C            0.88163275088374       -4.46538187781354        0.39769292643764
C           -0.39263852525250       -5.00765313740292        0.51802897790100
C           -1.49423154990562       -4.17297160467649        0.44808547135689
C           -1.29474981475861       -2.80493698772460        0.30061151097754
C           -2.32786452820711       -1.78441510575886        0.17119596563477
C           -3.71618576283841       -1.89883653250704        0.15819000173238
C           -4.47436534622106       -0.74943050187168       -0.00599998076750
C           -3.86870180731157        0.49942096919265       -0.14902514722961
C           -2.48797672239219        0.53168341792543       -0.12095018970009
O           -1.64158032858698        1.58754032733916       -0.21679823750612
N           -1.76657135730137       -0.57148970254181        0.02763297416155
N           -0.03781697164478       -2.27993666593562        0.23381550192715
H            3.16502816019591       -2.93752549399756        0.56723574472141
H            2.59758850858249       -2.50212540459188       -1.06578023185144
H            5.02724499165717       -1.35350822724252       -0.39443810852759
H            6.65337445557786       -0.17977970732317       -1.83421366945569
H            6.06414388012886        1.97813520362173       -2.86244339762551
H            3.84939173155090        2.98347975508776       -2.46299303617195
H            2.19615684857814        1.79380504348260       -1.02501364933429
H            1.79974598684092       -2.21064159093724        2.75300946707115
H            2.70609510473879       -2.13560415794681        5.04959812671372
H            4.38500781805666       -0.43485720032621        5.65760278196245
H            5.15929989207467        1.19497253188138        3.97834046404199
H            4.26731076874954        1.12397105138311        1.68035352745272
H            1.75310444574584       -5.10113325157738        0.41608568950220
H           -0.52042430160009       -6.07108174778671        0.64635003441467
H           -2.49526429421168       -4.56867540123515        0.50703471423254
H           -4.19304234539938       -2.85806620445698        0.27206550445423
H           -5.55093873465253       -0.81561398883754       -0.02168562429373
H           -4.45513868132089        1.39623834054606       -0.27305180903935
H           -2.09218652242992        2.43606369200963       -0.32596990487515
C            0.34771134124952       -0.27505024796193       -1.65203122179272
O            0.54299208784562       -0.18596838805710       -2.77434852365417
C           -0.02930404011607        0.10457103915505        1.87123745804927
O           -0.06651102497348        0.46406658198033        2.95356316960591
