47
 energy: -70.197404985532 gnorm: 0.000110710229 xtb: 6.7.1 (edcfbbe)
Co           0.19616049726536       -0.27930818528296       -0.34623940598347
C            2.45593418344624       -2.29921889253614        0.23747301703864
P            2.35324057368318       -0.55285674406383       -0.37724127177586
C            3.26549610907076       -0.59507260784992       -1.99594045810165
C            2.93215379925040        0.67203075245943       -2.78398344641928
C            2.83510364271072       -1.81600347077752       -2.80973927704364
C            3.38179814865650        0.34076657871930        0.88300306722394
C            3.87819742491765        1.70081707300981        0.40422794305511
C            2.48886527145590        0.49683977987906        2.11704250332908
C            1.17612249883255       -2.94958320752168       -0.16952839551758
C            1.06855913112755       -4.31079987283173       -0.42654670129622
C           -0.16184836391789       -4.83835769408255       -0.78397842258695
C           -1.26314775523651       -3.99908888499113       -0.84065498614165
C           -1.09377036486350       -2.64872708505384       -0.55907576861990
C           -2.16811029194550       -1.66088168924352       -0.48530842220608
C           -3.52115456566021       -1.93854592275343       -0.60516698805773
C           -4.43477633097970       -0.91320533208579       -0.39736373268929
C           -3.97487339756031        0.34165620549952       -0.05177344222573
C           -2.59630535816923        0.55155922271874        0.04396130052752
O           -2.06131422781987        1.72247629731895        0.39381143206477
N           -1.71751712343974       -0.41994096183066       -0.19891702253531
N            0.11707081080019       -2.13666480254291       -0.25951665457557
H            3.33941187637765       -2.83528837048349       -0.11569427423743
H            2.49847315950453       -2.26261309711407        1.33110131255656
H            4.34118208360168       -0.64077359557916       -1.78197505336538
H            3.49350383842399        0.69071511655533       -3.71651626700374
H            3.16628505813035        1.57661137180671       -2.22989829605263
H            1.86841974631644        0.68421717042671       -3.02395587351474
H            1.74816086715044       -1.84322080551529       -2.90069569528001
H            3.17622830921412       -2.75162227970204       -2.37399689771878
H            3.25232140267455       -1.74834878214030       -3.81297146761249
H            4.24575154888939       -0.29632969448626        1.11758891887546
H            4.40702719097442        2.20072148975879        1.21432564683784
H            3.04446422747093        2.33464332529162        0.10803830141016
H            4.56898169846402        1.60138745037345       -0.42999201783507
H            2.25802598071683       -0.46231813652905        2.57723816437931
H            2.98121244026972        1.11377631765710        2.86607450886606
H            1.54718693968775        0.97882202240025        1.83674286244182
H            1.93897953656092       -4.94316914677715       -0.34792885533961
H           -0.26372376983147       -5.88933805862491       -1.00540946070126
H           -2.23187574490889       -4.38848512655795       -1.10591574530024
H           -3.86448117800687       -2.92958147362859       -0.84901203224871
H           -5.49347893598142       -1.09908721855528       -0.48839950316604
H           -4.65975874269521        1.15273204125036        0.14453677245075
H           -2.73155627617481        2.40655486225997        0.53681807975245
C            0.28314419168026        1.42725703274087       -0.68519076159538
O            0.42223253313447        2.51666326296202       -0.99943247738981
