60
 energy: -71.529473075186 gnorm: 0.000124777168 xtb: 6.7.1 (edcfbbe)
Co          -0.04874011392685       -0.56554437900285       -1.50914115146647
N            0.25635331732143       -2.62185242380857       -0.94974315744226
C            1.39577467610593       -2.84217250459162       -0.05348999242045
C            2.51682317902534       -1.84374672937846       -0.32549611432560
P            1.85268230498596       -0.11267371312329       -0.11888174413905
C            3.17773745746734        0.95025932111093       -0.94657404888009
C            3.94343606958152        0.26001432107308       -2.07004776389017
C            2.49537270822450        2.20246345591937       -1.49626729577686
C            2.41170983729286        0.21121737006694        1.66573540008719
C            2.01449012959026        1.63204492832753        2.05932300745870
C            1.83083220542515       -0.78137904170195        2.66810065237280
C           -0.96495778820920       -3.26335761812532       -0.44826506111120
C           -1.63693972415396       -2.38690897237527        0.60619213529161
P           -1.78562959109568       -0.69374238133300       -0.14674976110250
C           -1.97833755053925        0.38891759908340        1.36483993783359
C           -3.16890904549461        0.11140724934362        2.27643970073317
C           -1.94776512378228        1.85139194369450        0.92615026231510
C           -3.50312599487156       -0.67378477296558       -0.91974086736779
C           -4.53110180816364       -1.65685202712865       -0.36203703269806
C           -3.38255342483880       -0.87136606026425       -2.43047211386091
H            0.49018903081792       -3.05133658705891       -1.84365324045086
H            1.04377670865004       -2.72405136907119        0.97167705062118
H            1.77697133500224       -3.87041147720845       -0.16080115740582
H            2.83598230126484       -1.95673109777631       -1.36248715443029
H            3.36924661573310       -2.03176852483820        0.33209281311761
H            3.89818163410786        1.24704034428306       -0.17449482064114
H            4.57044851380912       -0.54715219989168       -1.69700850433458
H            4.59123302611825        0.98573337023581       -2.56157122873550
H            3.25769552137556       -0.13104616639968       -2.81907118090891
H            1.82012844681696        1.92336215609499       -2.30298018350198
H            1.90522102925082        2.70122357190407       -0.73029456107470
H            3.23244059311624        2.90619765591367       -1.88180013581814
H            3.50563629834020        0.12180470574759        1.68823540354575
H            2.27825585124249        1.82790931361071        3.09870902092931
H            2.51923913765542        2.36996350633564        1.44069102616527
H            0.94010563367308        1.76710022618154        1.94546781159456
H            0.74754920108252       -0.83900355595512        2.57100247323507
H            2.05692514673689       -0.45617303716170        3.68383254688526
H            2.25396537418896       -1.77521158649782        2.53927029470129
H           -0.74029703721999       -4.26127808700774       -0.03955491773845
H           -1.65202877417035       -3.38701632672118       -1.29017229618842
H           -1.00621939056172       -2.29783330609159        1.49437332345306
H           -2.59105356496820       -2.81631543283710        0.90883938480627
H           -1.05625802084784        0.19369726828676        1.92971969677934
H           -3.20173863821831       -0.93204824865813        2.58384982745854
H           -3.08545259451364        0.72408503425855        3.17421833248954
H           -4.10405336080251        0.36969081411444        1.78520729777402
H           -2.85752821905777        2.11845144322057        0.39109839741127
H           -1.10168447319644        2.02222951042022        0.26084230967441
H           -1.85706581955212        2.50971840574481        1.78963185590329
H           -3.85716940323168        0.35056323605153       -0.74572582738796
H           -5.50543092359150       -1.43233688771783       -0.79604779190883
H           -4.62583111335374       -1.59848857111786        0.71840227639655
H           -4.27795023650755       -2.67915307116716       -0.63848850867019
H           -4.32922220933693       -0.64902645011758       -2.92139344424284
H           -3.11199445937450       -1.89970718587719       -2.66607548844773
H           -2.61168641009031       -0.21918618630094       -2.83858987064086
C            0.59396657828406       -0.75264554001818       -3.09564993268421
O            0.95902171669487       -0.84389082929903       -4.19949276473508
H           -0.45181161816552        0.74714304629089       -1.97947150407422
