57
 energy: -80.961501618827 gnorm: 0.000162196838 xtb: 6.7.1 (edcfbbe)
Fe           0.25461051926997       -0.33120393378653       -0.16078959492317
C            2.54872994828259       -2.30752393020978        0.35066086775177
P            2.33989718505339       -0.47421919685052        0.35305623044509
C            3.94578594153979        0.13533192010499       -0.23856110469071
C            4.19819522437527        0.10882083284517       -1.60679532751200
C            5.41750149164734        0.54753695820988       -2.08850462005891
C            6.37871049271767        1.02312578776521       -1.20863790177427
C            6.12169704239233        1.06041939204399        0.15268832167967
C            4.90516589590971        0.61878182815381        0.64310667090263
C            2.19420277389373        0.01445295622666        2.08810358099394
C            1.98775891898279       -0.88198445630479        3.12088059722596
C            1.41186522735513       -0.44190396881072        4.30242873014938
C            1.01188871361706        0.87375033979134        4.43780265257024
C            1.21264730892514        1.77259368107773        3.39896824485321
C            1.79550917900620        1.34301820968889        2.22972936102139
C            1.19676952227070       -2.90741830794059        0.55422013025937
C            0.99899645370624       -4.17003922213597        1.08051914450544
C           -0.28453097250727       -4.68298917057166        1.16487040458729
C           -1.34520733040581       -3.92132583977170        0.70061632459413
C           -1.09713882930656       -2.65944908062698        0.20204343129799
C           -2.13746863161286       -1.73138602286701       -0.33305569711993
N           -1.68656549252565       -0.36089438665383       -0.05129501302547
C           -2.08906951738548        0.63466135135863       -1.06067141580155
C           -3.56845987326151        0.99954542645078       -1.08675880412829
C           -2.11350223273112        0.08280546378304        1.30154089768047
C           -1.77936759770552       -0.86257532406508        2.43403677171757
N            0.15378669620369       -2.15979626996985        0.14417294461634
H            2.91329858541625       -2.57960848395999       -0.64996648325607
H            3.28496769283866       -2.65025332465110        1.08503612738817
H            3.43582296084816       -0.25264690294235       -2.28300264844242
H            5.62225078488387        0.52591233371509       -3.14920360964034
H            7.32991000028829        1.37031072920728       -1.58658182681970
H            6.87286359473976        1.43597575294866        0.83285096699267
H            4.69762930943840        0.64740321189887        1.70369167000748
H            2.24568536471891       -1.92529200617610        3.01319516952529
H            1.23896085035114       -1.14503369494232        5.10490619591049
H            0.52254982685352        1.19921731626963        5.34493530943497
H            0.88059531711517        2.79634005846779        3.49714151550856
H            1.91195907157340        2.01385873467964        1.38433832583889
H            1.84855192139555       -4.74497971470889        1.41555370425637
H           -0.45491932456485       -5.66356029620379        1.58160183365494
H           -2.35610849562911       -4.29606022423942        0.73506267921596
H           -3.12174474446145       -1.92706728623307        0.09996383613995
H           -2.19224487283065       -1.86010489840995       -1.41959773068649
H           -1.47518445247734        1.52751457514699       -0.86440697620562
H           -1.80706311596259        0.23217024285852       -2.03688199558209
H           -3.76625896080152        1.58119732672664       -1.98449853309694
H           -4.18485912871699        0.10477584443536       -1.12390677484819
H           -3.86012076335983        1.60299856344530       -0.23252131857701
H           -1.61898006349068        1.03866522376252        1.47454177725810
H           -3.19697671817172        0.22493023183381        1.28932789732026
H           -0.72731092172167       -1.11152119148609        2.46787091993325
H           -2.36333843624140       -1.77877488433046        2.39173604586202
H           -2.02105885499548       -0.35359009939780        3.36597667575498
C            0.49754357912424       -0.71480942410278       -1.84867476784853
O            0.77636587026924       -1.14427760827543       -2.87407418024734
H            0.20864371441312       -0.11800132179658        1.18505711596538
