55
 energy: -75.373459559493 gnorm: 0.000396914209 xtb: 6.7.1 (edcfbbe)
Mn           0.12898188658136       -0.19372410272983       -0.30537632722902
C            2.22733709329008       -2.33145221343332        0.46256117847048
P            2.35159748626558       -0.71192377626339       -0.23395543337715
C            3.59122932802134        0.29136914662026        0.77074962207101
C            3.77871292365302       -0.24299377429386        2.18587342609291
C            3.17171326743389        1.76305358949094        0.77544370703292
C            3.44322676350105       -0.97402264127299       -1.75126235514942
C            3.67526887553429        0.30613546681515       -2.54634446307254
C            2.90027889520074       -2.08410090369388       -2.64386475990190
C            0.98456902819707       -2.93627338812906        0.35949906896463
C            0.72649777384422       -4.31167543322340        0.64958845947412
C           -0.52244277526848       -4.82889675287220        0.48349973612076
C           -1.57385029304884       -4.00577226784169        0.04083115963308
C           -1.29662498592360       -2.67726211734988       -0.19717572141122
C           -2.34000160085366       -1.68270439512356       -0.66958070731553
N           -2.05474316351471       -0.35659875631734       -0.08333167677677
C           -2.73003704714902       -0.24181329962849        1.22451148210438
C           -2.41005505121703       -1.34054863917827        2.23100250736315
C           -2.48110434675485        0.77817361883760       -0.92038049481328
C           -1.59875516522127        2.00292636440158       -0.64600056759343
N           -0.07526641197517       -2.15961993114889       -0.04082249670764
H            3.11156879645801       -2.90603592771923        0.70016822868900
H            4.55274571800368        0.20922313997394        0.24793600748985
H            4.18424139954581       -1.25135660833734        2.16500951233609
H            2.83551244264415       -0.26970621352764        2.72410087899174
H            4.47029339835479        0.39627601990626        2.73464750891047
H            2.37409013431569        1.93222710795870        1.49556326862736
H            4.00976580469469        2.40448546459230        1.04654177465206
H            2.80902825408486        2.05996136453366       -0.21104347767074
H            4.39735233324119       -1.32305059381821       -1.32730415211681
H            2.72435227895236        0.71300982128561       -2.88680092314973
H            4.18036929698881        1.06217684907300       -1.94936059166302
H            4.28924931863865        0.09797505114657       -3.42250234926623
H            3.66349228507325       -2.39878702805749       -3.35528835758589
H            2.03516750387108       -1.74963743061082       -3.20789975032044
H            2.60585890509757       -2.94471999392157       -2.04432196097029
H            1.54835540702605       -4.92590301904613        0.98535262964772
H           -0.71662524531420       -5.87198945231709        0.69034272174554
H           -2.56772528384213       -4.39956064772594       -0.09983060203686
H           -2.26275954658693       -1.61536694244869       -1.76176449588549
H           -3.35472905982727       -2.02253389737952       -0.42391593822225
H           -2.44973059069279        0.71934097812689        1.66421802143210
H           -3.82010864219722       -0.23110046849998        1.05791329260888
H           -1.33689177011513       -1.48049159662516        2.33652505469414
H           -2.84965928368607       -2.29273459359457        1.94734865165801
H           -2.81461555892297       -1.05353592949621        3.19979371538857
H           -3.53666954333920        1.03455967859554       -0.74166528851320
H           -2.38174272576940        0.50249449288344       -1.97501121186701
H           -0.50420440916886        1.74553072249498       -0.69644005484903
H           -1.77995032320996        2.76740751825395       -1.40012131358032
H           -1.80828473912289        2.43500073993551        0.33239944501973
C            0.11316483496315       -0.31166756119006       -2.07761487240321
O            0.11007601423782       -0.26416919724355       -3.23561884367207
C            0.35612372232931        0.16441062089388        1.41980027220877
O            0.52552475330090        0.47725826712183        2.51974637662078
