50
 energy: -81.061022912322 gnorm: 0.000062275143 xtb: 6.7.1 (edcfbbe)
Ru           0.12485837136647       -0.33028547190040        0.05641578440010
C            2.29702510639719       -2.39634785053078       -0.81091706042138
P            2.19884753856633       -0.53273190933125       -0.81867565861471
C            2.61796707274428       -0.14490540544551       -2.54162511729289
C            3.56894810430880        0.80799267648832       -2.88802122362129
C            3.79045838453160        1.09748175612067       -4.22408725661669
C            3.06163680958907        0.45091576813213       -5.20894127152746
C            2.10094395254689       -0.48916641473887       -4.86365394759900
C            1.87455756174578       -0.78445375861938       -3.53344267268350
C            3.52763334427407        0.15340084114592        0.18526592084198
C            4.85966723221320       -0.24339565110896        0.17553366906889
C            5.76266819101581        0.41748440957026        0.99110200405696
C            5.34235811962135        1.46765367029874        1.79375382785309
C            4.01328671658273        1.86955872166080        1.79642688159669
C            3.10487203915802        1.20947861766023        0.99219711993039
C            0.91314779013461       -2.99586837849772       -0.83712550518701
C            0.67861393955172       -4.31563767483216       -1.19239584604842
C           -0.59838394482221       -4.85099436157526       -1.05456755536725
C           -1.60778627485470       -4.07752308848061       -0.50780189993763
C           -1.34033072151315       -2.75217736985310       -0.17489369079942
C           -2.25027217260150       -1.82366843671642        0.49103457252076
C           -3.56155514275867       -2.02709277272756        0.91742716087622
C           -4.20868404587455       -1.00247993646027        1.59271576116842
C           -3.57196921271204        0.21306240786595        1.83748290831806
C           -2.27522014045052        0.35133649918565        1.37583509137660
O           -1.45127794248088        1.42160186538926        1.44699855529191
N           -1.66125294191366       -0.63786238707541        0.73867882885429
N           -0.10578571737981       -2.22577311916862       -0.41160839384904
H            2.92830858020249       -2.79192246343090       -1.61305090046379
H            2.74736942729509       -2.65503699714002        0.15879186171353
H            4.13155398448755        1.31762147626896       -2.11810949508082
H            4.53214281871808        1.83373558043884       -4.49623891386666
H            3.23688027874978        0.68298922253807       -6.24879648608945
H            1.52878544491028       -0.98601969416638       -5.63315755302841
H            1.11636118255960       -1.50853848828632       -3.25151870208970
H            5.17937534407992       -1.05673061635066       -0.46079350170580
H            6.79934136778620        0.11527634767318        1.00046891160353
H            6.05502001288344        1.97725918735550        2.42502774481142
H            3.69729512102630        2.68794928627325        2.42607647983698
H            2.03501217564285        1.48577529066849        0.97813362014888
H            1.49244995373057       -4.92347626855023       -1.55634168681114
H           -0.78965509078287       -5.87367711049444       -1.33894317646058
H           -2.58867608817756       -4.48910613538236       -0.33347982366699
H           -4.06395086584080       -2.96178144281427        0.73230455755456
H           -5.22149436400907       -1.14450277619861        1.93553258922439
H           -4.07251477528526        1.01105230166750        2.36305870628307
H           -1.81618220341921        2.14768204815867        1.97400351765199
C           -0.53113469831734        0.48373857392824       -1.49740526496087
O           -0.91052824620948        1.04544247610342       -2.41433318973834
H            0.72791125656687       -0.82619675746515        1.38487481338588
