57
 energy: -80.972853806605 gnorm: 0.000299321478 xtb: 6.7.1 (edcfbbe)
Fe          -0.12240392821430       -0.18804402513983       -0.73442470505520
C            2.29358583416198       -1.97665722996123       -0.39863501875323
P            1.98503777458769       -0.27123381817602       -1.05882178460565
C            2.75085516142901       -0.33291075289341       -2.70982005553867
C            2.54063504974630       -1.44818878466632       -3.51745779965824
C            3.04253329779063       -1.47306267245850       -4.80528882030339
C            3.74207836239745       -0.38252854230342       -5.29900112070482
C            3.93106179311673        0.73887906954789       -4.50684649847564
C            3.42955746852146        0.77070955669094       -3.21807436483280
C            3.13144305398990        0.73515135951914       -0.08053241375013
C            2.61513757131146        1.75240724171547        0.71239420032603
C            3.46539050841220        2.51376254525169        1.49525850262035
C            4.82750655360400        2.25879128316091        1.48483738112984
C            5.34385501089944        1.24449310142722        0.69145088145929
C            4.50092949152302        0.48124073766072       -0.09483708933697
C            1.04843815284643       -2.77633762856327       -0.57506522381762
C            1.01324800848965       -4.16106612185326       -0.56087448227677
C           -0.20645808747052       -4.81302909528477       -0.63416959509846
C           -1.37233949891017       -4.06054687707155       -0.68842457355168
C           -1.27826833486003       -2.68497070396872       -0.71855746149340
C           -2.44093949772775       -1.73980974746836       -0.77364982120018
N           -2.02546911858057       -0.49979882395111       -0.08825348809167
C           -2.08780025971619       -0.69061722185927        1.38483825341651
C           -3.48480345360090       -0.75750129299642        1.99099942529042
C           -2.74302979182417        0.71212613038967       -0.52794473629179
C           -1.87248400786062        1.93199298886287       -0.22463332974935
N           -0.08235334434203       -2.06066450157245       -0.70162994746036
H            3.17638404527397       -2.46135913643694       -0.82627062511727
H            2.45054677377378       -1.82958381104776        0.67869260082638
H            1.98091536028444       -2.29358196485004       -3.13702318452331
H            2.88560323646236       -2.34114121473346       -5.42905008374944
H            4.13400676007957       -0.40429738281665       -6.30531642589024
H            4.46726326640855        1.59211908915822       -4.89681482276300
H            3.56922328895485        1.64718525440463       -2.59920119806808
H            1.54599983159236        1.92391314769309        0.71544052608615
H            3.06989782534701        3.30559617940142        2.11433141272484
H            5.49173758239264        2.85199903089822        2.09643064426184
H            6.40672302066421        1.05056394164087        0.68758745851187
H            4.89819129078112       -0.30451996934904       -0.72315493372456
H            1.93495472061289       -4.71601667419426       -0.48017531278815
H           -0.25170599814805       -5.89074626143428       -0.62652878483538
H           -2.34044396662586       -4.53540580405525       -0.70888679962334
H           -2.66088828659956       -1.50636744207416       -1.82063819462446
H           -3.33551141392637       -2.17968596546891       -0.32477646684466
H           -1.53131131997254        0.12482986364259        1.84316876791421
H           -1.54410967537447       -1.61135915377237        1.59922742658256
H           -3.38726022859750       -1.07621822001444        3.02609511658105
H           -3.97675275922584        0.21176477177806        1.99451676785359
H           -4.12722971004752       -1.47385097083485        1.48552845383651
H           -3.72040053464857        0.79768990626431       -0.04712008860298
H           -2.89687041066926        0.63812870468691       -1.60750332002523
H           -2.28056322987436        2.81004549515975       -0.72091311121329
H           -1.82747294472028        2.13264241784869        0.84378505969111
H           -0.83167519185600        1.78935793472516       -0.60558337993617
C           -0.44708373158596       -0.21697132391511       -2.46102647942845
O           -0.49592903208160       -0.32011765658451       -3.59996052685658
H            0.36510696558817       -0.20546484559450        0.59296049819629
