56
 energy: -75.589466266310 gnorm: 0.000143661254 xtb: 6.7.1 (edcfbbe)
Mn           0.12956967715885       -0.27828427593476        0.07736783313325
C            2.35410846995342       -2.40212992988141       -0.50921815137908
P            2.32574305639996       -0.73583421709114        0.32770684948363
C            3.54671934872888        0.26504418962779       -0.65847782063818
C            3.22959529204511        1.74448962038911       -0.43044514057365
C            5.01620859284279       -0.06837674102278       -0.42943010013714
C            3.16055389424408       -1.16254917160763        1.93422849170931
C            3.28606160487586        0.07221960959463        2.82321494723247
C            2.40883247933228       -2.28773354657046        2.64529290210332
C            1.02427083662072       -3.06186381116582       -0.28408207763396
C            0.83643560135245       -4.43374921806577       -0.35700453780885
C           -0.43445497502032       -4.95901425509296       -0.18040154789927
C           -1.49357372537949       -4.09680098297051        0.06571146194717
C           -1.24486787359405       -2.73845263976968        0.14527540008349
C           -2.29498862343587       -1.70593507290277        0.46202192896905
N           -1.99519053449082       -0.45254097371864       -0.26954831692971
C           -2.56702599464844        0.75076547720328        0.37308988896001
C           -1.64269283415256        1.96406685239649        0.18511420119836
C           -2.53301931612974       -0.63705255177211       -1.64073915855857
C           -2.42023678295375        0.55991539563952       -2.57366928870844
N           -0.00637494520728       -2.23874635797526       -0.02079161525699
H            3.18304026615102       -3.02847980249193       -0.16844992002072
H            2.48450742358568       -2.22328133025145       -1.58421598433293
H            3.29975164394315        0.02207908278981       -1.70207585193169
H            3.68513204135643        2.35905585447180       -1.20432150336328
H            3.59857609228477        2.08624140901422        0.53369741398188
H            2.14141794971442        1.89999755978673       -0.45655586734299
H            5.34517933345580        0.22343259480014        0.56472305366346
H            5.62229736538924        0.47603002509915       -1.15196246478273
H            5.20351272860040       -1.13178033327033       -0.56789288191211
H            4.16325078424076       -1.52354026608095        1.66789282450863
H            3.91019472664491        0.83307387084391        2.36087075491246
H            3.73922824716798       -0.19923043812668        3.77527560486497
H            2.31044025216706        0.50825131266104        3.02595470413688
H            2.83933882508433       -2.44285163295200        3.63323957973365
H            2.47587820706460       -3.22740659888554        2.10146585547405
H            1.35612040597941       -2.04370236336293        2.77442650819723
H            1.67678254325656       -5.07997640369907       -0.55758265410434
H           -0.59873321392505       -6.02341267961539       -0.23883769724872
H           -2.49552807615020       -4.47255523200563        0.20034673300031
H           -2.25685041643532       -1.51563393942426        1.54163960852113
H           -3.29756475922050       -2.08284963905045        0.22390293529577
H           -3.56460866948291        0.96959022397345       -0.02310151101423
H           -2.67605367835612        0.55677018217901        1.44397322824267
H           -0.54842446028236        1.68035029592304        0.21692925041682
H           -1.80585736671656        2.68016021179016        0.98916485385194
H           -1.82058424234683        2.47206413363867       -0.75938218132622
H           -2.00219707167702       -1.48681130886425       -2.08086707877880
H           -3.59617983798026       -0.90593353057001       -1.56242417079194
H           -2.66708411784645        0.23073016272008       -3.58096286856879
H           -3.11847996949162        1.34954409849099       -2.30746559578087
H           -1.41330053905099        0.96882721959536       -2.59610993998219
C            0.54813486113160       -0.18977006732406       -1.65744564762692
O            0.93256641045575       -0.20552883405417       -2.73771873199276
C           -0.09724644985975       -0.17573802556696        1.85480239514032
O           -0.23850613349277        0.02412649891675        2.97533975975761
