56
 energy: -71.163769639102 gnorm: 0.000169408721 xtb: 6.7.1 (edcfbbe)
Ru           0.22276230209567        0.07036177132728       -0.20442632430714
C            2.25974808871055       -2.11591547194914        0.74101264183203
P            2.43916833425458       -0.45258250641814       -0.08502677980228
C            3.75550752040548        0.38209677715755        0.95892284186011
C            4.80532613309116       -0.56114517092561        1.54660886308426
C            3.10963676743373        1.22114595895699        2.05567718280567
C            3.48862343536033       -0.88964827562966       -1.58157677872398
C            3.60082764444583        0.34097770776776       -2.47726105416979
C            2.91039608194331       -2.06871639718541       -2.35859639989131
C            0.98618012401303       -2.74232256624368        0.26851801488376
C            0.81684609568215       -4.11505997722177        0.19882080330661
C           -0.40906076792217       -4.63947798755976       -0.18765979868788
C           -1.44297168094579       -3.75508293764088       -0.46478082234589
C           -1.20834288128314       -2.39404015784979       -0.38264701120540
C           -2.27937185297180       -1.37949815927162       -0.70009502854877
N           -2.06945160032809       -0.10942337122235        0.01808169025203
C           -2.57770505791687       -0.23609090059457        1.41022382527186
C           -2.10775123618834       -1.42332199914969        2.24291377246217
C           -2.91778640875369        0.95043375120842       -0.57447163431379
C           -2.54437268260005        1.45992096191927       -1.95920056454117
N           -0.00609806318396       -1.89011406185634       -0.05643292716236
H            3.12198025493476       -2.77491846157612        0.61681096124128
H            2.14362429252091       -1.87326598223497        1.80590353427014
H            4.24945898492328        1.06911764302288        0.25836013607065
H            5.23727164921170       -1.21779480778169        0.79428809568933
H            4.37982670710969       -1.17219436759833        2.33955287196069
H            5.61271950811385        0.02906283055817        1.97841376530997
H            2.65066390566374        0.58427695876223        2.80947698819810
H            3.85365848082728        1.85124343474904        2.54118983196747
H            2.32935035733578        1.84789551286243        1.62619965664578
H            4.48874230384538       -1.16136469890753       -1.22192120764066
H            2.61432810981766        0.63907861595064       -2.82883004875847
H            4.02789774636378        1.18511157074029       -1.93820243693435
H            4.22881162981901        0.13080583297674       -3.34248387584770
H            3.48197327092715       -2.22750660097497       -3.27282105415765
H            1.87730558200616       -1.87322288318849       -2.64230906744608
H            2.93804644504034       -2.98973695332710       -1.77918292443006
H            1.63835625270835       -4.76900130377367        0.45033886084122
H           -0.55891344595946       -5.70506497666720       -0.25776358168702
H           -2.42068067476310       -4.11682550985638       -0.74633892655329
H           -2.23628217950081       -1.17774696348789       -1.77825289809012
H           -3.27743879732115       -1.79306695649602       -0.47882709849080
H           -2.28891388184600        0.68017982494262        1.93251630038983
H           -3.67887752944795       -0.28214955785569        1.36833367898921
H           -1.02379948026770       -1.43565423254882        2.33004985699442
H           -2.44841065206517       -2.37560687792231        1.84255873721784
H           -2.52315836620238       -1.31113939960685        3.24300894969759
H           -2.87151692899613        1.80554332270545        0.10605438965985
H           -3.95950225675335        0.58750715933120       -0.60383721887322
H           -1.53892155745883        1.87830489773130       -1.94359493209989
H           -2.60137874098597        0.68989402906877       -2.72584419244982
H           -3.24200617113676        2.25005681312201       -2.23029674047252
C            0.13223297985953        0.00218016075907       -2.04009702023873
O            0.06116099091483       -0.09311423703524       -3.19837682952513
H            0.27198163879893        0.23169805141783        1.35386666548369
H            0.31929098108489        1.64923478747771       -0.24109561566093
