54
 energy: -70.088117392731 gnorm: 0.000196851387 xtb: 6.7.1 (edcfbbe)
Ru           0.10973283649462       -0.25893837671320        0.19560794567639
C            2.24196834911711       -2.49867475952786       -0.16685041876118
P            2.33467660236634       -0.81490565552223        0.37862772803860
C            3.52988408601797        0.02804240709574       -0.79780969503295
C            4.98856323938695       -0.38442982615434       -0.64131521571875
C            3.35903173454789        1.54670300463742       -0.76519916041525
C            3.23922307916400       -0.84869434369760        2.02080781347892
C            2.58553110920811       -1.89464939930852        2.91650077090030
C            3.19859345484255        0.52771367605638        2.67548352804605
C            0.97611634855088       -3.05326823108455       -0.19294778281523
C            0.66215243730071       -4.42331583475752       -0.46193501642970
C           -0.63038581923640       -4.85449660433181       -0.42412542472555
C           -1.67441350341125       -3.96656230872574       -0.09838627222251
C           -1.34308392374566       -2.64851876242483        0.13761314128170
C           -2.33432846544986       -1.59492886513492        0.60157809672993
N           -2.05147180946168       -0.29229333910078       -0.04109753537729
C           -2.37594427276340        0.90593379085970        0.75384503870244
C           -1.26547160537129        1.96454467823473        0.58101146713712
C           -2.74341449497996       -0.30501855356964       -1.34279925229772
C           -2.58289378701216        0.93440761242717       -2.21444807521915
N           -0.08400009287267       -2.22299333627400        0.04885563500676
H            3.12489859837322       -3.10645272937094       -0.30870753895575
H            3.17735864327454       -0.33804740388806       -1.77208948123227
H            5.07481817105070       -1.46805626641276       -0.58670757849806
H            5.56494245107990       -0.03898016463697       -1.49945147091795
H            5.42732364116660        0.04962403370449        0.25496263558326
H            2.29849921310279        1.80168391215230       -0.65040116246257
H            3.90675229455950        1.98667438215321        0.06514993770590
H            3.72563808091044        1.99585718376121       -1.68764661753277
H            4.27556315146963       -1.15026715138233        1.82682085610908
H            2.65927734261588       -2.88413868602830        2.46843331870097
H            3.06581143754688       -1.91487541903979        3.89413686127654
H            1.53093724355656       -1.66078469888778        3.04754230342641
H            3.58248379634623        0.47897523227000        3.69412038575899
H            2.16619696530575        0.87859947460445        2.70910191250625
H            3.79279414971752        1.25057239525340        2.12144856397295
H            1.47299078453817       -5.09890029689005       -0.68910578377118
H           -0.86540946356738       -5.88941624777252       -0.62921253931566
H           -2.69402167928182       -4.30749964009585       -0.02438577804728
H           -3.36797624762410       -1.92129245852075        0.41706373608064
H           -2.19087373778543       -1.48774656206847        1.68378295277844
H           -3.35236180459956        1.32379212811576        0.47375758353159
H           -2.41977080101792        0.62458864107806        1.81119248002396
H           -1.34138430604946        2.70520211568882        1.37878898993924
H           -1.34176045586203        2.48475360261437       -0.37479752020016
H           -0.21929312248315        1.50130397031833        0.67927352107550
H           -2.36868644504317       -1.17400082172254       -1.89441907621725
H           -3.82034336674681       -0.45782900816174       -1.16236420646561
H           -3.03441027864184        0.73008122999414       -3.18312946772101
H           -3.08544229626512        1.80061495657722       -1.79026530411582
H           -1.53576719081561        1.17279037790105       -2.38212150706445
C            0.43800574333108       -0.11982696826832       -1.60933078451839
O            0.71788176771787       -0.08505247658892       -2.73199638236280
H           -0.08248574903827       -0.41196916562339        1.75453445520717
