49
 energy: -71.029283053111 gnorm: 0.000727544106 xtb: 6.7.1 (edcfbbe)
Fe           0.09964935892190       -0.21171399162798       -0.35405760450235
C            2.35586824077332       -2.28050590762392        0.10637053224413
P            2.22950937428464       -0.51243063357256       -0.44872442357547
C            3.17148091870059       -0.61623161816618       -2.06604566832803
C            2.45837519049713       -1.58669239428682       -3.00418680280564
C            3.26048000575127        0.76839500917999       -2.69927001953111
C            3.39809668488545        0.30870153893046        0.75619826645073
C            4.86888357094285       -0.07327696327349        0.61617739899719
C            3.18928765746730        1.81989394973738        0.75460354797925
C            1.04256950611364       -2.92483810481159       -0.21542899637534
C            0.91564392996069       -4.28791133277301       -0.35356354364361
C           -0.34738158127883       -4.85330098564715       -0.55074344719334
C           -1.44117786557149       -4.01981134960941       -0.53138777274071
C           -1.25913901876682       -2.64225373399174       -0.38470997424554
C           -2.31966345290921       -1.67347225788330       -0.26830199555346
C           -3.68502725734631       -1.97148246250598       -0.25071686991367
C           -4.59770152236261       -0.95399876629119       -0.07969710745333
C           -4.13040206029960        0.34634450701420        0.06984644451380
C           -2.76106141725491        0.57986302587089        0.03147838681598
O           -2.24971107922845        1.81558181833278        0.15008151060851
N           -1.86232464012678       -0.39665949080574       -0.13669493372258
N           -0.01544090352883       -2.08309072983966       -0.30009705615374
H            2.45423763931674       -2.25201830757751        1.19929609644598
H            3.20560297595213       -2.82765900636795       -0.31034739688268
H            4.17723331658495       -0.99976737338635       -1.85395602236082
H            2.97036739428356       -1.62358712723436       -3.96571248508255
H            2.42720042168275       -2.59649176981841       -2.59841047725341
H            1.43461848399009       -1.25979138859402       -3.17832567350603
H            3.92686522289100        1.41870118549175       -2.13728854843760
H            3.63420625182791        0.70051765132197       -3.72103872642936
H            2.27236915577883        1.22880268011757       -2.72138615574746
H            3.01797628539378       -0.06532945665573        1.71876878079868
H            4.99660231428941       -1.15378798897985        0.57699845034787
H            5.42519496769770        0.30258052057394        1.47446867771389
H            5.30367235535865        0.36505109882675       -0.27958996818216
H            2.11993811026172        2.02651404271732        0.76827819946569
H            3.62043400784796        2.28443260142254       -0.12910891230819
H            3.65060293968666        2.26780552029720        1.63407631955760
H            1.79220197457992       -4.91622284536463       -0.29728182922326
H           -0.45801048811451       -5.91823209462762       -0.68325220680438
H           -2.43644893535872       -4.42209262049304       -0.63178132252135
H           -4.01750472240549       -2.98990176027881       -0.36532776529309
H           -5.65732666203719       -1.15732193416320       -0.05922244976987
H           -4.81444908484205        1.17068906904751        0.20804457694095
H           -2.95164285831803        2.46413018852893        0.30454106304855
C           -0.20540036174767        0.20136030191783       -2.02146205328422
O           -0.55936931577643        0.57898686618733       -3.05802428631979
H            0.27053472210474       -0.06998939632826        1.10222887656643
H            0.15811242324645        1.23536285728512       -0.30427035974255
