65
 energy: -93.248778317724 gnorm: 0.000157943375 xtb: 6.7.1 (edcfbbe)
Ru           0.05132562222406       -0.44238255619678       -0.65128026032264
N            0.41529666768864       -2.64120921269205       -0.34363960390785
C            1.49187732627323       -2.81163559423117        0.63873540051994
C            2.74916619889274       -2.11125699252821        0.12659124881932
P            2.29362980791872       -0.35926237385397       -0.36722518114681
C            3.11432699549418        0.66219398071389        0.90938124444860
C            2.38030433669155        1.67834707812551        1.50823462787212
C            2.97160354922827        2.49844516519203        2.45359641103219
C            4.29917965878575        2.31002166377837        2.80109161609794
C            5.03930492602116        1.30670947871370        2.19412192514306
C            4.45418729354438        0.48827271062140        1.24580263026495
C            3.45420335691230       -0.00118675924436       -1.73787735123214
C            3.09059756864630        1.09368272609436       -2.51887045115293
C            3.88364606804324        1.49946125546487       -3.57474736369376
C            5.05218314238142        0.81086068719968       -3.86248146750205
C            5.42257449298833       -0.27521725369247       -3.08759762268683
C            4.63198377225981       -0.68108986406260       -2.02532147898317
C           -0.79538793067716       -3.43494391618286       -0.07392232183960
C           -1.83018207700753       -2.63448867924850        0.71362862872507
P           -2.09457670808666       -1.05099353787635       -0.23459646719298
C           -3.17654193336361       -0.05886820512909        0.84590371958218
C           -3.73242778498322       -0.47673124163761        2.04882869754865
C           -4.55251956879216        0.38094522629754        2.76416147108653
C           -4.82473365368192        1.65153320708656        2.28652517236549
C           -4.26783966960897        2.07511555616871        1.08913300669822
C           -3.44616057716506        1.22460014249570        0.37522077701209
C           -3.36893622267446       -1.61820690636211       -1.43245415900849
C           -3.10799513662796       -1.54851781300210       -2.79399495684264
C           -4.04706159202275       -1.98691140808966       -3.71224507669104
C           -5.25789387611055       -2.49411204026645       -3.27226485291354
C           -5.53165625488044       -2.55235362985437       -1.91379630363578
C           -4.59492644575726       -2.11447846103090       -0.99677075035122
H            0.79758357775896       -2.96666561558863       -1.23517350245409
H            1.70172625971905       -3.88192542382187        0.80222418638291
H            1.17669203745446       -2.36587334926558        1.58777983272167
H            3.10861794889184       -2.63286617541215       -0.76894163545212
H            3.53193726336076       -2.12620991400577        0.88850592780390
H            1.34291985400723        1.80184486780956        1.22224359623177
H            2.39629591549671        3.28580425146770        2.91928845683128
H            4.76213920192329        2.94749323150215        3.54081599369616
H            6.07819891423869        1.16636860696403        2.45805562509965
H            5.04416048129704       -0.27882358975211        0.76245824432402
H            2.16321117190341        1.60703857214763       -2.28380411407641
H            3.59078529844649        2.34724704407238       -4.17759238705817
H            5.67282735987031        1.11938058543552       -4.69145443872652
H            6.33416954068883       -0.81172885333026       -3.31137603033476
H            4.94412029291916       -1.52976211685993       -1.43239133974122
H           -1.24359692579746       -3.71202044522468       -1.03698662079234
H           -0.53346222696463       -4.35972231006685        0.46142409647947
H           -2.74940316562125       -3.21585501166833        0.82513611102296
H           -1.43742645214502       -2.36743139223744        1.69947980934643
H           -3.52911885218464       -1.46353680710787        2.44004307144354
H           -4.98107652763543        0.05373601028741        3.70131494298228
H           -5.46633155707872        2.31418898362033        2.84951070600960
H           -4.47283991441107        3.06921767929159        0.71808743274666
H           -2.98145032038360        1.54130800884259       -0.55225847897024
H           -2.16391978789219       -1.13795602374188       -3.12695419442422
H           -3.83388024185949       -1.92979027724344       -4.77041425352649
H           -5.99249961954159       -2.83742095793284       -3.98640343635892
H           -6.48151231863566       -2.93772956522729       -1.57095366503219
H           -4.81916562581278       -2.14544022104906        0.06115587152862
C            0.18287469434651       -0.56852407361003       -2.47767435895604
O            0.36098458297919       -0.65521579223383       -3.62491523901127
H           -0.00510983912676       -0.26292467367737        0.92189632301696
H           -0.20700492519710        1.09706970083833       -0.76552092173063
