55
 energy: -70.195594162515 gnorm: 0.000165432546 xtb: 6.7.1 (edcfbbe)
Fe           0.11389125250595       -0.24161379748677       -0.29509489495190
C            2.28317457439982       -2.26399783080986        0.54424116245306
P            2.15955849423755       -0.43158772548140        0.28300535525584
C            2.59575672335384        0.32121134756411        1.92339241243879
C            2.14793780257247        1.78097190086309        1.87392459259803
C            1.89902171047834       -0.40545686078090        3.06869323644670
C            3.58936295795195       -0.13991484744439       -0.88229350874948
C            4.96036666309179       -0.41642337911763       -0.27514602942664
C            3.50343870021443        1.25679947434983       -1.49171303040415
C            0.90441540803188       -2.83963504254031        0.54758743769665
C            0.63031321328568       -4.12157816970008        0.99392571104115
C           -0.65390912715433       -4.62648313585913        0.88255561246561
C           -1.63631145395069       -3.83858471271749        0.29945410485607
C           -1.30954257567724       -2.56652755520569       -0.12050748986931
C           -2.25416604303203       -1.61253667732045       -0.78503241174667
N           -1.90387834057509       -0.26368534537508       -0.31159967345665
C           -2.46645964744449       -0.04940382846734        1.04712129280906
C           -3.97743217375111        0.13609279789031        1.11765154957707
C           -2.24604364484664        0.83034467389405       -1.23689717548762
C           -1.37283078838920        2.03830256719422       -0.89619547724481
N           -0.06348198797441       -2.07084487263071        0.02381066884040
H            2.83110036953012       -2.52623320387093        1.45268916254391
H            2.82515409964968       -2.68932022322957       -0.31114426892502
H            3.68314065142825        0.26266038762005        2.05459626568371
H            2.39700188655867        2.28728225574910        2.80521481095933
H            2.62231901064461        2.32026889693978        1.05597428055836
H            1.06802139761207        1.81921339252384        1.73740511381977
H            1.97431488354519        0.19314766318399        3.97499617449039
H            2.34564621258409       -1.37529182081908        3.27453673755275
H            0.84526413324274       -0.54197612863007        2.83938030039224
H            3.39751214659703       -0.86871816018771       -1.68429310695604
H            5.70993870112928       -0.45148722932618       -1.06467307390682
H            4.97981093007245       -1.36825529389823        0.25247730689504
H            5.24771550420283        0.37304825290499        0.41581568242354
H            4.14173771329955        1.32380769464638       -2.37152843562178
H            2.47719109013266        1.47746380668245       -1.79247860179780
H            3.83351226009955        2.01546476909730       -0.78542110690938
H            1.42279892511733       -4.71612161003181        1.42119625244468
H           -0.88543071002747       -5.61913029063242        1.23557800642274
H           -2.64310244169103       -4.20499220456428        0.17588680087517
H           -3.29746835892289       -1.86676699528922       -0.58293921552044
H           -2.08839906391683       -1.65787692493173       -1.86677245917868
H           -1.97602952804844        0.82267258816084        1.47423696507437
H           -2.16771894368317       -0.91314056154675        1.64144564861342
H           -4.27322877359625        0.09903757717346        2.16353401989936
H           -4.28920795853826        1.10076381936950        0.72549150859520
H           -4.52133147141904       -0.64582291341952        0.59418539553784
H           -3.30779920028712        1.08374716837369       -1.18847222717975
H           -2.01895581288872        0.49145341288069       -2.25072377472381
H           -0.30945638999941        1.73538509423551       -0.74620274391796
H           -1.39664665213962        2.75687733065164       -1.71242782586410
H           -1.71776016220971        2.53643186839766        0.00712658551461
C            0.43586357712843       -0.61242949467288       -1.98016355031291
O            0.74213873611365       -1.00532087363664       -3.01228880436069
H            0.01573035552813       -0.05298843093423        1.07817448836597
