47
 energy: -70.196339654116 gnorm: 0.000317719372 xtb: 6.7.1 (edcfbbe)
Co           0.11250360923610       -0.29837443048654       -0.38884142330687
C            2.38557947893971       -2.18952150919515        0.50342102941538
P            2.28776199439022       -0.51730034773950       -0.28376505190996
C            2.93030021297695       -0.70801274732617       -2.01797731580506
C            1.84817055443051       -1.42221194552794       -2.83283543736169
C            4.28220387903754       -1.39747561148738       -2.17489645461532
C            3.44532142999458        0.54548884203765        0.71350724609794
C            3.81038364845501        1.80224386946092       -0.07504982519637
C            4.69147965930716       -0.16855926630266        1.23609941849354
C            1.14721556105444       -2.90898583042038        0.08529741684740
C            1.09059472955572       -4.28902450655589       -0.06334562438907
C           -0.09862895265787       -4.87703537255326       -0.46410102288115
C           -1.20632544423457       -4.07543574874027       -0.68687850086840
C           -1.09064161190811       -2.70183083027695       -0.50509004312499
C           -2.19222227927406       -1.74650205187918       -0.61252446945871
C           -3.49397389244024       -2.06584552476142       -0.95577314656201
C           -4.46454489714484       -1.06870901232994       -0.90983612213028
C           -4.11820622893701        0.18975776178518       -0.47447873209372
C           -2.78082254350292        0.44514598355518       -0.13834032924934
O           -2.46362635500963        1.64059480689799        0.33368949224692
N           -1.83566198758306       -0.48698337564013       -0.26109101214577
N            0.07723935519240       -2.13931998797757       -0.13813314479398
H            3.29676917602787       -2.74167530915965        0.26553885397109
H            2.34938781119829       -2.02647695496535        1.58720714691721
H            3.00885017479062        0.32325301836798       -2.38760799346036
H            0.86287632296497       -0.96805868432924       -2.65066279728431
H            1.80250363163987       -2.48048286037239       -2.57822255810115
H            2.06469078830004       -1.34205299314279       -3.89653964370223
H            4.26416286479034       -2.41189162243538       -1.78281149602970
H            4.52808935764624       -1.45778375610447       -3.23416099181823
H            5.07682051058083       -0.84176581454322       -1.68479691924622
H            2.83175893863472        0.84518762777159        1.57688412217961
H            4.29476263697738        2.52283589750784        0.58107440235708
H            4.50057390451448        1.56923251562712       -0.88313504560898
H            2.92444817446130        2.27456100557665       -0.49695001537560
H            5.31360313106142       -0.54187657742234        0.42776516284138
H            5.28510780843799        0.54169059806267        1.80978471331752
H            4.44126668223692       -0.99573871821514        1.89565756883545
H            1.96644425274236       -4.88841045813088        0.12989225616266
H           -0.16258264204284       -5.94582891645342       -0.59694795462634
H           -2.14101810558902       -4.51266348633525       -0.99528743332539
H           -3.75915370036371       -3.06483242870920       -1.25773324647763
H           -5.48350780998988       -1.28867970484803       -1.18719408469128
H           -4.83461982764059        0.98795037018363       -0.37399642446633
H           -1.53535211803068        1.66527630803868        0.62795982184973
C            0.20855295894261        1.35051159174341       -0.93593211100727
O            0.36686769649650        2.35897378120169       -1.45535305865900
