55
 energy: -70.307643544499 gnorm: 0.000245499762 xtb: 6.7.1 (edcfbbe)
Ru           0.07031220892341        0.08899437740578       -0.36622135969519
C            1.76417277343438       -2.32252363634605       -1.42781746630093
P            2.15723136023948       -0.53098662936659       -1.07081317313976
C            3.60562556339338       -0.66495632120416        0.07965927237063
C            3.25661972389743       -1.54932210118624        1.27417020724577
C            3.99262110248989        0.73899629051005        0.53749243962501
C            2.78519552952782        0.07646044187345       -2.71437739158787
C            2.67239165306648        1.60065439642370       -2.75987693675319
C            4.17917189050292       -0.41239599842736       -3.08893317941604
C            0.71906559925075       -2.78259293601018       -0.45528824825526
C            0.55817120155347       -4.10039619681400       -0.05445409045369
C           -0.44686386205305       -4.42083100704153        0.84567938276778
C           -1.25858484143829       -3.41143477709870        1.34658867925366
C           -1.05172574630760       -2.10961712202883        0.92660392473612
C           -1.79238213485117       -0.91969241481227        1.49205655791341
N           -1.86470536786005        0.17016090314564        0.49601051528736
C           -3.09819747382201        0.04303278535506       -0.30861568942780
C           -3.27445653427203       -1.30896958129247       -0.98641671026390
C           -1.76878697478180        1.54714016148936        1.03185621692989
C           -0.95348105853641        2.40022156900737        0.04471742832963
N           -0.08971121482900       -1.82487104835111        0.02660853212378
H            1.34277532618898       -2.35073498934955       -2.44278382787371
H            2.64782845234900       -2.96652149310346       -1.40527278005526
H            4.42914654856404       -1.12433622654611       -0.48209304680292
H            4.07390037305933       -1.52644203517160        1.99278770870197
H            3.09604668820894       -2.58498989040874        0.98150811619970
H            2.35997675011829       -1.18125876376144        1.76955887142432
H            3.12282769823056        1.23885735369071        0.96411722899046
H            4.76883799391844        0.68827150637680        1.29876624878561
H            4.36967265178892        1.33801102100364       -0.28848289002714
H            2.06059003949273       -0.33636334619072       -3.43268342850638
H            1.69844234642989        1.92173406173397       -2.37175733436926
H            3.45014937301740        2.07423062077135       -2.16555752985994
H            2.76734011938511        1.95640089122565       -3.78422913508021
H            4.93939014386888        0.04647672602202       -2.46100386898147
H            4.39210111914876       -0.14015855585281       -4.12145604074742
H            4.25394211319280       -1.49501008796199       -3.00366180000029
H            1.21365453401753       -4.86287416606095       -0.44521952819538
H           -0.58879202875384       -5.44154711086592        1.16334932246191
H           -2.03298144493223       -3.62996883960589        2.06492312441924
H           -1.20894260340494       -0.56705135116002        2.35308391153082
H           -2.78932345804629       -1.20461738067967        1.84834496054595
H           -3.96081841636500        0.22964625066247        0.34626127737148
H           -3.07739455363038        0.82412269914731       -1.07392863312811
H           -4.09871578450839       -1.23799249885489       -1.69280992596783
H           -2.38351251636808       -1.59883620605743       -1.54318826395095
H           -3.51056709129609       -2.09726995658748       -0.27617089365763
H           -2.76304457584662        1.98497786202390        1.18607934165479
H           -1.24851571608982        1.52222042961123        1.99427844443105
H           -1.51293772139434        2.59931652850995       -0.87534629958659
H            0.07709719125901        1.93111233705985       -0.20508670235989
H           -0.71745217578320        3.36131996805583        0.50549843305618
C           -0.52473460187011       -0.00113519710617       -2.13085851726270
O           -0.79594931124914       -0.00899123029496       -3.24488426899978
H            0.64141427221279        0.23022683337072        1.05675394012415
