66
 energy: -98.532877322328 gnorm: 0.000635444461 xtb: 6.7.1 (edcfbbe)
Mn           0.04104299835777       -0.42291166244012       -0.76531371082743
N            0.36504364660814       -2.67926351364676       -0.44358860323843
C            1.51058872520972       -2.88380354818124        0.44293625754617
C            2.72326456306192       -2.17549804672846       -0.15274006073841
P            2.24214251767008       -0.41230835365291       -0.51832581813789
C            2.97639239222944        0.51910603668732        0.87116055376406
C            3.21858933220292       -0.01615878276486        2.13104820596249
C            3.72044723472360        0.78646263001481        3.14129529628031
C            3.97428466484409        2.12701335031698        2.90773963184678
C            3.71109295359603        2.67263613399569        1.66052089781819
C            3.20823004574150        1.87576402661632        0.65050026231315
C            3.46850044033425        0.03156478919689       -1.79780449604622
C            4.79900846335916       -0.36958727074031       -1.71327465945764
C            5.69808419454564        0.01716623252839       -2.69008196783036
C            5.28175678982619        0.81322928942677       -3.74636414825765
C            3.96320887338571        1.23082967857551       -3.82285653077522
C            3.05849174871811        0.84246643745356       -2.85008684356484
C           -0.83623968002649       -3.42875040006558       -0.05274730552311
C           -1.75441075856885       -2.55180854032198        0.79334665890895
P           -2.02917641487292       -1.02703179270735       -0.22896208011343
C           -3.37775971259903       -1.63216144182829       -1.31643626768624
C           -3.19564670879767       -1.65821052570215       -2.69256680244275
C           -4.19675942509881       -2.13639491834591       -3.52137680329117
C           -5.38792591271868       -2.58570521811670       -2.97719350133862
C           -5.58230076217958       -2.54536733872567       -1.60419513710238
C           -4.58500054249087       -2.06841245868734       -0.77496352964769
C           -3.03319719593265        0.04985821028666        0.84361250486894
C           -3.41706240978400       -0.23099263233001        2.14898852019562
C           -4.18213360995265        0.68469984337832        2.85303215856885
C           -4.56862843104443        1.87591638157083        2.26323637067253
C           -4.18408952395705        2.16214679138057        0.96164968614830
C           -3.41742855917469        1.25492346772584        0.25730188354482
H            0.65588307244834       -3.01732642337428       -1.36416582705750
H            1.27220177570223       -2.46855835903372        1.42902801605461
H            1.72487895701190       -3.95881574486619        0.56889210296205
H            3.58969232163311       -2.23738531191864        0.50940428067319
H            2.98429621237375       -2.63476463536839       -1.11482393317657
H            3.01363592499969       -1.05705015815450        2.34155479670198
H            3.90859633981805        0.36229159109697        4.11783850432506
H            4.36583569651681        2.74862265619131        3.70010006826788
H            3.89234544191784        3.72235688156128        1.47985888773523
H            2.98022725275579        2.29438669048777       -0.32196311329471
H            5.13354727714216       -0.97563108081838       -0.88222728375145
H            6.72970508537298       -0.29911796893078       -2.62634581734426
H            5.98893266081570        1.11175352851025       -4.50686077885897
H            3.63906859712031        1.85913402983526       -4.64008350299850
H            2.02363505911623        1.16369086127362       -2.88652637140050
H           -1.38169688103260       -3.71371356948089       -0.96094758898809
H           -0.56386538956336       -4.34834691707807        0.48630267034928
H           -1.26165267633584       -2.26482911804727        1.72800328519171
H           -2.69097808823666       -3.06822415911704        1.01946111268592
H           -2.26691558411647       -1.28936787005392       -3.10613693107773
H           -4.04686225462280       -2.15565233866968       -4.59144611189781
H           -6.17000121365379       -2.96072862314736       -3.62153413127540
H           -6.51734662859767       -2.88415920217409       -1.18086425058373
H           -4.74675065232598       -2.02112622584005        0.29425989376873
H           -3.12251322598693       -1.15373082891607        2.62927796052745
H           -4.47610860891900        0.46524238483985        3.87013631949811
H           -5.16485165339979        2.58462206411091        2.81988762424452
H           -4.47859300848469        3.09481059230382        0.50232224956899
H           -3.08654346039658        1.46439710782409       -0.75428753953049
C            0.09594902802627       -0.66701121872560       -2.52160916198650
O            0.19811018756763       -0.80755949372261       -3.67140428331816
C            0.01706381398793        0.03813869359667        0.94249240588221
O           -0.00708444648174        0.35801901949874        2.05736075931270
H           -0.20801658965761        1.11310316731680       -1.07489760847780
