54
 energy: -70.102975153367 gnorm: 0.000099961192 xtb: 6.7.1 (edcfbbe)
Ru           0.18500975630412        0.01512890335049       -0.74181875065721
C            2.43779005367629       -2.12325955197629       -1.28016342464325
P            2.41127205447335       -0.38170061607294       -1.04927744783505
C            2.90122967227028        0.01403101264124        0.72983795876019
C            1.61799664860628       -0.26693036470787        1.52792865969967
C            4.08879463309820       -0.78186908027205        1.25252927741787
C            3.76711157476653        0.30498114863548       -2.10656434154716
C            3.31758484762852        0.12481285069256       -3.55455578466946
C            4.02999198098859        1.77392239320141       -1.79347552573040
C            1.25402818520020       -2.77380195904916       -0.97614742304479
C            1.07980248369016       -4.19116515786398       -1.01428638917852
C           -0.08435803238668       -4.75159134757767       -0.58301736416542
C           -1.10222308587228       -3.93685757924562       -0.05337578148648
C           -0.90240277660114       -2.57332074545576       -0.06170026189644
C           -1.85473058117459       -1.61652389710136        0.62327184432212
N           -1.95640909789932       -0.32372881896889       -0.07449527773241
C           -2.41608470714541        0.75585513459143        0.82651694794981
C           -3.51655821778670        0.43013554214574        1.84240048649019
C           -2.78034309427233       -0.45178132310539       -1.29668166201102
C           -4.28595605463657       -0.67743841517826       -1.13699454958805
N            0.19470625219307       -2.00801188098391       -0.56023739721120
H            3.30833685630628       -2.64827790167098       -1.64172437156111
H            3.11001640007218        1.08908076321236        0.78180822752431
H            1.67406432306697        0.16163038752866        2.53243261746438
H            1.46769862453583       -1.34663803639244        1.62829859167199
H            0.74128005651014        0.21795598222152        0.99847026001680
H            4.99509649285016       -0.51562611836665        0.71218274781701
H            4.25000889587929       -0.58697301298055        2.31290793446212
H            3.91131943498657       -1.84923070496725        1.11713595597221
H            4.66600169872760       -0.29879395490051       -1.92047996517742
H            2.41958118172138        0.71674207445855       -3.73254287612764
H            3.07972668493297       -0.91956318577450       -3.75566450237778
H            4.09446524935063        0.44637822490462       -4.24671368901350
H            4.54139480585340        1.89461158342151       -0.84086117026771
H            3.08238193210477        2.31213554076998       -1.75757470980996
H            4.65180419036522        2.21724431065234       -2.56994084599144
H            1.89317228271917       -4.79640623713592       -1.38578967223849
H           -0.22563863904839       -5.82297885034533       -0.61791918602017
H           -2.00614697155141       -4.36501118665949        0.34936616308681
H           -1.44655891836570       -1.42943056942872        1.62897429125319
H           -2.83598606361042       -2.09057543063729        0.74832348673694
H           -1.54311074607037        1.10761439810423        1.39556972544752
H           -2.73758222888280        1.58264228602213        0.18777672070548
H           -3.78376137134995        1.35314090611605        2.35278070134350
H           -3.17295006468912       -0.27548620030807        2.59584150403553
H           -4.41249061770071        0.03022949326258        1.38104900989562
H           -2.36450985195915       -1.28953293214447       -1.86847236083660
H           -2.63111507163675        0.46260277109667       -1.88185260696150
H           -4.78342929142642        0.20604761687780       -0.74631692434862
H           -4.51281456198592       -1.53260809254804       -0.50473167006601
H           -4.69787819740949       -0.87954864804473       -2.12332664635315
C           -0.13666748487090        0.06238829821473       -2.53191974658784
O           -0.29282827022707        0.10584384675790       -3.67995848132888
H            0.11971757685954        1.58634806399395       -0.69531985245640
