60
 energy: -71.525172961167 gnorm: 0.000172700834 xtb: 6.7.1 (edcfbbe)
Co          -0.29303464779647       -1.07238514396095       -1.25835028107297
N           -0.11844959365519       -2.71001387597843        0.10362673860905
C            1.28630497500991       -3.12263901455224        0.18017126153293
C            2.16625897293713       -1.98079728710743        0.67283867539099
P            1.84267300366986       -0.41562752423776       -0.29096091691099
C            3.18664601916254       -0.47444489306409       -1.61944369012931
C            2.77254936633717        0.45145722647200       -2.76222806722380
C            3.46879388417236       -1.85944968618814       -2.19303162878277
C            2.77927629522327        0.73997189727145        0.89436541460483
C            2.10551576167211        0.89133918991540        2.25567067928794
C            2.93919899859383        2.12733794190974        0.27528135234138
C           -0.78259290532898       -2.62908819788773        1.42329794774675
C           -1.29745501508372       -1.22086341415255        1.73158397347026
P           -1.88561026117921       -0.46421077745330        0.14263825534282
C           -3.45586517305054       -1.46506656442761       -0.12968373995590
C           -3.86666857440149       -1.43239051706091       -1.60036885239082
C           -4.63124845013152       -1.14087760867896        0.78766968455950
C           -2.51305383542964        1.20857828619955        0.69096980119803
C           -1.35781934011259        2.03629903668504        1.24468088773851
C           -3.12672984677044        1.92163687579399       -0.51218687545742
H           -0.60556537681671       -3.42101325610391       -0.43854075092075
H            1.60097750526207       -3.42449597723435       -0.82049423284847
H            1.40005110355355       -3.99297855623522        0.84801283502353
H            3.22133928031429       -2.25714638935879        0.62822100460528
H            1.92121341907364       -1.77263229675802        1.71570534865457
H            4.11219103561971       -0.10144605866480       -1.16240791079774
H            3.57634951799901        0.54477248727558       -3.49198799732045
H            2.51037314680615        1.44346955029465       -2.40386545019793
H            1.89508387753270        0.04107116529039       -3.25888171616081
H            4.21347533742322       -1.77300421954418       -2.98440019490127
H            3.85841190140324       -2.54891592077343       -1.44759454213597
H            2.56813089926633       -2.27970319147046       -2.63398360598849
H            3.77144257224835        0.29499607980291        1.04736324429023
H            1.13122763662690        1.35719658179100        2.14408774628164
H            2.71366157902030        1.53414932192742        2.89227754131933
H            1.98716637503650       -0.05786055213484        2.77333092051025
H            3.34911646380666        2.82111073246541        1.00915920020973
H            3.61062601109078        2.11321943640218       -0.57872597353530
H            1.97213472635175        2.50983734282130       -0.04982419099055
H           -1.62307572299163       -3.33069018135077        1.44958170366026
H           -0.08258112765415       -2.94313292157695        2.20582393810510
H           -2.06797804898010       -1.24970686815252        2.50563712810069
H           -0.47195537798969       -0.59662781627038        2.07933418182863
H           -3.13576254763739       -2.49397470255403        0.08367805591800
H           -2.98879040748846       -1.58483402380148       -2.23064333300505
H           -4.31089120865581       -0.47833011933862       -1.87122416331558
H           -4.59289372371974       -2.21702274798786       -1.81124132184189
H           -5.40673020810429       -1.89621067730434        0.66037746417933
H           -5.06771362486692       -0.17485817529350        0.54610421926637
H           -4.33495081538185       -1.13856564104223        1.83528407810135
H           -3.26812935129842        1.07459131038431        1.47359803833076
H           -0.51404592856544        1.99328996033405        0.55518550121217
H           -1.04861756417618        1.67197770330791        2.22219803689848
H           -1.65632501386499        3.07817485139378        1.35569302493826
H           -3.37895147895439        2.95068348001150       -0.25730090034789
H           -4.03328882997144        1.42776602901459       -0.85194730330033
H           -2.41448243061131        1.93242744381313       -1.33649131513910
C            0.00180753006972       -2.01836516603986       -2.67269251824720
O            0.06987073098032       -2.61270908105905       -3.67445111399345
H           -0.55055883113738        0.00416681366525       -2.19492667622056
