66
 energy: -98.534497305313 gnorm: 0.000138186271 xtb: 6.7.1 (edcfbbe)
Mn           0.19298125308620       -0.20867349810173       -0.22501940532383
N            0.06566032935174       -2.46693881061677       -0.08723039256490
C            0.89077527048827       -3.05413335022811        0.97211283407907
C            2.28961613765728       -2.42612944616891        1.00990879647818
P            2.29530785626873       -0.81452144650587        0.06770144783233
C            3.24367518960713       -1.22235216175611       -1.43772442927275
C            3.24976597891884       -2.47198531634167       -2.04776705957943
C            3.91125037416333       -2.65671023783201       -3.25001408118490
C            4.55783117033850       -1.59575026495713       -3.86021008428308
C            4.53303046424964       -0.34014963559154       -3.27133775296538
C            3.87363253387362       -0.15264516276265       -2.07280672103534
C            3.58037594031774        0.07201553238607        1.00898756151407
C            4.86172963525354       -0.45728928467202        1.14584197197858
C            5.80946537351051        0.22154282219592        1.88804745236227
C            5.48678565327700        1.42746065970309        2.49339581528275
C            4.21513602207204        1.95825137466159        2.35344207687739
C            3.26141584479396        1.28275798361462        1.61081391818617
C           -1.31032387386008       -2.95864827163940       -0.04063710811680
C           -2.15085429122755       -2.23662369801958       -1.08531668219218
P           -1.95480003170352       -0.41950241717494       -0.74382379223277
C           -3.35798264750137       -0.03961936759711        0.37124412120954
C           -3.13271388883727        0.86931459049370        1.39918118695897
C           -4.16330611865263        1.23640246901436        2.24654172609978
C           -5.42894502557831        0.70334225451672        2.06664765551447
C           -5.66592181426981       -0.18053324808473        1.02508589669260
C           -4.63961947246542       -0.54602854006643        0.17366966082996
C           -2.65937099337151        0.34814937145495       -2.24414907874912
C           -3.44749667571334       -0.30344285906085       -3.18579850201620
C           -3.95790659724181        0.40114810207987       -4.26326342886357
C           -3.69521279053642        1.75319077800514       -4.40504712479297
C           -2.91370547690782        2.40828730246379       -3.46575964156602
C           -2.39853810413169        1.70881879780183       -2.39146077880562
H            0.46632343200949       -2.74967249301040       -0.98699046626417
H            0.37994814394455       -2.86772145317572        1.92302022896067
H            0.96275715125410       -4.14627053717903        0.84482376139328
H            3.05521961662467       -3.09530616706902        0.60788982060454
H            2.56448898227548       -2.18386652275039        2.04111398274815
H            2.74554466016278       -3.31622400407670       -1.59289967180589
H            3.91692500437872       -3.63340930338535       -3.71434785128018
H            5.07172957455828       -1.74452998744274       -4.79888802004898
H            5.02359991292173        0.49323506200507       -3.75358501965688
H            3.82923740401047        0.82691339435070       -1.61165715798835
H            5.11346831631146       -1.39381620213408        0.66470313782903
H            6.80412911238819       -0.18768103193185        1.99501238756399
H            6.23204319949180        1.95453505372663        3.07167891569138
H            3.96645267397782        2.90006695456046        2.82098727876027
H            2.26165632180128        1.68109518134180        1.47684846928046
H           -1.71633800587459       -2.74028656532675        0.95613666665774
H           -1.34770583015813       -4.04992726020948       -0.19398662140376
H           -1.75552780140208       -2.42648381959945       -2.09121012519451
H           -3.18935668037836       -2.56920196822868       -1.03694584597479
H           -2.13957862393363        1.28675622115108        1.51546470860385
H           -3.97891406683158        1.93946143916536        3.04610524022860
H           -6.23499443443055        0.98385275283752        2.72931406779228
H           -6.65799226066313       -0.58186321534025        0.87257428556384
H           -4.84659149580812       -1.21375674918043       -0.65132750030046
H           -3.66423309620062       -1.35863250866070       -3.09750900000705
H           -4.56440921565647       -0.11094174517052       -4.99742830603814
H           -4.09657360234613        2.29493569695511       -5.24949386663208
H           -2.70353468214862        3.46250281121486       -3.57559067447536
H           -1.76932047375854        2.19485478227760       -1.65349896409432
C            0.43596051775932       -0.15238741101156       -1.97974100077530
O            0.58362883769300       -0.11070466077276       -3.12899149634827
C            0.01427744197711       -0.10481965194262        1.53517004896180
O           -0.04182718899701       -0.05246616714079        2.69377468015652
H            0.33061235319523        1.36585788283106       -0.24611201098976
