58
 energy: -81.948663140394 gnorm: 0.000130143218 xtb: 6.7.1 (edcfbbe)
Ru          -0.12783928798057        0.03151588198002        0.72959829215616
C            2.06015848429660       -2.09443418228488        1.50342769608127
P            1.98344392437578       -0.22878324990275        1.45992255297865
C            3.37100506444754        0.19991230905848        0.35431999591782
C            3.69882052989528       -0.58587650944496       -0.74618774400508
C            4.69047006641104       -0.17873316177889       -1.62096804531879
C            5.35258606179223        1.02017420498432       -1.41301606007202
C            5.01380828874788        1.81957214938685       -0.33220255317161
C            4.02378881427323        1.41545291267732        0.54361090074283
C            2.70048997948840        0.16887926673731        3.08734507345740
C            3.98857939514892       -0.22862477529306        3.43655605286249
C            4.48606987711391        0.08166659265160        4.68875421550025
C            3.70607580797663        0.78916186288342        5.59175032270171
C            2.42627500717245        1.18992111413601        5.24330596510534
C            1.92244514936769        0.88141183496045        3.99100798113442
C            1.14467715197884       -2.62572920543151        0.44463047019468
C            1.32284587850298       -3.87896302387363       -0.11804693891785
C            0.42413954227255       -4.34198154195150       -1.06920613431082
C           -0.63540711211419       -3.51879367139723       -1.42481396268166
C           -0.75090805278805       -2.27162506386366       -0.83618228683968
C           -1.83203361027872       -1.29914032000508       -1.23952139440577
N           -2.18855529674950       -0.38196438664519       -0.14260092807586
C           -2.73581010492128        0.88761897826364       -0.67552208035642
C           -3.97731873049540        0.79555122188335       -1.56991696384922
C           -3.21594245855038       -0.99919741266444        0.72588289849163
C           -2.87337391549827       -2.36901217385971        1.30123762422468
N            0.12636564746795       -1.82211593845517        0.07704241520062
H            3.07280053786256       -2.50058050468926        1.42593138525562
H            1.64945629903955       -2.35294517055506        2.48988978270447
H            3.17384164974482       -1.51634493775441       -0.92633946141236
H            4.94363080631489       -0.79611618780939       -2.47171069272508
H            6.12496827091392        1.33620041928504       -2.09926376910258
H            5.51911272130431        2.76229677278439       -0.17757103475753
H            3.74112839649271        2.03824117521126        1.38326864206749
H            4.59841555569997       -0.76938766093634        2.72449317895701
H            5.48526047919647       -0.22583633423032        4.96292655661757
H            4.10122817511448        1.03056252412295        6.56813130955816
H            1.82283773985686        1.74472689968079        5.94723902519415
H            0.92763955758729        1.17867755747389        3.68306792596093
H            2.15857140023209       -4.48808158880979        0.19207291747157
H            0.54467176429774       -5.31513350338330       -1.51778102642282
H           -1.36103886163401       -3.83677395863750       -2.15836049693071
H           -2.71265425697108       -1.84703380234427       -1.60647801570639
H           -1.43596177162799       -0.69888236564493       -2.07217745888294
H           -2.95544336594823        1.52661407638698        0.18531273340197
H           -1.94074231552340        1.37768597175398       -1.24655702023429
H           -4.17675392280805        1.78886855451384       -1.96523893852483
H           -3.82075988177829        0.12767286510017       -2.41398761452087
H           -4.86151265140092        0.47733890569665       -1.02425336958450
H           -3.38387059819197       -0.30498968360069        1.55445309667376
H           -4.14900372296780       -1.10742893448445        0.15633421603827
H           -1.93037594701837       -2.33497927143393        1.84348984443631
H           -2.81704466202624       -3.13694696434623        0.53234427634059
H           -3.65591166003857       -2.65078894329469        2.00301029103641
C            0.48112359355947        0.78712174384178       -0.83865778852042
O            0.94784869613896        1.24739603437583       -1.79792769571359
H           -0.61786015989233       -0.49080568256110        2.12905328057613
H           -0.46462031823727        1.47161210194325        1.28892530456625
