56
 energy: -71.032418874984 gnorm: 0.000334409519 xtb: 6.7.1 (edcfbbe)
Fe           0.04985379854542        0.03530522164997       -0.66496502185814
C            2.08227877224331       -2.01696555109818       -1.68977185962372
P            2.10621858567597       -0.21355108831254       -1.21036463186192
C            3.48030806620479       -0.19506667793693        0.05711840614150
C            3.12224518681608       -1.12996209311208        1.20811771878288
C            3.63504826324990        1.23397715567848        0.56706392008325
C            2.85188665854176        0.52965395472640       -2.76042307559372
C            4.30516948628996        0.15978940070481       -3.04066024532597
C            2.63036106320819        2.04006789264348       -2.77945742642814
C            1.01268274104935       -2.65080434603383       -0.85514072434193
C            0.95418116639664       -4.01460805695394       -0.64433179960718
C           -0.07134860213052       -4.55694845863905        0.12017317955267
C           -1.00053832946282       -3.68482388717148        0.67112780293800
C           -0.87774891578327       -2.32935231626174        0.44003412247755
C           -1.76782807354802       -1.30788754427868        1.08322111557410
N           -1.98591079020655       -0.16695159414356        0.17861453067920
C           -2.37843157458008        1.03273566878858        0.94264758361769
C           -3.68154489917731        0.93324421990557        1.73771847523064
C           -3.00885253736043       -0.55065479678604       -0.81086215196205
C           -3.38105512288242        0.57126451719237       -1.77118162214192
N            0.09893368823816       -1.80199983854230       -0.32939905999686
H            3.04164881177058       -2.53203376253850       -1.58718234643499
H            1.77970917995644       -2.05207356441768       -2.74423096989421
H            4.40639777427682       -0.54281541590549       -0.41875375580487
H            3.08016059031696       -2.17072074842916        0.88980289393912
H            2.14962025278819       -0.84898925858054        1.60840711769667
H            3.86223736692665       -1.04752285283058        2.00409623238902
H            4.07613620799214        1.88018173666395       -0.18842509661493
H            2.64886598509652        1.62141955724755        0.82071203977908
H            4.26813291122015        1.26357356963664        1.45366366980575
H            2.22091855932624        0.09781773838417       -3.55191415972717
H            4.45873169703485       -0.91633363631397       -2.98245526701239
H            4.97513104294895        0.64980205878438       -2.33746260183238
H            4.57745228374661        0.48704111450663       -4.04407779757628
H            3.35680260319532        2.55604739407574       -2.15627518605809
H            2.71724518414258        2.42774474862171       -3.79424820981905
H            1.63335726180440        2.25984345365303       -2.39752332856245
H            1.70881216653316       -4.65217887945206       -1.08150402381902
H           -0.13808904360648       -5.62063378464533        0.28582438256636
H           -1.80755753210645       -4.05302080548217        1.28666004779099
H           -2.71566347378507       -1.76531344282818        1.40185410728640
H           -1.23892735439395       -0.92796393375908        1.96564524428892
H           -2.43358220599004        1.86250195795509        0.23896169390158
H           -1.55152816789072        1.25269532440951        1.61946578853988
H           -3.64434070876524        0.13470710645939        2.47530876970925
H           -4.54290622307397        0.77612027537944        1.09289196955414
H           -3.83076367884657        1.87076877417702        2.26847129654180
H           -2.60275823887364       -1.39148404323041       -1.38225967738379
H           -3.91339783293202       -0.90908951912113       -0.29558431331349
H           -3.86593128372246        0.15374963788813       -2.65095123165480
H           -4.06171503598197        1.28519745606931       -1.31403317469930
H           -2.48060739733644        1.09492056205529       -2.08489528959129
C           -0.34309132144107       -0.10764604033987       -2.35110583457578
O           -0.50591067154154       -0.17932804980024       -3.49953673738764
H            0.46700896859191        0.38701771811065        0.69870773087129
H           -0.06045454714205        1.48469848081388       -0.84561252607068
