61
 energy: -71.682964291845 gnorm: 0.000403968737 xtb: 6.7.1 (edcfbbe)
Ru           0.07943020880292       -0.02452828415808       -0.09480694034918
N            0.07982867194864       -2.11168422780778        0.69659493983907
C            1.17729200247751       -2.86516865716280        0.08369823608683
C            2.51140403765861       -2.18456956641381        0.39188399219898
P            2.34240251004211       -0.32319252639332        0.17700124323382
C            3.22516761149454        0.30541530380261        1.71015174347243
C            3.28111366483717        1.82702672853444        1.58989422875350
C            2.51218940409106       -0.08018367218999        3.00272322728643
C            3.66015404691202        0.04007694226131       -1.11864647606188
C            3.31724021597219       -0.64816469537598       -2.43784537074905
C            5.09709894245691       -0.29300154588487       -0.71285990964203
C           -1.21986700188523       -2.80486259404768        0.69057506304708
C           -2.16230502582153       -2.24780623588948       -0.37689425341151
P           -2.18993352421449       -0.38665986330957       -0.20383734703397
C           -3.09993916003403        0.11478527498073       -1.76010989811726
C           -3.05919283269326        1.63954351863302       -1.85931497147299
C           -4.52061318696252       -0.41077237867679       -1.94334326777383
C           -3.49560336441105       -0.05289119532718        1.12384233289200
C           -2.83697557385604        0.41866798273070        2.41742094976271
C           -4.46821776864944       -1.19324201509058        1.42403951779216
H            0.34988730568632       -1.95834785639619        1.67168817767866
H            1.19595502375732       -3.90019663035169        0.46588417708360
H            1.01520324042640       -2.90741787434485       -0.99910272393839
H            2.80108471239169       -2.39367409739540        1.42574524461508
H            3.28972381479933       -2.58342949132842       -0.26071904149001
H            4.23402439014540       -0.12194835451956        1.73338392969022
H            3.63407518754744        2.27614724899074        2.51724046090313
H            3.94044254725547        2.14496253186330        0.78484024763181
H            2.27663559717112        2.19985821959283        1.37895038862142
H            2.50144943160891       -1.15786197762209        3.16343341173728
H            3.02150587053054        0.37517836885350        3.85108612543808
H            1.48733383176936        0.28693393284511        2.98345006705866
H            3.57188499977337        1.12266889571992       -1.28403116002184
H            2.32130758822895       -0.36607123779591       -2.76596544864749
H            3.36524212996425       -1.73298255737499       -2.35115284617964
H            4.02073406274096       -0.34328583212100       -3.21201501101426
H            5.74202419187259       -0.21220387583852       -1.58736922313342
H            5.18133688760380       -1.30887819030260       -0.33096813318742
H            5.47719073681272        0.39496335852801        0.03737996380867
H           -1.07257997223749       -3.88374180328124        0.53805602980848
H           -1.69056226813592       -2.66360178580118        1.66980392123612
H           -3.14656511008002       -2.70917580356121       -0.28834182530916
H           -1.77184911193058       -2.45930358761699       -1.37814174477372
H           -2.47730885488075       -0.29083898963588       -2.56797560181167
H           -3.71724332809838        2.09934252765572       -1.12305820145745
H           -3.37260255557120        1.96905428171314       -2.84895618850959
H           -2.04077304234621        1.98986242408050       -1.67576174416907
H           -5.19740997536918        0.00928790333385       -1.20300162768848
H           -4.88315563714155       -0.11592257345370       -2.92802109040905
H           -4.55565715595537       -1.49678442146958       -1.88737626099410
H           -4.06239900254700        0.79618088234511        0.72011386247665
H           -2.28014710360637       -0.39001342706730        2.88942520384757
H           -3.59217531376314        0.77013795150485        3.11992420106320
H           -2.14303909472390        1.23078134126974        2.20943395809240
H           -5.23372407351814       -0.83076025894966        2.11017114940659
H           -3.96107103080266       -2.02577921178636        1.90823944356708
H           -4.96865074922207       -1.55888486011649        0.53191952173439
C            0.06875184766474       -0.53701061699675       -1.85179891388637
O           -0.04893527695665       -0.89327857307852       -2.95777473454925
H           -0.01400724249749        0.46834077817707        1.38523798366865
H            0.12652431909385        1.49168395986327       -0.49085856362691
