58
 energy: -70.471569778566 gnorm: 0.000266306063 xtb: 6.7.1 (edcfbbe)
Co           0.04965910736907       -0.64497985616715       -0.36733779598186
N            0.08208808938031       -2.59591325040222        0.07301314549973
C            0.43316287920381       -1.94753302256447        1.23877087696733
C            1.93148243925035       -1.64973383052647        1.38088919047259
P            2.17822920551794       -0.15407495942262        0.30190771172161
C            3.69161998297324       -0.63025302968102       -0.67992142978014
C            4.27683698790112        0.57622319157893       -1.40939790984767
C            3.31373213666871       -1.71774440407341       -1.68319711911205
C            2.84678389439857        1.14009311306020        1.48993392052061
C            1.72088065511087        1.55002125876358        2.43730315686851
C            4.10416322062520        0.74494299091762        2.25783338451071
C           -1.24536868867996       -3.16184242765819        0.09405341307219
C           -2.38185300618666       -2.21699692503668        0.56473264842642
P           -2.19213016746266       -0.47003481177603       -0.05631382219961
C           -3.21312865844345        0.36160207579429        1.29580845557297
C           -3.71942254328597        1.74168058517771        0.88903551912322
C           -2.36575098503286        0.49727743517402        2.55953059587499
C           -3.37513280874937       -0.43173115121867       -1.50990895313291
C           -3.20808767026886       -1.66119394554940       -2.39998345007357
C           -3.11722009677867        0.82128470788415       -2.34665758685144
H           -0.00954886979730       -2.34990679822808        2.16490909453170
H           -0.04836988525952       -0.80206010362418        1.16604000556159
H            2.17896841569162       -1.44191989096978        2.42464538452480
H            2.52589802202128       -2.49846257373849        1.03865920406500
H            4.42485754096916       -1.03659948680054        0.02912790488711
H            3.50289693544746        1.05923612244711       -2.00557318841548
H            5.07265380986467        0.25526234854831       -2.08046056828385
H            4.69017153536805        1.30922232476556       -0.71993779568193
H            4.20873445645391       -2.19102452688698       -2.08516081693526
H            2.75617135226945       -1.28402778581989       -2.50970841710595
H            2.68520888968238       -2.48198348583070       -1.22884052145348
H            3.07380007865020        2.00335414097826        0.85072803736156
H            1.46070597296251        0.73773107070237        3.11550956129766
H            2.01855244222132        2.40858214809016        3.03766120366244
H            0.83360406587211        1.82343394098455        1.86474696508920
H            3.94726664679001       -0.16079385482526        2.84025229227476
H            4.94643817527821        0.58285629884512        1.59035891690848
H            4.37261095194054        1.54411731590569        2.94841763620423
H           -1.24719084436989       -4.04214703427498        0.76065598578772
H           -1.45417792269660       -3.51691197096082       -0.91855058129994
H           -2.37614867095965       -2.16621162771259        1.65765282247767
H           -3.35058876126757       -2.62194297868258        0.26487116496225
H           -4.07141075128652       -0.29288642234751        1.49844990870397
H           -4.45446094512840        1.68092249859605        0.09089782673779
H           -4.19329748793770        2.22619904056814        1.74266538296365
H           -2.89037866641086        2.36848953239425        0.56224194371955
H           -1.98808351613708       -0.46278342677835        2.90826268032177
H           -2.95628434625542        0.93325192830658        3.36466769321678
H           -1.51589310703807        1.15195505044397        2.36827659706241
H           -4.39696903074440       -0.40985152460519       -1.10756164444403
H           -3.57402976516798       -2.56749647750036       -1.92410960883343
H           -2.15755406453604       -1.79950267966204       -2.65256599509137
H           -3.76490552102198       -1.52202152644013       -3.32596306196172
H           -2.13461832968981        0.75544734230328       -2.80873741964724
H           -3.86248305887879        0.90784167851767       -3.13658933977936
H           -3.14304571997733        1.72763205237602       -1.74868698773375
C            0.17413620101124       -0.52117648040149       -2.07982821294988
O            0.29483201127914       -0.28727405344400       -3.21051590080174
