53
 energy: -69.988198530999 gnorm: 0.000127694819 xtb: 6.7.1 (edcfbbe)
Co          -0.03278985439677       -0.26073089094391        0.00120902956764
C            2.13285840790411       -2.16093091611127        1.02665807300464
P            2.04291250165724       -0.43281482726089        0.71319287414644
C            2.33295133013036        0.36213428045777        2.39523117696751
C            3.73501135683379        0.14000204058128        2.95293185276778
C            1.92783224994960        1.83109863680291        2.46814054531920
C            3.44566144943280        0.00412308812637       -0.45811324382639
C            3.74207057948924        1.49856245152287       -0.52934949443133
C            4.71999870181195       -0.80975257605494       -0.24802945403771
C            0.94994614094767       -2.82308963511758        0.79022498038993
C            0.76548465599466       -4.21466543555696        1.06545740163834
C           -0.42945169952914       -4.81336203121781        0.82140033268331
C           -1.48235672622609       -4.05511748212212        0.27706653801632
C           -1.25736870577967       -2.72332701891501        0.01170831406296
C           -2.31103441190381       -1.88522704545548       -0.65924620156105
N           -2.09377118927714       -0.44660660084622       -0.43378038094225
C           -2.55291446876625        0.32446586023614       -1.60578220432161
C           -4.03190911287731        0.17176193800577       -1.97007406310561
C           -2.79246280939769        0.00550128893022        0.78262296257664
C           -2.08890901396381       -0.43006279852518        2.06288155115551
N           -0.09929233996183       -2.10391379376007        0.25718808135514
H            2.99652056613802       -2.65987270013155        1.43624643699051
H            1.62858768429783       -0.21277665170974        3.01658010875571
H            4.46233360554857        0.77286135420611        2.45008333988023
H            3.75368545526419        0.38800398406738        4.01437429645036
H            4.03364717706389       -0.90032065644901        2.84269048632525
H            0.92427820150531        1.96804991262553        2.06865360089869
H            2.61051583287906        2.46051092529141        1.90418358978577
H            1.93539110788589        2.16585367923012        3.50540677681630
H            3.01391987187454       -0.30252409379054       -1.42344785827687
H            2.82219536076083        2.07098298023490       -0.62151180838116
H            4.27725599531808        1.83354707838852        0.35617344393437
H            4.36548826266434        1.71243471105881       -1.39748044450206
H            4.49469085333077       -1.87361229809197       -0.22707129249673
H            5.22212937576943       -0.53985704003676        0.67663794107908
H            5.40866133716429       -0.62548407101371       -1.07270006020642
H            1.59874782578176       -4.76408414411476        1.47842219819378
H           -0.57962997185372       -5.86298913562556        1.03529457718273
H           -2.43692638373999       -4.50675736520014        0.05696749305702
H           -3.31127555675472       -2.19544977492358       -0.32889597964466
H           -2.23689191481525       -2.08258121642440       -1.73460606796340
H           -2.35160863803661        1.38111196250352       -1.41605140081624
H           -1.93898144442716        0.02141065723112       -2.45891571458020
H           -4.29249959084426       -0.86216081827707       -2.18177274869212
H           -4.67728603782365        0.54241240172436       -1.17785578208831
H           -4.23017952858405        0.75778351871183       -2.86447914873926
H           -2.82223163429788        1.09808694488235        0.75794997315385
H           -3.82512511191015       -0.36960615622774        0.79271143075434
H           -1.02635313024696       -0.14617644431796        2.01261472009547
H           -2.15843390837404       -1.50552264999251        2.20999591881277
H           -2.54272413087374        0.06644321005432        2.91797943512961
C            0.08388299939429        1.40371102963977       -0.42640918088067
O            0.19912720926296        2.49488008828216       -0.79955559494278
