56
 energy: -80.746591248041 gnorm: 0.000459356702 xtb: 6.7.1 (edcfbbe)
Fe          -0.13076909654475       -0.22362851436947       -0.84386907583305
C            2.23922419881218       -2.08977418436609       -0.57323059640918
P            2.01738834875083       -0.39939504510927       -1.01482871269507
C            2.81576354496726       -0.16784867993964       -2.65523110148957
C            2.91435987956918       -1.23702510828586       -3.53691004177359
C            3.44328616121858       -1.05410751024549       -4.80185513957617
C            3.86887487499260        0.20299747214620       -5.20001308179921
C            3.75950734685548        1.27824435472929       -4.33144047316609
C            3.23046127250561        1.09521372938405       -3.06740648134694
C            3.22449921746399        0.52059307238445        0.00986782137012
C            2.80775953952274        1.37467957349425        1.02208333999121
C            3.73631510741651        2.00434145784915        1.83229115264348
C            5.08971791525306        1.77821534850579        1.64187134190787
C            5.51265318291328        0.91800509243805        0.63989891691749
C            4.58654623974757        0.29182245300367       -0.17319023722644
C            1.07454058324064       -2.79336615600421       -0.33807202688906
C            1.01324932540794       -4.16977471548144        0.03850279956953
C           -0.18980444567108       -4.78865071654548        0.19270231889800
C           -1.38274203677521       -4.07518094087590       -0.02810737574261
C           -1.28317304792996       -2.74945404138583       -0.38498169909356
C           -2.46976325091688       -1.87242201655096       -0.70943502897202
N           -2.17459050817239       -0.50245028671249       -0.25208481668065
C           -2.38111822718477       -0.40461273189600        1.20727036717379
C           -3.83045457156792       -0.42991388736971        1.69568146503423
C           -2.87881384371567        0.55070272459598       -0.99624097332152
C           -2.13206902443335        1.87933095456589       -0.83993751728488
N           -0.10879926444441       -2.12665017940580       -0.51488145732819
H            3.22057821749573       -2.51649936404474       -0.41964886968713
H            2.57186585049663       -2.21216824074144       -3.21354508609782
H            3.52266596176140       -1.89132445040237       -5.48211189798440
H            4.28208278790299        0.34691491625122       -6.18872744720156
H            4.08537078915813        2.26062611329135       -4.64551660945624
H            3.13999472668184        1.93242779889227       -2.38484947848625
H            1.74814186145154        1.52932658843571        1.16792693603288
H            3.40676130532159        2.67369910894744        2.61548359832419
H            5.81629534476594        2.26945501223118        2.27422545326767
H            6.56903680769549        0.73726598717862        0.49401144810733
H            4.91439529409148       -0.37595228338867       -0.95989584784314
H            1.94231595348578       -4.69877475707986        0.19046088880037
H           -0.23930697621626       -5.82979612446706        0.48030602230339
H           -2.34412298333816       -4.55157551264872        0.07586388765169
H           -2.58604621989354       -1.85691659716768       -1.79857676238371
H           -3.39177347271287       -2.26882237845585       -0.27120741218890
H           -1.90496503832441        0.51282169778151        1.55275514811266
H           -1.82950623748135       -1.23619082452827        1.64875545927539
H           -3.82104575756502       -0.50737904621712        2.78016516764657
H           -4.36477068882509        0.48050898470235        1.43444567257955
H           -4.38163412149133       -1.28248702065541        1.30704367691314
H           -3.92198134300038        0.65412869331340       -0.67557871972729
H           -2.87613093188780        0.26999389921014       -2.05299692821833
H           -2.48245046085815        2.59468472408553       -1.58076699666613
H           -2.28277342633368        2.30503805223147        0.14983309380940
H           -1.03831503841682        1.73230477487476       -0.99729410213546
C           -0.30206833237474       -0.49105059957905       -2.55642377072199
O           -0.33401444003989       -0.65292890251282       -3.70069399705726
H            0.20206261839209        0.00368054819957        0.56295387267055
