54
 energy: -69.968364680092 gnorm: 0.000266828799 xtb: 6.7.1 (edcfbbe)
Fe           0.14661035571517       -0.24864945488561        0.08972914961985
C            2.28397986233414       -2.30949172054378       -0.49914465097473
P            2.25382687168767       -0.71748488187903        0.26171118741283
C            3.53383134375503        0.28858877372515       -0.67850755443212
C            3.34532530360338        1.78993354924645       -0.46823267642334
C            4.97924375303016       -0.13463239234550       -0.44135029613119
C            2.99107243315993       -0.91651080112194        1.98413564933342
C            2.74070893556927        0.33704140201485        2.81416219448672
C            2.33740534760429       -2.12564010308295        2.64146514736850
C            1.04026667985819       -2.90634749945794       -0.57121704333324
C            0.79212763291911       -4.26106227043752       -0.94911733311859
C           -0.47262528614611       -4.76524677145875       -0.90851659398843
C           -1.54203603177039       -3.95401393073950       -0.48853075525078
C           -1.26973437084796       -2.63932272574949       -0.17780601871968
C           -2.30443840401377       -1.66795769632266        0.33577348331899
N           -1.96653319151288       -0.30433303728683       -0.11541008932680
C           -2.37027719757403        0.75525742664698        0.82674057541364
C           -1.41739350854012        1.94855365803191        0.71369401403052
C           -2.57985494139113       -0.03690824646989       -1.42769362244114
C           -2.24544084954501       -1.05186089884686       -2.51120475611493
N           -0.04334692398767       -2.12532697874750       -0.26348763110150
H            3.19431427388264       -2.85876795464915       -0.69478120304503
H            3.27883750789273        0.05392812167615       -1.72094104128392
H            3.85584757690664        2.35283121893440       -1.25004803648442
H            3.75042977175469        2.10682076935115        0.49066947096084
H            2.28344331248967        2.04392251068443       -0.49479642950498
H            5.33391177003842        0.20213685595359        0.53112256111810
H            5.62539847829534        0.30272795705491       -1.20308535367637
H            5.07535959817264       -1.21740732270074       -0.49448736372932
H            4.06725480383922       -1.10199739469387        1.88327821658097
H            3.27205253318666        1.19797025562257        2.41436501334606
H            3.06317346964077        0.18586157919140        3.84463546512629
H            1.67311101766659        0.55271539035395        2.81205843473692
H            2.67769593719982       -2.23449621844644        3.67114966767102
H            2.57274944885387       -3.03797576073446        2.09646888742237
H            1.25736120691244       -1.99800405137253        2.63792573127231
H            1.63265791896266       -4.87206978493291       -1.24409426140454
H           -0.66235251989940       -5.79393009966096       -1.18377094391996
H           -2.54337770335446       -4.34679911988051       -0.41314244588283
H           -2.23348541366686       -1.68892954858077        1.42733668520863
H           -3.32221718248414       -1.95199159830867        0.04221222940428
H           -3.40765028389919        1.07212412162140        0.64850272379517
H           -2.29452610949860        0.35705321585001        1.84027559455402
H           -0.36819657918474        1.61864624985367        0.88885708752597
H           -1.65644417128054        2.68516549267941        1.47828597207408
H           -1.48559010066342        2.43017596111754       -0.26076028477591
H           -3.67363709144499        0.00342563530875       -1.30446015679650
H           -2.23732439768759        0.94612919726605       -1.75816529939880
H           -2.59109951710393       -0.67078764893268       -3.47019246144478
H           -1.17270874414967       -1.20996239564304       -2.56973521572733
H           -2.72236603827583       -2.01130700282709       -2.33293007725012
C            0.52585370715745        0.17103950190833       -1.55389259897579
O            0.83896400367943        0.52333964430235       -2.61147068801119
H           -0.03914090138037       -0.58654878735468        1.50891485797609
