53
 energy: -69.997733374229 gnorm: 0.000113716001 xtb: 6.7.1 (edcfbbe)
Co           0.16550300080932       -0.36824763006325       -0.00092706763343
C            2.39162657047303       -2.45848621188312       -0.09574387776337
P            2.31689926582921       -0.71834844008484        0.12425996332837
C            3.53474445919046        0.07357555485260       -1.04376254276453
C            4.94214964767388       -0.49537055252740       -0.89982426743970
C            2.99325342480874       -0.13107185157886       -2.45566467242467
C            2.98554484603126       -0.35237892409252        1.83339525027339
C            1.90985237157021       -0.85546131963053        2.79334162475711
C            3.27949706567120        1.12480043200073        2.06539251423568
C            1.14650663712468       -3.04948207235829       -0.08025357942191
C            0.94305701481539       -4.45978989565198       -0.19345790486776
C           -0.31258708259789       -4.97995112674837       -0.16112668563897
C           -1.41307643546129       -4.11984811914334        0.00408259589154
C           -1.17233178080753       -2.76811846411722        0.11144636953101
C           -2.29156262601158       -1.80076608642953        0.38691826030951
N           -1.94026595383042       -0.43144787007744       -0.02661139206172
C           -2.55759552445974        0.55403496792356        0.88213862182138
C           -4.08593679316802        0.52442882728485        0.96435849594992
C           -2.35813275812727       -0.18691407879419       -1.41751658695581
C           -1.47582143996925       -0.90971160485245       -2.42819435282198
N            0.04677979482082       -2.22798069279337        0.05226416875501
H            3.30524372921137       -3.02778420616810       -0.15755354477893
H            3.54602724076403        1.14689024989401       -0.82099049030244
H            5.61776641080807       -0.00272708284618       -1.59891741429694
H            5.32824042889296       -0.34951255723788        0.10683952299257
H            4.94382913573639       -1.56035306515967       -1.12146529492227
H            2.00426193371451        0.31976156666867       -2.54448707937675
H            2.90550269382192       -1.19591433215281       -2.67004340091240
H            3.65130083149088        0.32156597035094       -3.19615641661616
H            3.89924043450230       -0.94516101112899        1.97351939192622
H            1.76078825579238       -1.92704522555137        2.66388509242224
H            2.18112111058674       -0.66305352801051        3.83069444006505
H            0.96394984983238       -0.34828232494810        2.57180793762649
H            3.53805429730744        1.29541718202859        3.11044276310613
H            4.10990400106209        1.46777365935849        1.45214396805751
H            2.40225948763742        1.72392090247665        1.82819361254770
H            1.81294046145886       -5.09076478913658       -0.30354540295618
H           -0.47434890533871       -6.04567956110939       -0.25185505725642
H           -2.41866791759260       -4.50675933778907        0.05589851404473
H           -3.21812256765704       -2.13966022361264       -0.09503552085161
H           -2.45591531685224       -1.80601282380006        1.47048266778359
H           -2.14137919949166        0.38523157640648        1.87985819572302
H           -2.24642732840421        1.55080452516152        0.56065083386807
H           -4.40834901199573        1.26235992368330        1.69527412410350
H           -4.45527238393567       -0.44728336001263        1.28261156839555
H           -4.54063738224347        0.77829426300595        0.01024675083637
H           -2.28782972866840        0.88883048848028       -1.59933040718884
H           -3.40250858101600       -0.49601136476823       -1.56404097277352
H           -0.42040268406260       -0.68765231486502       -2.21966161181225
H           -1.71298406971287       -0.56883386326493       -3.43369375231932
H           -1.61965288745985       -1.98687421825334       -2.38498987361960
C            0.33641394652255        1.34169221587704       -0.11215028359003
O            0.51933012142667        2.48205000399896       -0.21164783362635
