65
 energy: -93.250372037447 gnorm: 0.000226536294 xtb: 6.7.1 (edcfbbe)
Ru          -0.03668272458949       -0.10356080514874       -0.27232940820199
N           -0.04243423301843       -2.20422048651448        0.54568454002382
C            0.60083531634207       -2.21072933662012        1.86368122801581
C            2.01556212936253       -1.64876504013237        1.73646578009910
P            1.98115472573318       -0.04398609555214        0.75642676285839
C            2.38498687146494        1.20812357587736        2.02419164400366
C            1.81636564811111        1.15500255948013        3.29264693825898
C            2.08746133773399        2.14320946853409        4.22131861397594
C            2.91701176236878        3.20181113449418        3.88864251268427
C            3.46379727771937        3.27608856835078        2.61782363284364
C            3.19676033217542        2.28779474869983        1.68768984804814
C            3.61293291991684       -0.13888234389050       -0.06874406628763
C            3.70040728168415        0.24688810149118       -1.40042973899603
C            4.91603619557223        0.20695960805840       -2.06152605954603
C            6.05142047292731       -0.21886226702922       -1.39195543636304
C            5.97257409826758       -0.59139606085739       -0.05839290439399
C            4.76052464953479       -0.54719338897455        0.60548394707508
C           -1.33811880984009       -2.90501220446443        0.48980728862432
C           -2.51094097214348       -1.93342376722823        0.61648888831892
P           -2.22282473992261       -0.55430889976854       -0.60021453920471
C           -3.62427954328304        0.54580664331470       -0.21233913107373
C           -3.35583704377645        1.83657104070485        0.22487632766809
C           -4.39891682624990        2.69366114724912        0.53164862450509
C           -5.70956966138081        2.26503034096186        0.39798659182370
C           -5.97982725941610        0.98002503406783       -0.04833561049500
C           -4.94201992428260        0.12044942335029       -0.35746319859138
C           -2.80819164247988       -1.21113947092406       -2.20458293162952
C           -3.38464207770781       -2.45120635179700       -2.44869915753229
C           -3.75240259469973       -2.80127791531716       -3.73822313702480
C           -3.55364238521167       -1.92064277611069       -4.78725027135882
C           -2.97961392344784       -0.68001119169058       -4.55024290892716
C           -2.60535369286917       -0.33235844349321       -3.26779997350369
H            0.59923192813497       -2.70074919757920       -0.07771480424847
H            0.64648962999872       -3.23606495764604        2.26735547120110
H            0.00268434274815       -1.59473483149933        2.54233583850247
H            2.46681973696754       -1.50808039966099        2.72165976906980
H            2.63595025085689       -2.35290985289940        1.16753530889808
H            1.14734025750170        0.34547571323459        3.55100940891128
H            1.64693036165639        2.09114383833924        5.20714583192172
H            3.12841469133003        3.97293740741559        4.61540595812405
H            4.09891307658251        4.10851917351403        2.34979371226587
H            3.61574488603249        2.35106722122493        0.69180442044658
H            2.80131909789874        0.58423180806108       -1.90368586003130
H            4.97746880757864        0.50791156491207       -3.09777290180297
H            7.00086932504111       -0.25504369176318       -1.90660209320478
H            6.86174230005866       -0.91313265176884        0.46520853171664
H            4.70490120590710       -0.82010438466053        1.65067870750199
H           -1.40836066091287       -3.40597568163845       -0.48337919167594
H           -1.38876559592900       -3.67282756124458        1.27556724713624
H           -3.46738589021895       -2.44177937380618        0.47116243356329
H           -2.51732405705851       -1.46058429690403        1.60458952817989
H           -2.32103042086727        2.14427481710226        0.31679985370800
H           -4.18984321235634        3.69757011444185        0.87255998282881
H           -6.52454179325084        2.93357355699406        0.63633014564140
H           -7.00340028544664        0.65042710191480       -0.15850166325938
H           -5.15280406555809       -0.87689442526508       -0.72045518006872
H           -3.55363360401534       -3.15581146819819       -1.64580086676387
H           -4.19572826085627       -3.77004341465499       -3.92313900511416
H           -3.84063761992180       -2.20152389453793       -5.79039519521012
H           -2.81908418937791        0.00805849731056       -5.36803620572275
H           -2.13417107136172        0.62370186568073       -3.06030841698501
C            0.47249555994452       -0.68246136430492       -1.93841647597236
O            0.74002679954826       -1.10197351906630       -2.98944687495914
H           -0.53797319651208        0.42508881165033        1.13317536099634
H           -0.02668041114349        1.39147658486248       -0.74896093077290
