58
 energy: -81.808423000125 gnorm: 0.000341404112 xtb: 6.7.1 (edcfbbe)
Fe           0.14437589960075       -0.31124144928616        0.17014805264471
C            2.24309068034422       -2.52499441960445       -0.12167811415949
P            2.16860742480111       -0.81142541404919        0.61390792412263
C            3.60009045091260        0.03521699569720       -0.14571011284554
C            4.63919096940301       -0.56494616549713       -0.84679591455226
C            5.66688525495581        0.21091545422682       -1.35756176838226
C            5.66880522863611        1.58256099281480       -1.17061119848711
C            4.63413644667988        2.18730054519894       -0.47293336964462
C            3.60579133655748        1.41668389374791        0.03459206640113
C            2.88561633795229       -1.07415811409926        2.28408307312437
C            4.14805959578951       -1.63908118522427        2.44830534654806
C            4.66626610379592       -1.81538905741218        3.71784325662729
C            3.93563428020060       -1.42283383334832        4.82924591287071
C            2.68566819513034       -0.84795611151514        4.66860752805461
C            2.16268848932123       -0.67251560750599        3.39898926918797
C            0.85261107425122       -3.07393211169627       -0.03348165288705
C            0.59306169440093       -4.42854434344145       -0.11541876439186
C           -0.71716647408542       -4.88731046070237       -0.07730195507394
C           -1.73009157306954       -3.94918446287765        0.06744634527312
C           -1.40504545761401       -2.61102227572780        0.16843746790550
C           -2.42296391867607       -1.54407474061331        0.44306871772179
N           -2.03648179811242       -0.27707650239413       -0.20084059313297
C           -2.68433488462762        0.86509317938427        0.47343579186445
C           -4.21377799204051        0.88297133546065        0.45500452621805
C           -2.40055814331685       -0.35554897033526       -1.62786349664545
C           -2.12657791376510        0.92685087912007       -2.40232786368338
N           -0.13442122358070       -2.15942400913123        0.10210903625774
H            2.97590304464384       -3.19250492107871        0.33965228295026
H            2.49576725363078       -2.38675138873183       -1.18177737533856
H            4.65805409430285       -1.63433325034084       -1.00587803934699
H            6.47154891458954       -0.26004286193875       -1.90572136114011
H            6.47387994844484        2.18087525995752       -1.57333597459618
H            4.63085678146714        3.25906878822310       -0.33212624838136
H            2.77223635359454        1.86261987115713        0.56320317881717
H            4.72979961285599       -1.93044524680866        1.58384485665650
H            5.64586347547648       -2.25578484707149        3.84353554731058
H            4.34640417618188       -1.56132716303639        5.81951502838346
H            2.12027201561727       -0.53441412467005        5.53496809179047
H            1.19126408681455       -0.22570336864661        3.24204143340454
H            1.41528893251489       -5.12156494479309       -0.21573498553033
H           -0.93919917362864       -5.94008039955290       -0.15201079193186
H           -2.76442357186516       -4.25463098728418        0.11613303286539
H           -2.42444742541668       -1.37322028493529        1.52642297241030
H           -3.42399921735093       -1.87391681958273        0.12978880430212
H           -2.32961003301403        0.85687269214778        1.50535331512978
H           -2.29553380431140        1.77478267912250        0.01697456285472
H           -4.55210149750876        1.75980097521264        1.00233848961608
H           -4.63358344348459        0.00469447672940        0.94007236663916
H           -4.60969715609676        0.94953577633710       -0.55548725430053
H           -1.81320856994560       -1.16981995651383       -2.06440582393683
H           -3.46320626324014       -0.62481912955010       -1.72836608175493
H           -1.15953954664293        1.33076598313844       -2.11086113493724
H           -2.89042621886802        1.67900073315328       -2.22151381347596
H           -2.10649394726707        0.71167814386668       -3.46850289965621
C            0.71558281282662       -0.10384286584259       -1.46151047814844
O            1.22574600774117        0.05625789338480       -2.49243088591178
H           -0.19359136857242       -0.27078543384652        1.59687948379733
H            0.25787932392095        1.14409168167224        0.30362898671330
