48
 energy: -71.029694100441 gnorm: 0.000267928323 xtb: 6.7.1 (edcfbbe)
Co          -0.25540808215529       -0.58728250472758       -1.65257533305325
C            2.09732432884509       -2.39745810185340       -1.67729556441393
P            2.00199637672399       -0.55903095083623       -1.37577667981349
C            2.91689110775305       -0.29677240494860        0.24780046588942
C            1.88225171447371       -0.01702189789789        1.33875576805068
C            3.85147722215339       -1.42143284217125        0.68401693760645
C            3.15587212895822        0.10405476674848       -2.68132980335938
C            4.60267392510515       -0.37324340080356       -2.60686675558433
C            3.07482537270693        1.62925407900651       -2.68118147823644
C            1.01732387107452       -2.95237463069470       -0.80789334813584
C            1.13427521870474       -4.13833813788375       -0.11316821190318
C            0.12173080715513       -4.51241503915678        0.77229973667825
C           -0.93143365807139       -3.64948867780696        0.97646645020935
C           -0.99511848643583       -2.45748056906117        0.24782743106785
C           -1.96298894514310       -1.40511796251585        0.46639258278009
C           -3.11861064311910       -1.53765096930579        1.23487750326717
C           -3.92217613854209       -0.43338901706335        1.43990573950244
C           -3.55863654464040        0.77781775181203        0.87296387931555
C           -2.41158796804566        0.83348960875434        0.08535156013961
O           -2.06505809989289        2.00181045558626       -0.45896583717424
N           -1.62375932336831       -0.22753162013849       -0.12351032888680
N           -0.05573790498781       -2.15376307964807       -0.67710290433537
H            3.06439369450076       -2.86100660575883       -1.47938620729002
H            1.84394510186330       -2.52952636635876       -2.73577756173400
H            3.50217007492887        0.61918243540129        0.09456869302704
H            2.37081146691508        0.30667847772077        2.25704909604926
H            1.19161426634349        0.76410031849632        1.02034213032961
H            1.30374981045705       -0.91382884210772        1.56105576906378
H            4.59066438642358       -1.65873053407127       -0.07649898982960
H            4.38312899851488       -1.11401613071867        1.58441068066757
H            3.28632602036976       -2.32124305028054        0.92192029647029
H            2.70400435787511       -0.25944134467119       -3.61579430951787
H            4.66692806269508       -1.45903344264800       -2.61443963164398
H            5.14808406482389       -0.00060596855720       -3.47318653848349
H            5.09424846787569        0.00799453365461       -1.71470525108102
H            2.03430799211587        1.94576379202296       -2.73975586681631
H            3.51311134922135        2.04603213629382       -1.77566189531519
H            3.60952099892474        2.03825290616038       -3.53678044205210
H            2.00352718274096       -4.76299095678014       -0.25219975240855
H            0.18760236980695       -5.44332798893354        1.31420634402704
H           -1.69237462990005       -3.87604611664136        1.70545672238711
H           -3.38512785018716       -2.49408863700620        1.65391949466178
H           -4.81916385195971       -0.50771671021711        2.03532249818463
H           -4.13310600653309        1.67744096019077        1.01691676302253
H           -1.29560648422948        1.84854015456209       -1.04369284307393
C           -0.84319163571822       -1.30260022934676       -3.13500846350999
O           -1.21199397185966       -1.72040609987421       -4.15043187528108
H           -0.38949817513233        0.69098041184128       -2.33542975528185
