59
 energy: -70.486342922492 gnorm: 0.000195332019 xtb: 6.7.1 (edcfbbe)
Fe          -0.06320125984232       -0.17281712425605       -0.37213203121772
N           -0.28894278810085       -2.07186060432085        0.34641342514641
C            0.76408662240020       -2.92060108569303       -0.15274270745728
C            2.16566890238396       -2.32699724691136        0.10051968130095
P            2.06902896725278       -0.52308158332335       -0.35511741269630
C            3.10346620850228       -0.37071707285060       -1.92290914520254
C            2.62507071030656        0.87741914062866       -2.66885328030498
C            2.99003613982051       -1.57987980607704       -2.84698603851109
C            3.28715768066271        0.20582369388098        0.87849629232950
C            2.77638975232863        0.07183019251280        2.30944144755627
C            3.52255837960552        1.68376438854260        0.57317122080196
C           -0.42782315073453       -2.07917202725609        1.78613073507801
C           -1.72100641250331       -1.30228272549163        2.06686938821172
P           -2.00788361157546       -0.57444559087126        0.39556056603834
C           -3.29516136672621       -1.75726270900255       -0.26335098696847
C           -3.52768216482349       -1.59191816595178       -1.75883082088748
C           -4.61823076561730       -1.66575646285703        0.49840748952458
C           -2.93073739563377        1.06781853036302        0.54448465448835
C           -2.69696349719767        1.75358292633300        1.88360672178498
C           -2.32628971127538        1.89076285224054       -0.59890087897348
H            0.61301001270474       -3.04059690472327       -1.23056960142358
H            0.69641365126626       -3.91624918260857        0.31093260265803
H            2.93669574742866       -2.85567549348776       -0.46111461854305
H            2.40521841506126       -2.40281891626302        1.16215699098773
H            4.15404568757592       -0.24277563893953       -1.63037450331244
H            3.31488437393804        1.13732233608474       -3.47232952153832
H            2.52889299524185        1.73393776303024       -2.00348602331008
H            1.64711765709331        0.69004392090620       -3.10726722044192
H            3.41257692169289       -1.33657779088699       -3.82219995124869
H            3.52716870286634       -2.44318665223082       -2.46133478068808
H            1.94717362141868       -1.85327358352298       -2.99101188125495
H            4.22926746820351       -0.35168633316570        0.77043946897676
H            1.76435910697297        0.46718811491939        2.37176109548038
H            3.41144971387334        0.63837297893678        2.99048884169243
H            2.76924576624526       -0.96159429564508        2.64865333516211
H            4.11886256247646        2.14327268242102        1.36194584248911
H            4.05108602040481        1.82615068037093       -0.36679958692758
H            2.56470262637101        2.20304488546172        0.52531400900642
H           -0.50354493352130       -3.11746765395019        2.14113195744732
H            0.42161908151565       -1.61134271149209        2.30473782686621
H           -2.53024884221707       -1.96184654763307        2.38594947977388
H           -1.57258733571931       -0.52394074834509        2.81328583040252
H           -2.83567158164768       -2.73798432586771       -0.08673792985614
H           -2.60177987486347       -1.73482610235847       -2.30566839677007
H           -3.91630523520520       -0.59962419332729       -1.98549033938964
H           -4.25064529457060       -2.32761002339314       -2.11180549815699
H           -5.16641542028883       -2.60281362593600        0.40575714877841
H           -5.24635014064081       -0.87604061612500        0.09026441391339
H           -4.46433143432458       -1.46354838182335        1.55695219534997
H           -4.00689235352332        0.95640642185102        0.37653301560396
H           -1.62956826583234        1.79604642688174        2.09362943903193
H           -3.19725667930057        1.21981095269497        2.68973707926942
H           -3.08309697432236        2.77326167878566        1.86031191467103
H           -2.65513839359377        2.92974258463824       -0.56510779528117
H           -2.60414982985491        1.46926358806721       -1.56512454269577
H           -1.21973420924832        1.86660360681024       -0.52424781362487
C           -0.30531735402419       -0.65054450605098       -2.01747463900581
O           -0.48924343810683       -0.80069972756748       -3.15660122442326
H            0.08968517020468        0.48539384100792        0.93949108691488
