60
 energy: -70.810651815787 gnorm: 0.000305101984 xtb: 6.7.1 (edcfbbe)
Ru           0.15846549697067       -0.35842424238554       -0.36899667003895
N           -0.03318873687906       -2.49173863180186       -0.05056930832740
C            0.46670126630529       -2.79013174759660        1.31191656204123
C            1.89881485795491       -2.27034673489687        1.54002164608077
P            2.19926532543269       -0.75568652631864        0.50731664450599
C            2.38535707433102        0.83781147009614        1.46331124324107
C            3.74784640237746        1.27025743584857        1.99020257898948
C            1.82883416968770        1.86690330744352        0.45543038957074
C            3.83970115791497       -1.08215198844295       -0.30762560020980
C            4.89602164817707       -1.63791093005200        0.64914701094336
C            3.63677612438665       -2.01615927791335       -1.49916873114112
C           -1.40819522128219       -2.97706131397999       -0.29758163561733
C           -2.45918043469144       -1.98607668078095        0.21376470477194
P           -2.11703772528209       -0.33444826870728       -0.56247447942500
C           -2.91890472205008       -0.46876853632712       -2.24012854058733
C           -4.37146652893427       -0.93691667439722       -2.23021513223676
C           -2.76894827466739        0.87545252011336       -2.95208483186140
C           -3.12221178100055        0.94029835747431        0.34418114370234
C           -2.27747105045619        2.21754508662166        0.35531527201481
C           -3.49325731353946        0.52845132787577        1.76432613796714
H            0.59223936439845       -2.97338590149747       -0.70862466075548
H            0.44782766113168       -3.87575362206419        1.47120039676261
H           -0.21698021014515       -2.32383803744710        2.02448598242721
H            2.05546376558565       -2.04372036567879        2.59805961930607
H            2.62686685394887       -3.03057751860590        1.24253309224106
H            1.68606505801110        0.74812367822583        2.30556329061821
H            4.09463472758246        0.60169736119958        2.77483217757617
H            3.66155252588389        2.26702533143928        2.42155737750805
H            4.49558144894429        1.31127025905937        1.20131964293998
H            2.54079221204388        2.02554346769349       -0.35845978769887
H            0.83585400084649        1.53316303176434       -0.00179634044738
H            1.64422197096520        2.82547525905027        0.94112423808908
H            4.16091793881673       -0.10220141107028       -0.68633705781889
H            4.78981547207293       -2.71420691792444        0.76526277940058
H            5.88846066983165       -1.45048669632883        0.24358541440498
H            4.83926018069897       -1.18055845404143        1.63308972022555
H            3.26774824446001       -2.98990624880889       -1.17630221525666
H            4.58371040371003       -2.17270288311256       -2.01248218040129
H            2.93242371278501       -1.59374720895010       -2.21454451116920
H           -1.52588066970331       -3.10031651372916       -1.38017399834886
H           -1.55024212984472       -3.95349775062450        0.18190544100804
H           -3.46340262201064       -2.34853703172020       -0.01476943159713
H           -2.37112581186778       -1.86663953218395        1.29609343046881
H           -2.30785464874315       -1.20818734632752       -2.78038572782992
H           -4.98094718635930       -0.34486555922246       -1.55030935004938
H           -4.78833841010573       -0.82753740272838       -3.23031675761709
H           -4.45591512483233       -1.98474051454570       -1.95210295340466
H           -3.43487171262382        1.62252643806086       -2.52404697656771
H           -1.74093727472787        1.23955311021577       -2.87758618164512
H           -3.01301455842629        0.77372346227832       -4.00824263571563
H           -4.03817073684497        1.11884042055019       -0.23197172665879
H           -1.41572512765565        2.08022732678499        1.01140416983379
H           -2.85844477377280        3.05964724530947        0.72741609153893
H           -1.91896714621166        2.46491180669465       -0.64693998668822
H           -2.60054311389732        0.28316809356290        2.33705770378499
H           -3.99181321039595        1.35949019936235        2.26099570784818
H           -4.17162862754507       -0.32192122929849        1.76857148444742
C            0.51671098978950       -0.40799705151316       -2.19147922819962
O            0.71899360441774       -0.35281810639041       -3.32027784375579
H           -0.19141607718135       -0.20003748691439        1.11932101034022
