56
 energy: -80.745856021479 gnorm: 0.000212154637 xtb: 6.7.1 (edcfbbe)
Fe           0.01842221547310       -0.28578266519364       -0.92884881852361
C            2.25580681871184       -2.30451105856064       -0.57009280778764
P            2.15302066648018       -0.61696490309401       -1.05711414519881
C            2.93936265884719       -0.43084383868490       -2.70676672894399
C            2.81573849712785        0.79813689906688       -3.35039628154985
C            3.33391048176567        0.98177165201003       -4.61797765417637
C            3.97434140678164       -0.06847543490710       -5.25902015907059
C            4.08841002991025       -1.29758626713760       -4.63064293973115
C            3.56840897896131       -1.48082410485886       -3.36044118054194
C            3.39041517425494        0.23849614588938       -0.00807017111685
C            3.14697068969779        0.21018292398499        1.36274348709022
C            4.04630692972094        0.76831738518702        2.24928410300426
C            5.20790922971994        1.36049863634029        1.77502949272905
C            5.46004647146684        1.38716369907181        0.41408920081944
C            4.55845756480887        0.82895661762915       -0.47768686585524
C            1.04155738211818       -2.91457941610814       -0.31534855872822
C            0.88494121122030       -4.26588670505163        0.11812016983114
C           -0.35838663113835       -4.79218459596294        0.29698793622034
C           -1.49810511858400       -4.00856706184349        0.03935607291630
C           -1.30647264215260       -2.70968503156464       -0.37502579913639
C           -2.43087105648103       -1.77534092817404       -0.75514870812410
N           -2.05668421188696       -0.40343285290242       -0.36719360723872
C           -2.27976041797117       -0.21266258860068        1.08046575182856
C           -3.73555274174248       -0.10973509271790        1.53889524595004
C           -2.68729474615912        0.64447482800854       -1.18114775344793
C           -1.87459377176555        1.93827575960551       -1.07705683870092
N           -0.09179892265235       -2.17426992416252       -0.52197596686759
H            3.20123777419716       -2.78921658588858       -0.36942741910970
H            2.30481970090356        1.60699438154250       -2.83681984624968
H            3.23633186238100        1.93820073372151       -5.11375165573860
H            4.37741608444624        0.07092164268124       -6.25250054733020
H            4.58105636961187       -2.11716037261262       -5.13603189871027
H            3.64014402569472       -2.44154827766352       -2.86935171525561
H            2.23412859972362       -0.25331177104345        1.70987187245542
H            3.84870239820191        0.74290089762512        3.31212242660448
H            5.91608307315547        1.79743627797394        2.46540090236516
H            6.36736944735908        1.84345305429028        0.04160867426002
H            4.77267025116458        0.85267989353948       -1.53738028161079
H            1.77484224613095       -4.85125773480913        0.29547275917871
H           -0.48012804174356       -5.81368134127188        0.62990313695575
H           -2.49043635123439       -4.41286874273568        0.15693173855219
H           -3.37988086706315       -2.09032104234693       -0.30828433218527
H           -2.53661692261888       -1.81075602743808       -1.84493405203432
H           -1.74472408984270        0.68597176546771        1.38679113389858
H           -1.79672566847263       -1.05680394737971        1.57528805694626
H           -4.19240966328573        0.82871410744392        1.23352446083629
H           -3.75292025625919       -0.14682199608353        2.62544625214549
H           -4.34366983603180       -0.93147914917092        1.16898244369291
H           -2.67708434951605        0.30782975889864       -2.22155000214916
H           -3.73025689836820        0.81825015731941       -0.89127727233244
H           -2.02753591645664        2.42731657585343       -0.11753124965302
H           -2.16460264228336        2.62770535009375       -1.86691056895195
H           -0.78801867632482        1.72095958028105       -1.18975161754047
C           -0.13720128991108       -0.63843434186725       -2.62680160292365
O           -0.15942250158782       -0.87972612387668       -3.75737037229471
H            0.33355743314326        0.01470868435201        0.46928961771063
