58
 energy: -81.942092937394 gnorm: 0.000499385995 xtb: 6.7.1 (edcfbbe)
Ru           0.18077184779173       -0.03529865690740        0.12413453656016
C            2.43217681373379       -2.24458534596340        0.62248431611203
P            2.33354984164793       -0.37703791204483        0.67324960040852
C            3.78238322484377        0.08132977051820       -0.34107858305571
C            3.64323194230174        1.12195293236613       -1.25119937969373
C            4.71619816585561        1.50968533697104       -2.03537831335272
C            5.93313851618898        0.85943180529240       -1.91001114919307
C            6.08029090553520       -0.17080480121586       -0.99335850197593
C            5.01144485673650       -0.55845204791242       -0.20624248997598
C            2.98229013912176       -0.01708371476377        2.34014862124835
C            2.55034678389503       -0.76980934467520        3.42836155117133
C            2.99552140998560       -0.47177720587514        4.70270471253220
C            3.86557195468383        0.58837036954956        4.90379519753306
C            4.27902997965008        1.35676061115082        3.82778711709382
C            3.83709271878056        1.06018301568142        2.55048530523585
C            1.04612725563989       -2.81611983850934        0.67467674360926
C            0.81510426614547       -4.12209702930710        1.07549756351012
C           -0.46849927067795       -4.64836586428008        1.01112463516241
C           -1.47447586596281       -3.85738775151855        0.47318663572371
C           -1.17499205366151       -2.56252525078560        0.08817143319285
C           -2.14549537187429       -1.68338902599655       -0.65214925821521
N           -2.12974354392052       -0.28350845874350       -0.17855095938460
C           -2.90230020253113       -0.27547231741028        1.08430930595385
C           -2.90990009755456        1.04151358727620        1.85040189004686
C           -2.79979382998809        0.52892900788631       -1.21868640228850
C           -2.61117854063173        2.03880221579896       -1.12242554512545
N            0.04641896359348       -2.02543019333183        0.24212706291686
H            3.07521094723017       -2.66012575151659        1.40317292232519
H            2.86682723859858       -2.49859797717739       -0.35522339158073
H            2.68162365676881        1.61750808089891       -1.32540552935890
H            4.60376301945543        2.31775649722391       -2.74390070805202
H            6.77104797890977        1.15790117120419       -2.52346170476017
H            7.03321272382196       -0.67064706368180       -0.89141728177003
H            5.13104206785384       -1.35113310767445        0.52002231170128
H            1.84915659691700       -1.58040607347281        3.27400718432628
H            2.66036979026115       -1.06318560182425        5.54329241538191
H            4.21305195879442        0.82066305760087        5.90012447575111
H            4.94609748688633        2.19245025848357        3.98484842341646
H            4.15125238484787        1.66491619360335        1.71015977838426
H            1.63752867029015       -4.72331227031378        1.43291781398875
H           -0.67145224182795       -5.65430359978073        1.34241442703065
H           -2.47618921572566       -4.23972446120967        0.34993368635492
H           -1.82622944586597       -1.69855618296487       -1.70576473033035
H           -3.16457459715572       -2.10008042518208       -0.60537339328440
H           -2.45718655496865       -1.04139042776940        1.72833483760114
H           -3.94072906463027       -0.57789393509558        0.86622732365532
H           -3.11600396395970        0.84101872535247        2.89950357791968
H           -1.93019168626981        1.50996069333366        1.77436518061991
H           -3.67164057275223        1.72207072551885        1.48329217611969
H           -3.87449279700608        0.28637021494547       -1.22387358355708
H           -2.38375105386432        0.22253491190939       -2.18450246537618
H           -2.82075411224129        2.48074459058072       -2.09443565856177
H           -3.26833743059171        2.49908778681360       -0.39381161285382
H           -1.57651950551555        2.25454228953742       -0.85581811580430
C            0.45442336427612        0.02777547669171       -1.69792588222698
O            0.65034539162879       -0.00153805041465       -2.84333069709952
H           -0.05805834291087       -0.04299586067465        1.68535755425788
H            0.22229038592269        1.52868008905511        0.26692129802268
