64
 energy: -93.096768715651 gnorm: 0.000142573896 xtb: 6.7.1 (edcfbbe)
Co           0.29734076907562       -1.18820573073552       -2.17333284655682
N           -0.30767033345743       -2.98953935346371       -1.12872079612037
C            0.75707685915153       -3.56375778025106       -0.29575576628774
C            1.39143155396064       -2.48265817218111        0.57431468081191
P            1.83778051379229       -1.11746159739413       -0.60368782624963
C            3.46808734753532       -1.75802145065564       -1.14890019973108
C            4.57332336725312       -1.78977643672923       -0.30397490412844
C            5.76738752902779       -2.32761790763210       -0.74843430740059
C            5.86756889185600       -2.83979954470916       -2.03300478002616
C            4.77025265301631       -2.80917562440829       -2.87780543552090
C            3.57582207105175       -2.26753276658031       -2.43652515698529
C            2.40988572466764        0.23803238681856        0.47674828282644
C            2.73928507739801        1.42366323621084       -0.17703941697429
C            3.17323328692232        2.52333683778000        0.53850503813185
C            3.27461239288559        2.45295661958141        1.91945123830722
C            2.94129023638222        1.28050030742274        2.57699276611150
C            2.51015355695094        0.17504558585256        1.86320059984400
C           -1.56649236378333       -2.83676747688510       -0.39089489415264
C           -2.51707716273677       -1.90980358708926       -1.13640672042286
P           -1.66023037433850       -0.25836560473923       -1.26261376675929
C           -2.09092402984438        0.36781774261841        0.41251051071379
C           -1.04891751814898        0.72099821534412        1.25944264151549
C           -1.29995535288862        1.16529606020441        2.54631786204947
C           -2.60563875699499        1.26415777822720        2.99514787051204
C           -3.65438849007510        0.92613110335622        2.15179356229278
C           -3.40246979221741        0.48123883107463        0.86757411148113
C           -2.84768691670762        0.69317312208306       -2.26830675997186
C           -3.36492065948237        0.16489959701658       -3.44800926317962
C           -4.20771238670219        0.91828998865179       -4.24436190596118
C           -4.52850446170773        2.21768351985577       -3.88645777673712
C           -3.98521431918195        2.76613805620286       -2.73597661731949
C           -3.14479490807572        2.01356424415118       -1.93665462573594
H           -0.48838076823794       -3.63956624537847       -1.89326819058476
H            0.36529033245312       -4.38484361349618        0.32383461766154
H            1.52750523254196       -3.96956542310919       -0.95977924273566
H            2.26803276073161       -2.87372899944335        1.09619248430491
H            0.67546820516113       -2.09984875976588        1.30646157391654
H            4.50384014597451       -1.38634125460012        0.69748154177503
H            6.62559322207398       -2.34701197364499       -0.09143667768982
H            6.80337657879374       -3.25804098001061       -2.37514884213231
H            4.84661049839553       -3.20338486686729       -3.88123769715190
H            2.70739907449274       -2.21643429176773       -3.08598611908744
H            2.63843939523778        1.46757747507959       -1.25420094446968
H            3.42822431708181        3.43777647757141        0.02238641648797
H            3.60995850923758        3.31185646123423        2.48267973176081
H            3.01883170294339        1.22459161076698        3.65401407870446
H            2.25237079622320       -0.72998860565137        2.39446553799900
H           -1.34947043448945       -2.39248154073923        0.58585157553953
H           -2.03692908813940       -3.81721376056057       -0.22006930496963
H           -2.70107388576057       -2.29476295437843       -2.14147197853643
H           -3.46901676608041       -1.82481627065197       -0.60768610720234
H           -0.03304467925148        0.65408114719450        0.89261267915841
H           -0.47654497668551        1.43723037761840        3.19180031158718
H           -2.81059387246061        1.61080175336309        3.99789443406759
H           -4.67429213636044        1.01407383118249        2.49914460806890
H           -4.22622165283346        0.23865263787368        0.20951335483959
H           -3.09509118171541       -0.83452794821383       -3.75829927054970
H           -4.61068529644685        0.49239195411128       -5.15258981666459
H           -5.18823141902714        2.80455951744633       -4.50913408825795
H           -4.21442213801020        3.78660896041751       -2.46282705340680
H           -2.71461883425283        2.45140586632317       -1.04578119308382
C           -0.20822765551029       -1.72774077094486       -3.73136702670879
O           -0.52904783488126       -2.04705474767782       -4.80288046610891
H            0.92586026752402       -0.10559243333212       -2.91663418497538
