48
 energy: -71.018377584480 gnorm: 0.000245407474 xtb: 6.7.1 (edcfbbe)
Co          -0.28620309824460       -0.59394369108037       -1.60852428589711
C            2.08987189454476       -2.43570063129430       -1.60393414161775
P            1.99103560827228       -0.58586260248564       -1.38475144326483
C            2.91015918033426       -0.24723249765334        0.22175994299117
C            3.84152500532488       -1.35162772820517        0.71319825395717
C            1.87374079431966        0.08940199017084        1.29461533529559
C            3.14143147995171        0.01735585328397       -2.72301643186562
C            4.58953845988866       -0.45362461554294       -2.63413562173068
C            3.05435817864476        1.54079571248220       -2.78788748700278
C            1.00501789441498       -2.96431951787535       -0.72281183652493
C            1.11560841798852       -4.13171339553705        0.00210097184845
C            0.09038458868005       -4.48798893095149        0.88418601299081
C           -0.96969928483431       -3.62850656974056        1.05181593280858
C           -1.02522982836858       -2.45089951474871        0.29557224235211
C           -1.98662439787714       -1.39214761023932        0.45914008632583
C           -3.16498545406253       -1.49416437905309        1.20321638480998
C           -3.97502115268681       -0.39056459603383        1.34015318498238
C           -3.58124763126297        0.80427761355034        0.74104408025140
C           -2.41166744332157        0.83375928683900       -0.00107795835665
O           -1.97005146035754        1.96954208953222       -0.57760693889025
N           -1.62323359799383       -0.23729484532090       -0.17433463249929
N           -0.07081920532769       -2.16513276091795       -0.62325245868821
H            1.84592601900303       -2.61403872598170       -2.65780233934090
H            3.05757233509096       -2.88585148659913       -1.38019796479251
H            3.49665932435347        0.65891068247912        0.02237732833079
H            4.58555006467766       -1.62169078665719       -0.03162940231391
H            4.36703381222456       -1.00540030022417        1.60313648820703
H            3.27455833492931       -2.24038968175036        0.98585686269375
H            1.17232859649427        0.83687459453030        0.92270439555867
H            1.30763633569549       -0.79929722495975        1.57464499341096
H            2.35803143440460        0.47911154433327        2.18934041491150
H            2.68616008316729       -0.38761068206109       -3.63865729602305
H            5.13303936004684       -0.11127931715980       -3.51410934857524
H            5.08134028699465       -0.03959100175569       -1.75686442811879
H            4.65570159393956       -1.53887080250405       -2.60190090922209
H            2.01025600005915        1.84975684181151       -2.82390899276418
H            3.55980868653959        1.91432996194139       -3.67692283241046
H            3.51921596761742        1.99706308965176       -1.91532234038108
H            1.98714880068114       -4.75862394265624       -0.10987912304521
H            0.15381695414225       -5.40567784715927        1.44875943724203
H           -1.74306860793690       -3.84272734971021        1.77178979095806
H           -3.43753622698067       -2.43541941034470        1.65227324737941
H           -4.89233296643338       -0.43883211417029        1.90623314377886
H           -4.17262926253400        1.70113598957413        0.85338713743086
H           -2.60659154001165        2.68596161963380       -0.44966809572674
C           -0.70254893779444       -1.24866781943543       -3.17000723755828
O           -1.00291201932743       -1.59312862230397       -4.23669681910299
H           -0.46946613374561        0.68051596877285       -2.25407126639676
