49
 energy: -71.028019534872 gnorm: 0.000286675924 xtb: 6.7.1 (edcfbbe)
Fe           0.14068966194469       -0.14938138079897       -0.03954200035809
C            2.40063209303958       -2.22249643328657       -0.22617371608584
P            2.27350471624223       -0.41509449455367        0.19818574623733
C            3.04185698908497       -0.38054218801321        1.90962462770575
C            2.45973513679406       -1.49920928972825        2.77217867906371
C            2.74166527978664        0.95883671649836        2.57822613155284
C            3.69058621610121        0.21025705984023       -0.86722090876525
C            3.24524517166237        0.28047187073177       -2.32446311644249
C            4.18214210684587        1.58810339197767       -0.43273747480471
C            1.09740069396340       -2.84918453440709        0.15818072186752
C            0.98689701711475       -4.19506102367473        0.42333816780094
C           -0.26168204212649       -4.74476054193733        0.72531812423573
C           -1.35642958734209       -3.91217540556859        0.72296744441898
C           -1.19160415115159       -2.55249710590562        0.44713765759778
C           -2.25816757521513       -1.58481728817414        0.38534898947156
C           -3.61069653195325       -1.86164124162316        0.60404006601019
C           -4.53636011414111       -0.84868267898728        0.48417894491638
C           -4.09664543471157        0.42023990295596        0.12669391434029
C           -2.73826692891992        0.63134167682664       -0.07732481014741
O           -2.25745482538780        1.82639991504869       -0.45613802024193
N           -1.82369814538697       -0.33418904305198        0.06651006448904
N            0.03493867641302       -2.01088399699949        0.19082236628086
H            3.26445765674988       -2.72610406287497        0.21500841388193
H            2.49356346231854       -2.27657153148796       -1.31764334268762
H            4.12644032438407       -0.52247240068461        1.79740501721449
H            2.78176449238001       -1.37554478382701        3.80592484478545
H            2.77009927273961       -2.48830609907052        2.44214572762664
H            1.37142168302290       -1.44597698912814        2.74802962131983
H            1.66357245103222        1.10609946497746        2.59447635946735
H            3.11690852754533        0.96548991832662        3.60138718600510
H            3.18084411814630        1.79590152099738        2.04457372843896
H            4.50583647948721       -0.52100524167490       -0.76609501661220
H            4.08961828171780        0.53042380034988       -2.96683699469136
H            2.82295071947152       -0.65995630101420       -2.67516268034933
H            2.48665820720829        1.05310314223021       -2.43527585361235
H            4.86179095748550        1.99304812171360       -1.18288965404955
H            3.33535828086518        2.26718999771799       -0.33630345903959
H            4.71767105533149        1.54431909832386        0.51246289821323
H            1.86614302386535       -4.82125437869907        0.39114779715803
H           -0.36029795032690       -5.79678466515845        0.94335005532953
H           -2.33911124853111       -4.30200863369851        0.93435743665808
H           -3.92318791098928       -2.85854970420887        0.86721074087918
H           -5.58583446502539       -1.03313297921255        0.65507011040094
H           -4.79330987844366        1.23666916616992        0.00536510442757
H           -2.96493956431819        2.48655577570147       -0.48688646386829
C            0.09562494491474        0.02539721241865       -1.77769728764644
O           -0.07733558745601        0.19474296023975       -2.90893278894422
H            0.06268522496723        0.12207108944493        1.39762263909842
H            0.17368439470207        1.29919333301156       -0.08930284077751
