55
 energy: -80.772179778389 gnorm: 0.000094417285 xtb: 6.7.1 (edcfbbe)
Co           0.02487962413418       -0.36627194963964        0.50983285664123
C            2.12928062967362       -2.53695439284369        0.94596034959919
P            2.09507292142096       -0.78558948934682        1.04535012354841
C            3.23576720430689       -0.20021428965278       -0.25330203764920
C            4.61602811579291       -0.14534629486607       -0.09147156243307
C            5.42365549514992        0.18746870979704       -1.16494107925514
C            4.86468840186551        0.45391977179279       -2.40475289634181
C            3.49005774233557        0.38272596415226       -2.57608564809744
C            2.68229638695989        0.05365736371375       -1.50499743714840
C            2.92974092603836       -0.25248118705666        2.57046816515764
C            3.37453398637819        1.06125443714970        2.69863539660622
C            3.96631953226337        1.48084415039248        3.87492396512826
C            4.11067659275212        0.59679364750684        4.93408726973125
C            3.65557706308414       -0.70657083401822        4.81691678286944
C            3.06083434327595       -1.12921006130939        3.64109520332418
C            0.93164471363018       -3.06894737624592        0.50636561960986
C            0.74852081485834       -4.45666501257352        0.22625902423251
C           -0.46889970850094       -4.92823789672163       -0.15681719698992
C           -1.55356301913416       -4.03960564103027       -0.25816478272534
C           -1.33442210645283       -2.71057788908597        0.02440236407711
C           -2.45248801578085       -1.70560047278515        0.02674637318627
N           -1.92226524747085       -0.35426449844729       -0.21631586484848
C           -1.71532030885871       -0.13136527613321       -1.66357111417618
C           -2.97617210531797        0.00011749683577       -2.52267708562270
C           -2.81164317430792        0.65980282608664        0.37081006667476
C           -2.72653633318478        0.66980653269783        1.89616130666819
N           -0.14230885613641       -2.21666855663536        0.37473249348428
H            3.03883202139086       -3.11359246817646        1.02125150125083
H            5.05403540206377       -0.35563288744526        0.87524485360281
H            6.49583934064941        0.23758561529693       -1.03512186994393
H            5.50061400111230        0.71558593808823       -3.23834228957307
H            3.05506668340619        0.58701274563149       -3.54438333349067
H            1.60073224545436       -0.00589629380863       -1.61035256447225
H            3.25554258700663        1.74503346773800        1.86824667170088
H            4.31515343546596        2.49951287838579        3.97049988384499
H            4.57489570471328        0.92674066630017        5.85250827010129
H            3.76358514982755       -1.39311139173525        5.64500139275991
H            2.69390680804522       -2.14190640842625        3.53810793221846
H            1.60263650533376       -5.11048121369065        0.32291483065513
H           -0.61242651960585       -5.97687352908462       -0.37854204481521
H           -2.53444460884989       -4.38858516147993       -0.53930650353029
H           -3.22957041574970       -1.97799394094909       -0.69672803377200
H           -2.90459957651592       -1.72810078111703        1.02173969129836
H           -1.11634440212927       -0.96799823992273       -2.03730794498734
H           -1.12935148177414        0.78623279450379       -1.77856161674933
H           -3.54543026362009        0.88808437815912       -2.26011800394885
H           -3.62414467357837       -0.86896978720082       -2.44015086082430
H           -2.67451575614168        0.09005699606459       -3.56359757456002
H           -2.49242668501556        1.63327772028709       -0.00840263155238
H           -3.85022387775819        0.48710088108942        0.06055625644553
H           -3.01963123825960        1.64293191064499        2.28096875332232
H           -1.69285413006194        0.47100037864073        2.20225744423735
H           -3.37246495948947       -0.07897108735391        2.34873369372281
C            0.28997094499297        1.33567469622428        0.64800826238897
O            0.58740892392400        2.44830843116733        0.75224275614702
