48
 energy: -70.285560877759 gnorm: 0.000232361769 xtb: 6.7.1 (edcfbbe)
Ru           0.17342593267640       -0.37693422647244       -0.29764690272632
C            2.40216427566222       -2.54301785663214       -0.46095314463709
P            2.34433512344772       -0.71383196854037       -0.82394506018397
C            3.38772903619824        0.35744720006182        0.28531829528923
C            3.66510295806074       -0.27906404329592        1.64168494945315
C            2.53999854496748        1.63966316982993        0.39807242888183
C            3.11900142028970       -0.62792768745990       -2.51240631049937
C            4.57838648641130       -1.07722878846714       -2.53566967897595
C            2.97168858752758        0.78150906152773       -3.08047229461787
C            1.01648890043310       -3.12979839415855       -0.60746891098196
C            0.81083567782907       -4.49024488296874       -0.77698446250849
C           -0.48252745212224       -5.00322621922372       -0.74804826647431
C           -1.54580514822815       -4.15765523719581       -0.48570405316513
C           -1.30243019662913       -2.79478265434600       -0.33460946633942
C           -2.28041280301572       -1.77723057029352        0.04239778182869
C           -3.64179413166268       -1.94271962341790        0.28611806571258
C           -4.38572694627856       -0.84623593611269        0.69592407481735
C           -3.78786110380084        0.40015835788704        0.85294287632552
C           -2.43275852530762        0.49684678630271        0.58156775020336
O           -1.65237327332949        1.59545073000395        0.62557882902006
N           -1.72400287848295       -0.55910018682195        0.20067877075369
N           -0.04118297963696       -2.30860059683052       -0.47100685506720
H            3.12392345847675       -3.09166888610510       -1.07147130332617
H            2.68367873657992       -2.64713540631352        0.59545587310396
H            4.33893845726661        0.59640928929223       -0.20286189294386
H            4.31072659278157       -1.14882196240195        1.53495922701347
H            4.17023960258314        0.43633493569464        2.28804937863428
H            2.73540321754588       -0.57712120900334        2.12281811401654
H            1.44307064369502        1.39577161017117        0.52595912861379
H            2.84233100617685        2.22714456732003        1.26331382607833
H            2.64328092682804        2.25925234957430       -0.49248678771187
H            2.51005006015519       -1.32215814263652       -3.11313428272151
H            4.91725303262449       -1.13787425431783       -3.56831145744613
H            5.21678651791820       -0.36355621922896       -2.02021727425020
H            4.71889158180634       -2.05391023045227       -2.07873099940552
H            1.94994921170361        1.14700015684283       -2.96318511152347
H            3.21409023909656        0.78599759433738       -4.14143818882969
H            3.64815228067044        1.47259661778542       -2.58079456650956
H            1.65614918630057       -5.14705873324834       -0.91172041552870
H           -0.64900870559171       -6.05907294958467       -0.89149052774807
H           -2.54844397455255       -4.54170656985750       -0.39269202020552
H           -4.11078223212805       -2.90425829394661        0.16133205846678
H           -5.44026497103771       -0.95677137651394        0.89387310394388
H           -4.35835500469350        1.25956301607151        1.16871344190992
H           -2.12100121747692        2.37576169608978        0.95612772450254
C           -0.40799410555008        0.12681306143641       -1.99996140486784
O           -0.91695280458475        0.39444195690234       -2.98673628426998
H            0.56019400171861       -0.70847721480362        1.15759626124006
