48
 energy: -75.416891598571 gnorm: 0.000655766524 xtb: 6.7.1 (edcfbbe)
Mn          -0.03245273028988       -0.26797856648001       -0.12008768222681
C            2.32906422330712       -2.33044064771640       -0.05281331025597
P            2.17316526584858       -0.52151564394653       -0.52362100986915
C            3.62541962003691        0.30999429382864        0.32071742317450
C            3.09920352262047        1.20836790654118        1.43837187017782
C            4.71752342828156       -0.62252061441110        0.84007696421982
C            2.68833988398990       -0.53593789797792       -2.32267961681383
C            4.05174072668183       -1.14356662164725       -2.64115064707820
C            2.60499149668441        0.89126993203379       -2.86752049620782
C            1.02454481857217       -3.02986486160838       -0.30675652984857
C            0.93222433000369       -4.39734288402031       -0.51498594223115
C           -0.32145787891615       -4.99027000685467       -0.62475204080933
C           -1.45230712394896       -4.20494820454260       -0.49340933890762
C           -1.30706226456583       -2.83531628968515       -0.30298415826930
C           -2.37453547742832       -1.85149338405957       -0.13293409709373
C           -3.76391477935833       -1.95211596751583       -0.10497456620702
C           -4.48599761002926       -0.77114898225918        0.06759897412084
C           -3.87832367055444        0.46760593789582        0.19232519730468
C           -2.46865704867681        0.51543671248644        0.14865086050300
O           -1.63861102296858        1.49243600655153        0.19336743444384
N           -1.82278215566574       -0.65118455161533        0.01430634394186
N           -0.07073355324604       -2.25728000928571       -0.24887818795806
H            2.48797985605758       -2.32551317688408        1.03323853150313
H            3.16878472350544       -2.84040733692979       -0.52557783563517
H            4.04815358653775        0.95861598694421       -0.45718053053008
H            3.87088296129007        1.90108332201315        1.76964182058554
H            2.23821156246859        1.78306849746020        1.08610615130153
H            2.78445640043368        0.61394441982860        2.29415757239281
H            5.06291606427819       -1.31211199605424        0.07504827015328
H            5.56662958655340       -0.02431240954474        1.16767089604863
H            4.36647720780889       -1.19353981923328        1.69634674480730
H            1.90418779268998       -1.14403146996672       -2.80012744307735
H            4.11767164820394       -2.18459959864558       -2.33698600988549
H            4.21002445924813       -1.10364706123094       -3.71779822689414
H            4.85159787978149       -0.58140900710248       -2.16663586421212
H            1.72850385456601        1.40662559821185       -2.47026271841468
H            3.48718825700949        1.46525971774887       -2.59080653326890
H            2.53668774462156        0.88220468370798       -3.95389293093480
H            1.82820370330589       -4.99499849640935       -0.57729495913649
H           -0.40890659555090       -6.05273548187797       -0.79124606680573
H           -2.44104954113392       -4.63309232472799       -0.53965565493638
H           -4.26651306099839       -2.89917219432015       -0.21397088778987
H           -5.56567928564003       -0.82293241872532        0.09450444508717
H           -4.45690361565317        1.37109325321167        0.30600601291753
C           -0.43049435813862        0.09960526519830       -1.82337519045932
O           -0.89354307916900        0.39184543148818       -2.83432557048243
C            0.16023029005868       -0.14864036701201        1.64896862441835
O            0.14280732917290        0.02014096213114        2.78863980889228
