60
 energy: -70.703397986028 gnorm: 0.000092701542 xtb: 6.7.1 (edcfbbe)
Fe           0.11950474705002       -0.32847820699030       -0.12107910840262
N            0.01425931014384       -2.38186978130768       -0.16374166039015
C            1.31011185067716       -3.05662824108151       -0.35631633829202
C            2.34669167617309       -2.41020473984374        0.56706285472525
P            2.22706980684238       -0.59184129639330        0.23532656310199
C            2.66386175758945        0.43598456668931        1.72223763964987
C            1.95273648860392        1.76077015413488        1.41020286521753
C            2.19867028754159       -0.17202458533386        3.03829979101555
C            3.62736609140830       -0.22945567957585       -0.95129817259948
C            3.52329338865185       -1.11700696971326       -2.19004179733132
C            5.00821519240504       -0.37115533692623       -0.30766633742692
C           -1.05439758140388       -2.84637001545314       -1.06202786638565
C           -2.37081646160049       -2.22259306824003       -0.60093782718959
P           -2.04840095003666       -0.44544955263712       -0.13696631027854
C           -2.82275123334000        0.58491881737106       -1.48355736658591
C           -2.31079557577828        2.01187663828456       -1.26701708043474
C           -4.34078236554298        0.54812187852624       -1.61313324144146
C           -3.12033649336473       -0.11487140181384        1.36134197875898
C           -2.29278187635495       -0.20134951787977        2.64042331862886
C           -4.35529048916435       -1.01287113218362        1.46135399044579
H           -0.28389600278078       -2.60914484120426        0.79438541263830
H            1.21489275274764       -4.12706458394167       -0.13805094843087
H            1.59415077622038       -2.93983996102852       -1.40497677292509
H            2.07638548885276       -2.58363988902451        1.61225073513173
H            3.34549246487265       -2.81232494523949        0.38534269174378
H            3.74337562274333        0.60542057748704        1.77722390860454
H            1.97305707014526        2.42825697199629        2.26978816176652
H            2.42801626902518        2.26975123080270        0.57067156584126
H            0.89231101223769        1.57200930408080        1.14749844082788
H            2.78341955937363       -1.05548081389349        3.28639639007699
H            2.33042737880524        0.55218642486872        3.84055183227235
H            1.14640849729114       -0.43822192983700        2.99260474131824
H            3.47487034788084        0.81314145346981       -1.26302055238846
H            2.52128909343569       -1.09675750691493       -2.61151735044111
H            3.79424759052872       -2.14495910272734       -1.95840042377587
H            4.21012339752820       -0.75819588971968       -2.95529629933826
H            5.76304462497315       -0.44508095565878       -1.08889561623278
H            5.07351193017569       -1.26781827459881        0.30636037087330
H            5.26274057049447        0.48930940854648        0.30582325539147
H           -0.80265570806735       -2.53015538323973       -2.07823312302446
H           -1.12257175440645       -3.94083088838903       -1.04692558337790
H           -2.73275917789847       -2.74976323897799        0.28588340773417
H           -3.13435698618164       -2.28883006078113       -1.37872145038173
H           -2.38380622303981        0.18843816830922       -2.40985761978009
H           -2.81123678398566        2.48063628818743       -0.42076160077466
H           -2.49428676780110        2.62570215747791       -2.14700150629197
H           -1.23051047808255        2.00772798793440       -1.06699889884859
H           -4.82775703581793        0.95637881764356       -0.73078965315591
H           -4.64007560711073        1.15431761044221       -2.46744651604807
H           -4.70399844582167       -0.46339038336938       -1.78278046245668
H           -3.44518201869640        0.92698133846577        1.23549745426064
H           -1.87341954291075       -1.19749439433324        2.76570410535738
H           -2.92301856200063        0.01494663266733        3.50172204782813
H           -1.47554558617181        0.51484957212747        2.62288715493995
H           -5.07314545888082       -0.55683332386915        2.14164000817402
H           -4.09715974276591       -1.98755729490640        1.86988362438180
H           -4.84531387029647       -1.15431208957761        0.50191640882278
C            0.23370869886998       -0.08061220359737       -1.84902891130208
O            0.32276854651167        0.15719899209504       -2.96906159642790
H            0.06416218512306       -0.48566850013888        1.27445169713874
