64
 energy: -97.505716985621 gnorm: 0.000344670110 xtb: 6.7.1 (edcfbbe)
Mn           0.08221231361196       -0.43961499162662       -0.38591742014760
N           -0.11605609600872       -2.24820120595443       -0.10396096847132
C            0.87372151292083       -3.13235297363692        0.49887754573083
C            1.93640063800573       -2.34208748485260        1.25856074767122
P            2.17329463263074       -0.88956541678887        0.17047149918843
C            3.27577108610093        0.25067654596597        1.05332779110450
C            3.88673327348735       -0.01506450142380        2.27331054085920
C            4.70779988493577        0.93904208251315        2.85136002275215
C            4.92067770579727        2.15330552424891        2.22017164691579
C            4.30765933319627        2.42399428271117        1.00544173914074
C            3.48501556530071        1.47793627544316        0.42580634202015
C            3.30277146475624       -1.59305740431016       -1.07946365935489
C            2.77202252595001       -2.02882053295866       -2.28875194776729
C            3.58866505860060       -2.62589521116892       -3.23256376352753
C            4.94003954349931       -2.78781515767242       -2.97342741214728
C            5.47360786379449       -2.35301214769726       -1.76987342100581
C            4.66063751661410       -1.75851303084545       -0.82180521828006
C           -1.25062571474682       -3.07566286789184       -0.49117732181439
C           -2.28422131397752       -2.28197480042495       -1.28723975118830
P           -2.10895160504103       -0.57564684918842       -0.64401930415527
C           -3.13531515624362       -0.49773784369245        0.86290109795364
C           -3.80076015484201       -1.56750641521567        1.44939999445546
C           -4.55057198200891       -1.36949766591541        2.59764562914193
C           -4.64304301118507       -0.11074642577559        3.16586299904213
C           -3.98098094783306        0.96109689740660        2.58502514946081
C           -3.23031794175689        0.76806455373533        1.44235381886341
C           -3.18444111279710        0.40838574043360       -1.73783673962012
C           -4.50365918777280        0.02775662473205       -1.96886976317162
C           -5.30780231760987        0.79473790619677       -2.79086264028800
C           -4.80596399203533        1.94836183799670       -3.37496329380335
C           -3.49934230279188        2.33912143555128       -3.13230418711222
C           -2.68873183583927        1.57209728744503       -2.31291507042701
H            1.36649793734086       -3.73679329691340       -0.28633424538324
H            0.37498737454293       -3.84268915727881        1.18242345988664
H            2.84994972672161       -2.92141400334720        1.42151101899815
H            1.53599706537222       -1.98358568534521        2.21491964562171
H            3.72591763525098       -0.95988524928825        2.77399259984624
H            5.18310673463787        0.73310644402277        3.80010242994447
H            5.56126973984036        2.89303648059270        2.67813497621431
H            4.46804661073201        3.37447238647425        0.51751910975673
H            2.97935736578972        1.67101271779515       -0.51494718187775
H            1.71333842893946       -1.88550838525582       -2.48265045484927
H            3.17283591382076       -2.96180641569443       -4.17193675109956
H            5.57988935273016       -3.25033248001994       -3.71108938685375
H            6.52848937125207       -2.47741199006625       -1.57053315115386
H            5.07841539666146       -1.41548292024951        0.11534860925426
H           -1.72197317071612       -3.49731221525421        0.41533009404996
H           -0.89331275209133       -3.93594690592343       -1.08706130531784
H           -1.99757378474408       -2.22678194950499       -2.34546491598784
H           -3.29145032006712       -2.69854572479453       -1.21367232956024
H           -3.74584543618198       -2.55875150804831        1.02251295150448
H           -5.06640290208999       -2.20543695287842        3.04953438890333
H           -5.22979471207335        0.03591263275443        4.06118254744277
H           -4.05059975856671        1.94503978497431        3.02611307841138
H           -2.70373430370007        1.59455792722064        0.97889704729385
H           -4.89956156929493       -0.86262858042478       -1.49851463843265
H           -6.33076709083560        0.49727730293991       -2.97391259835324
H           -5.43835473083039        2.54563504212164       -4.01579855584707
H           -3.11095992138258        3.24197660456395       -3.58114432429234
H           -1.66475714507807        1.86232956180415       -2.10696509393453
C            0.46245735534135        0.35627651614924       -1.92226176947661
O            0.72966386534562        0.83636290622231       -2.95165268746273
C            0.07182597243895        1.02424437089998        0.61307025636656
O            0.13078790079693        1.95013178219596        1.31594531653173
