56
 energy: -80.943717910568 gnorm: 0.000153647587 xtb: 6.7.1 (edcfbbe)
Co          -0.08665512309059       -0.36559949819524       -0.51723742877185
C            2.45023846768061       -2.42008281920080        0.27062062557572
P            2.96578993616077       -0.66495423241247       -0.08023865556982
C            1.90440466428602        0.24631233533878        1.13105585713296
C            1.77102008638556        1.63530425189141        0.97858472840388
C            1.24784724533974        2.41537778716680        1.99483300218017
C            0.87404799331339        1.83570908106184        3.19642053441197
C            1.03448877945171        0.47082715720930        3.37737601061903
C            1.55461553979437       -0.31601338346131        2.36501751779827
C            2.02975696145289       -0.29844954436230       -1.63762023573987
C            1.11192602028306       -1.15743647481752       -2.29064499304022
C            0.53154846742565       -0.75034244829452       -3.49789305252758
C            0.87519729035582        0.45353969943219       -4.08350043092464
C            1.84869843232463        1.25276438109012       -3.49648478282897
C            2.41516958458346        0.88049776016143       -2.29406053205611
C            1.04712633777331       -2.80727801385393        0.62946747754497
C            0.88192716463717       -3.96429024237445        1.39166042861718
C           -0.38013091051555       -4.48590878139491        1.59479679124977
C           -1.45311846997979       -3.86803853331640        0.96996680527735
C           -1.22439594608698       -2.71160047809582        0.24720192753445
C           -2.29985899996282       -2.03661314532845       -0.54212993594916
N           -2.25235519594352       -0.58130893289222       -0.32501855297843
C           -2.73874415340968       -0.30031697176108        1.04379011512596
C           -2.04850074619876        0.90013817191345        1.66902951383270
C           -3.12328902319606        0.02328639345515       -1.36485777426786
C           -3.51351230121884        1.48242645431291       -1.18431518588249
N           -0.00974022630903       -2.14852921104169        0.13948148960298
H            3.12944692659167       -2.76951102351010        1.05598065715379
H            2.73283170672865       -2.98023182826510       -0.63183008382109
H            2.13451491922250        2.11594551434540        0.08178546863271
H            1.15473143667711        3.48205249797129        1.85548147007247
H            0.48202563792360        2.44664895610550        3.99509918749293
H            0.77073598431455        0.01676647413319        4.32130987891198
H            1.71782303797119       -1.36589715883713        2.55913488073046
H            1.02149706936092       -2.20265955362248       -2.01940831646336
H           -0.15236553558467       -1.41658333977955       -4.00487958500492
H            0.42606333469938        0.74942609811144       -5.01941384961957
H            2.17273161330297        2.15818507748827       -3.98720867163165
H            3.19804652763675        1.48930019819351       -1.86056664196272
H            1.74971209152535       -4.45658756474584        1.80266002019986
H           -0.52224372304527       -5.37203993277511        2.19339356483445
H           -2.44861738960088       -4.27623782352168        1.03932233953925
H           -2.10842476939268       -2.23518425867023       -1.60349175962159
H           -3.28924914914477       -2.44084705285941       -0.28975668107927
H           -3.82570502165187       -0.16986772478822        1.03221918569618
H           -2.51292341135220       -1.16952504064528        1.66737278572375
H           -0.96967893972870        0.78392974573275        1.53935833124930
H           -2.35450508908518        1.83953531201843        1.22202188675672
H           -2.26751860824673        0.93908304100216        2.73331137998362
H           -4.05307007120082       -0.56146110679626       -1.41101879598966
H           -2.60115279900659       -0.08635343945542       -2.31907861851069
H           -2.65077250725220        2.13285753780837       -1.10290277445806
H           -4.15128018650592        1.63095909507623       -0.31752811609848
H           -4.07882184808055        1.78647471274622       -2.06300966156177
C           -0.21150468485703        1.28070283292135       -1.06939729937495
O           -0.23780252749150        2.34816628440052       -1.46767693461127
