48
 energy: -71.031167923774 gnorm: 0.000293378659 xtb: 6.7.1 (edcfbbe)
Co          -0.33889428005527       -0.53473360708844       -1.42714434169974
C            1.92084657333746       -2.44133811475759       -1.74888959961525
P            1.90742115882255       -0.63112693387882       -1.30185742488904
C            2.80873989422628       -0.72468846901809        0.34354254016851
C            4.31958019381845       -0.91369186203865        0.26440559686982
C            2.43108694807515        0.48012874702202        1.20348185998854
C            3.12030619309563        0.09383570473540       -2.51619176277286
C            2.59837358578085       -0.12877906744216       -3.93414890811893
C            3.26194812830778        1.58875228431685       -2.23887692487586
C            0.87280966153555       -3.01788847165103       -0.85327125222368
C            0.97236505251526       -4.26149016739960       -0.26534842563924
C           -0.00001878563612       -4.66015221356328        0.65388398918319
C           -0.98909228535808       -3.76741702457318        1.00035163030615
C           -1.03637522781441       -2.51661532085144        0.37665094315377
C           -1.93114252126312       -1.44210303289274        0.74884988711259
C           -3.04602690930167       -1.58685390893339        1.57330197774491
C           -3.77582377645865       -0.46725809521030        1.92243357107137
C           -3.38212935001198        0.77131049634549        1.44116523780455
C           -2.28079207439099        0.84123135813371        0.59170539109191
O           -1.90052950994981        2.03350506899832        0.12753003956327
N           -1.56441434165743       -0.23365618959546        0.24573634611561
N           -0.14658662286274       -2.18312757623496       -0.58614520342899
H            2.88956625263525       -2.93206371593086       -1.62549636204793
H            1.60529525785961       -2.52002640982242       -2.79337487756857
H            2.37187195349015       -1.61795250839892        0.81687980395109
H            4.58316292134184       -1.75350737008566       -0.37612137841735
H            4.80941925201631       -0.01917789226422       -0.11270378008056
H            4.71150691190614       -1.11565702137604        1.26082038998301
H            2.78340898509452        0.34512644090848        2.22548508160529
H            1.34708074074005        0.59908648146900        1.22475260198945
H            2.86411532642028        1.39786550387037        0.81184158078404
H            4.08888812250596       -0.40571525091737       -2.39978498925595
H            2.69773735707383       -1.16769352249500       -4.24093822483048
H            1.54628451536216        0.15366213437927       -3.99307885124641
H            3.15799894374815        0.48347681186466       -4.63949092930984
H            3.90756169557026        2.05372377451213       -2.98274541019722
H            3.68876379872704        1.77508482970740       -1.25593758175083
H            2.28272064262134        2.06370299635718       -2.28646596259684
H            1.79782564668864       -4.91132084725174       -0.51230317825191
H            0.05077002071191       -5.63559186249279        1.11269631480502
H           -1.71138100250890       -4.01688889859686        1.76050478459424
H           -3.33981927515401       -2.56292333731576        1.92311584182419
H           -4.64007480559731       -0.55145215184549        2.56329956613024
H           -3.89887943850557        1.68080670317299        1.69779619555659
H           -1.17500168629930        1.89330065916780       -0.51373457792562
C           -1.16943607315999       -1.10167771555049       -2.85650356270940
O           -1.69699442260202       -1.43202445403981       -3.83321946064517
H           -0.44962160195025        0.79713302055219       -2.00216781645042
