47
 energy: -69.999697828809 gnorm: 0.000248103722 xtb: 6.7.1 (edcfbbe)
Fe           0.07778187278385       -0.30199972007082       -0.40901124291547
C            2.35815912811740       -2.33208651976068       -0.03291461425402
P            2.22778049405676       -0.53409516554902       -0.52188608374556
C            3.09559266779144       -0.51574428633559       -2.18958866064126
C            2.47675081764377       -1.61212585023602       -3.05968434383076
C            4.61583574188404       -0.64387449460646       -2.18406072579434
C            3.29253765623604        0.31154155782066        0.75580259482911
C            3.26612686200254        1.80496087186479        0.43514989308564
C            4.69879206563689       -0.20432752363269        1.05133660672766
C            1.04696537422750       -3.01810249505695       -0.29567002726681
C            0.92109567508385       -4.39699239813946       -0.34369877263724
C           -0.34413695790242       -4.96822295937915       -0.43190537716668
C           -1.45594630046129       -4.14643801694808       -0.40408484819228
C           -1.27838915304030       -2.76818257105998       -0.36456355240210
C           -2.31008069183070       -1.74468099934685       -0.24719632498922
C           -3.69772904546805       -1.79798101641504       -0.15050238127207
C           -4.37390848344353       -0.58648912843349        0.00300415290423
C           -3.72437580718553        0.63418086693323        0.05288389975730
C           -2.31542878424688        0.64731906786261       -0.06218516003110
O           -1.45975551804324        1.58685862968962       -0.08661822952175
N           -1.71604126675047       -0.55424102327666       -0.19592479760278
N           -0.02760694613282       -2.21953938359880       -0.38380473023449
H            3.20072925548201       -2.85869524344466       -0.48716721288547
H            2.49575023956312       -2.32339953470562        1.05601493695187
H            2.82087167421507        0.45864314748445       -2.61738478225656
H            1.39742300352449       -1.66497084366550       -2.91727593564893
H            2.90100064633475       -2.58525986378343       -2.82086812414106
H            2.66944499434976       -1.40963222847735       -4.11221629914569
H            4.94002476799719       -1.49650505930261       -1.59212510985001
H            4.96611740534822       -0.78904555065766       -3.20585590804871
H            5.08657494619265        0.25591893319726       -1.79883653881070
H            2.67146685380808        0.15198672371020        1.65014321951717
H            3.68295103119678        2.38452038148608        1.25749444694131
H            3.84076509629835        2.02394767005030       -0.46432023702253
H            2.23208470117701        2.12166494191307        0.27389893476984
H            5.42017136688998        0.14357940381707        0.31891921359364
H            5.01246028262689        0.17120333958767        2.02498613134216
H            4.72985828872432       -1.29096953451958        1.08547705112249
H            1.80141109365824       -5.01933270015558       -0.29483062780128
H           -0.45497461846071       -6.04036695110676       -0.48389048438793
H           -2.45459729860958       -4.55324764077433       -0.40800224219382
H           -4.23375917822546       -2.73211849555666       -0.18766413418677
H           -5.45225561315485       -0.60442102763275        0.08608738083184
H           -4.27191459256885        1.55634421052233        0.17053546927125
C           -0.20429195211907       -0.02306545608604       -2.11386910935992
O           -0.52522407705372        0.23036194546556       -3.18954199484444
H            0.27651256943278       -0.37476981677970        1.04945904455998
