61
 energy: -71.553174593301 gnorm: 0.000072907969 xtb: 6.7.1 (edcfbbe)
Fe           0.05816296992461       -0.27189498208797       -0.05339053266065
N            0.11434021926391       -2.37475200528219       -0.14120691725707
C            1.37820847254373       -2.89986115331552       -0.66033920737882
C            2.52682307812392       -2.27726686484204        0.12940146575747
P            2.19229458422034       -0.43213222196832        0.21102119662744
C            2.99258305071689        0.05442487931044        1.83331964652680
C            2.78991829012154        1.56222722080839        1.96040599087135
C            2.36825647995597       -0.64662359037993        3.03431193150875
C            3.44801218335200        0.24459327606410       -1.02408753658340
C            3.29798074511983       -0.45208716446386       -2.37602659500139
C            4.91471103170122        0.20187472025084       -0.59517318913161
C           -1.07757862677812       -2.92033631486505       -0.78834782698320
C           -2.30906952685213       -2.34978661646135       -0.09313106610614
P           -2.08638475447470       -0.48757946095958       -0.03035456830408
C           -3.05585060141196        0.05644716254396       -1.54444501770756
C           -2.85501739022263        1.56268053225685       -1.70720764678874
C           -4.53862519058804       -0.29805133014294       -1.61490980219889
C           -3.23011266493255        0.08028127027913        1.35261843557840
C           -2.40726220922275        0.58514322742846        2.53256790120761
C           -4.26905471300445       -0.94027642666618        1.81653748127637
H            0.06666010131898       -2.63560763377822        0.84661384666955
H            1.40392982705461       -3.99876710294562       -0.58657869845207
H            1.44857072526523       -2.62506874494223       -1.71668476651355
H            2.52052326606929       -2.67278335706051        1.14835585555371
H            3.49260418815437       -2.50866931440664       -0.32276703956489
H            4.05872693729829       -0.19673913111018        1.79643552526074
H            3.16313705882879        1.92941831569014        2.91610745749056
H            3.29386395682262        2.10423534461697        1.16161690081362
H            1.72282220704966        1.77083955482085        1.88819657392999
H            2.61396406104729       -1.70692404829952        3.06560134397600
H            2.73410361904560       -0.19376911242590        3.95512828285981
H            1.28701749515651       -0.53084135995775        3.00100021392872
H            3.13606334296831        1.29041740034082       -1.15240234483536
H            2.25613767192833       -0.50224391374852       -2.67435507187555
H            3.70575322977841       -1.46142530127826       -2.34905137669824
H            3.83698306394420        0.10419428801056       -3.14310789015302
H            5.54257513699722        0.48131768406736       -1.44157790987904
H            5.20490388903357       -0.80009544698751       -0.28219502192309
H            5.12549342549370        0.89729929026151        0.21286483974671
H           -1.06223363314967       -2.61867768161970       -1.84105614554363
H           -1.08171990671376       -4.02112259481946       -0.74488328024713
H           -2.34047926537635       -2.71618893856381        0.93699702552674
H           -3.22363826743624       -2.65593346248766       -0.60252717313825
H           -2.53867944587900       -0.44823936016579       -2.37309996390619
H           -3.48331597504896        2.11817397071013       -1.01213163941567
H           -3.10550500979800        1.88044554413633       -2.71895279051176
H           -1.81544458643564        1.81959545181276       -1.50378863882917
H           -5.10205565027303        0.20148502543331       -0.83021983511059
H           -4.93803906824868        0.03464622704546       -2.57342256813020
H           -4.70898431493377       -1.37012815489482       -1.54166194720217
H           -3.75111161950243        0.94637118219858        0.92318334420085
H           -1.92723917044234       -0.24297222390473        3.04950592984122
H           -3.04090406709266        1.11758937721783        3.24151795823981
H           -1.62441345596630        1.24923783829534        2.17291755660010
H           -4.99428430695905       -0.44589764920139        2.46322082711838
H           -3.80156121379481       -1.73437671385161        2.39530649418387
H           -4.80659909820969       -1.38623975449039        0.98381436109646
C            0.07449121609165        0.01388828036253       -1.75713912489490
O            0.01739768075975        0.24766932665646       -2.89758852752732
H           -0.02082034720717       -0.40791698745559        1.40250374517291
H            0.03210657048233        1.17955874054665        0.16592395366439
