65
 energy: -93.248209958215 gnorm: 0.000452915497 xtb: 6.7.1 (edcfbbe)
Ru           0.01671473884514       -0.47880266842014        0.10743567659369
N            0.29278519634038       -2.68937340092824       -0.18641858186219
C            1.05777981686135       -3.23163577745897        0.94276045472188
C            2.40337473012135       -2.51397525534189        1.05595577388926
P            2.15169462028578       -0.66118959221749        0.82456902841694
C            3.54253374060686       -0.21665934732369       -0.27967674255143
C            4.24384442382302        0.96672587410262       -0.06245746309086
C            5.21248584368470        1.38255292120278       -0.95748231596170
C            5.48341690535172        0.63179427421902       -2.08979840577383
C            4.76718393227999       -0.52883143075240       -2.33254382161191
C            3.79690299791162       -0.94354587386763       -1.43949558301509
C            2.78092552272176       -0.01870063749634        2.41122313534019
C            1.99227881294153        0.86426976965992        3.13686111334385
C            2.44716405654454        1.36747309105764        4.34420211212938
C            3.68927030082746        0.99056383744821        4.82785399151904
C            4.48310788873145        0.11509719593735        4.10115852573708
C            4.03488328872771       -0.38766726033484        2.89425265531388
C           -0.94849451350636       -3.42165890507512       -0.48493960339539
C           -2.13906512805171       -2.84289997054823        0.27613324924667
P           -2.17769998270235       -1.01943257037658       -0.11830239704555
C           -3.44892239407601       -0.35631794225518        1.00881492379872
C           -4.29718147197858       -1.10915979633555        1.81205669811103
C           -5.23449426078044       -0.47430439889127        2.61068602402509
C           -5.33491662315340        0.90652618928590        2.61124986853869
C           -4.48751226069453        1.66228478105270        1.81510434259202
C           -3.54861244876527        1.03321901053805        1.02048836417482
C           -3.18395355036144       -1.03895048217135       -1.65703839973629
C           -2.66786249020053       -0.47138146673298       -2.81405960463908
C           -3.40306339955830       -0.47703887389525       -3.98738323088905
C           -4.66495606558893       -1.04653509170551       -4.00849525513283
C           -5.19452288226251       -1.59857245648904       -2.85160723147477
C           -4.46165608626503       -1.59242180199574       -1.67978009482038
H            0.89900310480086       -2.77566778470043       -1.00591580558693
H            0.47873907063386       -3.07482276775702        1.85791340852759
H            1.22456828216881       -4.31373786786192        0.81246170102988
H            3.09619836714802       -2.88436368668514        0.29370191312585
H            2.84264114582563       -2.70183692134426        2.03855111318717
H            4.02242056468968        1.56366694897938        0.81237399112074
H            5.75362826508421        2.30009276552051       -0.77474269681566
H            6.23976239764844        0.95684389638973       -2.78939330473237
H            4.95889124534009       -1.10665454153486       -3.22597552092797
H            3.22639545837246       -1.83842991300070       -1.66052729245767
H            1.02440841901888        1.13856320015102        2.73498464007124
H            1.83270963706645        2.05479166358288        4.90785429643616
H            4.04471365769852        1.38136011754359        5.77061901912763
H            5.45512813037177       -0.17207245484583        4.47687375934258
H            4.66058378289270       -1.05691815619073        2.31695679799389
H           -1.15224106091717       -3.32246185391111       -1.55911244665780
H           -0.82612987092016       -4.49095799678388       -0.25496115802466
H           -3.05687141881472       -3.35791009404049       -0.01917010200364
H           -1.99003072942683       -2.94269666697464        1.35586930399750
H           -4.23218523469901       -2.18794396136943        1.82961102747342
H           -5.89029767470184       -1.06311310017914        3.23696360387749
H           -6.06873828814472        1.39442714418544        3.23667782803589
H           -4.55811058394422        2.74070472957891        1.82018823692247
H           -2.85883324370649        1.60337999512707        0.40785422161845
H           -1.68653770620197       -0.01661893281368       -2.78152128629607
H           -2.99120698344587       -0.03475311065027       -4.88356521147427
H           -5.24060821334785       -1.05352955805366       -4.92286275337184
H           -6.18506467462220       -2.03096803373147       -2.86458485206007
H           -4.88827742217473       -2.00624720811709       -0.77606114055319
C            0.52114978419625       -0.06616661033040       -1.60920706814271
O            0.93603202064989        0.19066139116520       -2.66555285645904
H           -0.35605757217097       -0.74727244235290        1.62480898941524
H           -0.17816169305169        1.04524014666065        0.40584650920479
