49
 energy: -80.898841914844 gnorm: 0.000219949680 xtb: 6.7.1 (edcfbbe)
Ru           0.02913861974511       -0.29657349607866        0.05035865852087
C            2.37191077067348       -2.38804278220834        0.04655272922336
P            2.27256141989707       -0.54228009544428        0.42213592793521
C            3.58273792733776        0.13714495036307       -0.64008986795173
C            4.83494703152364       -0.45107157496273       -0.79267855417927
C            5.77463541714439        0.14459652583247       -1.61435405076808
C            5.47593285431304        1.32742081304378       -2.27471794939585
C            4.23505057311900        1.92332169815168       -2.11346841472841
C            3.28943545995603        1.32780192425316       -1.29750667741983
C            3.03801234660851       -0.49749453209163        2.07236431911644
C            2.56942582989888       -1.37886606424035        3.04401749263045
C            3.09172657906821       -1.34210807217158        4.32309323605502
C            4.07656762799527       -0.42005025788770        4.64436652361394
C            4.53027398884952        0.47155853771426        3.68626606841033
C            4.01100030403212        0.43958228603094        2.40337976542816
C            1.04220541530986       -3.06047972977551        0.26728784124201
C            0.91574181967359       -4.42280923057008        0.49388048155503
C           -0.35244957529848       -4.98310061903447        0.61060432927962
C           -1.46824630610056       -4.17343602794931        0.48573630254552
C           -1.30058808434159       -2.80852796854261        0.27416654445997
C           -2.36437456173184       -1.80806021741129        0.13467741486592
C           -3.75485583091254       -1.90697334713024        0.13133727398388
C           -4.47911186579243       -0.72177868591164       -0.01385807854154
C           -3.87845688947874        0.51931416493518       -0.14498790382457
C           -2.46678355018692        0.57436553929354       -0.13897993020252
O           -1.63927824284106        1.54416835704460       -0.23362406864978
N           -1.83019529021035       -0.60003998534078       -0.01215238225272
N           -0.04365356267301       -2.27840397934606        0.18682682879384
H            3.16567107122026       -2.88357250187555        0.61256738607241
H            2.61322522706810       -2.45203507711780       -1.02408189332373
H            5.07068164287202       -1.36445133559629       -0.26502147570382
H            6.74575741606415       -0.31180623412837       -1.73975356683520
H            6.21435334859628        1.78738846826308       -2.91496293551187
H            4.00527204299669        2.84755206896949       -2.62355000949583
H            2.30674641326579        1.77378793996531       -1.15304493006073
H            1.78224377793507       -2.07912612609059        2.79230077055946
H            2.72782507706136       -2.02872250988554        5.07386270476427
H            4.48333206781472       -0.39136924340829        5.64458787712543
H            5.28878010152066        1.19829414292475        3.93912361191209
H            4.35826403935867        1.14207968014827        1.65764319441556
H            1.79819430727039       -5.03853182489851        0.57137548290166
H           -0.46320483015466       -6.04096031448095        0.78940242746826
H           -2.46419230399179       -4.58020552507055        0.55758791736680
H           -4.25893832560996       -2.85302079133857        0.23820291386001
H           -5.55859817795231       -0.77597666841222       -0.01832440160869
H           -4.46344911753044        1.41972601559790       -0.24357639813953
C            0.25903269174190       -0.19461646170824       -1.78819586694078
O            0.38122225535201        0.01181989544343       -2.91250574812534
H           -0.17470756146215       -0.09347371377108        1.58758513553025
