55
 energy: -80.772200723260 gnorm: 0.000354245955 xtb: 6.7.1 (edcfbbe)
Co           0.11880664287611       -0.34796974708455        0.18088509715259
C            2.23073812081455       -2.43867329275789        0.89207676774036
P            2.21372117886363       -0.69798575057013        0.67336787981254
C            2.59320840178759        0.00320963021699        2.31584377643748
C            3.88328203674608        0.10919127228705        2.82473621906874
C            4.07831221614299        0.53189967200675        4.12806872155164
C            2.99334741619272        0.83790084016104        4.93429912160941
C            1.70379024631959        0.71550959516965        4.43803085678793
C            1.50779510456156        0.29703858340634        3.13634904204924
C            3.66209375933423       -0.20437403143441       -0.30825741418929
C            4.29288567187599       -1.12439884042799       -1.13773262805021
C            5.37013073236348       -0.73586828670819       -1.91448691205393
C            5.81490003823577        0.57586150164554       -1.87654280372802
C            5.17722047771498        1.50238940835731       -1.06465423826414
C            4.10198153472596        1.11714319675501       -0.28655789517004
C            0.97327218029443       -3.00183511976051        0.78160828051746
C            0.70796744529375       -4.37993376878489        1.04299054294639
C           -0.54333898393900       -4.88601784218558        0.87208605923040
C           -1.57377419730835       -4.04355325467193        0.41921782719583
C           -1.27379824432769       -2.72298828534681        0.17442655333940
C           -2.28913219158445       -1.76917451630352       -0.39042388323973
N           -1.95098093374984       -0.38772907819180       -0.01285462428408
C           -2.53298154710511        0.56352149327432       -0.97211377527718
C           -1.81553916139669        0.52034265423876       -2.32007267829835
C           -2.39043637225516       -0.10553852638079        1.37099296201108
C           -3.90076928307816       -0.00689175851222        1.60451047821589
N           -0.05947759903078       -2.19451316763202        0.35952764086963
H            3.08693591928472       -2.97604618363250        1.27101019877524
H            4.73133795884385       -0.13141082845735        2.19765454033175
H            5.08240752692839        0.62237561457631        4.51873812399832
H            3.15250250214116        1.16993993989827        5.95024645878669
H            0.85761690345337        0.95038041085881        5.06838498489170
H            0.50735696334205        0.19619923423408        2.72003269412513
H            3.93027443422209       -2.14360636876161       -1.16272829368881
H            5.86424500363791       -1.45568264826137       -2.55204689100564
H            6.65682921867830        0.87890388978223       -2.48251820737345
H            5.52069924269470        2.52713978319757       -1.04189598263644
H            3.59700147429172        1.83410197973809        0.34767363207315
H            1.52569125608453       -4.99825790544531        1.38259012443874
H           -0.75271879047471       -5.92714688314849        1.07604095618151
H           -2.57055405977153       -4.42155559486988        0.25645490270495
H           -3.30458866427133       -2.04282058984902       -0.08088393081112
H           -2.24093523451841       -1.85273320551494       -1.47930797627715
H           -3.60122190463749        0.35735130358167       -1.11745079323943
H           -2.42649128561453        1.56344518736696       -0.54524976482971
H           -1.93949805054825        1.46659713756083       -2.83991215252388
H           -0.74567635921476        0.35084367276455       -2.15574885006119
H           -2.19741570988649       -0.26883317036927       -2.96354799729544
H           -1.98635614510888       -0.89878711305090        2.00805301077183
H           -1.93726618037817        0.84346435549356        1.67572282599402
H           -4.33068714052649        0.84248938471651        1.07984888638769
H           -4.42475608324693       -0.90955276862135        1.30014840267227
H           -4.07438835308851        0.13295120647038        2.66895701712973
C            0.39623043755264        1.35020760526669        0.02173437196034
O            0.69969518156030        2.46322251086893       -0.05565069873625
