54
 energy: -70.113536336771 gnorm: 0.000260710165 xtb: 6.7.1 (edcfbbe)
Ru          -0.10390324075065       -0.07324647979358        0.00835550031353
C            2.01964093552634       -2.08723418396204        1.16755491191783
P            2.01839323206449       -0.34431783579851        0.89507654167920
C            2.28203981627809        0.40940247267244        2.60212642274815
C            3.60695932854853        0.05540765021234        3.26955542602563
C            2.02528892179656        1.91386332587571        2.62865019004879
C            3.46753863367263        0.04304889250359       -0.22553680638300
C            3.57618697871598        1.53832096078012       -0.50457801637524
C            4.80697733638240       -0.57394330223154        0.16596798394533
C            0.89546134040686       -2.78169690455402        0.76875029024093
C            0.72442837576458       -4.18864600924963        0.96874569997770
C           -0.44022784789571       -4.79836522662162        0.61757139212811
C           -1.48294258903469       -4.04398863559891        0.04820700871330
C           -1.26169334797763       -2.69923213643496       -0.15964329102370
C           -2.29165239090961       -1.82504755723210       -0.83627939834242
N           -2.18012189304182       -0.40906767359484       -0.44635237781247
C           -2.81103719325012        0.46129194998035       -1.45481572353552
C           -4.30985053549157        0.24072970522184       -1.66480920391232
C           -2.72173760442963       -0.16654251600564        0.90229878850214
C           -1.63917318888282       -0.37869031786426        1.97000561550679
N           -0.12720079995671       -2.08988564438741        0.17045029231345
H            2.85558461893322       -2.60574734703075        1.61305449395931
H            1.47640698074146       -0.08752482672272        3.17229438060326
H            4.41566580153140        0.65979874581734        2.86701219207698
H            3.54502696415869        0.25049917325771        4.34037288322550
H            3.84771020790873       -0.99580942477359        3.12751821887394
H            1.15581625627627        2.16148306894691        2.01896949597175
H            2.87841087943941        2.46000322360575        2.23590819473415
H            1.84960298222669        2.24905217737546        3.65068454165503
H            3.12617889000056       -0.45385790927632       -1.14863988887766
H            2.58018345920556        1.95133386700452       -0.66868144631025
H            4.04387594334427        2.05635653171248        0.32924955623469
H            4.17989578098411        1.71332999856519       -1.39393116232977
H            4.68320732571808       -1.61668611307486        0.45023655521950
H            5.27106578738088       -0.03767308432430        0.98859383125963
H            5.48608273131039       -0.53395014215402       -0.68538807589128
H            1.53856141265112       -4.74276707401201        1.41189900295654
H           -0.57663359076948       -5.85948245138451        0.77517609775185
H           -2.41566217918996       -4.50441260212498       -0.23630057609504
H           -3.29949389258951       -2.21289143945860       -0.62902282824664
H           -2.11620433885548       -1.88857520024027       -1.91815700355630
H           -2.63149631648285        1.49685238169047       -1.15040410931647
H           -2.28071438173472        0.30667861548828       -2.40057546253520
H           -4.51808804787288       -0.74940382895781       -2.06316829841644
H           -4.86635126442285        0.37295225145680       -0.73958257745465
H           -4.67133248718355        0.97264711060824       -2.38269309764587
H           -3.04830688422305        0.87903237237191        0.94897658239182
H           -3.59090216289337       -0.80996399838025        1.10892268158245
H           -0.66072753209390        0.11130312530156        1.65904963998018
H           -1.49377870030937       -1.43856606749178        2.20356521415160
H           -1.94056954626046        0.12023587956844        2.89469761832288
C            0.51291291429286       -0.02295212674649       -1.70374975318149
O            0.86305642601588        0.01244441008655       -2.80882458198149
H           -0.22897952348022        1.49045792414260        0.01538779117138
