75
Properties=species:S:1:pos:R:3 charge=0 unpaired=0 uhf=0 pbc="F F F"
Ru       0.02221453       0.24857797      -0.31133961
N        0.28593989      -2.82647176      -0.07957612
C        1.70154870      -3.00479794       0.18651426
C        2.59193845      -2.04196961      -0.60814626
P        2.31337389      -0.22407488      -0.37523134
C        3.45055949       0.45644322      -1.71757867
C        4.69087248      -0.38642390      -2.01535475
C        2.68389137       0.72182605      -3.00800475
C        3.38771162       0.22417246       1.09462763
C        3.08648656      -0.61713726       2.33013595
C        3.20317827       1.70480154       1.41887308
C       -0.29836298      -1.68832229       0.64109841
C       -1.84055891      -1.77201634       0.55551246
P       -2.22731732       0.00571370       0.36148067
C       -2.81974574       0.66529350       2.00849697
C       -2.69031241       2.18645594       1.95008070
C       -2.04417571       0.10483274       3.19373372
C       -3.84665063       0.05696203      -0.58404480
C       -4.79052309      -1.06597513      -0.15741051
C       -3.59645087      -0.00385326      -2.08615566
H        1.91853973      -2.91507137       1.26479794
H        1.97478854      -4.02271052      -0.11897913
H        3.63556141      -2.27741870      -0.38389208
H        2.40794668      -2.21750459      -1.67408622
H        3.77921568       1.42572913      -1.32273731
H        5.36762731       0.19179301      -2.64339400
H        4.42707454      -1.29243783      -2.55591901
H        5.23086529      -0.65935222      -1.11169465
H        3.35807178       1.09359274      -3.77892796
H        2.21361959      -0.18887159      -3.37875270
H        1.91336438       1.47325606      -2.84129658
H        4.42860047       0.05047407       0.79090107
H        3.60995469      -0.20766851       3.19338592
H        3.41017339      -1.64721928       2.19888199
H        2.01804838      -0.59977078       2.54112171
H        2.17253535       1.88933383       1.71804128
H        3.86491185       1.99728626       2.23276562
H        3.41729666       2.33677867       0.55933868
H        0.25255183       0.60608823       1.15934484
H       -0.02201535      -1.78547109       1.71560113
H       -2.32987556      -2.30017424       1.38297242
H       -2.11502682      -2.26209350      -0.38440942
H       -3.87836120       0.39342982       2.11171695
H       -3.26113284       2.59656432       1.11727178
H       -3.04920187       2.64064531       2.87222010
H       -1.64356943       2.45488689       1.80534077
H       -2.38437064       0.57744131       4.11424247
H       -2.18485607      -0.96978921       3.29119711
H       -0.98102706       0.30990288       3.07573007
H       -4.30137163       1.02651622      -0.34058452
H       -4.44221533      -2.02164121      -0.54333064
H       -4.87432046      -1.13970195       0.92534884
H       -5.78468521      -0.88248298      -0.56297216
H       -3.00039994       0.84700307      -2.41346053
H       -3.07560844      -0.92516339      -2.34863076
H       -4.54177589       0.01375012      -2.62796575
C       -0.31747144       0.53501721      -2.09937845
O       -0.57719855       0.72117026      -3.22454089
H        0.18525828       1.81244314      -0.35956515
O       -2.08049690      -3.26555890      -2.46607167
C       -0.96538928      -3.70902384      -2.63229367
C        0.04078424      -3.16633113      -3.54267557
C        1.32207661      -3.71949599      -3.58195750
C        2.27194904      -3.20578056      -4.44406586
C        1.95022870      -2.14461002      -5.27934497
C        0.67649045      -1.59465606      -5.25317716
C       -0.27440847      -2.10067344      -4.38872716
H       -0.19837633      -3.67517140       0.21861246
H       -0.21872911      -0.73257505      -1.51010230
H       -0.63763733      -4.61600667      -2.08882039
H        1.56385332      -4.54630701      -2.92898433
H        3.26517497      -3.63054821      -4.47033726
H        2.69508093      -1.74415555      -5.95154386
H        0.42936259      -0.76540433      -5.89895170
H       -1.26998048      -1.68274082      -4.35438845
