75
Properties=species:S:1:pos:R:3:forces:R:3 charge=0 unpaired=0 uhf=0 energy=-2550.772123679421 pbc="F F F"
Ru       0.02221453       0.24857797      -0.31133961       0.00208001      -0.00128386      -0.00215637
N        0.28593989      -2.82647176      -0.07957612      -0.00046462      -0.00073422      -0.00150386
C        1.70154870      -3.00479794       0.18651426      -0.00053601       0.00086436       0.00025435
C        2.59193845      -2.04196961      -0.60814626      -0.00029357       0.00135724      -0.00045539
P        2.31337389      -0.22407488      -0.37523134       0.00216817      -0.00082820       0.00345824
C        3.45055949       0.45644322      -1.71757867      -0.00004588      -0.00021629      -0.00099216
C        4.69087248      -0.38642390      -2.01535475       0.00030279      -0.00011205       0.00122927
C        2.68389137       0.72182605      -3.00800475       0.00160532       0.00033619      -0.00056130
C        3.38771162       0.22417246       1.09462763      -0.00020650      -0.00001297      -0.00180200
C        3.08648656      -0.61713726       2.33013595       0.00020140       0.00084967       0.00000969
C        3.20317827       1.70480154       1.41887308      -0.00037943       0.00164945       0.00099311
C       -0.29836298      -1.68832229       0.64109841      -0.00080947      -0.00174593       0.00098270
C       -1.84055891      -1.77201634       0.55551246       0.00096002      -0.00152246       0.00067352
P       -2.22731732       0.00571370       0.36148067      -0.00034869       0.00109767       0.00039912
C       -2.81974574       0.66529350       2.00849697       0.00009644      -0.00019897      -0.00066513
C       -2.69031241       2.18645594       1.95008070       0.00117628      -0.00022369      -0.00129477
C       -2.04417571       0.10483274       3.19373372       0.00018736      -0.00079348      -0.00008358
C       -3.84665063       0.05696203      -0.58404480       0.00114541      -0.00130350       0.00090710
C       -4.79052309      -1.06597513      -0.15741051      -0.00081566      -0.00016727       0.00014453
C       -3.59645087      -0.00385326      -2.08615566       0.00001190       0.00069953      -0.00031420
H        1.91853973      -2.91507137       1.26479794       0.00030253      -0.00061159      -0.00020760
H        1.97478854      -4.02271052      -0.11897913      -0.00027241       0.00054795      -0.00038633
H        3.63556141      -2.27741870      -0.38389208      -0.00074143       0.00015306      -0.00043921
H        2.40794668      -2.21750459      -1.67408622      -0.00045096       0.00016227       0.00010074
H        3.77921568       1.42572913      -1.32273731      -0.00048947       0.00043401      -0.00021783
H        5.36762731       0.19179301      -2.64339400      -0.00008595       0.00024163      -0.00025634
H        4.42707454      -1.29243783      -2.55591901      -0.00002650       0.00051209       0.00029832
H        5.23086529      -0.65935222      -1.11169465       0.00017664       0.00010034      -0.00016565
H        3.35807178       1.09359274      -3.77892796       0.00019274      -0.00016753       0.00013353
H        2.21361959      -0.18887159      -3.37875270      -0.00064836       0.00033862       0.00020803
H        1.91336438       1.47325606      -2.84129658      -0.00046678      -0.00015890       0.00023816
H        4.42860047       0.05047407       0.79090107      -0.00015055      -0.00007348      -0.00091355
H        3.60995469      -0.20766851       3.19338592       0.00042354      -0.00072472      -0.00045449
H        3.41017339      -1.64721928       2.19888199      -0.00054166      -0.00048045       0.00043810
H        2.01804838      -0.59977078       2.54112171       0.00021085      -0.00039482       0.00009908
H        2.17253535       1.88933383       1.71804128       0.00105405      -0.00047040       0.00035229
H        3.86491185       1.99728626       2.23276562       0.00032085      -0.00027786      -0.00083601
H        3.41729666       2.33677867       0.55933868      -0.00034186      -0.00075082       0.00023716
H        0.25255183       0.60608823       1.15934484      -0.00007563       0.00071451      -0.00038960
H       -0.02201535      -1.78547109       1.71560113       0.00020498       0.00090353       0.00016843
H       -2.32987556      -2.30017424       1.38297242       0.00045622       0.00040156      -0.00041831
H       -2.11502682      -2.26209350      -0.38440942       0.00046791       0.00065699      -0.00037483
H       -3.87836120       0.39342982       2.11171695      -0.00009560      -0.00076569       0.00089352
H       -3.26113284       2.59656432       1.11727178      -0.00102138       0.00028282       0.00087952
H       -3.04920187       2.64064531       2.87222010      -0.00049042      -0.00000461       0.00047048
H       -1.64356943       2.45488689       1.80534077      -0.00048042       0.00128397       0.00084364
H       -2.38437064       0.57744131       4.11424247       0.00011675      -0.00002634      -0.00016038
H       -2.18485607      -0.96978921       3.29119711      -0.00063846       0.00049762       0.00008558
H       -0.98102706       0.30990288       3.07573007      -0.00065066       0.00001650      -0.00065823
H       -4.30137163       1.02651622      -0.34058452      -0.00042645      -0.00029347      -0.00039768
H       -4.44221533      -2.02164121      -0.54333064       0.00000526      -0.00001015      -0.00015482
H       -4.87432046      -1.13970195       0.92534884       0.00071271      -0.00014055      -0.00045433
H       -5.78468521      -0.88248298      -0.56297216       0.00037543       0.00099985       0.00014814
H       -3.00039994       0.84700307      -2.41346053      -0.00092418       0.00073499      -0.00126948
H       -3.07560844      -0.92516339      -2.34863076       0.00084585      -0.00073562      -0.00037803
H       -4.54177589       0.01375012      -2.62796575      -0.00041380      -0.00042371       0.00019170
C       -0.31747144       0.53501721      -2.09937845      -0.00305397       0.00134985      -0.00198772
O       -0.57719855       0.72117026      -3.22454089       0.00136919      -0.00156246       0.00076464
H        0.18525828       1.81244314      -0.35956515       0.00024766       0.00024080      -0.00004575
O       -2.08049690      -3.26555890      -2.46607167       0.00283089      -0.00022053      -0.00043275
C       -0.96538928      -3.70902384      -2.63229367      -0.00405386       0.00128438       0.00210452
C        0.04078424      -3.16633113      -3.54267557       0.00010896      -0.00018742       0.00091603
C        1.32207661      -3.71949599      -3.58195750      -0.00092849      -0.00163857      -0.00120438
C        2.27194904      -3.20578056      -4.44406586       0.00037151      -0.00162729       0.00019010
C        1.95022870      -2.14461002      -5.27934497      -0.00005482      -0.00023671      -0.00058294
C        0.67649045      -1.59465606      -5.25317716       0.00107279       0.00044615       0.00021178
C       -0.27440847      -2.10067344      -4.38872716      -0.00050679       0.00112131      -0.00058671
H       -0.19837633      -3.67517140       0.21861246      -0.00010659       0.00091695       0.00125028
H       -0.21872911      -0.73257505      -1.51010230      -0.00070407      -0.00080490       0.00133420
H       -0.63763733      -4.61600667      -2.08882039       0.00025794       0.00092920       0.00086133
H        1.56385332      -4.54630701      -2.92898433      -0.00104155       0.00031505      -0.00080474
H        3.26517497      -3.63054821      -4.47033726      -0.00036327       0.00114714      -0.00013837
H        2.69508093      -1.74415555      -5.95154386       0.00077173      -0.00034105       0.00060645
H        0.42936259      -0.76540433      -5.89895170       0.00123563      -0.00039433       0.00090734
H       -1.26998048      -1.68274082      -4.35438845       0.00007841      -0.00092039       0.00016008
