75
Properties=species:S:1:pos:R:3 charge=0 unpaired=0 uhf=0 pbc="F F F"
Ru      -0.04122171       0.07512586       0.29207159
N       -0.22302468      -2.13752583       0.40792048
C        0.99310066      -2.90146034       0.21057539
C        2.06077569      -2.18901839      -0.62968122
P        2.17649404      -0.39954140      -0.15770896
C        3.14002005       0.32728318      -1.59442753
C        4.20122038      -0.60516508      -2.17638939
C        2.20534427       0.81811024      -2.69418083
C        3.52747330      -0.30190921       1.13934579
C        3.30095362      -1.26618369       2.29781838
C        3.57983410       1.13229767       1.66215407
C       -0.47859959      -1.71672094       1.61689209
C       -1.91146320      -1.39816094       2.02467087
P       -2.25772476       0.07397540       0.96596517
C       -3.04273346       1.36533423       2.05985902
C       -3.30581412       2.57765044       1.16660394
C       -2.12302258       1.76202769       3.20860052
C       -3.67395302      -0.47474336      -0.13907140
C       -5.04251893      -0.49701913       0.54015036
C       -3.37139253      -1.85386093      -0.73455589
H        1.42381671      -3.19214401       1.18366149
H        0.69316627      -3.81737270      -0.31684427
H        3.02170934      -2.70364259      -0.54343671
H        1.74968682      -2.19916887      -1.68006217
H        3.63890244       1.20644499      -1.16692342
H        4.82358671      -0.04726078      -2.87496338
H        3.73973261      -1.42330242      -2.72412625
H        4.84996719      -1.02012724      -1.40808579
H        2.76670745       1.36889477      -3.44807500
H        1.71412358      -0.01752206      -3.18965828
H        1.44376811       1.47699392      -2.27333318
H        4.47824078      -0.54960523       0.65030087
H        4.06528158      -1.11689157       3.06029410
H        3.34978331      -2.30369806       1.97162281
H        2.32955938      -1.07548575       2.75256497
H        2.60569694       1.40814483       2.06482113
H        4.32649660       1.22305919       2.44989059
H        3.82749981       1.84004850       0.87369800
H        0.31331857       0.47935801       1.75928962
H        0.17926348      -2.02153776       2.45046549
H       -1.95325427      -1.13716613       3.08422541
H       -2.56903915      -2.25156541       1.83685532
H       -3.97878105       0.96750134       2.46849535
H       -4.02516237       2.35380410       0.38071770
H       -3.68643477       3.41249234       1.75314566
H       -2.36785068       2.88008269       0.69624470
H       -2.57015546       2.57871951       3.77385192
H       -1.94835621       0.93431086       3.89337858
H       -1.16385402       2.09428598       2.81396481
H       -3.68273977       0.26327302      -0.95315723
H       -5.00664111      -1.08096442       1.45915527
H       -5.40437360       0.50142405       0.77136516
H       -5.76410943      -0.96461122      -0.12921949
H       -2.30020709      -2.02628452      -0.83253042
H       -3.77557199      -2.64206324      -0.10144432
H       -3.82767830      -1.95184349      -1.71834509
C       -0.50122865      -0.23218830      -1.45651399
O       -0.83904645      -0.53060286      -2.52632555
H        0.09868025       1.59530548       0.01731040
O       -0.49713497      -3.47624885      -2.74497772
C       -0.38036485      -3.65607462      -4.14288973
C        0.75942550      -2.85499765      -4.72309706
C        2.06811204      -3.30186074      -4.58246181
C        3.12170180      -2.55775504      -5.08417975
C        2.87778870      -1.35373240      -5.72502246
C        1.57800266      -0.89574692      -5.85753583
C        0.52403266      -1.64182669      -5.35694273
H       -0.63766166      -2.53194756      -2.58410787
H       -1.32322796      -3.38410093      -4.63994717
H       -0.20668488      -4.72703548      -4.28542919
H        2.25496414      -4.23974939      -4.07791610
H        4.13486023      -2.91907350      -4.97816769
H        3.69982689      -0.77305501      -6.11720689
H        1.38247687       0.04632226      -6.34894874
H       -0.48924561      -1.27915052      -5.45947177
