74
Properties=species:S:1:pos:R:3 charge=0 unpaired=0 uhf=0 pbc="F F F"
Co       0.00378484      -0.21008766      -0.38573764
N        0.15428405      -1.94485514       0.28594493
C        1.41650025      -2.63669685       0.50141951
C        2.56542847      -1.99534677      -0.27208353
P        2.18692681      -0.20015298      -0.36296824
C        3.32902154       0.43000735      -1.70526961
C        4.69134796      -0.26096169      -1.72061957
C        2.66135402       0.31030785      -3.07090837
C        2.99201779       0.60394497       1.12201261
C        2.74174471      -0.17996344       2.40525349
C        2.42021620       2.01574598       1.24156287
C       -0.85136883      -2.58229659       1.12276990
C       -2.25476024      -2.05853602       0.82181582
P       -2.06365706      -0.29804243       0.32539762
C       -2.50232014       0.65280114       1.87240496
C       -2.62655512       2.14378791       1.56849214
C       -1.40550053       0.41569448       2.90620408
C       -3.52718792       0.02658668      -0.78504100
C       -4.85520731      -0.48531942      -0.23377560
C       -3.23774410      -0.55832984      -2.16498321
H        1.66133573      -2.65724620       1.57890838
H        1.31633997      -3.69591000       0.19799229
H        3.53550816      -2.21359623       0.17837968
H        2.56180578      -2.35957865      -1.30400792
H        3.47301007       1.49537948      -1.48421475
H        5.35957927       0.26722934      -2.39962264
H        4.59857740      -1.28604818      -2.07314965
H        5.15363701      -0.27243212      -0.73574306
H        3.29009709       0.75465746      -3.84152265
H        2.49954110      -0.73504147      -3.32634349
H        1.70003535       0.82112012      -3.07571327
H        4.07195981       0.66568117       0.94007905
H        3.07813616       0.39510538       3.26764638
H        3.27801931      -1.12647003       2.40084172
H        1.67785009      -0.37934355       2.52199553
H        1.34070300       1.96411285       1.38758587
H        2.86368724       2.54204967       2.08566377
H        2.60599016       2.59650930       0.33930077
H       -0.61299359      -2.43745873       2.19375641
H       -0.83193431      -3.67537800       0.95760951
H       -2.92922169      -2.18465588       1.67157785
H       -2.65696714      -2.59391153      -0.04096741
H       -3.45464485       0.27134507       2.26082527
H       -3.50260487       2.35742324       0.96057295
H       -2.71482940       2.71042941       2.49473838
H       -1.74184484       2.49288413       1.03631997
H       -1.55318093       1.04986091       3.77955673
H       -1.39375117      -0.62060291       3.23643133
H       -0.43636842       0.65181298       2.46374584
H       -3.57721860       1.11734793      -0.89079828
H       -4.84275423      -1.56819502      -0.13235783
H       -5.08443795      -0.04551487       0.73410537
H       -5.65949431      -0.22199867      -0.91997762
H       -2.32426925      -0.12210675      -2.56852417
H       -3.10644981      -1.63756732      -2.11761969
H       -4.05607760      -0.34072202      -2.85024791
C       -0.19344000       1.29958874      -1.18719951
O       -0.34409427       2.32387361      -1.71929499
O       -0.92603521      -3.06606168      -2.05541356
C       -0.29987827      -2.37516932      -3.10018170
C        0.94045717      -3.05155818      -3.63694936
C        1.54331672      -2.56847700      -4.79423547
C        2.70057487      -3.15053699      -5.27867454
C        3.26950821      -4.22659524      -4.61524246
C        2.66634775      -4.72334081      -3.47301183
C        1.50763363      -4.13958002      -2.98880608
H       -0.53974983      -2.70303827      -1.21685209
H       -0.02414728      -1.35294284      -2.75769019
H       -1.02733514      -2.26638152      -3.91529126
H        1.09968846      -1.72980285      -5.31354627
H        3.16139818      -2.76431608      -6.17674074
H        4.17514968      -4.67913985      -4.99286154
H        3.09810907      -5.56885113      -2.95584824
H        1.02450949      -4.53502094      -2.10725166
74
Properties=species:S:1:pos:R:3 charge=0 unpaired=0 uhf=0 pbc="F F F"
Co       0.04246651      -0.17973510      -0.39670439
N        0.20569774      -1.94916615       0.20317537
C        1.46745903      -2.62033057       0.48182582
C        2.63094906      -1.95978873      -0.24456948
P        2.22876434      -0.17146990      -0.33618735
C        3.37048206       0.47503171      -1.66263226
C        4.77013896      -0.12911313      -1.63800108
C        2.75837381       0.28593353      -3.04426749
C        3.01498166       0.59720526       1.17191602
C        2.70921097      -0.18608131       2.44319777
C        2.49122364       2.02543040       1.28907736
C       -0.82244188      -2.65280600       0.95107112
C       -2.21134673      -2.04676711       0.82690066
P       -2.02562568      -0.30330401       0.31668224
C       -2.48822381       0.62914925       1.86276681
C       -2.66161461       2.11068447       1.54277953
C       -1.38115664       0.43892032       2.89365175
C       -3.51039077      -0.02173612      -0.77832475
C       -4.83765166      -0.51912596      -0.21664711
C       -3.25942826      -0.63652238      -2.14749456
H        1.67231418      -2.63151407       1.56740194
H        1.41745581      -3.69285472       0.22336267
H        3.58850127      -2.18378094       0.23087727
H        2.66066048      -2.30575617      -1.28084410
H        3.44802594       1.55422924      -1.48136875
H        5.41497441       0.38210318      -2.35146865
H        4.74551800      -1.18202609      -1.90990826
H        5.23350686      -0.04148242      -0.65883326
H        3.35519939       0.76709143      -3.81714774
H        2.69333550      -0.77265252      -3.28117224
H        1.76081894       0.71749012      -3.07328038
H        4.10146183       0.62789337       1.03370627
H        3.02318429       0.37789333       3.32069839
H        3.23084883      -1.14034426       2.45704466
H        1.63823996      -0.36307340       2.51791949
H        1.40611231       2.00998577       1.39386893
H        2.92295838       2.52648472       2.15426858
H        2.73112336       2.60973352       0.40271013
H       -0.57088371      -2.71107535       2.02641810
H       -0.89523654      -3.71170342       0.63805584
H       -2.75620355      -2.18507116       1.76602816
H       -2.74742454      -2.61406018       0.06283594
H       -3.42696962       0.22443271       2.26060235
H       -3.54353465       2.29143690       0.93305385
H       -2.77129301       2.67869914       2.46548610
H       -1.78756402       2.48376793       1.00972794
H       -1.55827084       1.06497677       3.76716234
H       -1.31720977      -0.59504052       3.22461344
H       -0.42722866       0.72191643       2.44765201
H       -3.55204587       1.06365600      -0.93049633
H       -4.83508389      -1.59568431      -0.06141405
H       -5.06596915      -0.03642488       0.72953471
H       -5.64004428      -0.29234355      -0.91778774
H       -2.33799534      -0.20871859      -2.53715110
H       -3.20778481      -1.71818336      -2.06155123
H       -4.05821305      -0.41926891      -2.85539595
C       -0.14665434       1.35440437      -1.13720588
O       -0.28817357       2.38384749      -1.65719091
O       -1.14168090      -3.05314114      -2.45884876
C       -0.46487345      -2.25520595      -3.35355876
C        0.77059114      -3.01315567      -3.67707944
C        1.31715922      -2.68601628      -4.88584390
C        2.44869638      -3.38133358      -5.22938055
C        3.19073143      -4.28623301      -4.50530141
C        2.64813142      -4.64703358      -3.29859426
C        1.47856031      -3.98430513      -2.99846714
H       -0.42148847      -2.56045757      -1.26483996
H       -0.00528905      -1.17300728      -2.74838641
H       -1.13699207      -2.00381501      -4.18028503
H        0.87357441      -1.92681816      -5.50865238
H        2.87022524      -3.10007278      -6.17825490
H        4.10375452      -4.78030805      -4.79648877
H        3.17355353      -5.40040914      -2.73104785
H        0.95013042      -4.48397225      -2.21037662
74
Properties=species:S:1:pos:R:3 charge=0 unpaired=0 uhf=0 pbc="F F F"
Co       0.07446354      -0.14531269      -0.39127653
N        0.24296106      -1.95024721       0.16132990
C        1.50613956      -2.60360407       0.48620983
C        2.68898847      -1.91520461      -0.17941583
P        2.26348153      -0.13608162      -0.30193535
C        3.40774121       0.52097428      -1.61965432
C        4.83638321      -0.00340954      -1.55492232
C        2.85036376       0.27151881      -3.01518486
C        3.03377408       0.58921823       1.22963324
C        2.67478298      -0.19760046       2.48543549
C        2.54843536       2.02823101       1.34553987
C       -0.81380634      -2.72510836       0.79598478
C       -2.16992914      -2.05164857       0.83662114
P       -1.99832978      -0.31461768       0.31480740
C       -2.48213888       0.59977553       1.85977949
C       -2.69699728       2.07253622       1.53008613
C       -1.36771478       0.44723564       2.88798997
C       -3.49943800      -0.06145571      -0.76635783
C       -4.82743751      -0.55053505      -0.20475059
C       -3.28183925      -0.70897507      -2.12414729
H        1.66842076      -2.60318980       1.57881384
H        1.50154482      -3.68875703       0.27761913
H        3.63964363      -2.15163795       0.30686761
H        2.77667391      -2.21956928      -1.22203794
H        3.42305652       1.60713290      -1.46876693
H        5.46249049       0.48821185      -2.29817443
H        4.87741152      -1.07157160      -1.75423828
H        5.29310278       0.17362869      -0.58564283
H        3.41303168       0.78986927      -3.78967027
H        2.88163667      -0.78740641      -3.25406015
H        1.82736260       0.63141269      -3.06606972
H        4.12379386       0.58813258       1.12691665
H        2.96909312       0.35336649       3.37717050
H        3.18557540      -1.15728305       2.51709741
H        1.59908774      -0.35514911       2.52394671
H        1.46072740       2.04366264       1.41455615
H        2.96725533       2.50374567       2.23102154
H        2.83677625       2.61561074       0.47637304
H       -0.55087202      -3.00398602       1.83385530
H       -0.96812947      -3.71530929       0.32545783
H       -2.58451739      -2.18643388       1.84225728
H       -2.82772540      -2.62723149       0.18026599
H       -3.40950091       0.17245295       2.26071308
H       -3.58240667       2.22773686       0.91874725
H       -2.82607514       2.63770427       2.45165393
H       -1.83233559       2.46872906       0.99877935
H       -1.57182942       1.06090370       3.76406190
H       -1.25839125      -0.58299168       3.21850000
H       -0.42758967       0.77349650       2.44345175
H       -3.53554085       1.01886919      -0.95577521
H       -4.83348518      -1.62038643      -0.00886392
H       -5.05478905      -0.03495177       0.72282134
H       -5.62607803      -0.35249528      -0.91879145
H       -2.35503538      -0.26890149      -2.48285180
H       -3.28156066      -1.78729636      -2.00007352
H       -4.05907169      -0.48485092      -2.85354629
C       -0.10659525       1.40760183      -1.08072364
O       -0.24030886       2.44169632      -1.58903307
O       -1.34093620      -2.98253972      -2.95000678
C       -0.56908017      -2.08872838      -3.61780696
C        0.70239268      -2.86173082      -3.71108074
C        1.10880321      -2.93747735      -4.99396651
C        2.13128368      -3.80447291      -5.27214951
C        3.06994805      -4.39649917      -4.45813519
C        2.70957414      -4.44301313      -3.15041225
C        1.55864062      -3.67809615      -2.96625762
H       -0.31041699      -2.37800884      -1.28164693
H        0.01139589      -1.00166833      -2.71942603
H       -1.11729971      -1.56650020      -4.41686444
H        0.58830083      -2.43324153      -5.78112142
H        2.51322103      -3.65278641      -6.26394812
H        3.95571578      -4.96113992      -4.69311853
H        3.31584867      -5.07628329      -2.51914631
H        0.96498652      -4.31796077      -2.32969075
74
Properties=species:S:1:pos:R:3 charge=0 unpaired=0 uhf=0 pbc="F F F"
Co       0.09665187      -0.11327499      -0.36900476
N        0.26330363      -1.96323772       0.13184251
C        1.52838105      -2.60930213       0.49355581
C        2.73853460      -1.87233179      -0.07377606
P        2.28895319      -0.09673519      -0.25448863
C        3.44748692       0.58005492      -1.55782847
C        4.89611319       0.11770710      -1.46638701
C        2.93984194       0.32867847      -2.97062613
C        3.04770728       0.58032408       1.29708719
C        2.63869061      -0.21787112       2.53123812
C        2.58776887       2.02468107       1.41106699
C       -0.81806478      -2.80360893       0.64649856
C       -2.12847102      -2.07326461       0.83718288
P       -1.98277139      -0.33271609       0.31471093
C       -2.48437010       0.56401287       1.85967394
C       -2.73080092       2.03077910       1.52916798
C       -1.36699638       0.43792690       2.88809023
C       -3.48643230      -0.09830726      -0.76732605
C       -4.81631728      -0.57945746      -0.20718259
C       -3.28177816      -0.77497897      -2.11366649
H        1.63937989      -2.60545444       1.58983000
H        1.55631188      -3.69686134       0.28578999
H        3.68447640      -2.12674509       0.41975798
H        2.91782974      -2.11687754      -1.11640381
H        3.41026575       1.66802496      -1.43008738
H        5.51048248       0.58856846      -2.23264000
H        4.99926270      -0.95539966      -1.60541284
H        5.33722422       0.35681830      -0.50409038
H        3.47130133       0.86904031      -3.75310016
H        3.09229263      -0.71466240      -3.21898428
H        1.89563603       0.60793938      -3.03629984
H        4.13905363       0.55274068       1.21796159
H        2.91796239       0.31982980       3.43496679
H        3.13886910      -1.18268963       2.57911827
H        1.56031300      -0.36145358       2.53886389
H        1.49953065       2.06318698       1.45129439
H        2.99386662       2.47565566       2.31461644
H        2.91510851       2.61776053       0.56023899
H       -0.55234030      -3.27217657       1.61249917
H       -1.03417379      -3.69550965       0.02582056
H       -2.41771426      -2.20119726       1.88676675
H       -2.87962371      -2.64567244       0.28561241
H       -3.40294375       0.11504539       2.25675004
H       -3.61673755       2.16818828       0.91465843
H       -2.87551387       2.58980075       2.45194760
H       -1.87307794       2.44836938       1.00336328
H       -1.59360994       1.03638719       3.76880456
H       -1.22212169      -0.58860426       3.21601729
H       -0.43716097       0.80010017       2.45071070
H       -3.52053867       0.97882222      -0.97739347
H       -4.82708053      -1.64451321       0.01208574
H       -5.04641121      -0.04262181       0.70689617
H       -5.60958710      -0.40017816      -0.93203075
H       -2.35083349      -0.33499823      -2.45999686
H       -3.30195733      -1.85039300      -1.96434872
H       -4.03882071      -0.53978774      -2.86034222
C       -0.07829242       1.45930936      -1.01468247
O       -0.20589881       2.49681346      -1.51474639
O       -1.46531348      -2.76308817      -3.40385689
C       -0.59371009      -1.86182150      -3.89052086
C        0.70397512      -2.58828127      -3.91795709
C        0.82790898      -3.29803004      -5.08740955
C        1.65273234      -4.45717065      -5.15328283
C        2.85899978      -4.63750509      -4.42444698
C        2.88673256      -4.09830901      -3.17573896
C        1.77972276      -3.18550121      -3.18678054
H       -0.21532524      -2.22708744      -1.27409370
H        0.00517924      -0.82105412      -2.66297696
H       -0.84282461      -1.13487709      -4.68628933
H        0.02645781      -3.25855730      -5.80538418
H        1.97235768      -4.48658389      -6.18241209
H        3.69643974      -5.29901953      -4.57283642
H        3.58869913      -4.58143929      -2.50803026
H        1.20291688      -3.77725039      -2.47800139
74
Properties=species:S:1:pos:R:3 charge=0 unpaired=0 uhf=0 pbc="F F F"
Co       0.10540663      -0.12012132      -0.36235789
N        0.28151179      -2.01177560       0.04433587
C        1.53901416      -2.65760961       0.43931014
C        2.77696202      -1.86930477       0.01162847
P        2.30869496      -0.08433988      -0.21082305
C        3.48150975       0.63850995      -1.48747204
C        4.94418098       0.21275511      -1.38468761
C        3.00873259       0.45139133      -2.92864995
C        3.05232775       0.56483610       1.35092150
C        2.60474886      -0.24744663       2.56255225
C        2.60865592       2.01270410       1.46611328
C       -0.81856496      -2.86321425       0.49694709
C       -2.08554097      -2.10228953       0.81848895
P       -1.96683283      -0.35730837       0.30844068
C       -2.48792006       0.52888386       1.85584184
C       -2.75489419       1.99404314       1.53313064
C       -1.37197409       0.41673052       2.88746301
C       -3.47276288      -0.12282556      -0.77048732
C       -4.80610345      -0.59929682      -0.21607249
C       -3.27136659      -0.81301092      -2.10856081
H        1.60648221      -2.64953964       1.53708898
H        1.57718369      -3.71696770       0.12612713
H        3.71236643      -2.13626184       0.53041387
H        3.07665598      -2.13180659      -0.99207323
H        3.40943165       1.72607245      -1.37485952
H        5.55705253       0.66863712      -2.16212790
H        5.09380465      -0.86007457      -1.47564219
H        5.36760343       0.48191554      -0.42374106
H        3.51287829       1.01342489      -3.71751725
H        3.32880685      -0.54945062      -3.18576550
H        1.94595987       0.64380643      -3.00149921
H        4.14389288       0.52005445       1.28683380
H        2.87581018       0.28105615       3.47378850
H        3.09308303      -1.21785404       2.61887493
H        1.52570459      -0.38562626       2.54411081
H        1.52094940       2.06606485       1.48580154
H        3.00381884       2.44653932       2.38235301
H        2.96134848       2.61516104       0.63262255
H       -0.54678313      -3.44696144       1.39517357
H       -1.07589383      -3.66913827      -0.21766623
H       -2.27805651      -2.22521799       1.89059763
H       -2.89691088      -2.66620113       0.34888222
H       -3.40101910       0.06470628       2.24748871
H       -3.64024752       2.12239234       0.91596213
H       -2.90934591       2.54738753       2.45772220
H       -1.90121387       2.42705764       1.01347788
H       -1.61379987       1.00209485       3.77278266
H       -1.20372972      -0.60818287       3.20855129
H       -0.44842888       0.80224333       2.45786394
H       -3.50730500       0.95257738      -0.99189090
H       -4.81634548      -1.66228093       0.01266978
H       -5.03944639      -0.05046140       0.68962921
H       -5.59439899      -0.42825749      -0.94836064
H       -2.33515698      -0.37404038      -2.44610241
H       -3.30650553      -1.88792221      -1.94545011
H       -4.01440985      -0.56373617      -2.86581319
C       -0.06240918       1.48897189      -0.95698077
O       -0.18704228       2.53012195      -1.45201868
O       -1.56416865      -2.49241668      -3.69440046
C       -0.60135056      -1.70610412      -4.11515938
C        0.62067865      -2.48692306      -4.27329606
C        0.47556024      -3.72568712      -4.89985353
C        1.24536481      -4.89866958      -4.63657967
C        2.58759214      -4.90315466      -4.15127814
C        2.97291015      -3.87157303      -3.35270384
C        2.07516870      -2.77097665      -3.87472815
H       -0.07183073      -2.26307377      -1.30024862
H       -0.04635613      -0.67876100      -2.62076570
H       -0.62908867      -0.99879705      -4.95642013
H       -0.34368422      -3.74103935      -5.59446018
H        1.36247203      -5.31427290      -5.63979465
H        3.38922741      -5.61757579      -4.24857142
H        3.88106915      -4.05914295      -2.80696902
H        1.69337459      -2.72333953      -2.89851878
74
Properties=species:S:1:pos:R:3 charge=0 unpaired=0 uhf=0 pbc="F F F"
Co       0.12532994      -0.14391780      -0.39393453
N        0.31410782      -2.05271576      -0.09537399
C        1.55405915      -2.68157603       0.35689141
C        2.75877665      -1.89895352      -0.13484891
P        2.31528203      -0.11326061      -0.20880794
C        3.50825094       0.67678475      -1.40500262
C        4.98413886       0.26057705      -1.30657302
C        3.06139730       0.50034168      -2.85592882
C        3.04671429       0.53138192       1.36687590
C        2.57971400      -0.28680995       2.56410166
C        2.62801262       1.98833259       1.50398484
C       -0.80367919      -2.87721314       0.34984160
C       -2.03904274      -2.12686939       0.79918750
P       -1.94359071      -0.37968046       0.29796422
C       -2.48770782       0.49626348       1.84834894
C       -2.77429117       1.95960200       1.53216993
C       -1.37246595       0.39838503       2.88257710
C       -3.45412785      -0.15255537      -0.77817872
C       -4.79013126      -0.62107320      -0.22540502
C       -3.24072446      -0.86256856      -2.10273350
H        1.59573693      -2.65450782       1.45569497
H        1.61055293      -3.73451785       0.03296639
H        3.67688130      -2.15631225       0.40266900
H        2.92792532      -2.16736513      -1.17359523
H        3.40806873       1.76533987      -1.32355457
H        5.59491903       0.71751776      -2.08660669
H        5.13886078      -0.81631190      -1.35555658
H        5.38602653       0.56883738      -0.35105068
H        3.55024736       1.07358284      -3.64707196
H        3.47519521      -0.49022814      -3.01287163
H        1.98940623       0.65902894      -2.91461858
H        4.13771968       0.46584367       1.32365530
H        2.84099308       0.23435030       3.48322618
H        3.06074212      -1.26160678       2.59597421
H        1.49958877      -0.41284156       2.52766567
H        1.54133885       2.06058580       1.50524483
H        3.01203635       2.41145146       2.42989069
H        3.00148061       2.60377753       0.68944104
H       -0.53627555      -3.56113648       1.17846869
H       -1.11233628      -3.57740713      -0.44314894
H       -2.13786848      -2.24600122       1.88432539
H       -2.89631910      -2.68393720       0.40750421
H       -3.39515283       0.01844227       2.23639023
H       -3.65959915       2.07790608       0.91292631
H       -2.93736133       2.50878284       2.45783681
H       -1.92446689       2.40470161       1.01640688
H       -1.62800739       0.97223439       3.77149092
H       -1.18257772      -0.62446577       3.19760133
H       -0.45545756       0.80293766       2.45744090
H       -3.48824203       0.92107086      -1.01073002
H       -4.79719609      -1.68220388       0.01079789
H       -5.02824308      -0.06012858       0.67182023
H       -5.57480477      -0.45855488      -0.96331890
H       -2.28258288      -0.44866354      -2.41289604
H       -3.26984801      -1.94021564      -1.95162216
H       -3.97942103      -0.58955059      -2.85716014
C       -0.04855120       1.49241197      -0.92534003
O       -0.17203162       2.54224318      -1.40285476
O       -1.71189046      -2.15377994      -4.13186284
C       -0.57070435      -1.61293158      -4.30686469
C        0.49206627      -2.58659329      -4.08632878
C        0.23592848      -3.88167090      -4.45256990
C        1.09903328      -4.90565063      -4.10860613
C        2.46082912      -4.87316258      -3.81646727
C        2.96043156      -3.63815954      -3.49048531
C        1.93230138      -2.74898528      -3.80412039
H        0.19309581      -2.29806137      -1.38296135
H        0.02291083      -0.70680459      -2.58132003
H       -0.46341578      -0.97475639      -5.18513985
H       -0.53532339      -4.00273253      -5.19781121
H        0.91685367      -5.73296183      -4.77691812
H        3.18334188      -5.67073542      -3.78034351
H        3.99886612      -3.72845391      -3.19954394
H        2.13138466      -1.94401749      -4.39763152
74
Properties=species:S:1:pos:R:3 charge=0 unpaired=0 uhf=0 pbc="F F F"
Co       0.15131758      -0.15447332      -0.43872892
N        0.35201414      -2.08191819      -0.20664620
C        1.57802079      -2.69397208       0.30229214
C        2.78083362      -1.91916620      -0.20866868
P        2.33581442      -0.12694893      -0.19805129
C        3.51125876       0.67290696      -1.39835222
C        4.99397309       0.32587988      -1.24735524
C        3.09687227       0.38213081      -2.83283254
C        3.05319518       0.49574320       1.39688069
C        2.54526353      -0.32472608       2.57668285
C        2.66937032       1.96222798       1.55132493
C       -0.79406373      -2.90413082       0.15960865
C       -1.96182190      -2.16568015       0.78359702
P       -1.91138632      -0.41334107       0.27895502
C       -2.48085299       0.44383982       1.83468113
C       -2.80455652       1.90086916       1.52266658
C       -1.36605567       0.37906542       2.87290669
C       -3.41130734      -0.22440878      -0.81599484
C       -4.74936497      -0.66697790      -0.24135338
C       -3.18281304      -0.96944521      -2.12248771
H        1.56053488      -2.65887881       1.39889412
H        1.66005428      -3.74720870      -0.01179613
H        3.67902387      -2.16428665       0.36287104
H        2.94365041      -2.18613910      -1.25404740
H        3.35846171       1.75670215      -1.32971634
H        5.59035539       0.77268008      -2.04282671
H        5.17786292      -0.74696244      -1.25299448
H        5.37092958       0.71187373      -0.30815980
H        3.56784135       1.00204575      -3.59403612
H        3.47912335      -0.62232400      -2.97588527
H        2.02045792       0.46642726      -2.91539763
H        4.14246634       0.40007843       1.36911219
H        2.78863369       0.18214507       3.50884083
H        3.01033966      -1.30740102       2.60187254
H        1.46437915      -0.43339953       2.51173128
H        1.58489658       2.06289332       1.52697123
H        3.03659659       2.36318750       2.49406652
H        3.08014244       2.57470708       0.75222540
H       -0.53224506      -3.72999179       0.84454319
H       -1.18594418      -3.41222345      -0.72919728
H       -1.89020777      -2.28185801       1.86913456
H       -2.87136934      -2.71194709       0.51310810
H       -3.37364751      -0.06228036       2.22016463
H       -3.68838920       1.99692267       0.89752278
H       -2.98506718       2.44412632       2.44883868
H       -1.96351447       2.36740978       1.01087208
H       -1.64526737       0.93494503       3.76610461
H       -1.14019243      -0.63803202       3.18271682
H       -0.46290387       0.81913070       2.45333207
H       -3.44143892       0.84653187      -1.05959799
H       -4.75296604      -1.72218104       0.01993371
H       -4.99897178      -0.08498863       0.64012814
H       -5.53296727      -0.52515136      -0.98446405
H       -2.19538833      -0.64429550      -2.43341488
H       -3.21946403      -2.04797811      -1.99544640
H       -3.91499503      -0.67182135      -2.87161177
C       -0.01861866       1.49728332      -0.89194872
O       -0.13502709       2.55923217      -1.33870791
O       -1.77605026      -1.77165584      -4.68783662
C       -0.54535799      -1.54444788      -4.61579220
C        0.52398020      -2.49166341      -4.29213449
C        0.07146330      -3.75817336      -4.06359905
C        0.94725683      -4.71483618      -3.63654262
C        2.30463704      -4.68762962      -3.44773756
C        2.87510567      -3.47422508      -3.74700384
C        1.92725598      -2.57581347      -4.21777872
H        0.36952426      -2.24226159      -1.41385993
H        0.06075730      -0.71134433      -2.63095322
H       -0.22921826      -0.88266848      -5.42932333
H       -0.92193057      -4.01552854      -4.37543368
H        0.51924967      -5.69385841      -3.59739875
H        2.96363562      -5.49134681      -3.16322831
H        3.95144955      -3.51090839      -3.62375063
H        2.24247422      -1.81997890      -4.91686499
74
Properties=species:S:1:pos:R:3 charge=0 unpaired=0 uhf=0 pbc="F F F"
Co       0.18454825      -0.15118492      -0.47626030
N        0.39484120      -2.10523228      -0.31339002
C        1.60174513      -2.69573975       0.26210261
C        2.81784071      -1.91668842      -0.21951453
P        2.36779491      -0.12111950      -0.18305435
C        3.52582283       0.67359431      -1.40470731
C        5.01479064       0.42463344      -1.17523262
C        3.16222600       0.26331242      -2.82328457
C        3.07281271       0.47063752       1.43447700
C        2.51049216      -0.34659500       2.59330588
C        2.72911362       1.94714609       1.59695452
C       -0.78402645      -2.92401073      -0.03999254
C       -1.85464412      -2.21248761       0.77263598
P       -1.87286285      -0.44962639       0.26044468
C       -2.46434648       0.39519047       1.81664744
C       -2.83573205       1.84113567       1.50079754
C       -1.34932067       0.37635802       2.85692588
C       -3.36233196      -0.30712605      -0.85428038
C       -4.70012076      -0.72101777      -0.24747667
C       -3.12757261      -1.08163896      -2.14460553
H        1.51617831      -2.65586125       1.35323908
H        1.70971517      -3.75052742      -0.03317985
H        3.69928289      -2.15442916       0.37976840
H        3.01168251      -2.17055022      -1.26478311
H        3.31085312       1.74841419      -1.34818003
H        5.59862791       0.84668398      -1.99240925
H        5.23882224      -0.63857410      -1.11823066
H        5.35164424       0.89982228      -0.25966158
H        3.58936662       0.92622605      -3.57324934
H        3.56616008      -0.73021320      -2.98969899
H        2.08355213       0.26426856      -2.93326995
H        4.15910313       0.34061697       1.41890015
H        2.73167627       0.14632613       3.53835515
H        2.95223228      -1.33986814       2.62401722
H        1.43003360      -0.43308194       2.49397515
H        1.64915109       2.08278979       1.54210368
H        3.07848971       2.32268344       2.55712126
H        3.18469339       2.54978033       0.81419148
H       -0.52861933      -3.86805775       0.46365965
H       -1.25599992      -3.20152725      -0.98328714
H       -1.59062535      -2.31135314       1.82795302
H       -2.80340478      -2.73965716       0.63819616
H       -3.33602814      -0.14448238       2.20400984
H       -3.71806801       1.90793888       0.86974536
H       -3.03749938       2.38220685       2.42408043
H       -2.00815446       2.33285901       0.98976557
H       -1.65597018       0.91523062       3.75161346
H       -1.08347543      -0.63296673       3.16072529
H       -0.46621739       0.86029628       2.44219473
H       -3.38951584       0.75888928      -1.11678294
H       -4.69560051      -1.76472285       0.05826254
H       -4.96052728      -0.10750570       0.60993218
H       -5.48324665      -0.60977056      -0.99629705
H       -2.12872222      -0.84995314      -2.49776736
H       -3.21808149      -2.15481426      -1.99683460
H       -3.84470997      -0.78167112      -2.90636178
C        0.02007546       1.51441867      -0.85174846
O       -0.08802755       2.58627957      -1.27081126
O       -1.77205652      -1.67096628      -5.04650123
C       -0.54919752      -1.57924149      -4.95733989
C        0.42529137      -2.54322453      -4.45542904
C       -0.13015444      -3.66490187      -3.88150298
C        0.72975850      -4.56328270      -3.30072651
C        2.10215577      -4.50704933      -3.19219401
C        2.68711339      -3.42578810      -3.82055447
C        1.81266247      -2.55210464      -4.43223190
H        0.51577712      -2.16580570      -1.42406107
H        0.07135148      -0.66376502      -2.67245103
H       -0.05387100      -0.80928369      -5.56645084
H       -1.19757015      -3.80641620      -3.93127601
H        0.26707096      -5.43962464      -2.88066473
H        2.74668023      -5.23512890      -2.72366636
H        3.76753131      -3.41404590      -3.78600087
H        2.21464892      -1.77494746      -5.05707588
74
Properties=species:S:1:pos:R:3 charge=0 unpaired=0 uhf=0 pbc="F F F"
Co       0.22254422      -0.14837915      -0.50957968
N        0.43611844      -2.13795198      -0.43536029
C        1.62038684      -2.70137331       0.21576543
C        2.85348695      -1.91153873      -0.21491798
P        2.40386149      -0.11211095      -0.16676489
C        3.55594753       0.68636355      -1.39762864
C        5.04647725       0.53632279      -1.09280487
C        3.24025970       0.17871574      -2.80329319
C        3.09834525       0.45300382       1.47084104
C        2.47792023      -0.35593658       2.60659687
C        2.79759910       1.93994575       1.63502354
C       -0.78228055      -2.94253284      -0.24320538
C       -1.73178041      -2.27089690       0.74775004
P       -1.82945291      -0.48749707       0.24580281
C       -2.44073231       0.35849614       1.79482633
C       -2.86225677       1.79007164       1.46918811
C       -1.32528102       0.38855699       2.83472462
C       -3.31649869      -0.38694179      -0.88066652
C       -4.65143570      -0.77389749      -0.24397724
C       -3.08183331      -1.19859655      -2.15200038
H        1.47920235      -2.64673373       1.29872392
H        1.74158572      -3.75818546      -0.06509746
H        3.71966248      -2.14222814       0.40875657
H        3.08303284      -2.15397921      -1.25615712
H        3.27878787       1.74881545      -1.36218524
H        5.62070618       0.92575411      -1.93234081
H        5.31254575      -0.51041365      -0.95858692
H        5.33685393       1.09365625      -0.20613810
H        3.62044230       0.87185184      -3.55177495
H        3.69733587      -0.79274808      -2.97921241
H        2.16592885       0.08553984      -2.94249755
H        4.18069520       0.29020611       1.46617936
H        2.67613285       0.12668097       3.56199751
H        2.89253593      -1.36059288       2.64635106
H        1.39957057      -0.41839579       2.47116423
H        1.72476856       2.11321017       1.54830118
H        3.12978043       2.29216645       2.61025317
H        3.29794361       2.53130214       0.87060828
H       -0.51917064      -3.95045225       0.10083274
H       -1.28411374      -3.03176443      -1.20765418
H       -1.31721905      -2.31928941       1.75754594
H       -2.70819470      -2.75912047       0.74702597
H       -3.28997184      -0.21154910       2.18782355
H       -3.74326285       1.82584929       0.83365567
H       -3.08542533       2.33308101       2.38655529
H       -2.05037800       2.30563880       0.95563296
H       -1.65856467       0.91419975       3.72789292
H       -1.02042588      -0.61294933       3.12908173
H       -0.46556762       0.91639242       2.42325795
H       -3.34078213       0.67191824      -1.17089388
H       -4.63512241      -1.80199232       0.11193975
H       -4.91969819      -0.12293048       0.58330530
H       -5.43352075      -0.69711641      -0.99819100
H       -2.07990144      -1.02619379      -2.53534097
H       -3.21860224      -2.26310266      -1.96924747
H       -3.78287974      -0.90145786      -2.93000728
C        0.06249914       1.53647202      -0.80900576
O       -0.03699305       2.61640270      -1.20608013
O       -1.74031206      -1.67116641      -5.30923963
C       -0.53636446      -1.63491096      -5.22229842
C        0.29614676      -2.61406193      -4.51983411
C       -0.30410179      -3.62507284      -3.77097546
C        0.47182383      -4.48944867      -3.02329719
C        1.85258600      -4.35618516      -3.02514728
C        2.45597353      -3.36238891      -3.78147851
C        1.68320265      -2.49298788      -4.52724232
H        0.63537210      -2.12281614      -1.43608633
H        0.08248022      -0.59098310      -2.66904009
H        0.04023012      -0.80827900      -5.68370308
H       -1.38243879      -3.69483158      -3.77966984
H        0.00404570      -5.26817245      -2.43765627
H        2.46142318      -5.03022080      -2.43888615
H        3.53303427      -3.26882852      -3.78731782
H        2.14239561      -1.70130333      -5.10129869
