75
Properties=species:S:1:pos:R:3 charge=0 unpaired=0 uhf=0 pbc="F F F"
Ru      -0.04122171       0.07512586       0.29207159
N       -0.22302468      -2.13752583       0.40792048
C        0.99310066      -2.90146034       0.21057539
C        2.06077569      -2.18901839      -0.62968122
P        2.17649404      -0.39954140      -0.15770896
C        3.14002005       0.32728318      -1.59442753
C        4.20122038      -0.60516508      -2.17638939
C        2.20534427       0.81811024      -2.69418083
C        3.52747330      -0.30190921       1.13934579
C        3.30095362      -1.26618369       2.29781838
C        3.57983410       1.13229767       1.66215407
C       -0.47859959      -1.71672094       1.61689209
C       -1.91146320      -1.39816094       2.02467087
P       -2.25772476       0.07397540       0.96596517
C       -3.04273346       1.36533423       2.05985902
C       -3.30581412       2.57765044       1.16660394
C       -2.12302258       1.76202769       3.20860052
C       -3.67395302      -0.47474336      -0.13907140
C       -5.04251893      -0.49701913       0.54015036
C       -3.37139253      -1.85386093      -0.73455589
H        1.42381671      -3.19214401       1.18366149
H        0.69316627      -3.81737270      -0.31684427
H        3.02170934      -2.70364259      -0.54343671
H        1.74968682      -2.19916887      -1.68006217
H        3.63890244       1.20644499      -1.16692342
H        4.82358671      -0.04726078      -2.87496338
H        3.73973261      -1.42330242      -2.72412625
H        4.84996719      -1.02012724      -1.40808579
H        2.76670745       1.36889477      -3.44807500
H        1.71412358      -0.01752206      -3.18965828
H        1.44376811       1.47699392      -2.27333318
H        4.47824078      -0.54960523       0.65030087
H        4.06528158      -1.11689157       3.06029410
H        3.34978331      -2.30369806       1.97162281
H        2.32955938      -1.07548575       2.75256497
H        2.60569694       1.40814483       2.06482113
H        4.32649660       1.22305919       2.44989059
H        3.82749981       1.84004850       0.87369800
H        0.31331857       0.47935801       1.75928962
H        0.17926348      -2.02153776       2.45046549
H       -1.95325427      -1.13716613       3.08422541
H       -2.56903915      -2.25156541       1.83685532
H       -3.97878105       0.96750134       2.46849535
H       -4.02516237       2.35380410       0.38071770
H       -3.68643477       3.41249234       1.75314566
H       -2.36785068       2.88008269       0.69624470
H       -2.57015546       2.57871951       3.77385192
H       -1.94835621       0.93431086       3.89337858
H       -1.16385402       2.09428598       2.81396481
H       -3.68273977       0.26327302      -0.95315723
H       -5.00664111      -1.08096442       1.45915527
H       -5.40437360       0.50142405       0.77136516
H       -5.76410943      -0.96461122      -0.12921949
H       -2.30020709      -2.02628452      -0.83253042
H       -3.77557199      -2.64206324      -0.10144432
H       -3.82767830      -1.95184349      -1.71834509
C       -0.50122865      -0.23218830      -1.45651399
O       -0.83904645      -0.53060286      -2.52632555
H        0.09868025       1.59530548       0.01731040
O       -0.49713497      -3.47624885      -2.74497772
C       -0.38036485      -3.65607462      -4.14288973
C        0.75942550      -2.85499765      -4.72309706
C        2.06811204      -3.30186074      -4.58246181
C        3.12170180      -2.55775504      -5.08417975
C        2.87778870      -1.35373240      -5.72502246
C        1.57800266      -0.89574692      -5.85753583
C        0.52403266      -1.64182669      -5.35694273
H       -0.63766166      -2.53194756      -2.58410787
H       -1.32322796      -3.38410093      -4.63994717
H       -0.20668488      -4.72703548      -4.28542919
H        2.25496414      -4.23974939      -4.07791610
H        4.13486023      -2.91907350      -4.97816769
H        3.69982689      -0.77305501      -6.11720689
H        1.38247687       0.04632226      -6.34894874
H       -0.48924561      -1.27915052      -5.45947177
75
Properties=species:S:1:pos:R:3 charge=0 unpaired=0 uhf=0 pbc="F F F"
Ru      -0.02535360       0.06461323       0.21293033
N       -0.14833157      -2.15953353       0.29795025
C        1.10298756      -2.88427283       0.18368176
C        2.17050429      -2.16095365      -0.64318697
P        2.21544987      -0.36193157      -0.19413588
C        3.20804394       0.36439130      -1.61297208
C        4.29698423      -0.55938313      -2.15713491
C        2.29499171       0.82764443      -2.74179794
C        3.52564233      -0.20940773       1.13927284
C        3.28884432      -1.15697817       2.30946870
C        3.53067407       1.23485049       1.63619566
C       -0.48753580      -1.76060376       1.49367188
C       -1.94979727      -1.49813458       1.82496378
P       -2.25556407       0.05442484       0.87564471
C       -3.00517150       1.27072658       2.07806781
C       -3.23279161       2.56322529       1.29494146
C       -2.09312121       1.53871985       3.26927680
C       -3.71133927      -0.37372406      -0.23332604
C       -5.04652295      -0.51938112       0.49482009
C       -3.40959234      -1.65437413      -1.01520717
H        1.50640480      -3.11313032       1.18453105
H        0.86036158      -3.83612078      -0.30804452
H        3.14377630      -2.64300689      -0.51805125
H        1.89287502      -2.19812620      -1.70237994
H        3.68502749       1.25487597      -1.18444991
H        4.93287956       0.00190339      -2.84069854
H        3.86245018      -1.38684493      -2.71296327
H        4.92812274      -0.96082752      -1.36720762
H        2.87092392       1.35556486      -3.50110547
H        1.80884064      -0.02000103      -3.22145975
H        1.52908874       1.50058517      -2.35318875
H        4.49522741      -0.44326078       0.68114074
H        4.01680986      -0.96349522       3.09714171
H        3.38803950      -2.19862082       2.00900616
H        2.29393281      -0.99259943       2.72214914
H        2.54253331       1.49136533       2.01659653
H        4.26059901       1.35983326       2.43487737
H        3.77339315       1.93486655       0.83924327
H        0.30595358       0.43669813       1.69220126
H        0.13428468      -2.04810520       2.36037051
H       -2.08065713      -1.34796969       2.89844006
H       -2.56995084      -2.33771867       1.49926007
H       -3.95467790       0.86352000       2.44389889
H       -3.95645634       2.42593777       0.49307014
H       -3.59355753       3.35338678       1.95171377
H       -2.28616016       2.88128757       0.85331492
H       -2.53231629       2.30926555       3.90171118
H       -1.94736187       0.64733348       3.87675263
H       -1.12132368       1.88516875       2.92209653
H       -3.76991295       0.46127826      -0.94473637
H       -4.95555755      -1.21368798       1.32955837
H       -5.41972233       0.43160802       0.86563211
H       -5.78751166      -0.91912979      -0.19696052
H       -2.34514886      -1.75078580      -1.21861520
H       -3.71976687      -2.53519786      -0.45605270
H       -3.94418131      -1.65536553      -1.96396990
C       -0.46350187      -0.13322428      -1.56224887
O       -0.79800036      -0.27626300      -2.66239948
H        0.10792569       1.59290308      -0.02382259
O       -0.44784047      -3.66537006      -2.51594289
C       -0.50245995      -3.65069125      -3.92842467
C        0.63918388      -2.88251574      -4.54905213
C        1.94100999      -3.35323212      -4.41681042
C        2.99881786      -2.65752938      -4.97511369
C        2.76644544      -1.47887941      -5.66605377
C        1.47434397      -0.99743948      -5.79007163
C        0.41558070      -1.69529343      -5.23275727
H       -0.49119126      -2.75460081      -2.19667432
H       -1.46257604      -3.23861829      -4.27056113
H       -0.45032546      -4.70366172      -4.22499979
H        2.11641244      -4.27217373      -3.87457101
H        4.00588893      -3.03810217      -4.87736752
H        3.59158406      -0.93572883      -6.10315768
H        1.28832444      -0.07318294      -6.31762936
H       -0.59076144      -1.31324119      -5.32770477
75
Properties=species:S:1:pos:R:3 charge=0 unpaired=0 uhf=0 pbc="F F F"
Ru      -0.00438362       0.05331366       0.13846142
N       -0.06524306      -2.18041078       0.20533548
C        1.21614038      -2.86112322       0.18178880
C        2.27629522      -2.13331846      -0.64552933
P        2.25735242      -0.32676689      -0.22763651
C        3.27366407       0.39689597      -1.63219533
C        4.38620987      -0.52042696      -2.13870122
C        2.38189888       0.83034571      -2.78893797
C        3.52609466      -0.11796190       1.13770719
C        3.28078557      -1.04799210       2.32029280
C        3.48322306       1.33519607       1.60567308
C       -0.49187189      -1.79325254       1.37779853
C       -1.97952787      -1.58795502       1.61892550
P       -2.25436094       0.03222733       0.78073818
C       -2.96546239       1.17225455       2.08230437
C       -3.14052768       2.53670298       1.41696324
C       -2.06721058       1.30187033       3.30687563
C       -3.75093117      -0.28418724      -0.31421965
C       -5.03747362      -0.59785671       0.44862025
C       -3.45637138      -1.41394970      -1.30118799
H        1.58930705      -3.01598062       1.20774318
H        1.03320267      -3.85050796      -0.25932221
H        3.26042522      -2.58388476      -0.49305177
H        2.01467987      -2.20026983      -1.70736157
H        3.73037695       1.29902795      -1.20638493
H        5.03332371       0.04165205      -2.81101044
H        3.97506938      -1.35771569      -2.69769129
H        5.00126495      -0.90687264      -1.32885624
H        2.97278642       1.33094699      -3.55527839
H        1.89780793      -0.02936335      -3.24884531
H        1.61494639       1.52009409      -2.43473119
H        4.51274515      -0.33669061       0.70940882
H        3.97055452      -0.80949329       3.12957575
H        3.43051678      -2.09139585       2.04840903
H        2.26534755      -0.91258178       2.69199208
H        2.48228425       1.57115674       1.96506057
H        4.19636661       1.49611248       2.41299903
H        3.71916764       2.02601043       0.79864932
H        0.30239006       0.40467923       1.62426167
H        0.08762956      -2.05508064       2.28065286
H       -2.20381417      -1.54932253       2.68665738
H       -2.54621677      -2.40211638       1.15877353
H       -3.93355515       0.77110990       2.40239736
H       -3.85996094       2.49570588       0.60069218
H       -3.48378435       3.27595294       2.13921291
H       -2.17944988       2.86208735       1.01412474
H       -2.49633145       2.02574757       3.99879109
H       -1.96051838       0.35534131       3.83376901
H       -1.07928040       1.64902003       3.01126075
H       -3.87962427       0.64380573      -0.88734359
H       -4.87861807      -1.41075187       1.15619914
H       -5.42160313       0.26609545       0.98407781
H       -5.80311822      -0.91338320      -0.25963376
H       -2.44304394      -1.34308104      -1.68610075
H       -3.57204747      -2.38941518      -0.83230704
H       -4.14445920      -1.36277619      -2.14429811
C       -0.41140177      -0.03867631      -1.65698531
O       -0.72933517      -0.00700583      -2.76999343
H        0.12002255       1.58714692      -0.06663415
O       -0.46359238      -3.82071974      -2.31756769
C       -0.63015201      -3.61403409      -3.70327475
C        0.52482986      -2.89310037      -4.35876063
C        1.81696135      -3.39093111      -4.22960440
C        2.87889969      -2.75721860      -4.85103222
C        2.66077272      -1.61512646      -5.60505351
C        1.37829495      -1.10826985      -5.72927086
C        0.31575388      -1.74411950      -5.10890375
H       -0.46407231      -2.96707762      -1.85869879
H       -1.56721299      -3.07601027      -3.90540062
H       -0.71430815      -4.62046316      -4.13098256
H        1.97998832      -4.28342072      -3.64116653
H        3.87783661      -3.15979303      -4.75595012
H        3.48850227      -1.12030664      -6.09212224
H        1.20276835      -0.21226541      -6.30689524
H       -0.68249991      -1.34251858      -5.20668658
75
Properties=species:S:1:pos:R:3 charge=0 unpaired=0 uhf=0 pbc="F F F"
Ru       0.02203737       0.09171087       0.15568959
N       -0.02618785      -2.12403286       0.07666258
C        1.24732917      -2.82451849       0.07398422
C        2.32622184      -2.08596039      -0.71081742
P        2.28884071      -0.29156648      -0.25120357
C        3.31137824       0.43166304      -1.65178313
C        4.43781551      -0.48272513      -2.13519176
C        2.41860596       0.82740890      -2.82165199
C        3.53219715      -0.08811505       1.13308288
C        3.25651112      -1.01828147       2.30899070
C        3.45914274       1.36745034       1.58898866
C       -0.49617036      -1.78530879       1.25711740
C       -2.00020422      -1.63939641       1.44186448
P       -2.26959108       0.03340473       0.71735103
C       -2.95688603       1.11048537       2.08166474
C       -3.07459364       2.51640938       1.49414907
C       -2.05953078       1.13175497       3.31274264
C       -3.78745078      -0.21243479      -0.37430575
C       -5.03225185      -0.64801915       0.40096041
C       -3.50637804      -1.22197454      -1.48831364
H        1.58889032      -3.00784319       1.10431525
H        1.06776695      -3.80176090      -0.39460102
H        3.30708886      -2.54011638      -0.54875977
H        2.08405956      -2.12785891      -1.77864485
H        3.75646766       1.34573929      -1.24076729
H        5.09764688       0.08238236      -2.79228596
H        4.04246235      -1.32057951      -2.70463980
H        5.03684644      -0.86834172      -1.31304928
H        3.01904129       1.22692087      -3.63809351
H        1.86811366      -0.03347356      -3.20085921
H        1.70633492       1.59070362      -2.51039636
H        4.53091991      -0.30120482       0.73135409
H        3.91831859      -0.77421028       3.13940499
H        3.41909342      -2.06143005       2.04300286
H        2.22877282      -0.88848202       2.64783756
H        2.44769887       1.58695443       1.92959190
H        4.15641509       1.55140916       2.40444754
H        3.69204537       2.05288864       0.77619894
H        0.32236285       0.34520507       1.65550816
H        0.04653068      -2.10852907       2.16171888
H       -2.29129842      -1.70263075       2.49221310
H       -2.50855852      -2.42535624       0.87557516
H       -3.94121493       0.73014092       2.37409185
H       -3.77954129       2.54654053       0.66462190
H       -3.40615389       3.22474805       2.25152139
H       -2.09574173       2.83084492       1.12602688
H       -2.47226019       1.81459977       4.05397718
H       -1.97505096       0.14684466       3.76854907
H       -1.06364802       1.47627896       3.04183555
H       -3.97074912       0.76409369      -0.84122960
H       -4.82501035      -1.53127892       1.00367942
H       -5.41349531       0.13703925       1.04825695
H       -5.82285090      -0.90212373      -0.30455013
H       -2.53209292      -1.05341037      -1.94143768
H       -3.53880841      -2.24445560      -1.11552266
H       -4.26078796      -1.12941537      -2.26944489
C       -0.43157241       0.31562872      -1.62470556
O       -0.83065333       0.72044826      -2.63285734
H        0.17187925       1.63284459       0.09125992
O       -0.58525238      -3.91865904      -2.07041014
C       -0.59535343      -3.62416377      -3.43887034
C        0.59249222      -3.09020297      -4.20195072
C        1.89942444      -3.54373246      -4.16494678
C        2.88368645      -2.82732269      -4.83098098
C        2.56176992      -1.69453556      -5.55938106
C        1.23858809      -1.30451599      -5.68605126
C        0.26427839      -2.01303056      -5.02188346
H       -0.55134755      -3.09044809      -1.49280473
H       -1.23942357      -2.72355899      -3.44176056
H       -0.84189115      -4.59785887      -3.89812089
H        2.15076160      -4.43079828      -3.60024153
H        3.91434740      -3.14235152      -4.75727954
H        3.33565266      -1.11112936      -6.03278976
H        0.96177238      -0.43211125      -6.25795963
H       -0.77448507      -1.71973163      -5.10710865
75
Properties=species:S:1:pos:R:3 charge=0 unpaired=0 uhf=0 pbc="F F F"
Ru       0.03929959       0.08012204       0.25647421
N        0.00093621      -2.02396037       0.08186438
C        1.21481897      -2.82492394       0.01362152
C        2.31778462      -2.08630809      -0.73167303
P        2.30186116      -0.29992912      -0.23990971
C        3.29720080       0.43216528      -1.64817306
C        4.42384552      -0.48301459      -2.13431634
C        2.39555497       0.82179336      -2.81319641
C        3.54186221      -0.10200639       1.13858481
C        3.25350998      -1.03545466       2.30821621
C        3.46738481       1.35416138       1.59257408
C       -0.48982368      -1.66978679       1.31075743
C       -2.00288016      -1.62813345       1.46034764
P       -2.29029981       0.04294054       0.72259494
C       -2.96476218       1.12182045       2.08479292
C       -3.08071853       2.52368686       1.48691830
C       -2.06183775       1.14613469       3.31158471
C       -3.78354731      -0.21193543      -0.38436229
C       -5.03159937      -0.63322319       0.39760442
C       -3.49767785      -1.23877616      -1.48103763
H        1.53686019      -3.05420465       1.03582805
H        0.98818114      -3.76753270      -0.50017876
H        3.29110636      -2.55700906      -0.57573543
H        2.06706726      -2.09179351      -1.79675957
H        3.74379841       1.34820840      -1.24027771
H        5.08182272       0.08380882      -2.79142707
H        4.02477032      -1.31798819      -2.70517741
H        5.02481169      -0.87072411      -1.31437165
H        2.99357701       1.19445936      -3.64411983
H        1.81807912      -0.03291244      -3.16540743
H        1.70278286       1.60520789      -2.50895959
H        4.54025416      -0.31529056       0.73893490
H        3.91674835      -0.80003298       3.13898061
H        3.40851827      -2.07804781       2.03614732
H        2.22699686      -0.89521521       2.64659247
H        2.45614866       1.57640604       1.93277879
H        4.16480234       1.53709430       2.40704334
H        3.70171584       2.03841582       0.77967360
H        0.34843545       0.42212544       1.70650528
H        0.04068227      -2.12761403       2.15587834
H       -2.31591351      -1.69571404       2.50433096
H       -2.47907855      -2.43254537       0.88827238
H       -3.94815219       0.74193922       2.37973119
H       -3.78585121       2.54851628       0.65727285
H       -3.41232030       3.23513656       2.24040629
H       -2.10092021       2.83539420       1.11796345
H       -2.47827722       1.82741300       4.05109463
H       -1.97124653       0.16286551       3.76827167
H       -1.06931566       1.49822470       3.03807305
H       -3.96022698       0.75868296      -0.86496199
H       -4.82777276      -1.50780628       1.01463171
H       -5.41364572       0.16289793       1.03082685
H       -5.81883777      -0.89847089      -0.30685486
H       -2.51616851      -1.11299497      -1.93521634
H       -3.56265136      -2.25854266      -1.10240765
H       -4.23651255      -1.14337756      -2.27567931
C       -0.41492336       0.34843022      -1.58363874
O       -0.84745727       0.90464594      -2.48529749
H        0.16417046       1.62790644       0.15440876
O       -1.54430272      -4.05236697      -3.47894370
C       -0.42394296      -4.28933987      -3.85878769
C        0.54414192      -3.36812685      -4.45665273
C        1.89931581      -3.66582423      -4.31512686
C        2.86080317      -2.82086725      -4.83427565
C        2.47637482      -1.67536439      -5.51333563
C        1.13195284      -1.35444507      -5.62993908
C        0.16715022      -2.18775849      -5.09663338
H       -0.63227302      -2.22568839      -0.69669211
H       -0.23531502      -1.68550966      -2.43624464
H       -0.00796569      -5.32092607      -3.74943333
H        2.19070871      -4.55220576      -3.76712703
H        3.90864593      -3.06044714      -4.71974606
H        3.22672929      -1.02919716      -5.94657229
H        0.84012082      -0.44275185      -6.13095611
H       -0.87999170      -1.93095792      -5.14939172
75
Properties=species:S:1:pos:R:3 charge=0 unpaired=0 uhf=0 pbc="F F F"
Ru       0.03728745       0.10301364       0.10364817
N        0.16727979      -2.29841154       0.16538214
C        1.47211290      -2.90770138       0.22751526
C        2.45730626      -2.10566838      -0.62045550
P        2.31181729      -0.28825304      -0.26856192
C        3.34086094       0.41866064      -1.66768191
C        4.50038356      -0.48118702      -2.09823633
C        2.48160933       0.77759006      -2.87428159
C        3.48980372       0.03487087       1.14050430
C        3.22495752      -0.85895169       2.34669905
C        3.34771901       1.50240649       1.53593729
C       -0.43807744      -1.70366648       1.22628854
C       -1.95977561      -1.68465388       1.20075184
P       -2.26951845       0.03715233       0.60014025
C       -2.91087919       0.99860569       2.06697729
C       -2.93215677       2.46756535       1.64634020
C       -2.05435115       0.81902888       3.31399102
C       -3.81452090      -0.12688270      -0.45007518
C       -4.95504878      -0.85857746       0.26097996
C       -3.51551608      -0.81500251      -1.77863359
H        1.79194022      -2.96591412       1.27373184
H        1.42115749      -3.93441815      -0.16530040
H        3.48024611      -2.46548187      -0.49623402
H        2.14936842      -2.21257139      -1.66655819
H        3.75663766       1.34989433      -1.26107708
H        5.15951764       0.08464136      -2.75505653
H        4.13587302      -1.34242077      -2.65344853
H        5.09080433      -0.82595191      -1.25190892
H        3.11187138       1.11869967      -3.69519157
H        1.90802070      -0.08271291      -3.21957319
H        1.79081791       1.58003852      -2.62034827
H        4.50472266      -0.15059420       0.76981696
H        3.84129829      -0.53558533       3.18358031
H        3.46649555      -1.89820622       2.13458521
H        2.18104003      -0.77842952       2.64852067
H        2.32478049       1.69763968       1.85753580
H        4.02794583       1.74033310       2.35096720
H        3.56645687       2.16589024       0.70175992
H        0.31208294       0.32224088       1.57714356
H        0.00088178      -1.98110847       2.19319242
H       -2.39995023      -1.90957479       2.17380008
H       -2.32387969      -2.39994330       0.45547164
H       -3.92821755       0.65813895       2.28591044
H       -3.59189098       2.62892208       0.79490304
H       -3.27561131       3.09351739       2.46765150
H       -1.92407173       2.77663981       1.36434990
H       -2.44829020       1.44205060       4.11464657
H       -2.05105038      -0.21301992       3.65790198
H       -1.03058147       1.12685745       3.11223836
H       -4.12542121       0.90479311      -0.66294237
H       -4.67331965      -1.88171324       0.50114251
H       -5.26965395      -0.35885449       1.17295830
H       -5.81517229      -0.90008432      -0.40584027
H       -2.67756858      -0.35684369      -2.29425262
H       -3.27381489      -1.86921701      -1.64798199
H       -4.38393995      -0.75471791      -2.43361148
C       -0.34639866       0.47642048      -1.71942145
O       -0.69850625       0.95480383      -2.70205440
H        0.15855870       1.64374118       0.14528073
O       -1.92249437      -3.90499250      -3.65265031
C       -0.72669798      -4.03893489      -3.55333451
C        0.31296867      -3.33525265      -4.30465369
C        1.64738566      -3.70397911      -4.15415776
C        2.64483593      -2.96009841      -4.75612572
C        2.31871242      -1.82477667      -5.48071325
C        0.99235591      -1.43814741      -5.61388035
C       -0.00843456      -2.19928770      -5.04764715
H       -0.32174436      -2.40173446      -0.72641258
H       -0.27577579      -1.81033604      -2.31625180
H       -0.31009336      -4.76221864      -2.81174803
H        1.89727819      -4.56703957      -3.55036482
H        3.67939506      -3.25485106      -4.64784913
H        3.10090205      -1.22986579      -5.93023362
H        0.74517806      -0.52902121      -6.14282645
H       -1.04312136      -1.89374349      -5.09408299
75
Properties=species:S:1:pos:R:3 charge=0 unpaired=0 uhf=0 pbc="F F F"
Ru      -0.00444602       0.22721770      -0.18199573
N        0.20522166      -2.81530038       0.33113812
C        1.62754393      -3.03086439       0.34307279
C        2.45980769      -2.10949635      -0.57145284
P        2.28002388      -0.27922926      -0.33076972
C        3.37810063       0.40178632      -1.69613651
C        4.56278407      -0.48518312      -2.07719759
C        2.56037190       0.75121016      -2.93375826
C        3.41110789       0.10804854       1.11293482
C        3.16504164      -0.75694019       2.34441557
C        3.25434549       1.58097023       1.48148760
C       -0.35597497      -1.75508144       1.02985180
C       -1.88124071      -1.72027006       0.93233201
P       -2.24675568       0.02887136       0.47663004
C       -2.85314066       0.88638583       2.02368663
C       -2.82669977       2.38706587       1.73890500
C       -2.02458431       0.56752049       3.26179484
C       -3.83612604      -0.07101312      -0.50701005
C       -4.88720495      -0.98337501       0.12712371
C       -3.55678317      -0.50628959      -1.94149770
H        1.96234875      -2.96427949       1.38035645
H        1.79153182      -4.06011756      -0.00141883
H        3.51248509      -2.38754484      -0.47165979
H        2.14033147      -2.27581775      -1.60627195
H        3.77008254       1.33959522      -1.28027759
H        5.23017160       0.07966704      -2.72717422
H        4.22844693      -1.36506992      -2.62183478
H        5.13570063      -0.79949822      -1.20725623
H        3.21349763       1.07500893      -3.74366560
H        1.98427590      -0.10792139      -3.27600954
H        1.87216992       1.56423505      -2.70818065
H        4.43514513      -0.06728416       0.76051964
H        3.75268521      -0.37786311       3.17937933
H        3.46224457      -1.78832199       2.17287562
H        2.11466336      -0.72113435       2.62834689
H        2.23189890       1.77228372       1.80579723
H        3.93650392       1.83840868       2.29012668
H        3.46601340       2.23325192       0.63696966
H        0.24319879       0.22380515       1.31266389
H       -0.01728592      -1.80792722       2.07011504
H       -2.37685240      -2.07059011       1.84317883
H       -2.19383190      -2.34465258       0.08930486
H       -3.88672226       0.56863686       2.19989620
H       -3.45457782       2.63926484       0.88532611
H       -3.18403163       2.94559571       2.60226944
H       -1.80487355       2.69618202       1.51470127
H       -2.40282460       1.14119245       4.10673204
H       -2.07567945      -0.48799605       3.51977446
H       -0.98394807       0.84291682       3.09980398
H       -4.22307164       0.95785489      -0.52784224
H       -4.56809907      -2.02279665       0.09810649
H       -5.10398650      -0.71412341       1.15829034
H       -5.81393808      -0.90314383      -0.43986267
H       -2.86140882       0.17414228      -2.42685456
H       -3.12037704      -1.50393684      -1.98162369
H       -4.48018933      -0.51853884      -2.51996067
C       -0.34957360       0.90268869      -1.90976730
O       -0.67816567       1.22745266      -2.95706655
H        0.20549953       1.70790488       0.16239007
O       -2.03022880      -3.71122454      -3.25739601
C       -0.84054894      -3.91455928      -3.21565098
C        0.19142018      -3.26569526      -4.02156231
C        1.51470156      -3.69748475      -3.93831637
C        2.50525768      -3.03603355      -4.63872063
C        2.18662549      -1.92331732      -5.40285994
C        0.87520941      -1.47574437      -5.47327578
C       -0.12202275      -2.15000297      -4.79773571
H       -0.17590902      -2.90579875      -0.60134628
H       -0.30589724      -1.48244728      -1.95152642
H       -0.42914649      -4.65735888      -2.49307975
H        1.75886535      -4.55327255      -3.32229750
H        3.52911858      -3.37860991      -4.58329378
H        2.96504908      -1.39621095      -5.93600210
H        0.63688482      -0.59123080      -6.04619070
H       -1.14510648      -1.80501454      -4.81391313
75
Properties=species:S:1:pos:R:3 charge=0 unpaired=0 uhf=0 pbc="F F F"
Ru      -0.00582991       0.22395384      -0.24082118
N        0.21188787      -2.79812711      -0.05602490
C        1.62124132      -3.04441090       0.17542571
C        2.52700319      -2.08949320      -0.61378462
P        2.28270377      -0.27162999      -0.34365298
C        3.40118974       0.42410201      -1.69458576
C        4.61270024      -0.43765518      -2.05004758
C        2.61016017       0.75039815      -2.95559214
C        3.39941900       0.13162013       1.10781693
C        3.12084680      -0.72868267       2.33526409
C        3.24745171       1.60805456       1.46623774
C       -0.31873862      -1.68830861       0.74473364
C       -1.86623393      -1.74913034       0.76356248
P       -2.25339195       0.01511027       0.44602362
C       -2.85515655       0.81192956       2.02866670
C       -2.79018313       2.32337781       1.81221430
C       -2.04089646       0.41223090       3.25235669
C       -3.86194680      -0.01719497      -0.52082027
C       -4.87447139      -1.00970344       0.04908999
C       -3.59835779      -0.32264186      -1.99156151
H        1.86703224      -2.99482114       1.25064003
H        1.84922976      -4.06200272      -0.16528209
H        3.56831023      -2.35133075      -0.40955737
H        2.32284899      -2.24232933      -1.67974859
H        3.76306811       1.37227300      -1.27832810
H        5.28130512       0.14041344      -2.68690939
H        4.31238085      -1.32574966      -2.60119686
H        5.17446834      -0.74134437      -1.16976591
H        3.27247746       1.13952371      -3.72816253
H        2.11605576      -0.13782332      -3.34846413
H        1.85680628       1.50761481      -2.74232802
H        4.42878108      -0.05231047       0.77189648
H        3.69444865      -0.35746988       3.18396022
H        3.40387210      -1.76538922       2.16742094
H        2.06363443      -0.68109628       2.59213998
H        2.22432663       1.80558064       1.78254588
H        3.92507575       1.86953383       2.27762561
H        3.46382241       2.25480372       0.61846137
H        0.24523992       0.58122781       1.22535380
H        0.02774164      -1.82068355       1.79537027
H       -2.30400680      -2.18426383       1.66968886
H       -2.20893112      -2.32314946      -0.10535741
H       -3.89865766       0.51057196       2.18232830
H       -3.39972480       2.62659977       0.96156778
H       -3.14420311       2.85408877       2.69451779
H       -1.75913855       2.61609672       1.61160718
H       -2.39590520       0.96013109       4.12437241
H       -2.12678622      -0.65243522       3.45996580
H       -0.99037943       0.65484299       3.09879402
H       -4.27227280       0.99841821      -0.44363390
H       -4.54168392      -2.03331991      -0.10809374
H       -5.04453362      -0.86134964       1.11319661
H       -5.82769115      -0.88559887      -0.46358834
H       -2.95396167       0.43497519      -2.43295975
H       -3.12870452      -1.29933384      -2.11258455
H       -4.53549753      -0.33193722      -2.54753089
C       -0.35144274       0.50146785      -2.03012539
O       -0.61638188       0.69202169      -3.15539335
H        0.17353736       1.78525311      -0.28840701
O       -1.96859436      -3.37777935      -2.76930194
C       -0.83442287      -3.77200645      -2.91691004
C        0.18116569      -3.16546254      -3.77710536
C        1.48043554      -3.67768686      -3.79217331
C        2.44709575      -3.09345462      -4.58830466
C        2.12467004      -2.00218739      -5.38323820
C        0.83247686      -1.49600654      -5.38594634
C       -0.13576327      -2.07169266      -4.58626931
H       -0.30991345      -3.64759894       0.15598993
H       -0.28501148      -0.75160840      -1.45392544
H       -0.48318865      -4.67763187      -2.38288220
H        1.72358720      -4.52989013      -3.17283287
H        3.45409305      -3.48515416      -4.59254919
H        2.88382389      -1.54303751      -5.99954738
H        0.58537154      -0.64443850      -6.00200668
H       -1.14466044      -1.68630525      -4.57094923
75
Properties=species:S:1:pos:R:3 charge=0 unpaired=0 uhf=0 pbc="F F F"
Ru       0.02221453       0.24857797      -0.31133961
N        0.28593989      -2.82647176      -0.07957612
C        1.70154870      -3.00479794       0.18651426
C        2.59193845      -2.04196961      -0.60814626
P        2.31337389      -0.22407488      -0.37523134
C        3.45055949       0.45644322      -1.71757867
C        4.69087248      -0.38642390      -2.01535475
C        2.68389137       0.72182605      -3.00800475
C        3.38771162       0.22417246       1.09462763
C        3.08648656      -0.61713726       2.33013595
C        3.20317827       1.70480154       1.41887308
C       -0.29836298      -1.68832229       0.64109841
C       -1.84055891      -1.77201634       0.55551246
P       -2.22731732       0.00571370       0.36148067
C       -2.81974574       0.66529350       2.00849697
C       -2.69031241       2.18645594       1.95008070
C       -2.04417571       0.10483274       3.19373372
C       -3.84665063       0.05696203      -0.58404480
C       -4.79052309      -1.06597513      -0.15741051
C       -3.59645087      -0.00385326      -2.08615566
H        1.91853973      -2.91507137       1.26479794
H        1.97478854      -4.02271052      -0.11897913
H        3.63556141      -2.27741870      -0.38389208
H        2.40794668      -2.21750459      -1.67408622
H        3.77921568       1.42572913      -1.32273731
H        5.36762731       0.19179301      -2.64339400
H        4.42707454      -1.29243783      -2.55591901
H        5.23086529      -0.65935222      -1.11169465
H        3.35807178       1.09359274      -3.77892796
H        2.21361959      -0.18887159      -3.37875270
H        1.91336438       1.47325606      -2.84129658
H        4.42860047       0.05047407       0.79090107
H        3.60995469      -0.20766851       3.19338592
H        3.41017339      -1.64721928       2.19888199
H        2.01804838      -0.59977078       2.54112171
H        2.17253535       1.88933383       1.71804128
H        3.86491185       1.99728626       2.23276562
H        3.41729666       2.33677867       0.55933868
H        0.25255183       0.60608823       1.15934484
H       -0.02201535      -1.78547109       1.71560113
H       -2.32987556      -2.30017424       1.38297242
H       -2.11502682      -2.26209350      -0.38440942
H       -3.87836120       0.39342982       2.11171695
H       -3.26113284       2.59656432       1.11727178
H       -3.04920187       2.64064531       2.87222010
H       -1.64356943       2.45488689       1.80534077
H       -2.38437064       0.57744131       4.11424247
H       -2.18485607      -0.96978921       3.29119711
H       -0.98102706       0.30990288       3.07573007
H       -4.30137163       1.02651622      -0.34058452
H       -4.44221533      -2.02164121      -0.54333064
H       -4.87432046      -1.13970195       0.92534884
H       -5.78468521      -0.88248298      -0.56297216
H       -3.00039994       0.84700307      -2.41346053
H       -3.07560844      -0.92516339      -2.34863076
H       -4.54177589       0.01375012      -2.62796575
C       -0.31747144       0.53501721      -2.09937845
O       -0.57719855       0.72117026      -3.22454089
H        0.18525828       1.81244314      -0.35956515
O       -2.08049690      -3.26555890      -2.46607167
C       -0.96538928      -3.70902384      -2.63229367
C        0.04078424      -3.16633113      -3.54267557
C        1.32207661      -3.71949599      -3.58195750
C        2.27194904      -3.20578056      -4.44406586
C        1.95022870      -2.14461002      -5.27934497
C        0.67649045      -1.59465606      -5.25317716
C       -0.27440847      -2.10067344      -4.38872716
H       -0.19837633      -3.67517140       0.21861246
H       -0.21872911      -0.73257505      -1.51010230
H       -0.63763733      -4.61600667      -2.08882039
H        1.56385332      -4.54630701      -2.92898433
H        3.26517497      -3.63054821      -4.47033726
H        2.69508093      -1.74415555      -5.95154386
H        0.42936259      -0.76540433      -5.89895170
H       -1.26998048      -1.68274082      -4.35438845
