57
Properties=species:S:1:pos:R:3 energy:=T -81.804926634628=T gnorm:=T 0.000118364553=T xtb:=T 6.7.1=T (edcfbbe)=T pbc="F F F"
Co      -0.31830589      -0.99218441      -2.25330477
C        2.34542571      -2.21429581      -1.79302817
P        1.75351643      -0.44214654      -1.75673582
C        2.98767756       0.30590795      -2.87259138
C        2.60785176       0.54890739      -4.18758276
C        3.52065367       1.06134094      -5.09251037
C        4.81726476       1.33410279      -4.68703733
C        5.20043655       1.09150056      -3.37703437
C        4.29190882       0.57713689      -2.46975497
C        2.32863374       0.17736584      -0.13907844
C        2.28975046       1.56305420       0.02383211
C        2.58896971       2.13817478       1.24265593
C        2.91261133       1.33361746       2.32572517
C        2.93226643      -0.04289883       2.17941645
C        2.63765858      -0.62245156       0.95626052
C        1.31043471      -2.95109717      -1.00969722
C        1.59015251      -4.02872187      -0.18567131
C        0.58692085      -4.53693635       0.62823715
C       -0.64557893      -3.90098833       0.63340738
C       -0.86239310      -2.84137248      -0.23181692
C       -2.13681071      -2.05083851      -0.25963564
N       -1.82661926      -0.62262987      -0.41987769
C       -1.13162049      -0.08911569       0.75941292
C       -1.93853351       0.02581415       2.05715182
C       -3.05315264       0.11458490      -0.74085524
C       -2.80883816       1.59357084      -1.00797820
N        0.08284953      -2.41423627      -1.07751656
H        2.31494755      -2.50407966      -2.85014502
H        3.36035755      -2.36102035      -1.41367135
H        1.58823655       0.33377470      -4.48159329
H        3.22092987       1.25042675      -6.11327142
H        5.53090455       1.73723270      -5.39115170
H        6.21249037       1.30348332      -3.06218751
H        4.59309143       0.39196809      -1.44743444
H        2.02431729       2.17948763      -0.82676649
H        2.56639360       3.21283135       1.35431775
H        3.14438218       1.77942063       3.28210403
H        3.17821161      -0.67255938       3.02322073
H        2.65322398      -1.69950978       0.86507099
H        2.58277033      -4.45384794      -0.17376106
H        0.77540942      -5.38246064       1.27170382
H       -1.43122509      -4.22099591       1.30061006
H       -2.71725788      -2.36194684      -1.13701323
H       -2.74004008      -2.25607296       0.63750780
H       -0.74408923       0.89654786       0.49304616
H       -0.26623837      -0.72987586       0.95385414
H       -1.27652992       0.38758701       2.84079996
H       -2.76141667       0.72908190       1.95951199
H       -2.33567892      -0.93660902       2.37239247
H       -3.80313803      -0.00500698       0.05717077
H       -3.45862506      -0.33180734      -1.65317692
H       -3.70000364       2.03127339      -1.45153943
H       -2.57586386       2.14172332      -0.09862726
H       -1.98353051       1.69622984      -1.70908991
C       -1.13974188      -1.94040307      -3.44877279
O       -1.59034013      -2.52394007      -4.34651883
H       -0.61878809       0.14563644      -3.10032496
