55
 energy: -71.025764584525 gnorm: 0.000126914677 xtb: 6.7.1 (edcfbbe)
Co          -0.05318558725602       -0.77801035755289       -1.33869721935896
C            2.20344448139993       -2.58493345487106       -0.68895425410805
P            2.06810005471932       -0.72266793304038       -0.66294492271710
C            3.36654685377575       -0.22851714438322       -1.90944494962278
C            3.46036880656614        1.29595286918914       -1.92036966613742
C            2.98548374207997       -0.73731344369771       -3.29735766341432
C            2.91199755732384       -0.28899256982500        0.96712585278281
C            2.16246028015901       -0.97105851010244        2.11088182344787
C            4.40640213495030       -0.58653719587113        1.06187274936690
C            0.95443507479107       -3.07067440872697       -0.03383256574967
C            0.92201097887834       -4.17894901846741        0.79599782719725
C           -0.26011070466058       -4.51058140217958        1.44223191161035
C           -1.36287661171453       -3.69246287798036        1.25348034544272
C           -1.26760954629254       -2.60889667061512        0.39485756465962
C           -2.42593349825363       -1.68146385255534        0.15376095496552
N           -1.95803406097977       -0.29342370373804        0.11095882674152
C           -1.64550984890174        0.17863269639503        1.46081164997630
C           -0.76738477093803        1.42372071943223        1.43284205441001
C           -2.90208218585410        0.58042056048808       -0.59237267921585
C           -4.31694679069862        0.67680357143931       -0.01109328802187
N           -0.13405186810651       -2.31636004826237       -0.25772152171135
H            2.18805077460407       -2.86796096352614       -1.74562884295015
H            3.10448851381420       -2.98920154416744       -0.22331587414458
H            4.32916142421133       -0.66510270567261       -1.61930198018218
H            4.18950167799846        1.62916011381257       -2.65784794925635
H            3.75393450500522        1.68838180679776       -0.94845415898692
H            2.48935735411533        1.71407475959897       -2.18197618826022
H            3.57672368023732       -0.22995043245541       -4.05804085649419
H            1.92978044921925       -0.53669518008590       -3.48742943993315
H            3.16076978348224       -1.80642461107567       -3.39901171113759
H            2.76102492893678        0.79473795653375        1.06796889014502
H            1.08795279489051       -0.84354392354073        1.99533408506782
H            2.45421449464211       -0.53954878816430        3.06801438036125
H            2.38186121119735       -2.03722373511001        2.13980718979773
H            4.62118608666396       -1.62670697806049        0.82432979582680
H            4.74350870523456       -0.40180599683701        2.08177976380228
H            4.98822162604270        0.04973324603290        0.40040613703564
H            1.81412634292253       -4.77046349171471        0.93817750037455
H           -0.31286863641026       -5.37052182186990        2.09199453502950
H           -2.29238603444320       -3.89112768802034        1.76518053420890
H           -2.85391516231719       -1.92020469007086       -0.82706662048746
H           -3.19785652168433       -1.84160080703411        0.92296015692360
H           -2.55793124724214        0.36803957616241        2.04616382257708
H           -1.10368556399636       -0.62615891235219        1.96800753941183
H           -1.34173286446096        2.31436867478097        1.19222083892533
H           -0.29308638607145        1.57283977960460        2.40025737153469
H            0.00225087362078        1.29069420257096        0.67035501163401
H           -2.45884881896458        1.57577066642919       -0.63122144692651
H           -2.96534549664037        0.21837950410288       -1.62185500097561
H           -4.31591256246043        1.09405687082518        0.99321581730838
H           -4.80560599203175       -0.29475415917389        0.01254659755309
H           -4.90727112025706        1.33461517357155       -0.64432178133476
C           -0.83903760686914       -1.44158680082084       -2.73630099260530
O           -1.20811047194123       -1.84884554449617       -3.76069462148357
H           -0.01750662872695        0.48295723999830       -2.06330655926683
