64
Properties=species:S:1:pos:R:3:forces:R:3 energy:=T -92.386950626870=T gnorm:=T 0.000135375277=T xtb:=T 6.7.1=T (edcfbbe)=T energy=-2513.976977101318 pbc="F F F"
Ru       0.17804760      -0.86831004      -1.07595343      -0.00251579      -0.00140329       0.00038111
N        0.70665756      -2.72818980       0.01244894       0.00064989      -0.00028716       0.00010874
C        1.90722399      -2.52242624       0.84645668       0.00013976      -0.00002607      -0.00001882
C        3.06342088      -2.02664509      -0.02530878      -0.00010965       0.00016452      -0.00041913
P        2.45246712      -0.58440340      -1.02893412       0.00203118       0.00045004       0.00140126
C        2.40926324       0.71214531       0.24994594      -0.00015390       0.00054695      -0.00002044
C        1.14639144       0.84485903       0.83571498      -0.00045561       0.00049896       0.00014015
C        0.92142809       1.77643921       1.82953004      -0.00007960      -0.00065437      -0.00006948
C        1.97505901       2.58080187       2.24608797      -0.00014170      -0.00039833       0.00029439
C        3.22839251       2.45911824       1.66684921      -0.00024894       0.00028325      -0.00026805
C        3.45312524       1.52799930       0.66484909      -0.00065717       0.00110337      -0.00009590
C        3.76208313      -0.14686381      -2.18962070      -0.00010610       0.00016292       0.00011482
C        3.34321341       0.42067756      -3.39172402       0.00012917       0.00132906      -0.00022240
C        4.28193500       0.81504692      -4.32738223      -0.00000227       0.00066936       0.00052132
C        5.63236726       0.63933558      -4.06614311       0.00046988      -0.00102756      -0.00019195
C        6.04727468       0.06676020      -2.87283939       0.00017625      -0.00140801      -0.00020533
C        5.11767837      -0.33124862      -1.92880281      -0.00036368      -0.00060430      -0.00028386
C       -0.43244614      -3.34546761       0.72720312       0.00018775      -0.00005079       0.00014919
C       -1.36265393      -2.28430355       1.31011729      -0.00047746       0.00002555      -0.00052283
P       -1.89139864      -1.18910588      -0.10121512       0.00196970       0.00117251      -0.00095835
C       -2.66548015       0.25005301       0.70049741      -0.00053714       0.00001844      -0.00020351
C       -3.04349268       0.30144969       2.03928497      -0.00021367      -0.00040543      -0.00023651
C       -3.63047258       1.45180368       2.53940484       0.00003218       0.00002940       0.00029845
C       -3.84377041       2.54536160       1.71556379       0.00038244      -0.00003636       0.00031704
C       -3.46923279       2.49526870       0.38109571       0.00060925       0.00000267       0.00030562
C       -2.87955378       1.35288597      -0.12627052       0.00009449      -0.00013869       0.00021362
C       -3.31290219      -2.06714672      -0.81044922       0.00009943      -0.00021093      -0.00000410
C       -3.27303623      -2.46101602      -2.14286537      -0.00026149       0.00045716      -0.00031512
C       -4.35004413      -3.13350685      -2.69396689      -0.00022314       0.00039752      -0.00007496
C       -5.46567603      -3.40504038      -1.91834781      -0.00009653      -0.00027003       0.00029401
C       -5.51224132      -2.99723361      -0.59284909      -0.00030958      -0.00031100      -0.00016137
C       -4.44115801      -2.32540395      -0.03496267       0.00005633      -0.00022943       0.00023139
H        0.99019082      -3.39531332      -0.71280711      -0.00023887       0.00039141      -0.00010367
H        2.19513948      -3.46227758       1.33712778       0.00027528       0.00007803      -0.00040466
H        1.68124903      -1.78770580       1.63015244       0.00027473      -0.00015738      -0.00014329
H        3.38319775      -2.80762661      -0.72521118      -0.00013594       0.00026856      -0.00039472
H        3.91554640      -1.73939734       0.59705963      -0.00021572      -0.00000334      -0.00058757
H        0.29848021       0.19314421       0.48277716      -0.00009487      -0.00003396       0.00011748
H       -0.05886577       1.88435232       2.27140882      -0.00040565       0.00065645      -0.00028435
H        1.80934579       3.31161419       3.02289177      -0.00064337       0.00074838      -0.00055629
H        4.03494557       3.09827920       1.99335709      -0.00041457       0.00023975      -0.00008220
H        4.42332515       1.44342788       0.19618021      -0.00013926      -0.00018718       0.00036593
H        2.28080722       0.53996168      -3.57398185       0.00019375       0.00008087      -0.00013095
H        3.96273607       1.25489351      -5.26019125       0.00034638      -0.00061425      -0.00052890
H        6.36617642       0.94551792      -4.79664494       0.00020283      -0.00102418      -0.00035065
H        7.10067095      -0.07130252      -2.67843781      -0.00001598      -0.00024822       0.00028467
H        5.44716023      -0.78273235      -1.00380580      -0.00015969       0.00055253       0.00044412
H       -1.00146037      -3.94113814       0.00436863       0.00045084      -0.00015237       0.00049178
H       -0.06904689      -4.01334852       1.51780119       0.00032557       0.00034839       0.00021839
H       -2.22568928      -2.76150514       1.78211877       0.00017821      -0.00017576       0.00021396
H       -0.84081724      -1.67441904       2.05940315      -0.00004495       0.00010438      -0.00023231
H       -2.88740365      -0.54231467       2.69640256      -0.00007280      -0.00017905      -0.00010475
H       -3.92367523       1.49265823       3.57835159       0.00020709      -0.00026107      -0.00000919
H       -4.30165375       3.43802075       2.11482418       0.00025671       0.00000455       0.00042350
H       -3.63462878       3.34735324      -0.26097491       0.00006613      -0.00000694       0.00041023
H       -2.56953765       1.29887296      -1.16362970      -0.00004347       0.00008850       0.00021585
H       -2.39973141      -2.22427320      -2.73871754      -0.00011996       0.00019833      -0.00012547
H       -4.31986683      -3.44152847      -3.72834463      -0.00054740       0.00050489      -0.00004738
H       -6.30619279      -3.92893157      -2.34831060      -0.00037069       0.00031919      -0.00002634
H       -6.38886426      -3.20037891       0.00428748       0.00001443      -0.00032586       0.00010948
H       -4.48454686      -1.99153048       0.99306390       0.00011363      -0.00055492       0.00002629
C        0.04493801      -1.69390548      -2.71117472       0.00093213       0.00073291      -0.00068231
O        0.03849114      -2.13500355      -3.77171636       0.00006286      -0.00106019       0.00127953
H       -0.15489156       0.45245972      -1.79656617      -0.00031165      -0.00018239      -0.00030524
