64
Properties=species:S:1:pos:R:3 energy:=T -92.386950626870=T gnorm:=T 0.000135375277=T xtb:=T 6.7.1=T (edcfbbe)=T pbc="F F F"
Ru       0.17804760      -0.86831004      -1.07595343
N        0.70665756      -2.72818980       0.01244894
C        1.90722399      -2.52242624       0.84645668
C        3.06342088      -2.02664509      -0.02530878
P        2.45246712      -0.58440340      -1.02893412
C        2.40926324       0.71214531       0.24994594
C        1.14639144       0.84485903       0.83571498
C        0.92142809       1.77643921       1.82953004
C        1.97505901       2.58080187       2.24608797
C        3.22839251       2.45911824       1.66684921
C        3.45312524       1.52799930       0.66484909
C        3.76208313      -0.14686381      -2.18962070
C        3.34321341       0.42067756      -3.39172402
C        4.28193500       0.81504692      -4.32738223
C        5.63236726       0.63933558      -4.06614311
C        6.04727468       0.06676020      -2.87283939
C        5.11767837      -0.33124862      -1.92880281
C       -0.43244614      -3.34546761       0.72720312
C       -1.36265393      -2.28430355       1.31011729
P       -1.89139864      -1.18910588      -0.10121512
C       -2.66548015       0.25005301       0.70049741
C       -3.04349268       0.30144969       2.03928497
C       -3.63047258       1.45180368       2.53940484
C       -3.84377041       2.54536160       1.71556379
C       -3.46923279       2.49526870       0.38109571
C       -2.87955378       1.35288597      -0.12627052
C       -3.31290219      -2.06714672      -0.81044922
C       -3.27303623      -2.46101602      -2.14286537
C       -4.35004413      -3.13350685      -2.69396689
C       -5.46567603      -3.40504038      -1.91834781
C       -5.51224132      -2.99723361      -0.59284909
C       -4.44115801      -2.32540395      -0.03496267
H        0.99019082      -3.39531332      -0.71280711
H        2.19513948      -3.46227758       1.33712778
H        1.68124903      -1.78770580       1.63015244
H        3.38319775      -2.80762661      -0.72521118
H        3.91554640      -1.73939734       0.59705963
H        0.29848021       0.19314421       0.48277716
H       -0.05886577       1.88435232       2.27140882
H        1.80934579       3.31161419       3.02289177
H        4.03494557       3.09827920       1.99335709
H        4.42332515       1.44342788       0.19618021
H        2.28080722       0.53996168      -3.57398185
H        3.96273607       1.25489351      -5.26019125
H        6.36617642       0.94551792      -4.79664494
H        7.10067095      -0.07130252      -2.67843781
H        5.44716023      -0.78273235      -1.00380580
H       -1.00146037      -3.94113814       0.00436863
H       -0.06904689      -4.01334852       1.51780119
H       -2.22568928      -2.76150514       1.78211877
H       -0.84081724      -1.67441904       2.05940315
H       -2.88740365      -0.54231467       2.69640256
H       -3.92367523       1.49265823       3.57835159
H       -4.30165375       3.43802075       2.11482418
H       -3.63462878       3.34735324      -0.26097491
H       -2.56953765       1.29887296      -1.16362970
H       -2.39973141      -2.22427320      -2.73871754
H       -4.31986683      -3.44152847      -3.72834463
H       -6.30619279      -3.92893157      -2.34831060
H       -6.38886426      -3.20037891       0.00428748
H       -4.48454686      -1.99153048       0.99306390
C        0.04493801      -1.69390548      -2.71117472
O        0.03849114      -2.13500355      -3.77171636
H       -0.15489156       0.45245972      -1.79656617
