74

Co      0.127484841268960     -0.305959686374090     -0.131970469229360
N       0.181158156250300     -2.061389309869560      0.388618244477930
C       1.305622321747520     -2.969972189505000      0.260135111585160
C       2.488646046107560     -2.360228548166670     -0.493155369337180
P       2.242474199871260     -0.541460053318740     -0.467088569181640
C       3.114981381676200      0.065479260096390     -1.999203911475550
C       4.563280092981780     -0.397732563426130     -2.126576061858200
C       2.288435912649500     -0.335342858008110     -3.219894166497540
C       3.328230984225280      0.041937755863680      0.930581477606110
C       2.655658283320990     -0.393393481024410      2.229785705976140
C       3.474971955987280      1.560635566275970      0.893449583719830
C      -0.908491726336180     -2.807680488542000      0.992188113991280
C      -2.040587072504050     -1.906986706094740      1.483243641334550
P      -1.937357310736290     -0.361426871935390      0.497464559419920
C      -2.707661773635780      0.895095841570220      1.643287877340070
C      -3.167891580072670      2.141588679542010      0.892850527304730
C      -1.649929042347310      1.274784263506030      2.678569173814420
C      -3.175765924043850     -0.554286494187920     -0.882774420401170
C      -4.590041490713140     -0.938827819886420     -0.457957470082680
C      -2.598855213091310     -1.552807494076760     -1.883950712343880
H       1.637827364439450     -3.298819817942550      1.265792557528260
H       0.979761227913580     -3.892875821824380     -0.259805099584490
H       3.446789501712420     -2.656323336700820     -0.059235079114720
H       2.462141509106060     -2.674879841508640     -1.538852718076960
H       3.086161305481190      1.159894245237950     -1.924430101646750
H       4.990995850023670     -0.014244622938750     -3.052483917742610
H       4.622296998943650     -1.484094071867650     -2.152431703571300
H       5.170745910973250     -0.035785072534470     -1.300362365466240
H       2.627695423865150      0.200185669839050     -4.105374662401010
H       2.370310748077340     -1.402586652236760     -3.417940585801200
H       1.236596865088550     -0.096342084236680     -3.049787232336050
H       4.313525716812290     -0.433995396736250      0.846731178383600
H       3.162915788352680      0.033845258790310      3.094013118963380
H       2.660753178939780     -1.476515517322790      2.327764040292250
H       1.614542457503480     -0.056582119558760      2.224935130170330
H       2.491021064120560      2.025906766391130      0.833337640278260
H       3.966475433868260      1.914917900672690      1.798914213612950
H       4.064930418075750      1.887173549931300      0.039800339917290
H      -0.526559115876650     -3.399819200208850      1.847243875997610
H      -1.305388468918320     -3.547919996958750      0.269442719909110
H      -1.868894981659940     -1.634563344328330      2.527336245745200
H      -3.014166092508230     -2.394642823736790      1.411082350730320
H      -3.560995236165210      0.423967107042470      2.149027559403290
H      -4.019342889348800      1.936758086687420      0.248496374685520
H      -3.459696406706400      2.916535281948440      1.601082910954270
H      -2.355897123675140      2.531278590183100      0.280739713551400
H      -2.048455047401530      1.995514178279040      3.391394737891410
H      -1.301385105478060      0.403951504445160      3.231408161601760
H      -0.791956974232650      1.720975405389210      2.173826715548140
H      -3.197608570299790      0.432363855641590     -1.364351709708600
H      -4.617356291095080     -1.950585031772860     -0.058389369054490
H      -4.983897361654390     -0.259587207118560      0.294776130664120
H      -5.251210933222960     -0.907106773233730     -1.323538532125610
H      -1.545030442538180     -1.318257182109830     -2.067617516414620
H      -2.657876999276130     -2.566513163941070     -1.492442139670180
H      -3.139831162091200     -1.516022716993920     -2.828515452490480
C       0.080555877530730      1.311926776528160     -0.703261459474700
O       0.066239270323780      2.405151062735140     -1.115114458985390
O      -1.269430767206887     -2.257924212749863     -1.869458887956796
C      -0.459340264781748     -1.348681918351434     -2.562381482664263
C       0.754082663342874     -2.049764988175018     -3.107632453911314
C       0.686221200428027     -2.730199786151801     -4.334593522881698
C       1.805484484014772     -3.410422965180119     -4.825052692815998
C       2.994104790961443     -3.425143994856991     -4.089834941046118
C       3.064091436160899     -2.763352893689300     -2.860717852524380
C       1.947090524563892     -2.081917923100087     -2.366782557286498
H      -0.827362657793517     -2.422917308278492     -0.995705641600563
H      -0.164087247072873     -0.505230642460851     -1.897082966199588
H      -1.047233803251411     -0.910762045421044     -3.397051571176118
H      -0.231587212723782     -2.733621454411701     -4.909581746518679
H       1.750254267641207     -3.929053866801723     -5.773456263100915
H       3.859040655957520     -3.953103634263524     -4.470111458507420
H       3.982897414573140     -2.781292972039236     -2.288902870026319
H       2.011787117156739     -1.580812129281659     -1.408845199053893
