74

Co      0.127484841268960     -0.305959686374090     -0.131970469229360
N       0.181158156250300     -2.061389309869560      0.388618244477930
C       1.305622321747520     -2.969972189505000      0.260135111585160
C       2.488646046107560     -2.360228548166670     -0.493155369337180
P       2.242474199871260     -0.541460053318740     -0.467088569181640
C       3.114981381676200      0.065479260096390     -1.999203911475550
C       4.563280092981780     -0.397732563426130     -2.126576061858200
C       2.288435912649500     -0.335342858008110     -3.219894166497540
C       3.328230984225280      0.041937755863680      0.930581477606110
C       2.655658283320990     -0.393393481024410      2.229785705976140
C       3.474971955987280      1.560635566275970      0.893449583719830
C      -0.908491726336180     -2.807680488542000      0.992188113991280
C      -2.040587072504050     -1.906986706094740      1.483243641334550
P      -1.937357310736290     -0.361426871935390      0.497464559419920
C      -2.707661773635780      0.895095841570220      1.643287877340070
C      -3.167891580072670      2.141588679542010      0.892850527304730
C      -1.649929042347310      1.274784263506030      2.678569173814420
C      -3.175765924043850     -0.554286494187920     -0.882774420401170
C      -4.590041490713140     -0.938827819886420     -0.457957470082680
C      -2.598855213091310     -1.552807494076760     -1.883950712343880
H       1.637827364439450     -3.298819817942550      1.265792557528260
H       0.979761227913580     -3.892875821824380     -0.259805099584490
H       3.446789501712420     -2.656323336700820     -0.059235079114720
H       2.462141509106060     -2.674879841508640     -1.538852718076960
H       3.086161305481190      1.159894245237950     -1.924430101646750
H       4.990995850023670     -0.014244622938750     -3.052483917742610
H       4.622296998943650     -1.484094071867650     -2.152431703571300
H       5.170745910973250     -0.035785072534470     -1.300362365466240
H       2.627695423865150      0.200185669839050     -4.105374662401010
H       2.370310748077340     -1.402586652236760     -3.417940585801200
H       1.236596865088550     -0.096342084236680     -3.049787232336050
H       4.313525716812290     -0.433995396736250      0.846731178383600
H       3.162915788352680      0.033845258790310      3.094013118963380
H       2.660753178939780     -1.476515517322790      2.327764040292250
H       1.614542457503480     -0.056582119558760      2.224935130170330
H       2.491021064120560      2.025906766391130      0.833337640278260
H       3.966475433868260      1.914917900672690      1.798914213612950
H       4.064930418075750      1.887173549931300      0.039800339917290
H      -0.526559115876650     -3.399819200208850      1.847243875997610
H      -1.305388468918320     -3.547919996958750      0.269442719909110
H      -1.868894981659940     -1.634563344328330      2.527336245745200
H      -3.014166092508230     -2.394642823736790      1.411082350730320
H      -3.560995236165210      0.423967107042470      2.149027559403290
H      -4.019342889348800      1.936758086687420      0.248496374685520
H      -3.459696406706400      2.916535281948440      1.601082910954270
H      -2.355897123675140      2.531278590183100      0.280739713551400
H      -2.048455047401530      1.995514178279040      3.391394737891410
H      -1.301385105478060      0.403951504445160      3.231408161601760
H      -0.791956974232650      1.720975405389210      2.173826715548140
H      -3.197608570299790      0.432363855641590     -1.364351709708600
H      -4.617356291095080     -1.950585031772860     -0.058389369054490
H      -4.983897361654390     -0.259587207118560      0.294776130664120
H      -5.251210933222960     -0.907106773233730     -1.323538532125610
H      -1.545030442538180     -1.318257182109830     -2.067617516414620
H      -2.657876999276130     -2.566513163941070     -1.492442139670180
H      -3.139831162091200     -1.516022716993920     -2.828515452490480
C       0.080555877530730      1.311926776528160     -0.703261459474700
O       0.066239270323780      2.405151062735140     -1.115114458985390
O      -2.072856094079297     -2.142430028121728     -3.797458274359733
C      -0.896234068523948     -2.017232273359858     -3.365120869972091
C       0.250966726071563     -2.569223223422972     -4.108741758084118
C       0.068583739703011     -3.253183231077010     -5.324477859255806
C       1.170434157167074     -3.769247170409818     -6.014318711505023
C       2.458974362636448     -3.607636176136733     -5.498505256876205
C       2.648383243266124     -2.929505068433893     -4.291559389890075
C       1.549767604592786     -2.411669527171949     -3.598055124416865
H      -0.368664800214245     -2.135882779110027     -0.467270439630644
H      -0.219111600987526     -0.921822593633311     -1.567443835641070
H      -0.734576691429329     -1.494085552792751     -2.431166864815516
H      -0.921910098150707     -3.388747690908033     -5.740588217541518
H       1.025044830544567     -4.294741586971794     -6.949348763765718
H       3.310333796696555     -4.007727272580307     -6.033852315529142
H       3.646925519663320     -2.804886181248010     -3.892910019014298
H       1.713366267245172     -1.888507057226255     -2.663716211680139
