75

Ru      0.025711165512241      0.108422359955657     -0.318426073987961
N      -0.089531645336083     -2.150211288007442     -0.813839845057361
C       1.094988361509751     -2.996031011551426     -0.801273462104499
C       2.212572155754423     -2.287916357084204     -0.028430181121989
P       2.254294982934270     -0.469876126005573     -0.491246339690508
C       3.118600103527948     -0.747520028911268     -2.148307572136531
C       4.621361495103936     -1.003115725531545     -2.052585694410469
C       2.808574401815293      0.325828582848679     -3.184420463632827
C       3.586304724639153      0.317018756082275      0.565740560204838
C       3.715392591588619      1.741926357605482      0.025650112938586
C       3.208697258343228      0.387859715960692      2.043002522775359
C      -1.328168572258587     -2.826980659299167     -1.171630606541971
C      -2.465465422277350     -1.812150566022321     -1.341230827713115
P      -2.253872523789616     -0.233681958538864     -0.339267387560022
C      -3.252518553848258     -0.645629946693780      1.197382590209529
C      -3.299278492393225      0.588965196101625      2.093561371086388
C      -2.652422915792883     -1.816992032635085      1.968680833934895
C      -3.479790615288834      0.905055383386759     -1.194647762505293
C      -3.045192718993435      2.346808433335676     -0.918830237893077
C      -3.595818537848626      0.696580759008581     -2.703299432698854
H       1.397361837316292     -3.215384755407142     -1.834652964694308
H       0.875300265080556     -3.964976948761549     -0.315736083695070
H       1.964523429685501     -2.332299116267497      1.033810130855303
H       3.172964038910667     -2.783367605054525     -0.189232617901383
H       2.648731173031032     -1.671077810227726     -2.513490469351285
H       4.983477226513659     -1.356226480392133     -3.017610610086975
H       5.164937298732997     -0.094979586566188     -1.805728939416739
H       4.856241481092773     -1.764131387973696     -1.310619672760039
H       1.735712475125566      0.391473157354121     -3.341120859317667
H       3.271462374819726      0.067932274473007     -4.136424233773006
H       3.165979484091535      1.306858305271478     -2.882188033363824
H       4.531421854228728     -0.225887718701856      0.457946479707191
H       4.411075593389315      2.320829937626439      0.631162018926690
H       4.066990437133163      1.757719182839019     -1.002748218321626
H       2.733364726791953      2.220688128210582      0.063808155930722
H       3.790867465547759      1.167752701111258      2.532560893583421
H       2.154131135449127      0.641603595587601      2.148186486149728
H       3.408605522896238     -0.544334289863889      2.562133382342613
H      -1.585422368402002     -3.579079545084696     -0.404427730002858
H      -1.180010463204046     -3.368518775316939     -2.115702835694090
H      -3.435331623018987     -2.268182470254164     -1.122755800063200
H      -2.463230535187893     -1.486656518053506     -2.382930205999758
H      -4.266897030314284     -0.915909590374399      0.869922672872422
H      -3.921813014369857      1.370650360598406      1.664353543798906
H      -2.287082614683793      0.975029776150903      2.226192138545396
H      -3.698627361462828      0.334337412468878      3.074100733129470
H      -2.683713197652495     -2.742909838519451      1.396106077410077
H      -3.205779015390844     -1.975725094845202      2.893416895120033
H      -1.624200435046995     -1.592317707441988      2.246585568471727
H      -4.461697122308453      0.726598244672826     -0.736220043683688
H      -3.867661837879598      3.037835269384964     -1.097888950329990
H      -2.692062943159428      2.469266866519701      0.103950728126629
H      -2.221589700733743      2.616107863974321     -1.576622099417341
H      -2.608202798067631      0.677544001135593     -3.164619299009339
H      -4.129225764127377     -0.218761094104466     -2.951878759693583
H      -4.146090938946462      1.530023750044774     -3.138008123424873
C      -0.020326294931162      1.095903196477262     -1.870413826076869
O      -0.028833425865123      1.951570929020432     -2.660207217525090
H       0.111695853687783      1.502577033377199      0.346083511483917
O      -0.127191961850005     -1.476921756050523      4.607924936733628
C       0.849915270574057     -1.746972054531512      3.950417774176142
C       2.136539808541994     -2.205259415965416      4.482222879902499
C       2.370019124607782     -2.158676496758776      5.856496238241921
C       3.600749849231189     -2.525021573132970      6.364435967139666
C       4.614794831411513     -2.928712506526383      5.508110540909615
C       4.386436481100739     -2.999650046346738      4.142756088515627
C       3.150400437994680     -2.653448364701160      3.634322281460584
H      -0.218458647774313     -1.825050312765734      0.144308456732165
H       0.095901140158737     -0.368105969448947      1.207350488531592
H       0.835232422238969     -1.630483560345976      2.849981537992631
H       1.569923192094099     -1.821418212333407      6.498694125069949
H       3.774706855069479     -2.490364310323334      7.428929408816589
H       5.583756048183742     -3.193377480939997      5.903458257054506
H       5.171811887255147     -3.317823746592508      3.472746634624085
H       2.971519018355695     -2.740529358217464      2.574725087154154
