80
 energy: -120.629308948217 gnorm: 0.000245964347 xtb: 6.7.1 (edcfbbe)
Mn           0.04675635441683       -0.20309179819177       -0.42737099837104
N            0.36471825876346       -2.13539266668975        0.00920377398055
C            1.68856113403771       -2.74097038263120       -0.03447934931489
C            2.59994588768898       -2.00549653572170       -1.01367175059096
P            2.28335536186047       -0.21329043493565       -0.73119492088938
C            3.44042024654039        0.11045417630867        0.64703330726035
C            3.04274668800183       -0.24460477774621        1.93374440297695
C            3.90781735518219       -0.09016185332447        3.00128121183324
C            5.17686773099438        0.42675812036311        2.79539545951883
C            5.57620889067666        0.78682859693926        1.51886778354961
C            4.71650969204434        0.62848189813061        0.44569615224654
C            3.12286205348620        0.63271322321328       -2.10643950354041
C            2.89097322543884        2.00322494416864       -2.21030926295173
C            3.51090632906695        2.74336097437859       -3.19844199600789
C            4.36842174377563        2.11931291727947       -4.09153924260333
C            4.60277124850232        0.75816884394692       -3.99161263099756
C            3.98425955924471        0.01159424784498       -3.00364209498138
C           -0.47359664595640       -2.91209719207598        0.91124103545257
C           -1.78757280550936       -2.19146451732859        1.22995840286789
P           -2.06021552061847       -0.89981008140309       -0.05211568536246
C           -3.34256435704311        0.11201427547270        0.76325259801941
C           -4.55347930429784       -0.47416514864743        1.12660234356920
C           -5.52359051590404        0.27665699483146        1.76288106366290
C           -5.29682462099298        1.61724497705308        2.03616829831747
C           -4.09843665753203        2.20602891571766        1.66936235653374
C           -3.12240425164810        1.45676069856825        1.03372195439775
C           -3.10528058816035       -1.67908805793955       -1.32696278412084
C           -3.19510194927474       -3.05074134726906       -1.52765660107410
C           -3.99825681603110       -3.54751198552386       -2.54015090798186
C           -4.70315960859736       -2.68405635466293       -3.36147823397787
C           -4.60353072663442       -1.31304245419830       -3.17598188708293
C           -3.80400951013118       -0.81221202760952       -2.16721998473036
H            1.60997169009201       -3.80324167402284       -0.33243672586741
H            2.15717968470822       -2.73401773820722        0.96948120518641
H            2.32232453597925       -2.23957408671883       -2.04648459002737
H            3.65194726099428       -2.25626952210227       -0.84995364868754
H            2.04496830406099       -0.63206967771167        2.09376231488147
H            3.58970424942416       -0.36806831956790        3.99569372780524
H            5.85191212425774        0.55262441788813        3.62922715969757
H            6.56367844163362        1.19387931486617        1.35531650358891
H            5.03889167433176        0.91343742059440       -0.54568722267806
H            2.22121793703270        2.47508540885284       -1.50049125206495
H            3.32690492730118        3.80530479277751       -3.27334110251281
H            4.85470340495063        2.69484807238181       -4.86557888372366
H            5.27318580045841        0.27247676125775       -4.68574256121320
H            4.17979830467346       -1.04846495962636       -2.93678831348457
H           -0.68513680201445       -3.90117573321207        0.46384967760345
H            0.06579071807687       -3.11348983689863        1.85658717424083
H           -2.63621106056908       -2.87456668360476        1.31618898913639
H           -1.69134380910913       -1.63054532534920        2.16779493547815
H           -4.73549201375645       -1.51682899770727        0.90132650290391
H           -6.46021646838107       -0.18232007541710        2.04495648491245
H           -6.05705654710726        2.20239210701512        2.53261353327515
H           -3.92116240213424        3.25120033305577        1.87684120831966
H           -2.18423449044966        1.91191514639725        0.74252195107546
H           -2.63749485923520       -3.73468133432487       -0.90497196980009
H           -4.06862267163989       -4.61519183162654       -2.69152906437179
H           -5.32628942037409       -3.07757125513716       -4.15132758912966
H           -5.14560342664858       -0.63702107244177       -3.82165180103577
H           -3.71005953740588        0.25751990630590       -2.01562777379259
C           -0.31535718528825        1.39559418022948       -1.08053397297351
O           -0.56228480320709        2.47054103976126       -1.45405894693087
C            0.07160395782944        0.54674834482641        1.16561302441849
O            0.03302469904733        1.09915575677085        2.18843717654500
O           -0.33982557937949       -2.61889015144040       -2.47342422331088
C           -0.28464775127062       -1.28136836942792       -2.83045652995070
C            0.66431682828663       -0.96790932668079       -3.95931769769383
C            0.77576343956244        0.34499519410476       -4.40713438634053
C            1.61537077796174        0.65471931465084       -5.45894291041770
C            2.35968477073809       -0.34152739083128       -6.07177584369387
C            2.25720997356712       -1.64770536252929       -5.62796952601358
C            1.41100964052813       -1.96081165633001       -4.57772846547069
H           -0.12038453942738       -2.62713191536694       -1.47505409584119
H            0.04025668469164       -0.64574217620580       -1.94743938559946
H           -1.28836644956174       -0.92494861292948       -3.13236088198135
H            0.19772107044633        1.12360316818260       -3.92605060136487
H            1.69141581550026        1.67644579961627       -5.80148588726249
H            3.01458003753386       -0.09768085030649       -6.89545594032918
H            2.83226420755599       -2.42975777396506       -6.10336736347926
H            1.30675910317435       -2.98293106055770       -4.24033911050018
