55
Properties=species:S:1:pos:R:3:forces:R:3 energy:=T -70.195516031067=T gnorm:=T 0.000080558145=T xtb:=T 6.7.1=T (edcfbbe)=T energy=-1910.1172838974314 pbc="F F F"
Fe      -0.05395785      -0.21030191      -0.41589819      -0.00022430       0.00025300      -0.00054327
C        2.26879554      -2.17757992      -0.59844387       0.00030785       0.00005126       0.00027278
P        1.98394204      -0.39432334      -1.02348528      -0.00004034       0.00049844      -0.00005638
C        2.56655320      -0.33331800      -2.79775227      -0.00006280      -0.00053610       0.00009766
C        2.18561355       0.99894562      -3.43747184       0.00028876      -0.00034214      -0.00003339
C        4.05476898      -0.62155599      -2.98095261       0.00011202      -0.00022518       0.00029413
C        3.19196558       0.62191610      -0.03820104       0.00004548       0.00038366       0.00016017
C        3.47609087       0.03240753       1.33788602       0.00000844       0.00051090      -0.00011220
C        2.53505523       1.99751451       0.10014314      -0.00046575       0.00006011      -0.00034753
C        0.94396720      -2.86012336      -0.52549434       0.00001308       0.00010510       0.00004731
C        0.80600729      -4.23884071      -0.51794786      -0.00003264       0.00001099      -0.00000603
C       -0.44825201      -4.80060901      -0.35359393      -0.00006088      -0.00000335      -0.00022957
C       -1.54295481      -3.96504560      -0.17542681      -0.00014372       0.00002904      -0.00029289
C       -1.35054356      -2.60108491      -0.21015395      -0.00005077       0.00008237      -0.00030380
C       -2.42447722      -1.57002413      -0.04844791       0.00005010       0.00009837      -0.00010216
N       -1.80409023      -0.38397235       0.57861338       0.00051021       0.00005975      -0.00036449
C       -2.53770622       0.87230210       0.31883687      -0.00002530      -0.00007331       0.00028062
C       -1.55638678       2.03947528       0.18793171       0.00006866      -0.00001509       0.00035002
C       -1.69886397      -0.68291748       2.03124139      -0.00015995      -0.00034324      -0.00004210
C       -1.04765306       0.39117405       2.87913606      -0.00003028      -0.00029961       0.00002992
N       -0.12990655      -2.06450206      -0.41290957      -0.00002356       0.00052734      -0.00004691
H        2.71366500      -2.21454365       0.40169256      -0.00040450       0.00013531      -0.00005897
H        2.93786996      -2.68821505      -1.29662608      -0.00008172       0.00017397       0.00066113
H        1.98003293      -1.13258249      -3.27640187       0.00015912      -0.00044065       0.00002592
H        2.82088718       1.80159453      -3.06750211       0.00032283      -0.00023792      -0.00032702
H        2.31109547       0.94669231      -4.51791433       0.00011826      -0.00057478      -0.00022967
H        1.14671389       1.25086351      -3.22565785       0.00029490      -0.00024774      -0.00012964
H        4.39342360      -1.45430197      -2.36782537      -0.00000617      -0.00032802       0.00034306
H        4.25296258      -0.86740325      -4.02315875       0.00022758      -0.00040384       0.00012528
H        4.65283296       0.25227217      -2.73189713       0.00024872      -0.00025368       0.00028627
H        4.12654857       0.71195338      -0.60284185      -0.00028668       0.00034160      -0.00007461
H        2.54656154      -0.26321557       1.81985407       0.00008859       0.00040984       0.00001091
H        3.95670716       0.78474469       1.96150637      -0.00011128       0.00058210      -0.00002654
H        4.14634117      -0.82307865       1.27972601       0.00005870       0.00041421      -0.00001891
H        2.27077862       2.41391544      -0.87184832      -0.00026769       0.00013493      -0.00020352
H        3.20644468       2.69444782       0.59944565      -0.00033827       0.00018391      -0.00034544
H        1.62710078       1.90259239       0.69738917      -0.00019876       0.00029608      -0.00018976
H        1.68034708      -4.86126556      -0.62818740      -0.00004676       0.00002245       0.00006975
H       -0.57164027      -5.87216577      -0.34589144      -0.00009198      -0.00000014      -0.00017539
H       -2.53089734      -4.36647938      -0.01500687      -0.00004266       0.00010231      -0.00038773
H       -2.80069463      -1.29604712      -1.03908776       0.00005787       0.00021689      -0.00015822
H       -3.26279550      -1.94952566       0.54572851      -0.00009167       0.00000645      -0.00027328
H       -3.26896178       1.06283301       1.10970353       0.00005681      -0.00005440       0.00026527
H       -3.07448859       0.75929327      -0.62563278      -0.00001960       0.00024902       0.00019262
H       -2.04461639       2.86870117      -0.32028921       0.00015613       0.00009102       0.00017927
H       -0.67153388       1.75552862      -0.42659208       0.00033254      -0.00013732       0.00044636
H       -1.20504672       2.39256088       1.15276609      -0.00008627       0.00007422       0.00047889
H       -2.70912129      -0.87798147       2.41115629      -0.00012474      -0.00016174      -0.00012303
H       -1.10987385      -1.59728951       2.11372749      -0.00026655      -0.00028557      -0.00016573
H       -0.08352347       0.67098523       2.46801762      -0.00004342      -0.00019788      -0.00000554
H       -0.88293444      -0.01835068       3.87368882       0.00028912      -0.00064722      -0.00012886
H       -1.67676542       1.27048333       2.98553256       0.00000904      -0.00049270       0.00044689
C       -0.69654708      -0.28459702      -2.04739921       0.00097327      -0.00141146       0.00103186
O       -1.00081424      -0.52537523      -3.12602264      -0.00077531       0.00164058      -0.00069621
H        0.62951839      -0.27690714       0.80234777      -0.00019374      -0.00003216       0.00010272
