55
Properties=species:S:1:pos:R:3 energy:=T -70.195516031067=T gnorm:=T 0.000080558145=T xtb:=T 6.7.1=T (edcfbbe)=T pbc="F F F"
Fe      -0.05395785      -0.21030191      -0.41589819
C        2.26879554      -2.17757992      -0.59844387
P        1.98394204      -0.39432334      -1.02348528
C        2.56655320      -0.33331800      -2.79775227
C        2.18561355       0.99894562      -3.43747184
C        4.05476898      -0.62155599      -2.98095261
C        3.19196558       0.62191610      -0.03820104
C        3.47609087       0.03240753       1.33788602
C        2.53505523       1.99751451       0.10014314
C        0.94396720      -2.86012336      -0.52549434
C        0.80600729      -4.23884071      -0.51794786
C       -0.44825201      -4.80060901      -0.35359393
C       -1.54295481      -3.96504560      -0.17542681
C       -1.35054356      -2.60108491      -0.21015395
C       -2.42447722      -1.57002413      -0.04844791
N       -1.80409023      -0.38397235       0.57861338
C       -2.53770622       0.87230210       0.31883687
C       -1.55638678       2.03947528       0.18793171
C       -1.69886397      -0.68291748       2.03124139
C       -1.04765306       0.39117405       2.87913606
N       -0.12990655      -2.06450206      -0.41290957
H        2.71366500      -2.21454365       0.40169256
H        2.93786996      -2.68821505      -1.29662608
H        1.98003293      -1.13258249      -3.27640187
H        2.82088718       1.80159453      -3.06750211
H        2.31109547       0.94669231      -4.51791433
H        1.14671389       1.25086351      -3.22565785
H        4.39342360      -1.45430197      -2.36782537
H        4.25296258      -0.86740325      -4.02315875
H        4.65283296       0.25227217      -2.73189713
H        4.12654857       0.71195338      -0.60284185
H        2.54656154      -0.26321557       1.81985407
H        3.95670716       0.78474469       1.96150637
H        4.14634117      -0.82307865       1.27972601
H        2.27077862       2.41391544      -0.87184832
H        3.20644468       2.69444782       0.59944565
H        1.62710078       1.90259239       0.69738917
H        1.68034708      -4.86126556      -0.62818740
H       -0.57164027      -5.87216577      -0.34589144
H       -2.53089734      -4.36647938      -0.01500687
H       -2.80069463      -1.29604712      -1.03908776
H       -3.26279550      -1.94952566       0.54572851
H       -3.26896178       1.06283301       1.10970353
H       -3.07448859       0.75929327      -0.62563278
H       -2.04461639       2.86870117      -0.32028921
H       -0.67153388       1.75552862      -0.42659208
H       -1.20504672       2.39256088       1.15276609
H       -2.70912129      -0.87798147       2.41115629
H       -1.10987385      -1.59728951       2.11372749
H       -0.08352347       0.67098523       2.46801762
H       -0.88293444      -0.01835068       3.87368882
H       -1.67676542       1.27048333       2.98553256
C       -0.69654708      -0.28459702      -2.04739921
O       -1.00081424      -0.52537523      -3.12602264
H        0.62951839      -0.27690714       0.80234777
