56
 energy: -71.171645138117 gnorm: 0.000220790762 xtb: 6.7.1 (edcfbbe)
Ru           0.04547358319231        0.18190531561920       -0.52646221721146
C            2.02687466572115       -1.93043049140725       -1.77474140348958
P            2.18423557211872       -0.15461752094818       -1.21265122128406
C            3.64985789605572       -0.28493416949626       -0.05914250974551
C            3.33016065369327       -1.25609392583667        1.07372580157112
C            3.95576251709246        1.10178566402447        0.49840908275928
C            2.85612862106834        0.61754534802779       -2.78120782873012
C            4.25422272284195        0.16881643864285       -3.19527615970389
C            2.74352819021627        2.13907069900495       -2.71239702780056
C            0.95860052107270       -2.59703384654326       -0.96000361046293
C            0.87619239512210       -3.97573616507962       -0.86220287255930
C           -0.16123653621628       -4.55903258568611       -0.14674206215454
C           -1.08351878920333       -3.72234551032695        0.46590694978776
C           -0.93121177038724       -2.35171701479950        0.35272782923451
C           -1.82282916043373       -1.38154134314699        1.07867822871046
N           -2.05235064620441       -0.15266431215010        0.29674810349126
C           -2.49573071951752        0.94240914834203        1.18610533745242
C           -3.80554573926407        0.71743619538339        1.94535005109312
C           -3.06711790706713       -0.45248337527053       -0.73242977686234
C           -3.47504257574697        0.75510447762037       -1.56967593269740
N            0.06554579962309       -1.78968746497392       -0.35403095866778
H            2.96716208538969       -2.48796884059241       -1.73661761897085
H            1.69520974614744       -1.89123863186530       -2.82133677409852
H            4.50512693414891       -0.66862545977786       -0.62956821034067
H            3.17833560208039       -2.27131031351054        0.70880709025936
H            2.42561865037052       -0.93202809569898        1.58725885040787
H            4.14736266076155       -1.27298206330979        1.79398358887466
H            4.37801033049495        1.75083473224052       -0.26482353977667
H            3.03073811565146        1.55166298357717        0.86082436964837
H            4.66475949686029        1.03764412185442        1.32292655780634
H            2.13637177254317        0.27191897865918       -3.53880036970099
H            4.33663132582416       -0.91649298540836       -3.20896310232055
H            5.00822315905487        0.57205427021160       -2.52318929510406
H            4.46942868180536        0.53730845397236       -4.19774172573336
H            3.54903167005840        2.57046459043212       -2.12356205662645
H            2.78484688047946        2.56924332448290       -3.71216448744736
H            1.79325671027704        2.41101883619261       -2.24761222719805
H            1.61725720763985       -4.58890160490643       -1.35310438247812
H           -0.24672390816813       -5.63118755188081       -0.06967451896834
H           -1.90560738684211       -4.12738634709408        1.03622806241086
H           -2.77133944126581       -1.87200443874734        1.34506159720332
H           -1.30393710325532       -1.09374884553200        2.00418827010213
H           -2.57386343830614        1.84640778197774        0.57907113119829
H           -1.68962889505682        1.11465587774979        1.90488059298681
H           -3.75444969005001       -0.15376801551760        2.59433646859189
H           -4.65558690805156        0.60947450718763        1.27625075756434
H           -3.98569602566946        1.58793684034291        2.57157255562315
H           -2.65202667134944       -1.22396159610497       -1.39253269432412
H           -3.96252849355896       -0.88261283849182       -0.25701528508023
H           -3.95263061106161        0.41643740886155       -2.48648975276864
H           -4.17435097561733        1.39556651549894       -1.03810811263067
H           -2.59451875052988        1.34130690736484       -1.83429998060768
C           -0.42806627830176        0.08424682011764       -2.30051683996483
O           -0.63825328492311       -0.03869636973017       -3.43813025857090
H            0.48603593180518        0.35694646129587        0.97866388415005
H           -0.06914563161253        1.75719173435911       -0.54876965372964
