80
Properties=species:S:1:pos:R:3:forces:R:3 charge=0 unpaired=0 uhf=0 endpoint_role="hydrogenated catalyst plus aldehyde; requires optimization" energy=-3282.7944631945315 pbc="F F F"
Mn       0.26217624      -0.30227756      -0.63378040      -0.00107802      -0.00153676      -0.00154760
N        0.57611714      -2.53829780      -0.89870549      -0.00028472      -0.00014324       0.00060774
C        1.76672322      -2.97555952      -0.16586675       0.00030442       0.00040122      -0.00036388
C        2.95709755      -2.14832315      -0.64330234       0.00061205       0.00001214      -0.00041212
P        2.46950553      -0.35907806      -0.53909971       0.00000286       0.00073862       0.00080904
C        3.22812347       0.22725635       1.01565166       0.00006094      -0.00058534      -0.00025089
C        3.60853964      -0.58712989       2.07516428      -0.00055219       0.00016100       0.00054669
C        4.09971106      -0.02340109       3.24077885       0.00013344      -0.00025016      -0.00044331
C        4.20314381       1.35139568       3.36339452       0.00059314      -0.00025457       0.00002997
C        3.80339372       2.17073259       2.31822482      -0.00100236       0.00063427      -0.00070340
C        3.31418596       1.61226178       1.15409322       0.00003838       0.00051618      -0.00002927
C        3.64560382       0.42822335      -1.69424730       0.00001021      -0.00021551      -0.00070825
C        3.16706336       1.42935487      -2.53115814       0.00025787      -0.00032929      -0.00004838
C        4.03480758       2.09902023      -3.37730763       0.00053065       0.00002581       0.00039200
C        5.37874333       1.76280900      -3.39686747       0.00004363       0.00008086       0.00042359
C        5.85847752       0.76497274      -2.56162505       0.00017035       0.00025246       0.00008820
C        4.99922084       0.10370823      -1.70337205      -0.00014821      -0.00012858      -0.00013067
C       -0.60689837      -3.38647446      -0.67681555      -0.00038439      -0.00073788      -0.00048367
C       -1.57790714      -2.72180620       0.29647176       0.00005162       0.00044536      -0.00027562
P       -1.81172337      -1.01196331      -0.37712545       0.00005765       0.00111481       0.00057102
C       -2.87710334      -0.17403473       0.83419305      -0.00003507      -0.00005883       0.00026680
C       -3.27431156      -0.68912891       2.06158842       0.00012974       0.00004008      -0.00007587
C       -4.06305041       0.07596944       2.90520531      -0.00009375       0.00031912       0.00011083
C       -4.45731303       1.34956939       2.53220138      -0.00015604      -0.00034337       0.00014445
C       -4.06062205       1.86919166       1.30866094       0.00014300       0.00006045      -0.00027772
C       -3.27240924       1.11164517       0.46536277      -0.00003692       0.00003784      -0.00000345
C       -3.07300808      -1.35604109      -1.66674950      -0.00002038      -0.00002999      -0.00017975
C       -2.77497431      -1.10913277      -3.00061510      -0.00003311       0.00074381       0.00004129
C       -3.71205661      -1.37671153      -3.98416868      -0.00061932       0.00045280       0.00013270
C       -4.95038857      -1.89139625      -3.63908355       0.00026447       0.00013469      -0.00005580
C       -5.25612967      -2.13026629      -2.30722908      -0.00008083      -0.00056702       0.00047948
C       -4.32465458      -1.86107913      -1.32224666       0.00020455      -0.00060292       0.00024737
H        1.95890285      -4.04575775      -0.34339538      -0.00009182      -0.00024424      -0.00103702
H        1.60269517      -2.82770919       0.90921492      -0.00002322      -0.00079341       0.00005810
H        3.14699298      -2.36194778      -1.70226126       0.00046906      -0.00028065      -0.00032552
H        3.86303482      -2.36581208      -0.07295815       0.00015619      -0.00007916       0.00025533
H        3.51919160      -1.66308746       2.00859634      -0.00019964      -0.00014853       0.00013074
H        4.39644208      -0.66302240       4.06054044      -0.00097346       0.00024928       0.00039257
H        4.58427732       1.78537144       4.27657750      -0.00086323       0.00042643      -0.00003137
H        3.86695741       3.24509744       2.41682978       0.00004423       0.00029394      -0.00059477
H        2.97945348       2.24160652       0.33673757       0.00027178      -0.00006734      -0.00060053
H        2.10740649       1.66165610      -2.50278863       0.00010008      -0.00018987      -0.00021308
H        3.66417042       2.88713564      -4.01789074       0.00024205      -0.00018733      -0.00014575
H        6.05675102       2.28159740      -4.05925835       0.00010919      -0.00003320       0.00018831
H        6.90840054       0.50897686      -2.57455982       0.00001596       0.00014923       0.00033021
H        5.37863735      -0.65826282      -1.03598532      -0.00007010       0.00013026       0.00023788
H       -1.12146302      -3.51843762      -1.63624976      -0.00008070      -0.00023462      -0.00004151
H       -0.30543381      -4.37803983      -0.31320039       0.00013609       0.00014958      -0.00009074
H       -2.52029649      -3.27360254       0.35667118       0.00002214      -0.00011553      -0.00035363
H       -1.13348317      -2.64634388       1.29452042      -0.00009171      -0.00024632       0.00009191
H       -2.97134265      -1.67980630       2.37071126       0.00002195       0.00007547       0.00002923
H       -4.36838082      -0.32555667       3.86149037      -0.00024097      -0.00008888      -0.00012730
H       -5.06950648       1.94088679       3.19785084      -0.00034231      -0.00009399      -0.00018205
H       -4.36143544       2.86589653       1.01933114       0.00012042      -0.00010913       0.00002532
H       -2.93622821       1.50243627      -0.48996928       0.00032312       0.00002270       0.00018644
H       -1.80607861      -0.69522174      -3.25083880      -0.00046469       0.00005216       0.00018803
H       -3.47764667      -1.17397552      -5.01952124      -0.00029401      -0.00003883       0.00027890
H       -5.68370044      -2.10013985      -4.40482311       0.00010252      -0.00031206       0.00023868
H       -6.22647353      -2.52263671      -2.03754558       0.00042674       0.00014280       0.00021089
H       -4.57032445      -2.03024300      -0.28138159       0.00006844       0.00036241       0.00004815
C        0.02881852       1.42705024      -0.39542269       0.00028882      -0.00003184       0.00044234
O       -0.11936177       2.55169115      -0.11272470       0.00002635       0.00041838       0.00038420
C        0.25238376      -0.31792147       1.11368856       0.00078080      -0.00090274       0.00033092
O        0.21465215      -0.17682431       2.26821108      -0.00016308      -0.00021345       0.00068658
O        0.71879953      -3.43093574      -3.63513523      -0.00020553      -0.00012592      -0.00045836
C        0.04156478      -2.96349463      -4.52798297       0.00011269       0.00010396       0.00035132
C        0.30848902      -1.72423776      -5.24285122       0.00051141      -0.00008465       0.00063258
C        1.41508254      -0.93542687      -4.91421847      -0.00028416      -0.00009451       0.00022164
C        1.65408438       0.23975881      -5.59758856       0.00048958       0.00012812      -0.00003143
C        0.79218063       0.64209558      -6.60705643       0.00088120      -0.00019098      -0.00051393
C       -0.30993205      -0.13379750      -6.94034439      -0.00038224       0.00000652      -0.00006573
C       -0.55196638      -1.31262947      -6.26467048      -0.00084950       0.00030081      -0.00033398
H        0.81952738      -2.63434137      -1.89198407      -0.00021964      -0.00002886      -0.00041257
H        0.23014335      -0.18671833      -2.15538872      -0.00001916       0.00053387      -0.00001734
H       -0.87282998      -3.49351478      -4.86145065       0.00008936       0.00050402       0.00050027
H        2.07242043      -1.25176344      -4.11738874       0.00043968       0.00026454       0.00038934
H        2.51028549       0.84393440      -5.33908536      -0.00023267      -0.00000875       0.00012593
H        0.97790645       1.56473859      -7.13733906      -0.00001253       0.00020822      -0.00003598
H       -0.97697650       0.18600582      -7.72750036       0.00014568      -0.00005519      -0.00030069
H       -1.40445429      -1.92669130      -6.52013083       0.00062518       0.00008921       0.00005597
