80
Properties=species:S:1:pos:R:3:forces:R:3 charge=0 unpaired=0 uhf=0 endpoint_role="alcohol encounter complex; requires optimization" energy=-3282.490691595651 pbc="F F F"
Mn       0.04675635      -0.20309180      -0.42737100      -0.00155845       0.00103877       0.00054283
N        0.36471826      -2.13539267       0.00920377      -0.00075339      -0.00097872      -0.00210456
C        1.68856113      -2.74097038      -0.03447935       0.00088139      -0.00034957       0.00057992
C        2.59994589      -2.00549654      -1.01367175       0.00027925      -0.00020744      -0.00017867
P        2.28335536      -0.21329043      -0.73119492      -0.00016035      -0.00021539      -0.00020599
C        3.44042025       0.11045418       0.64703331       0.00063947      -0.00034154       0.00018839
C        3.04274669      -0.24460478       1.93374440       0.00022233       0.00000297       0.00008263
C        3.90781736      -0.09016185       3.00128121       0.00032608       0.00047605      -0.00008235
C        5.17686773       0.42675812       2.79539546      -0.00033652       0.00071992       0.00033464
C        5.57620889       0.78682860       1.51886778       0.00026609       0.00047341      -0.00015287
C        4.71650969       0.62848190       0.44569615      -0.00017517      -0.00042623       0.00007795
C        3.12286205       0.63271322      -2.10643950       0.00004705      -0.00004237       0.00035745
C        2.89097323       2.00322494      -2.21030926      -0.00034929      -0.00020635       0.00006094
C        3.51090633       2.74336097      -3.19844200      -0.00039864       0.00003467      -0.00019967
C        4.36842174       2.11931292      -4.09153924      -0.00045431       0.00016639      -0.00026262
C        4.60277125       0.75816884      -3.99161263      -0.00009559      -0.00018543       0.00006558
C        3.98425956       0.01159425      -3.00364209       0.00060181      -0.00003150       0.00010210
C       -0.47359665      -2.91209719       0.91124104      -0.00035288      -0.00100637       0.00034839
C       -1.78757281      -2.19146452       1.22995840       0.00013121      -0.00030424      -0.00009564
P       -2.06021552      -0.89981008      -0.05211569      -0.00027756      -0.00017133       0.00030596
C       -3.34256436       0.11201428       0.76325260       0.00050738       0.00088056       0.00028930
C       -4.55347930      -0.47416515       1.12660234      -0.00041689       0.00031985      -0.00019613
C       -5.52359052       0.27665699       1.76288106      -0.00024285      -0.00000118       0.00047450
C       -5.29682462       1.61724498       2.03616830       0.00010821      -0.00050260       0.00056564
C       -4.09843666       2.20602892       1.66936236      -0.00050536      -0.00073704      -0.00011060
C       -3.12240425       1.45676070       1.03372195       0.00061069       0.00002055      -0.00043863
C       -3.10528059      -1.67908806      -1.32696278       0.00004304       0.00014761      -0.00033713
C       -3.19510195      -3.05074135      -1.52765660       0.00009412      -0.00002398      -0.00040334
C       -3.99825682      -3.54751199      -2.54015091       0.00037030       0.00007592      -0.00005995
C       -4.70315961      -2.68405635      -3.36147823      -0.00013535       0.00042674      -0.00017796
C       -4.60353073      -1.31304245      -3.17598189      -0.00012218       0.00006108      -0.00006037
C       -3.80400951      -0.81221203      -2.16721998       0.00017037       0.00004433       0.00004262
H        1.60997169      -3.80324167      -0.33243673      -0.00006334       0.00019242      -0.00024514
H        2.15717968      -2.73401774       0.96948121      -0.00016149      -0.00018393      -0.00029472
H        2.32232454      -2.23957409      -2.04648459      -0.00013690       0.00007514      -0.00017540
H        3.65194726      -2.25626952      -0.84995365       0.00000698      -0.00032543      -0.00021771
H        2.04496830      -0.63206968       2.09376231       0.00041449      -0.00006519       0.00001901
H        3.58970425      -0.36806832       3.99569373       0.00023786       0.00025451       0.00015381
H        5.85191212       0.55262442       3.62922716      -0.00022180       0.00064807      -0.00001100
H        6.56367844       1.19387931       1.35531650      -0.00039744       0.00001240       0.00004529
H        5.03889167       0.91343742      -0.54568722       0.00019548      -0.00022416      -0.00017469
H        2.22121794       2.47508541      -1.50049125      -0.00008923       0.00003517       0.00002703
H        3.32690493       3.80530479      -3.27334110      -0.00017701      -0.00011587       0.00008395
H        4.85470340       2.69484807      -4.86557888      -0.00009694       0.00001339      -0.00005740
H        5.27318580       0.27247676      -4.68574256       0.00016342      -0.00003321      -0.00003893
H        4.17979830      -1.04846496      -2.93678831       0.00000780       0.00001989       0.00008430
H       -0.68513680      -3.90117573       0.46384968      -0.00014290       0.00023574      -0.00034362
H        0.06579072      -3.11348984       1.85658717      -0.00035859      -0.00021293      -0.00043032
H       -2.63621106      -2.87456668       1.31618899       0.00004860       0.00009342       0.00009582
H       -1.69134381      -1.63054533       2.16779494       0.00020486       0.00007244      -0.00016594
H       -4.73549201      -1.51682900       0.90132650      -0.00029500      -0.00040582       0.00000316
H       -6.46021647      -0.18232008       2.04495648       0.00061267       0.00050652      -0.00016322
H       -6.05705655       2.20239211       2.53261353      -0.00000454      -0.00010870      -0.00011459
H       -3.92116240       3.25120033       1.87684121       0.00030382       0.00036885       0.00027188
H       -2.18423449       1.91191515       0.74252195      -0.00077730      -0.00064095       0.00035823
H       -2.63749486      -3.73468133      -0.90497197      -0.00009512       0.00013528      -0.00010410
H       -4.06862267      -4.61519183      -2.69152906       0.00003961       0.00021025      -0.00028595
H       -5.32628942      -3.07757126      -4.15132759       0.00028629       0.00018247      -0.00029557
H       -5.14560343      -0.63702107      -3.82165180       0.00029756       0.00010277      -0.00021198
H       -3.71005954       0.25751991      -2.01562777       0.00005211       0.00008943      -0.00012858
C       -0.31535719       1.39559418      -1.08053397      -0.00009369       0.00090540       0.00121158
O       -0.56228480       2.47054104      -1.45405895       0.00042255      -0.00129797      -0.00024506
C        0.07160396       0.54674834       1.16561302       0.00162705       0.00004724       0.00104922
O        0.03302470       1.09915576       2.18843718      -0.00052421       0.00011352      -0.00083474
O       -0.33982558      -2.61889015      -2.47342422      -0.00142931       0.00112803      -0.00608650
C       -0.28464775      -1.28136837      -2.83045653       0.00000732      -0.00304399      -0.00053948
C        0.66431683      -0.96790933      -3.95931770       0.00024804      -0.00015423      -0.00000600
C        0.77576344       0.34499519      -4.40713439       0.00033234       0.00002628       0.00026690
C        1.61537078       0.65471931      -5.45894291      -0.00013581       0.00007211       0.00029732
C        2.35968477      -0.34152739      -6.07177584      -0.00003310      -0.00030061       0.00010871
C        2.25720997      -1.64770536      -5.62796953      -0.00004278       0.00027843      -0.00031209
C        1.41100964      -1.96081166      -4.57772847      -0.00072380       0.00005598       0.00007936
H       -0.12038454      -2.62713192      -1.47505410       0.00227445       0.00144826       0.00786680
H        0.04025668      -0.64574218      -1.94743939      -0.00002734       0.00075440      -0.00004602
H       -1.28836645      -0.92494861      -3.13236088      -0.00003512      -0.00009077      -0.00011127
H        0.19772107       1.12360317      -3.92605060       0.00020908      -0.00011966       0.00047057
H        1.69141582       1.67644580      -5.80148589      -0.00002242      -0.00006868       0.00028339
H        3.01458004      -0.09768085      -6.89545594      -0.00038773       0.00009601      -0.00013420
H        2.83226421      -2.42975777      -6.10336736      -0.00044838       0.00007844      -0.00016744
H        1.30675910      -2.98293106      -4.24033911      -0.00003509      -0.00001774      -0.00018703
