80
Properties=species:S:1:pos:R:3 charge=0 unpaired=0 uhf=0 endpoint_role="alcohol encounter complex; requires optimization" pbc="F F F"
Mn       0.04675635      -0.20309180      -0.42737100
N        0.36471826      -2.13539267       0.00920377
C        1.68856113      -2.74097038      -0.03447935
C        2.59994589      -2.00549654      -1.01367175
P        2.28335536      -0.21329043      -0.73119492
C        3.44042025       0.11045418       0.64703331
C        3.04274669      -0.24460478       1.93374440
C        3.90781736      -0.09016185       3.00128121
C        5.17686773       0.42675812       2.79539546
C        5.57620889       0.78682860       1.51886778
C        4.71650969       0.62848190       0.44569615
C        3.12286205       0.63271322      -2.10643950
C        2.89097323       2.00322494      -2.21030926
C        3.51090633       2.74336097      -3.19844200
C        4.36842174       2.11931292      -4.09153924
C        4.60277125       0.75816884      -3.99161263
C        3.98425956       0.01159425      -3.00364209
C       -0.47359665      -2.91209719       0.91124104
C       -1.78757281      -2.19146452       1.22995840
P       -2.06021552      -0.89981008      -0.05211569
C       -3.34256436       0.11201428       0.76325260
C       -4.55347930      -0.47416515       1.12660234
C       -5.52359052       0.27665699       1.76288106
C       -5.29682462       1.61724498       2.03616830
C       -4.09843666       2.20602892       1.66936236
C       -3.12240425       1.45676070       1.03372195
C       -3.10528059      -1.67908806      -1.32696278
C       -3.19510195      -3.05074135      -1.52765660
C       -3.99825682      -3.54751199      -2.54015091
C       -4.70315961      -2.68405635      -3.36147823
C       -4.60353073      -1.31304245      -3.17598189
C       -3.80400951      -0.81221203      -2.16721998
H        1.60997169      -3.80324167      -0.33243673
H        2.15717968      -2.73401774       0.96948121
H        2.32232454      -2.23957409      -2.04648459
H        3.65194726      -2.25626952      -0.84995365
H        2.04496830      -0.63206968       2.09376231
H        3.58970425      -0.36806832       3.99569373
H        5.85191212       0.55262442       3.62922716
H        6.56367844       1.19387931       1.35531650
H        5.03889167       0.91343742      -0.54568722
H        2.22121794       2.47508541      -1.50049125
H        3.32690493       3.80530479      -3.27334110
H        4.85470340       2.69484807      -4.86557888
H        5.27318580       0.27247676      -4.68574256
H        4.17979830      -1.04846496      -2.93678831
H       -0.68513680      -3.90117573       0.46384968
H        0.06579072      -3.11348984       1.85658717
H       -2.63621106      -2.87456668       1.31618899
H       -1.69134381      -1.63054533       2.16779494
H       -4.73549201      -1.51682900       0.90132650
H       -6.46021647      -0.18232008       2.04495648
H       -6.05705655       2.20239211       2.53261353
H       -3.92116240       3.25120033       1.87684121
H       -2.18423449       1.91191515       0.74252195
H       -2.63749486      -3.73468133      -0.90497197
H       -4.06862267      -4.61519183      -2.69152906
H       -5.32628942      -3.07757126      -4.15132759
H       -5.14560343      -0.63702107      -3.82165180
H       -3.71005954       0.25751991      -2.01562777
C       -0.31535719       1.39559418      -1.08053397
O       -0.56228480       2.47054104      -1.45405895
C        0.07160396       0.54674834       1.16561302
O        0.03302470       1.09915576       2.18843718
O       -0.33982558      -2.61889015      -2.47342422
C       -0.28464775      -1.28136837      -2.83045653
C        0.66431683      -0.96790933      -3.95931770
C        0.77576344       0.34499519      -4.40713439
C        1.61537078       0.65471931      -5.45894291
C        2.35968477      -0.34152739      -6.07177584
C        2.25720997      -1.64770536      -5.62796953
C        1.41100964      -1.96081166      -4.57772847
H       -0.12038454      -2.62713192      -1.47505410
H        0.04025668      -0.64574218      -1.94743939
H       -1.28836645      -0.92494861      -3.13236088
H        0.19772107       1.12360317      -3.92605060
H        1.69141582       1.67644580      -5.80148589
H        3.01458004      -0.09768085      -6.89545594
H        2.83226421      -2.42975777      -6.10336736
H        1.30675910      -2.98293106      -4.24033911
