49
Properties=species:S:1:pos:R:3:forces:R:3 energy:=T -75.590897944674=T gnorm:=T 0.000234427863=T xtb:=T 6.7.1=T (edcfbbe)=T energy=-2056.9331038830314 pbc="F F F"
Mn       0.02229680      -0.24327971      -0.21379251      -0.00406627       0.00248952      -0.00000539
C        2.35403911      -2.33435601       0.12129994      -0.00051292      -0.00060051      -0.00002431
P        2.24466304      -0.54858975      -0.41341748      -0.00027318      -0.00005411      -0.00000121
C        3.11501433      -0.61926996      -2.05101250       0.00043704       0.00079389      -0.00106737
C        2.40137133      -1.61821231      -2.96077315       0.00053419      -0.00029213       0.00056598
C        3.15915181       0.77223472      -2.67698494       0.00014250      -0.00040147      -0.00023425
C        3.35712013       0.33371222       0.78454576      -0.00071111      -0.00093072      -0.00060830
C        4.84843761       0.08322080       0.59528898       0.00032787       0.00019640       0.00006895
C        2.99033071       1.81874861       0.75983921       0.00003407       0.00111166       0.00025327
C        1.05541522      -3.02005206      -0.19817039       0.00038775       0.00158151      -0.00019131
C        0.93857533      -4.39461272      -0.33485635      -0.00016571      -0.00025606      -0.00005799
C       -0.31649609      -4.96215799      -0.52220762       0.00079019       0.00048590       0.00014219
C       -1.43427933      -4.14698908      -0.52543821       0.00002124      -0.00014668      -0.00025438
C       -1.26605522      -2.77274537      -0.39512228      -0.00064507       0.00067306       0.00002985
C       -2.32629998      -1.77595374      -0.31548984      -0.00065341       0.00038287      -0.00012920
C       -3.70971873      -1.93451031      -0.35089238      -0.00135917       0.00194111       0.00076729
C       -4.51084480      -0.81143958      -0.21514319       0.00031492      -0.00192395      -0.00011401
C       -3.94978108       0.45509388      -0.05220321       0.00093745       0.00067747       0.00018714
C       -2.57086783       0.53292863      -0.03466730      -0.00211676      -0.00148525      -0.00023203
O       -1.77363557       1.62382348       0.08286491      -0.00010287       0.00117849      -0.00026953
N       -1.80704100      -0.54508430      -0.15686195       0.00568044       0.00063166      -0.00050809
N       -0.02445708      -2.22275953      -0.28204085       0.00026862      -0.00456012      -0.00010162
H        2.46966503      -2.32645509       1.21382564       0.00007270       0.00001813      -0.00008603
H        3.21376249      -2.85191721      -0.31221382       0.00013659       0.00015129      -0.00016378
H        4.13552977      -0.97377687      -1.85623412       0.00000694       0.00010392      -0.00000889
H        2.81927835      -1.56469538      -3.96435017      -0.00029690       0.00030733      -0.00045099
H        2.51228231      -2.64009788      -2.60555281       0.00040126      -0.00033245      -0.00007324
H        1.33666152      -1.39201386      -3.02552168      -0.00091186      -0.00026600       0.00045562
H        3.80934402       1.43894687      -2.11619694      -0.00012424       0.00018170      -0.00039667
H        3.53699710       0.71542448      -3.69629208      -0.00013349       0.00004383       0.00055293
H        2.16144059       1.20991419      -2.70626549       0.00090251      -0.00040258      -0.00032664
H        3.04731429      -0.07681536       1.75830796      -0.00024243      -0.00001802       0.00001378
H        5.06666560      -0.98282492       0.57609556      -0.00015119       0.00038425       0.00009927
H        5.39715371       0.52574651       1.42482448      -0.00031833      -0.00047818       0.00012859
H        5.21384360       0.53550014      -0.32319493      -0.00018292      -0.00015372       0.00102573
H        1.89877543       1.93135671       0.67667009       0.00045334       0.00009273      -0.00021814
H        3.44901712       2.32704678      -0.08449670       0.00008599      -0.00009418       0.00068223
H        3.32143206       2.31231948       1.67112527      -0.00060819      -0.00033957      -0.00002376
H        1.81861505      -5.01660059      -0.28272154      -0.00016965      -0.00022789       0.00000392
H       -0.41875063      -6.02963456      -0.63894388      -0.00026389      -0.00000588      -0.00000117
H       -2.42374313      -4.56264094      -0.62611706       0.00015187      -0.00026010      -0.00027921
H       -4.15047212      -2.90879172      -0.48061559       0.00100073      -0.00081669       0.00053132
H       -5.58455264      -0.91208881      -0.23799277       0.00007943       0.00046269       0.00091138
H       -4.56688053       1.33384471       0.05056790       0.00050283       0.00023346       0.00021254
H       -2.26550440       2.45073611       0.17711390       0.00035960      -0.00050760       0.00001500
C       -0.24476216       0.18559405      -1.93968666      -0.00168669       0.00228595      -0.00195403
O       -0.63473973       0.62203940      -2.92101498       0.00139411      -0.00189202       0.00190360
C        0.17913158      -0.14229093       1.56953604       0.00066339      -0.00150547      -0.00070039
O        0.18418919       0.04627541       2.69662398      -0.00039132       0.00154251      -0.00006866
