43
Properties=species:S:1:pos:R:3 energy:=T -59.203319823604=T gnorm:=T 0.000024898825=T xtb:=T 6.7.1=T (edcfbbe)=T pbc="F F F"
O        0.09660442      -3.14658335      -2.58552989
C        0.38258214       0.37249011      -0.13107706
N       -0.17852849      -0.46992549       0.63185038
C       -1.54525676      -0.57725425       0.77432282
C       -2.41302856      -0.59119238      -0.32120168
C       -3.76781739      -0.78691058      -0.13238529
C       -4.27978489      -0.95555006       1.14368454
C       -3.42391974      -0.94465510       2.23524455
C       -2.06649742      -0.77181703       2.05620388
C        1.82333295       0.40021479      -0.31048802
C        2.64371554      -0.53523450       0.32502270
C        4.01169420      -0.49901783       0.14316799
C        4.58112075       0.46767213      -0.67340421
C        3.77596509       1.40021057      -1.30863529
C        2.40574582       1.36864672      -1.12963254
H        0.32409053      -4.06400709      -2.41294622
H       -0.18276306       1.14200717      -0.67775293
H        0.24001284      -2.97599785       0.86613868
H       -2.00840345      -0.47872252      -1.31791505
H       -4.42931153      -0.80460151      -0.98727013
H       -5.34027717      -1.10229360       1.28711271
H       -3.81948699      -1.08032783       3.23178777
H       -1.39096122      -0.76107687       2.89852340
H        2.18212858      -1.27907695       0.95595519
H        4.64113412      -1.22495112       0.63731548
H        5.65186997       0.49425224      -0.81463956
H        4.21919437       2.15309494      -1.94442815
H        1.77787173       2.09665686      -1.62505092
C        0.51544215      -5.35076535      -1.27859754
C       -0.15314427      -4.62403226      -0.11049618
C       -1.58554671      -4.21925432      -0.48282247
C       -0.16776962      -5.51793483       1.13660655
O        0.63411133      -3.46186668       0.13251598
H       -0.03120186      -6.25621545      -1.52552851
H        1.53719065      -5.60919350      -1.01278345
H        0.54286958      -4.69928541      -2.14819691
H       -2.06520476      -3.70292281       0.34783935
H       -1.57029524      -3.55218810      -1.34203442
H       -2.17428467      -5.09823698      -0.73060675
H       -0.64620663      -5.00432150       1.96964816
H        0.85097784      -5.76867454       1.42424755
H       -0.71282523      -6.43644958       0.93700269
H        0.16628655      -2.68435062      -1.74607347
