47
Properties=species:S:1:pos:R:3 energy:=T -70.121402680802=T gnorm:=T 0.000222009767=T xtb:=T 6.7.1=T (edcfbbe)=T pbc="F F F"
Ru       0.01756182      -0.32472871      -0.01000813
C        2.32363703      -2.43460177      -0.40653684
P        2.22711431      -0.56525519      -0.55147030
C        3.52918030      -0.00725147       0.65568636
C        4.97800472      -0.25939678       0.25458016
C        3.24921349       1.45724094       0.99483744
C        2.94423202      -0.33003889      -2.25790349
C        2.10145628      -1.08726071      -3.28140708
C        2.97406292       1.15959198      -2.58728404
C        0.96233834      -3.06814895      -0.54966852
C        0.79067848      -4.42058616      -0.80441025
C       -0.48703074      -4.97017104      -0.76573127
C       -1.55999369      -4.16834307      -0.41763235
C       -1.34974108      -2.81275302      -0.18406075
C       -2.35484708      -1.83643750       0.25025918
C       -3.72327916      -1.94956459       0.49445038
C       -4.39501844      -0.79944978       0.91126546
C       -3.76637024       0.42465032       1.06974439
C       -2.38191240       0.49768566       0.79932928
O       -1.55614839       1.47356327       0.80233587
N       -1.78700801      -0.64982048       0.43769556
N       -0.09829017      -2.28119183      -0.31758535
H        2.65289849      -2.62950744       0.62296783
H        3.05274752      -2.88047570      -1.08813587
H        3.29051657      -0.60024680       1.55076516
H        5.13188926      -1.30153222      -0.01975152
H        5.27084262       0.37241301      -0.58065096
H        5.63151702      -0.02778134       1.09412385
H        3.73728730       1.73731036       1.92645006
H        2.16572584       1.60152093       1.11139551
H        3.60137157       2.12486705       0.21157478
H        3.96173412      -0.73855513      -2.25887331
H        2.09712677      -2.15923380      -3.09442868
H        1.07102089      -0.73477198      -3.26108299
H        2.49497795      -0.91862954      -4.28264126
H        3.21340944       1.31533297      -3.63817534
H        3.71532106       1.68441496      -1.98947991
H        1.99663160       1.60421083      -2.38761868
H        1.64837064      -5.04125547      -1.01236828
H       -0.63347279      -6.01867724      -0.97210946
H       -2.55371095      -4.57559618      -0.32164008
H       -4.24912755      -2.88122839       0.36715284
H       -5.45540665      -0.86560031       1.11056396
H       -4.31299295       1.30250283       1.37558931
C       -0.57990270       0.31064863      -1.64752367
O       -1.09330669       0.80878447      -2.54809448
H        0.41775626      -0.61481733       1.47265733
