79

Ru      0.382753443531255      0.287361434948963     -0.277409725305749
N      -0.037696126932472     -1.882245626143636      0.842318741895409
C       1.158079205164641     -2.737027710215771      0.813854945899934
C       2.467966169788888     -1.938005535540157      0.778321266717246
P       2.392724037898744     -0.710415756357112     -0.616937638553664
C       2.880040864965336     -1.787235381923164     -2.012520536681406
C       4.218933773300957     -2.061772147628889     -2.278142364349665
C       4.557500593162323     -2.918050551396526     -3.309906283881921
C       3.565265534525501     -3.507752108784224     -4.078070321574647
C       2.231671891677152     -3.239956971027075     -3.814100252167016
C       1.886796037045147     -2.379102015427692     -2.785779168531952
C       3.835828156818157      0.374019852882112     -0.447276896174251
C       4.969042281568964      0.133719376336091      0.318990731946495
C       5.989644355894564      1.070259128717412      0.339833731589664
C       5.891783201309799      2.230957626287919     -0.410201063574950
C       4.757412852264449      2.477098597783727     -1.169563562129883
C       3.727426995522578      1.558100312030725     -1.176118787800467
C      -0.439003466978927     -1.443298296246038      2.185146380874549
C      -1.706484934980817     -0.586932583496367      2.123786046726787
P      -1.541322868663136      0.764879887100149      0.843848187727844
C      -1.491411777203729      2.377472080951866      1.692787807583942
C      -0.602502701610662      3.299243944302151      1.145472267202441
C      -0.529657934057324      4.582342951323111      1.653498721489300
C      -1.348797334445326      4.948988618786953      2.709732399810732
C      -2.241873546991029      4.037041892394749      3.249929343547682
C      -2.324261021258761      2.753518236808220      2.739044855760721
C      -3.250220982327983      0.884243837035672      0.205592013087388
C      -3.400509574305330      1.430212818640700     -1.064192220326974
C      -4.659184542816519      1.621833129910925     -1.600397931890022
C      -5.780851276693710      1.271563920044237     -0.867216670629300
C      -5.638106978046704      0.737305259872491      0.402373016822505
C      -4.379646663194584      0.546933170335258      0.943660703366509
H       1.102192123723593     -3.352284735101262     -0.094077443105551
H       1.164789299577012     -3.405386638186185      1.686682849634179
H       3.307192157095090     -2.625390264744229      0.641614239244097
H       2.610791150985334     -1.370046582316877      1.703051834834016
H       4.995618456971273     -1.601111978884306     -1.683739926177059
H       5.598025451168722     -3.124721517596627     -3.515888460547102
H       3.834585310583881     -4.173709570462348     -4.885501670422081
H       1.454315078323328     -3.698039243141073     -4.408620880965878
H       0.842365923447563     -2.160169558100684     -2.585539629468899
H       5.052799721263574     -0.772502753481254      0.902318836092959
H       6.867028594767492      0.891702038429931      0.944091699388884
H       6.697135041089051      2.950602098402386     -0.396424350140052
H       4.677951020597640      3.386477903987758     -1.747796056862872
H       2.809372349252413      1.742312766373223     -1.736198722485673
H       0.376355467863084     -0.858825631362636      2.615374658567311
H      -0.625994078497122     -2.315772853544146      2.832384805233864
H      -2.548957751578920     -1.214937457239544      1.817508057169057
H      -1.912442117117876     -0.158288002661903      3.110047078013355
H       0.047689942126065      2.976465929862196      0.321580116387849
H       0.164140827606356      5.294154515076780      1.230395225973555
H      -1.292777985651254      5.950326034987928      3.111341313533552
H      -2.881959193742798      4.330248471986491      4.069195930515046
H      -3.035505364683329      2.050126196958057      3.150026914958294
H      -2.514427681100548      1.698055704129152     -1.627924676205475
H      -4.765015726721015      2.043457693681832     -2.589660776333594
H      -6.766491096336050      1.415723772296585     -1.284512084040124
H      -6.511453096436800      0.465801595910088      0.976450040431326
H      -4.292694188324342      0.133104239436477      1.937197788975243
C      -0.065125488844770      0.623745469877807     -2.037806562332012
O      -0.147151799499521      1.181674431014262     -3.056425854482412
H       1.118101875354236      0.842973483715564      1.044000280059034
O      -2.239547037480755     -3.033525130478520     -2.930683167753839
C      -2.875274010546898     -1.987828028253414     -2.408542061903586
C      -3.879305288459103     -2.331174970250168     -1.311968145604336
C      -3.434481789327815     -2.982523114070989     -0.168831354464900
C      -4.300969184729724     -3.292524932624273      0.862434891325765
C      -5.645796574057848     -2.987730842848693      0.742874063477070
C      -6.111143329366582     -2.394920189441535     -0.416204435884081
C      -5.235314308561531     -2.064918959387510     -1.437108321823457
H      -0.820295521225393     -2.376003805046810      0.416514822502865
H      -3.380603693681019     -1.360597055074633     -3.183241911836114
H      -2.112788558488221     -1.290884291555415     -1.927139447160523
H      -2.392097305500182     -3.268540525855749     -0.121204814519534
H      -3.929524765748787     -3.782521326997541      1.751675855468818
H      -6.327732911616450     -3.226255631159742      1.546614391405084
H      -7.167448398451963     -2.193208418661098     -0.530240497053098
H      -5.610675957177549     -1.599831561595083     -2.339856866002535
