52
 energy: -87.253969501265 gnorm: 0.000502216042 xtb: 6.7.1 (edcfbbe)
Mn           0.14792736146703       -0.10253309538612        0.02911945508383
C            2.31266530819165       -2.31361484817202       -0.24282517748076
P            2.30453971586764       -0.53918905769594        0.27434958918953
C            3.03522182785334       -0.59349591388031        1.94118176076935
C            3.72037621185441        0.53223816123151        2.39397384576344
C            4.21621452883628        0.57158772219938        3.68338376024087
C            4.02077368249413       -0.50465787091539        4.53533116406778
C            3.31888030203413       -1.61592719823858        4.09799588917655
C            2.81985591164987       -1.66045152576291        2.80816520725162
C            3.70419050195299        0.11413559420321       -0.68990317886896
C            3.49564567932089        1.18205799558328       -1.55387121669088
C            4.54533141492225        1.67241647617391       -2.31229176354181
C            5.80229116132459        1.10007635866497       -2.20596377128521
C            6.01502984302748        0.04045033934928       -1.33613198880470
C            4.97150788634241       -0.45293068544245       -0.57598921106750
C            0.98121403557299       -2.87290301974810        0.15458371023200
C            0.83632587872404       -4.21482485023234        0.45367624133407
C           -0.41984941708990       -4.70911699744174        0.79136206718474
C           -1.48797917204693       -3.83852906622654        0.77405096730659
C           -1.28066407813441       -2.49410924523277        0.45647378686277
C           -2.35625514698703       -1.52392294762339        0.32774147234435
C           -3.70291305863511       -1.83328340916036        0.50580185449942
C           -4.66025368287861       -0.86262964598944        0.27444143248232
C           -4.25204025930173        0.38864686671862       -0.14134119063725
C           -2.88544786753753        0.64425955824051       -0.28636403626386
O           -2.53001147323281        1.85936277156591       -0.69288457329491
N           -1.94847191377390       -0.28136741444777       -0.04078398461725
N           -0.04523138825186       -2.00517760661796        0.19291131887540
H            2.38879103556930       -2.29809442788062       -1.33938932130487
H            3.15184058632536       -2.88657145228164        0.16046263338162
H            3.85358064533589        1.37196749630956        1.72357632339412
H            4.75072774504630        1.44478068803095        4.02875819152041
H            4.40582274272925       -0.47341438695347        5.54423773496312
H            3.15335587398824       -2.44939235287480        4.76635018213553
H            2.25754510362969       -2.52678548331772        2.48271026351060
H            2.50582692100207        1.61924083839402       -1.61241256853695
H            4.38268265799142        2.50230247782510       -2.98451765757309
H            6.62166229584016        1.48210415607012       -2.79752112822995
H            6.99858439251194       -0.39904632344179       -1.25046127558663
H            5.13693807102408       -1.27054826781203        0.11350440918575
H            1.69701384914068       -4.86590894204903        0.42163256205565
H           -0.55373043936724       -5.74906250559226        1.04521484042774
H           -2.47773682617103       -4.19410684213291        1.00793461153967
H           -4.00048694731991       -2.81962716877719        0.81925212799724
H           -5.70823067761852       -1.08149571908033        0.40816187697438
H           -4.94518148996646        1.18454869727442       -0.35536317383096
H           -1.55097851094458        1.92828058389771       -0.71324830431592
C            0.34424853236615       -0.15026919231146       -1.74087205323420
O            0.51915168508836       -0.22052395235720       -2.88367088803167
C            0.03517199752568        0.12391617187952        1.79592515033393
O           -0.01396177747550        0.22687071075310        2.94405303304586
H            0.25066514451560        1.46061952578702       -0.03464332837190
