54
Properties=species:S:1:pos:R:3 energy:=T -70.214957310490=T gnorm:=T 0.000161484067=T xtb:=T 6.7.1=T (edcfbbe)=T pbc="F F F"
Co       0.16151618      -0.34515602      -0.13068364
C        2.43338062      -2.44606798      -0.39508089
P        2.31018859      -0.64590528      -0.00000693
C        3.57948361       0.17486994      -1.07124922
C        4.96410489      -0.45613507      -0.95110566
C        3.07202689       0.17870223      -2.51312167
C        2.90560053      -0.54533362       1.75161684
C        1.80347933      -1.14190891       2.62711500
C        3.17311947       0.90732865       2.13672080
C        1.09196017      -3.05151360      -0.13126657
C        0.92471457      -4.42714022      -0.06036112
C       -0.33949381      -4.94932506       0.15865530
C       -1.40127540      -4.07407011       0.31086371
C       -1.16303333      -2.70918502       0.24097815
C       -2.25088957      -1.70970466       0.47658222
N       -1.90567784      -0.38542667      -0.06886899
C       -2.50614923       0.67571592       0.77287715
C       -4.02832851       0.63425850       0.90373988
C       -2.35900478      -0.25681958      -1.46926916
C       -1.46181287      -1.00904841      -2.44482998
N        0.05854545      -2.21023750       0.02039851
H        2.66549182      -2.55003060      -1.46061092
H        3.22071410      -2.94901789       0.17430024
H        3.62055694       1.21486631      -0.72336477
H        5.67197342       0.10465570      -1.55920805
H        5.32150519      -0.44096590       0.07620318
H        4.96198064      -1.48434996      -1.30666578
H        2.05981007       0.58310256      -2.55868521
H        3.06754820      -0.82399251      -2.93673684
H        3.71504467       0.79882660      -3.13439721
H        3.82460857      -1.13574163       1.85588890
H        1.68926144      -2.21066954       2.45120072
H        2.03391344      -0.99638324       3.68092356
H        0.85276645      -0.64150017       2.40799604
H        3.40778873       0.97344424       3.19771510
H        4.01314883       1.32134865       1.58351048
H        2.29180151       1.51872103       1.94506484
H        1.77766087      -5.07649021      -0.18081628
H       -0.49250567      -6.01596871       0.21087309
H       -2.40106500      -4.43792757       0.48752059
H       -3.20025453      -2.07690958       0.06774112
H       -2.36819522      -1.61958035       1.56285843
H       -2.05518845       0.60297526       1.76673174
H       -2.22293001       1.64143794       0.35001874
H       -4.33981559       1.45353475       1.54731561
H       -4.37949098      -0.29102812       1.35305887
H       -4.51664069       0.76658497      -0.05802499
H       -2.33780576       0.80491984      -1.72438290
H       -3.39033321      -0.61508652      -1.57145177
H       -0.40984870      -0.72739213      -2.28177583
H       -1.73012762      -0.73885689      -3.46365787
H       -1.56798776      -2.08716416      -2.34272342
C        0.31295776       1.37862201      -0.25988129
O        0.49951324       2.50458115      -0.35232323
