      -----------------------------------------------------------      
     |                   =====================                   |     
     |                           x T B                           |     
     |                   =====================                   |     
     |                         S. Grimme                         |     
     |          Mulliken Center for Theoretical Chemistry        |     
     |                    University of Bonn                     |     
      -----------------------------------------------------------      

   * xtb version 6.7.1 (edcfbbe) compiled by 'VssAdministrator@runnervm171ch' on 2026-06-10

   xtb is free software: you can redistribute it and/or modify it under
   the terms of the GNU Lesser General Public License as published by
   the Free Software Foundation, either version 3 of the License, or
   (at your option) any later version.
   
   xtb is distributed in the hope that it will be useful,
   but WITHOUT ANY WARRANTY; without even the implied warranty of
   MERCHANTABILITY or FITNESS FOR A PARTICULAR PURPOSE.  See the
   GNU Lesser General Public License for more details.
   
   Cite this work as:
   * C. Bannwarth, E. Caldeweyher, S. Ehlert, A. Hansen, P. Pracht,
     J. Seibert, S. Spicher, S. Grimme, WIREs Comput. Mol. Sci., 2020, 11,
     e01493. DOI: 10.1002/wcms.1493
   
   for GFN2-xTB:
   * C. Bannwarth, S. Ehlert and S. Grimme., J. Chem. Theory Comput., 2019,
     15, 1652-1671. DOI: 10.1021/acs.jctc.8b01176
   for GFN1-xTB:
   * S. Grimme, C. Bannwarth, P. Shushkov, J. Chem. Theory Comput., 2017,
     13, 1989-2009. DOI: 10.1021/acs.jctc.7b00118
   for GFN0-xTB:
   * P. Pracht, E. Caldeweyher, S. Ehlert, S. Grimme, ChemRxiv, 2019, preprint.
     DOI: 10.26434/chemrxiv.8326202.v1
   for GFN-FF:
   * S. Spicher and S. Grimme, Angew. Chem. Int. Ed., 2020, 59, 15665-15673.
     DOI: 10.1002/anie.202004239
   
   for ALPB and GBSA implicit solvation:
   * S. Ehlert, M. Stahn, S. Spicher, S. Grimme, J. Chem. Theory Comput.,
     2021, 17, 4250-4261. DOI: 10.1021/acs.jctc.1c00471
   
   for ddCOSMO and CPCM-X implicit solvation:
   * M. Stahn, S. Ehlert, S. Grimme, J. Phys. Chem. A,
     2023, XX, XXXX-XXXX. DOI: 10.1021/acs.jpca.3c04382
   
   for DFT-D4:
   * E. Caldeweyher, C. Bannwarth and S. Grimme, J. Chem. Phys., 2017,
     147, 034112. DOI: 10.1063/1.4993215
   * E. Caldeweyher, S. Ehlert, A. Hansen, H. Neugebauer, S. Spicher,
     C. Bannwarth and S. Grimme, J. Chem. Phys., 2019, 150, 154122.
     DOI: 10.1063/1.5090222
   * E. Caldeweyher, J.-M. Mewes, S. Ehlert and S. Grimme, Phys. Chem. Chem. Phys.
     2020, 22, 8499-8512. DOI: 10.1039/D0CP00502A
   
   for sTDA-xTB:
   * S. Grimme and C. Bannwarth, J. Chem. Phys., 2016, 145, 054103.
     DOI: 10.1063/1.4959605
   
   in the mass-spec context:
   * V. Asgeirsson, C. Bauer and S. Grimme, Chem. Sci., 2017, 8, 4879.
     DOI: 10.1039/c7sc00601b
   * J. Koopman and S. Grimme, ACS Omega 2019, 4, 12, 15120-15133.
     DOI: 10.1021/acsomega.9b02011
   
   for metadynamics refer to:
   * S. Grimme, J. Chem. Theory Comput., 2019, 155, 2847-2862
     DOI: 10.1021/acs.jctc.9b00143
   
   for SPH calculations refer to:
   * S. Spicher and S. Grimme, J. Chem. Theory Comput., 2021, 17, 1701-1714
     DOI: 10.1021/acs.jctc.0c01306
   
   for ONIOM refer to:
   * C. Plett, A. Katbashev, S. Ehlert, S. Grimme, M. Bursch,
     Phys. Chem. Chem. Phys., 2023, 25, 17860-17868. DOI: 10.1039/D3CP02178E
   
   for DIPRO refer to:
   * J. Kohn, N. Gildemeister, S. Grimme, D. Fazzi, A. Hansen,
     J. Chem. Phys., 2023, just accepted.
   
   for PTB refer to:
   * S. Grimme, M. Mueller, A. Hansen, J. Chem. Phys., 2023, 158, 124111.
     DOI: 10.1063/5.0137838
   
   with help from (in alphabetical order)
   P. Atkinson, C. Bannwarth, F. Bohle, G. Brandenburg, E. Caldeweyher
   M. Checinski, S. Dohm, S. Ehlert, S. Ehrlich, I. Gerasimov, C. Hölzer
   A. Katbashev, J. Kohn, J. Koopman, C. Lavigne, S. Lehtola, F. März, M. Müller,
   F. Musil, H. Neugebauer, J. Pisarek, C. Plett, P. Pracht, F. Pultar,
   J. Seibert, P. Shushkov, S. Spicher, M. Stahn, M. Steiner, T. Strunk,
   J. Stückrath, T. Rose, and J. Unsleber
   
 * started run on 2026/09/13 at 02:03:36.992     
   ID    Z sym.   atoms
    1   44 Ru     1
    2    7 N      2
    3    6 C      3, 4, 6-19, 21-32, 61, 65-71
    4   15 P      5, 20
    5    1 H      33-60, 63, 72-79
    6    8 O      62, 64

           -------------------------------------------------
          |                Calculation Setup                |
           -------------------------------------------------

          program call               : C:\Users\HUIWEI\miniconda3\envs\phase2ff\Library\bin\xtb.exe input.xyz --gfn 2 --chrg 0 --uhf 0 --etemp 300.0 --iterations 500 --acc 0.5 --opt tight --cycles 250 --grad --alpb toluene gsolv
          coordinate file            : input.xyz
          omp threads                :                     2


molecular fragmentation (1/2 indicates fragments):
111111111111111111111111111111111111111111111111111111111111111222222221
2122222
# atoms in fragment 1/2:    65    14
 fragment masses (1/2) :      572.58      106.12
CMA distance (Bohr)    :  11.514
constraining FC (au)   :  0.0500
########################################################################
[WARNING] Please study the warnings concerning your input carefully
-1- prog_main_parseArguments: Unknown reference state 'gsolv'
########################################################################

           -------------------------------------------------
          |                 G F N 2 - x T B                 |
           -------------------------------------------------

        Reference                      10.1021/acs.jctc.8b01176
      * Hamiltonian:
        H0-scaling (s, p, d)           1.850000    2.230000    2.230000
        zeta-weighting                 0.500000
      * Dispersion:
        s8                             2.700000
        a1                             0.520000
        a2                             5.000000
        s9                             5.000000
      * Repulsion:
        kExp                           1.500000    1.000000
        rExp                           1.000000
      * Coulomb:
        alpha                          2.000000
        third order                    shell-resolved
        anisotropic                    true
        a3                             3.000000
        a5                             4.000000
        cn-shift                       1.200000
        cn-exp                         4.000000
        max-rad                        5.000000

      * Solvation model:               ALPB
        Solvent                        toluene
        Parameter file                 internal GFN2-xTB/ALPB
        Dielectric constant                7.0000E+00
        Reference state                gsolv [1 M gas/solution]
        Free energy shift                  2.2081E-03 Eh       1.3856E+00 kcal/mol
        Temperature                        2.9815E+02 K
        Density                            8.6700E-01 kg/L
        Solvent mass                       7.8110E+01 g/mol
        Interaction kernel             P16
        Born radius scaling (c1)           1.7172E+00
        Born radii integrator          GBOBC
        Born offset                        0.0000E+00 a0       0.0000E+00 AA
        H-bond correction              false
        Ion screening                  false
        Surface tension                    1.0000E-05 Eh       1.5569E+01 dyn/cm
        Grid points                               230 per atom

          ...................................................
          :                      SETUP                      :
          :.................................................:
          :  # basis functions                 223          :
          :  # atomic orbitals                 220          :
          :  # shells                          124          :
          :  # electrons                       216          :
          :  max. iterations                   500          :
          :  Hamiltonian                  GFN2-xTB          :
          :  restarted?                      false          :
          :  GBSA solvation                   true          :
          :  PC potential                    false          :
          :  electronic temp.          300.0000000     K    :
          :  accuracy                    0.5000000          :
          :  -> integral cutoff          0.2801030E+02      :
          :  -> integral neglect         0.5000000E-08      :
          :  -> SCF convergence          0.5000000E-06 Eh   :
          :  -> wf. convergence          0.5000000E-04 e    :
          :  Broyden damping             0.4000000          :
          :  net charge                          0          :
          :  unpaired electrons                  0          :
          ...................................................

 iter      E             dE          RMSdq      gap      omega  full diag
   1   -114.8863226 -0.114886E+03  0.669E+00    3.13       0.0  T
   2   -108.4841503  0.640217E+01  0.924E+00    0.19       1.0  T
   3   -116.2609041 -0.777675E+01  0.402E+00    2.05       1.0  T
   4   -117.1278082 -0.866904E+00  0.234E+00    2.44       1.0  T
   5   -117.2219999 -0.941916E-01  0.120E+00    1.66       1.0  T
   6   -117.2307571 -0.875721E-02  0.748E-01    0.62       1.0  T
   7   -117.2389634 -0.820627E-02  0.370E-01    0.56       1.0  T
   8   -117.2436607 -0.469738E-02  0.145E-01    0.58       1.0  T
   9   -117.2439280 -0.267225E-03  0.856E-02    0.60       1.0  T
  10   -117.2440505 -0.122544E-03  0.341E-02    0.59       1.0  T
  11   -117.2440535 -0.300994E-05  0.184E-02    0.55       1.0  T
  12   -117.2440601 -0.662435E-05  0.896E-03    0.55       1.3  T
  13   -117.2440615 -0.131473E-05  0.529E-03    0.55       2.1  T
  14   -117.2440628 -0.135817E-05  0.165E-03    0.56       6.8  T
  15   -117.2440629 -0.371040E-07  0.782E-04    0.56      14.4  T
  16   -117.2440629 -0.188264E-07  0.426E-04    0.56      26.4  T
  17   -117.2440629 -0.532245E-08  0.181E-04    0.56      62.0  T

   *** convergence criteria satisfied after 17 iterations ***

         #    Occupation            Energy/Eh            Energy/eV
      -------------------------------------------------------------
         1        2.0000           -0.7136657             -19.4198
       ...           ...                  ...                  ...
       102        2.0000           -0.3950840             -10.7508
       103        2.0000           -0.3882252             -10.5641
       104        2.0000           -0.3658364              -9.9549
       105        2.0000           -0.3565077              -9.7011
       106        2.0000           -0.3297112              -8.9719
       107        2.0000           -0.3106516              -8.4533
       108        2.0000           -0.3073998              -8.3648 (HOMO)
       109        0.0000           -0.2867491              -7.8028 (LUMO)
       110                         -0.2491674              -6.7802
       111                         -0.2417874              -6.5794
       112                         -0.2363808              -6.4322
       113                         -0.2326210              -6.3299
       ...                                ...                  ...
       220                          3.0972865              84.2815
      -------------------------------------------------------------
                  HL-Gap            0.0206507 Eh            0.5619 eV
             Fermi-level           -0.2970592 Eh           -8.0834 eV

 SCC (total)                   0 d,  0 h,  0 min,  0.404 sec
 SCC setup                      ...        0 min,  0.003 sec (  0.821%)
 Dispersion                     ...        0 min,  0.002 sec (  0.610%)
 classical contributions        ...        0 min,  0.000 sec (  0.105%)
 integral evaluation            ...        0 min,  0.019 sec (  4.772%)
 iterations                     ...        0 min,  0.297 sec ( 73.491%)
 molecular gradient             ...        0 min,  0.081 sec ( 19.950%)
 printout                       ...        0 min,  0.001 sec (  0.243%)

         :::::::::::::::::::::::::::::::::::::::::::::::::::::
         ::                     SUMMARY                     ::
         :::::::::::::::::::::::::::::::::::::::::::::::::::::
         :: total energy            -115.336520055306 Eh    ::
         :: total w/o Gsasa/hb      -115.286056825932 Eh    ::
         :: gradient norm              0.013055358269 Eh/a0 ::
         :: HOMO-LUMO gap              0.561933036666 eV    ::
         ::.................................................::
         :: SCC energy              -117.239880527469 Eh    ::
         :: -> isotropic ES            0.049117622427 Eh    ::
         :: -> anisotropic ES          0.016160747992 Eh    ::
         :: -> anisotropic XC          0.068924773839 Eh    ::
         :: -> dispersion             -0.125231878575 Eh    ::
         :: -> Gsolv                  -0.059593233939 Eh    ::
         ::    -> Gelec               -0.009130004565 Eh    ::
         ::    -> Gsasa               -0.052671372512 Eh    ::
         ::    -> Ghb                  0.000000000000 Eh    ::
         ::    -> Gshift               0.002208143139 Eh    ::
         :: repulsion energy           1.903360472163 Eh    ::
         :: add. restraining           0.000000000000 Eh    ::
         :: total charge               0.000000000109 e     ::
         :::::::::::::::::::::::::::::::::::::::::::::::::::::

      ----------------------------------------------------------- 
     |                   =====================                   |
     |                        A N C O P T                        |
     |                   =====================                   |
     |               Approximate Normal Coordinate               |
     |                Rational Function Optimizer                |
      ----------------------------------------------------------- 
      ----------------------------------------------------------- 
     |                   =====================                   |
     |                        A N C O P T                        |
     |                   =====================                   |
     |               Approximate Normal Coordinate               |
     |                Rational Function Optimizer                |
      ----------------------------------------------------------- 

          ...................................................
          :                      SETUP                      :
          :.................................................:
          :   optimization level             tight          :
          :   max. optcycles                   250          :
          :   ANC micro-cycles                  20          :
          :   degrees of freedom               231          :
          :.................................................:
          :   RF solver                   davidson          :
          :   write xtbopt.log                true          :
          :   linear?                        false          :
          :   energy convergence         0.1000000E-05 Eh   :
          :   grad. convergence          0.8000000E-03 Eh/α :
          :   maxmium RF displ.          1.0000000          :
          :   Hlow (freq-cutoff)         0.1000000E-01      :
          :   Hmax (freq-cutoff)         5.0000000          :
          :   S6 in model hess.         20.0000000          :
          ...................................................

generating ANC from exact Hessian ...
Using Lindh-Hessian (1995)
 Shifting diagonal of input Hessian by    1.2348718728259007E-002
 Lowest  eigenvalues of input Hessian
    0.010000    0.012210    0.012274    0.000000    0.000000    0.000000
    0.000000    0.000000    0.000000    0.012452    0.012542    0.012586
    0.012656    0.012761    0.012882    0.012918    0.012973    0.013022
 Highest eigenvalues
    2.004700    2.006311    2.006478    2.028091    2.243091    2.301950


........................................................................
.............................. CYCLE    1 ..............................
........................................................................

 iter      E             dE          RMSdq      gap      omega  full diag
   1   -117.2440629 -0.117244E+03  0.720E-05    0.56       0.0  T
   2   -117.2440629  0.435392E-09  0.846E-05    0.56     133.0  T
   3   -117.2440629 -0.431100E-09  0.509E-05    0.56     221.2  T
     SCC iter.                  ...        0 min,  0.055 sec
     gradient                   ...        0 min,  0.095 sec
 * total energy  :  -115.3365201 Eh     change       -0.1233786E-08 Eh
   gradient norm :     0.0130298 Eh/α   predicted     0.0000000E+00 (-100.00%)
   displ. norm   :     0.1895491 α      lambda       -0.9692661E-03
   maximum displ.:     0.0728514 α      in ANC's #6, #10, #9, ...

........................................................................
.............................. CYCLE    2 ..............................
........................................................................

 iter      E             dE          RMSdq      gap      omega  full diag
   1   -117.2449487 -0.117245E+03  0.749E-02    0.53       0.0  T
   2   -117.2448467  0.102028E-03  0.597E-02    0.57       1.0  T
   3   -117.2448031  0.435683E-04  0.507E-02    0.52       1.0  T
   4   -117.2449300 -0.126873E-03  0.282E-02    0.56       1.0  T
   5   -117.2449784 -0.484508E-04  0.702E-03    0.55       1.6  T
   6   -117.2449790 -0.590562E-06  0.340E-03    0.55       3.3  T
   7   -117.2449791 -0.810365E-07  0.142E-03    0.55       7.9  T
   8   -117.2449791 -0.763217E-08  0.468E-04    0.55      24.0  T
   9   -117.2449791 -0.104973E-08  0.150E-04    0.55      75.0  T
     SCC iter.                  ...        0 min,  0.140 sec
     gradient                   ...        0 min,  0.084 sec
 * total energy  :  -115.3372768 Eh     change       -0.7567014E-03 Eh
   gradient norm :     0.0047014 Eh/α   predicted    -0.5020462E-03 ( -33.65%)
   displ. norm   :     0.4006792 α      lambda       -0.1109660E-02
   maximum displ.:     0.1664461 α      in ANC's #6, #10, #9, ...

........................................................................
.............................. CYCLE    3 ..............................
........................................................................

 iter      E             dE          RMSdq      gap      omega  full diag
   1   -117.2450171 -0.117245E+03  0.108E-01    0.52       0.0  T
   2   -117.2443726  0.644525E-03  0.109E-01    0.60       1.0  T
   3   -117.2446905 -0.317943E-03  0.806E-02    0.50       1.0  T
   4   -117.2451144 -0.423923E-03  0.347E-02    0.55       1.0  T
   5   -117.2451548 -0.403960E-04  0.138E-02    0.53       1.0  T
   6   -117.2451569 -0.206242E-05  0.566E-03    0.54       2.0  T
   7   -117.2451575 -0.612046E-06  0.172E-03    0.54       6.5  T
   8   -117.2451575 -0.291992E-07  0.781E-04    0.54      14.4  T
   9   -117.2451575 -0.665882E-08  0.307E-04    0.54      36.7  T
  10   -117.2451575 -0.217882E-08  0.159E-04    0.54      70.7  T
     SCC iter.                  ...        0 min,  0.145 sec
     gradient                   ...        0 min,  0.086 sec
 * total energy  :  -115.3378631 Eh     change       -0.5863273E-03 Eh
   gradient norm :     0.0090693 Eh/α   predicted    -0.6439800E-03 (   9.83%)
   displ. norm   :     0.3866179 α      lambda       -0.8900588E-03
   maximum displ.:     0.1626536 α      in ANC's #6, #10, #20, ...

........................................................................
.............................. CYCLE    4 ..............................
........................................................................

 iter      E             dE          RMSdq      gap      omega  full diag
   1   -117.2433448 -0.117243E+03  0.128E-01    0.53       0.0  T
   2   -117.2433551 -0.102667E-04  0.747E-02    0.54       1.0  T
   3   -117.2432422  0.112827E-03  0.582E-02    0.50       1.0  T
   4   -117.2430400  0.202272E-03  0.592E-02    0.56       1.0  T
   5   -117.2433739 -0.333992E-03  0.104E-02    0.52       1.1  T
   6   -117.2433785 -0.460266E-05  0.456E-03    0.53       2.5  T
   7   -117.2433788 -0.251060E-06  0.197E-03    0.53       5.7  T
   8   -117.2433788 -0.426202E-08  0.101E-03    0.53      11.1  T
   9   -117.2433788 -0.462131E-08  0.259E-04    0.53      43.4  T
  10   -117.2433788 -0.404484E-09  0.146E-04    0.53      77.2  T
     SCC iter.                  ...        0 min,  0.175 sec
     gradient                   ...        0 min,  0.087 sec
 * total energy  :  -115.3376586 Eh     change        0.2044860E-03 Eh
   gradient norm :     0.0187671 Eh/α   predicted    -0.5115498E-03 (-350.16%)
   displ. norm   :     0.1844147 α      lambda       -0.1567638E-02
   maximum displ.:     0.0847677 α      in ANC's #25, #6, #9, ...

........................................................................
.............................. CYCLE    5 ..............................
........................................................................

 iter      E             dE          RMSdq      gap      omega  full diag
   1   -117.2434657 -0.117243E+03  0.108E-01    0.54       0.0  T
   2   -117.2434609  0.482253E-05  0.639E-02    0.52       1.0  T
   3   -117.2433986  0.622733E-04  0.457E-02    0.56       1.0  T
   4   -117.2432375  0.161156E-03  0.547E-02    0.50       1.0  T
   5   -117.2434942 -0.256670E-03  0.132E-02    0.54       1.0  T
   6   -117.2434991 -0.491863E-05  0.437E-03    0.53       2.6  T
   7   -117.2434992 -0.981206E-07  0.116E-03    0.53       9.7  T
   8   -117.2434992 -0.320611E-08  0.578E-04    0.53      19.5  T
   9   -117.2434992 -0.416597E-08  0.179E-04    0.53      62.8  T
  10   -117.2434992 -0.312696E-09  0.906E-05    0.53     124.2  T
     SCC iter.                  ...        0 min,  0.161 sec
     gradient                   ...        0 min,  0.097 sec
 * total energy  :  -115.3385168 Eh     change       -0.8581935E-03 Eh
   gradient norm :     0.0126675 Eh/α   predicted    -0.8104782E-03 (  -5.56%)
   displ. norm   :     0.1999981 α      lambda       -0.6231546E-03
   maximum displ.:     0.1017487 α      in ANC's #6, #4, #10, ...

........................................................................
.............................. CYCLE    6 ..............................
........................................................................

 iter      E             dE          RMSdq      gap      omega  full diag
   1   -117.2457942 -0.117246E+03  0.742E-02    0.54       0.0  T
   2   -117.2455350  0.259221E-03  0.752E-02    0.49       1.0  T
   3   -117.2456744 -0.139476E-03  0.497E-02    0.56       1.0  T
   4   -117.2458365 -0.162088E-03  0.256E-02    0.52       1.0  T
   5   -117.2458697 -0.332214E-04  0.600E-03    0.53       1.9  T
   6   -117.2458699 -0.168889E-06  0.307E-03    0.53       3.7  T
   7   -117.2458701 -0.218632E-06  0.130E-03    0.53       8.6  T
   8   -117.2458701 -0.742955E-08  0.704E-04    0.53      16.0  T
   9   -117.2458701 -0.380146E-08  0.295E-04    0.53      38.2  T
  10   -117.2458701 -0.225704E-08  0.124E-04    0.53      90.7  T
     SCC iter.                  ...        0 min,  0.156 sec
     gradient                   ...        0 min,  0.082 sec
 * total energy  :  -115.3388098 Eh     change       -0.2929836E-03 Eh
   gradient norm :     0.0052948 Eh/α   predicted    -0.3240417E-03 (  10.60%)
   displ. norm   :     0.3919797 α      lambda       -0.5485110E-03
   maximum displ.:     0.2027963 α      in ANC's #6, #4, #10, ...

........................................................................
.............................. CYCLE    7 ..............................
........................................................................

 iter      E             dE          RMSdq      gap      omega  full diag
   1   -117.2444055 -0.117244E+03  0.863E-02    0.53       0.0  T
   2   -117.2443731  0.323677E-04  0.588E-02    0.55       1.0  T
   3   -117.2442021  0.171005E-03  0.589E-02    0.50       1.0  T
   4   -117.2442886 -0.864393E-04  0.431E-02    0.55       1.0  T
   5   -117.2444365 -0.147963E-03  0.748E-03    0.53       1.5  T
   6   -117.2444381 -0.155577E-05  0.396E-03    0.53       2.8  T
   7   -117.2444382 -0.848691E-07  0.142E-03    0.53       7.9  T
   8   -117.2444382 -0.233908E-07  0.883E-04    0.53      12.7  T
   9   -117.2444382 -0.235297E-07  0.271E-04    0.53      41.5  T
  10   -117.2444382 -0.181657E-09  0.166E-04    0.53      67.9  T
     SCC iter.                  ...        0 min,  0.172 sec
     gradient                   ...        0 min,  0.093 sec
 * total energy  :  -115.3391201 Eh     change       -0.3103324E-03 Eh
   gradient norm :     0.0061679 Eh/α   predicted    -0.3163966E-03 (   1.95%)
   displ. norm   :     0.4518057 α      lambda       -0.5077739E-03
   maximum displ.:     0.2371516 α      in ANC's #6, #4, #10, ...

........................................................................
.............................. CYCLE    8 ..............................
........................................................................

 iter      E             dE          RMSdq      gap      omega  full diag
   1   -117.2418137 -0.117242E+03  0.102E-01    0.52       0.0  T
   2   -117.2417999  0.138272E-04  0.635E-02    0.54       1.0  T
   3   -117.2416386  0.161275E-03  0.587E-02    0.50       1.0  T
   4   -117.2415691  0.695471E-04  0.536E-02    0.56       1.0  T
   5   -117.2418295 -0.260403E-03  0.850E-03    0.52       1.3  T
   6   -117.2418319 -0.236125E-05  0.338E-03    0.53       3.3  T
   7   -117.2418319 -0.344490E-07  0.122E-03    0.53       9.2  T
   8   -117.2418319 -0.852816E-08  0.692E-04    0.53      16.3  T
   9   -117.2418319 -0.838043E-09  0.234E-04    0.53      48.1  T
  10   -117.2418319 -0.100765E-08  0.899E-05    0.53     125.2  T
     SCC iter.                  ...        0 min,  0.153 sec
     gradient                   ...        0 min,  0.081 sec
 * total energy  :  -115.3394403 Eh     change       -0.3201824E-03 Eh
   gradient norm :     0.0083102 Eh/α   predicted    -0.3057128E-03 (  -4.52%)
   displ. norm   :     0.3502369 α      lambda       -0.3485962E-03
   maximum displ.:     0.1899776 α      in ANC's #6, #4, #14, ...

........................................................................
.............................. CYCLE    9 ..............................
........................................................................

 iter      E             dE          RMSdq      gap      omega  full diag
   1   -117.2449138 -0.117245E+03  0.616E-02    0.52       0.0  T
   2   -117.2445126  0.401244E-03  0.788E-02    0.46       1.0  T
   3   -117.2449224 -0.409844E-03  0.367E-02    0.52       1.0  T
   4   -117.2449917 -0.693335E-04  0.186E-02    0.51       1.0  T
   5   -117.2449975 -0.574524E-05  0.511E-03    0.51       2.2  T
   6   -117.2449983 -0.840524E-06  0.161E-03    0.51       7.0  T
   7   -117.2449984 -0.307449E-07  0.624E-04    0.51      18.0  T
   8   -117.2449984 -0.296356E-08  0.314E-04    0.51      35.8  T
   9   -117.2449984 -0.177228E-08  0.148E-04    0.51      76.2  T
     SCC iter.                  ...        0 min,  0.142 sec
     gradient                   ...        0 min,  0.090 sec
 * total energy  :  -115.3396913 Eh     change       -0.2509768E-03 Eh
   gradient norm :     0.0059743 Eh/α   predicted    -0.1956792E-03 ( -22.03%)
   displ. norm   :     0.4900112 α      lambda       -0.3436937E-03
   maximum displ.:     0.2663361 α      in ANC's #6, #4, #14, ...

........................................................................
.............................. CYCLE   10 ..............................
........................................................................

 iter      E             dE          RMSdq      gap      omega  full diag
   1   -117.2452131 -0.117245E+03  0.700E-02    0.50       0.0  T
   2   -117.2452125  0.605431E-06  0.414E-02    0.50       1.0  T
   3   -117.2451190  0.935624E-04  0.343E-02    0.52       1.0  T
   4   -117.2451765 -0.575893E-04  0.210E-02    0.49       1.0  T
   5   -117.2452164 -0.398773E-04  0.178E-03    0.50       6.3  T
   6   -117.2452165 -0.542565E-07  0.886E-04    0.50      12.7  T
   7   -117.2452165 -0.119656E-07  0.413E-04    0.50      27.2  T
   8   -117.2452165  0.962928E-10  0.245E-04    0.50      45.9  T
     SCC iter.                  ...        0 min,  0.121 sec
     gradient                   ...        0 min,  0.086 sec
 * total energy  :  -115.3399642 Eh     change       -0.2729088E-03 Eh
   gradient norm :     0.0061310 Eh/α   predicted    -0.2131119E-03 ( -21.91%)
   displ. norm   :     0.5212756 α      lambda       -0.3199693E-03
   maximum displ.:     0.2809531 α      in ANC's #6, #4, #14, ...

........................................................................
.............................. CYCLE   11 ..............................
........................................................................

 iter      E             dE          RMSdq      gap      omega  full diag
   1   -117.2452841 -0.117245E+03  0.766E-02    0.49       0.0  T
   2   -117.2452679  0.162631E-04  0.469E-02    0.50       1.0  T
   3   -117.2448474  0.420459E-03  0.697E-02    0.45       1.0  T
   4   -117.2452730 -0.425603E-03  0.167E-02    0.50       1.0  T
   5   -117.2452907 -0.176762E-04  0.424E-03    0.49       2.7  T
   6   -117.2452909 -0.191134E-06  0.125E-03    0.49       9.0  T
   7   -117.2452909 -0.164546E-08  0.549E-04    0.49      20.5  T
   8   -117.2452909 -0.152359E-08  0.284E-04    0.49      39.6  T
   9   -117.2452909 -0.152843E-08  0.870E-05    0.49     129.3  T
     SCC iter.                  ...        0 min,  0.144 sec
     gradient                   ...        0 min,  0.077 sec
 * total energy  :  -115.3402144 Eh     change       -0.2502484E-03 Eh
   gradient norm :     0.0067309 Eh/α   predicted    -0.2034583E-03 ( -18.70%)
   displ. norm   :     0.5278975 α      lambda       -0.2973853E-03
   maximum displ.:     0.2818112 α      in ANC's #6, #4, #14, ...

........................................................................
.............................. CYCLE   12 ..............................
........................................................................

 iter      E             dE          RMSdq      gap      omega  full diag
   1   -117.2454930 -0.117245E+03  0.781E-02    0.49       0.0  T
   2   -117.2454751  0.178706E-04  0.486E-02    0.47       1.0  T
   3   -117.2451823  0.292797E-03  0.614E-02    0.52       1.0  T
   4   -117.2454396 -0.257272E-03  0.276E-02    0.47       1.0  T
   5   -117.2454994 -0.598314E-04  0.247E-03    0.48       4.6  T
   6   -117.2454996 -0.200882E-06  0.116E-03    0.48       9.7  T
   7   -117.2454997 -0.184153E-07  0.440E-04    0.48      25.6  T
   8   -117.2454997 -0.480583E-09  0.219E-04    0.48      51.3  T
     SCC iter.                  ...        0 min,  0.139 sec
     gradient                   ...        0 min,  0.083 sec
 * total energy  :  -115.3404518 Eh     change       -0.2374184E-03 Eh
   gradient norm :     0.0066723 Eh/α   predicted    -0.1901320E-03 ( -19.92%)
   displ. norm   :     0.4936606 α      lambda       -0.2978667E-03
   maximum displ.:     0.2605859 α      in ANC's #6, #4, #2, ...

........................................................................
.............................. CYCLE   13 ..............................
........................................................................

 iter      E             dE          RMSdq      gap      omega  full diag
   1   -117.2459620 -0.117246E+03  0.749E-02    0.48       0.0  T
   2   -117.2459372  0.248213E-04  0.470E-02    0.49       1.0  T
   3   -117.2454673  0.469898E-03  0.735E-02    0.44       1.0  T
   4   -117.2459551 -0.487869E-03  0.168E-02    0.49       1.0  T
   5   -117.2459701 -0.149516E-04  0.366E-03    0.48       3.1  T
   6   -117.2459703 -0.158729E-06  0.115E-03    0.48       9.8  T
   7   -117.2459703 -0.220875E-08  0.503E-04    0.48      22.4  T
   8   -117.2459703 -0.100044E-08  0.259E-04    0.48      43.5  T
   9   -117.2459703 -0.116903E-08  0.929E-05    0.48     121.1  T
     SCC iter.                  ...        0 min,  0.144 sec
     gradient                   ...        0 min,  0.086 sec
 * total energy  :  -115.3407004 Eh     change       -0.2485166E-03 Eh
   gradient norm :     0.0049342 Eh/α   predicted    -0.1852346E-03 ( -25.46%)
   displ. norm   :     0.5314955 α      lambda       -0.3408044E-03
   maximum displ.:     0.2808661 α      in ANC's #4, #6, #5, ...

........................................................................
.............................. CYCLE   14 ..............................
........................................................................

 iter      E             dE          RMSdq      gap      omega  full diag
   1   -117.2465551 -0.117247E+03  0.864E-02    0.48       0.0  T
   2   -117.2465392  0.158999E-04  0.526E-02    0.49       1.0  T
   3   -117.2463320  0.207115E-03  0.555E-02    0.45       1.0  T
   4   -117.2464152 -0.831645E-04  0.415E-02    0.50       1.0  T
   5   -117.2465634 -0.148222E-03  0.251E-03    0.48       4.5  T
   6   -117.2465635 -0.756895E-07  0.178E-03    0.48       6.3  T
   7   -117.2465635 -0.215322E-07  0.842E-04    0.48      13.4  T
   8   -117.2465635 -0.141665E-08  0.396E-04    0.48      28.4  T
   9   -117.2465635 -0.314809E-08  0.131E-04    0.48      85.7  T
     SCC iter.                  ...        0 min,  0.145 sec
     gradient                   ...        0 min,  0.078 sec
 * total energy  :  -115.3409622 Eh     change       -0.2617978E-03 Eh
   gradient norm :     0.0035952 Eh/α   predicted    -0.2185399E-03 ( -16.52%)
   displ. norm   :     0.5154760 α      lambda       -0.2684213E-03
   maximum displ.:     0.2738765 α      in ANC's #4, #6, #5, ...

........................................................................
.............................. CYCLE   15 ..............................
........................................................................

 iter      E             dE          RMSdq      gap      omega  full diag
   1   -117.2449475 -0.117245E+03  0.841E-02    0.47       0.0  T
   2   -117.2449405  0.703206E-05  0.504E-02    0.48       1.0  T
   3   -117.2448210  0.119434E-03  0.460E-02    0.45       1.0  T
   4   -117.2447798  0.412567E-04  0.437E-02    0.50       1.0  T
   5   -117.2449541 -0.174306E-03  0.386E-03    0.47       2.9  T
   6   -117.2449543 -0.177647E-06  0.180E-03    0.47       6.2  T
   7   -117.2449543 -0.120317E-07  0.828E-04    0.47      13.6  T
   8   -117.2449543 -0.245028E-08  0.398E-04    0.47      28.3  T
   9   -117.2449543 -0.222398E-08  0.119E-04    0.47      94.8  T
     SCC iter.                  ...        0 min,  0.146 sec
     gradient                   ...        0 min,  0.085 sec
 * total energy  :  -115.3411419 Eh     change       -0.1797074E-03 Eh
   gradient norm :     0.0068209 Eh/α   predicted    -0.1698743E-03 (  -5.47%)
   displ. norm   :     0.4207645 α      lambda       -0.2062373E-03
   maximum displ.:     0.2275892 α      in ANC's #4, #6, #5, ...

........................................................................
.............................. CYCLE   16 ..............................
........................................................................

 iter      E             dE          RMSdq      gap      omega  full diag
   1   -117.2448718 -0.117245E+03  0.649E-02    0.48       0.0  T
   2   -117.2448693  0.249853E-05  0.387E-02    0.48       1.0  T
   3   -117.2448050  0.642845E-04  0.352E-02    0.46       1.0  T
   4   -117.2447917  0.133023E-04  0.301E-02    0.49       1.0  T
   5   -117.2448751 -0.833423E-04  0.497E-03    0.47       2.3  T
   6   -117.2448757 -0.590467E-06  0.128E-03    0.48       8.8  T
   7   -117.2448757 -0.536737E-08  0.598E-04    0.48      18.8  T
   8   -117.2448757 -0.895852E-09  0.288E-04    0.48      39.1  T
   9   -117.2448757 -0.124210E-08  0.787E-05    0.48     142.9  T
     SCC iter.                  ...        0 min,  0.142 sec
     gradient                   ...        0 min,  0.093 sec
 * total energy  :  -115.3412831 Eh     change       -0.1412489E-03 Eh
   gradient norm :     0.0066170 Eh/α   predicted    -0.1213761E-03 ( -14.07%)
   displ. norm   :     0.3868937 α      lambda       -0.2091353E-03
   maximum displ.:     0.2097352 α      in ANC's #4, #6, #5, ...

........................................................................
.............................. CYCLE   17 ..............................
........................................................................

 iter      E             dE          RMSdq      gap      omega  full diag
   1   -117.2460435 -0.117246E+03  0.589E-02    0.48       0.0  T
   2   -117.2460198  0.236703E-04  0.377E-02    0.46       1.0  T
   3   -117.2458877  0.132169E-03  0.448E-02    0.50       1.0  T
   4   -117.2460140 -0.126367E-03  0.237E-02    0.46       1.0  T
   5   -117.2460511 -0.370404E-04  0.189E-03    0.47       5.9  T
   6   -117.2460512 -0.956626E-07  0.847E-04    0.47      13.3  T
   7   -117.2460512 -0.126604E-07  0.430E-04    0.47      26.2  T
   8   -117.2460512 -0.130939E-08  0.248E-04    0.47      45.4  T
     SCC iter.                  ...        0 min,  0.149 sec
     gradient                   ...        0 min,  0.084 sec
 * total energy  :  -115.3414600 Eh     change       -0.1769257E-03 Eh
   gradient norm :     0.0053004 Eh/α   predicted    -0.1202211E-03 ( -32.05%)
   displ. norm   :     0.5411422 α      lambda       -0.3750309E-03
   maximum displ.:     0.2806633 α      in ANC's #4, #6, #5, ...

........................................................................
.............................. CYCLE   18 ..............................
........................................................................

 iter      E             dE          RMSdq      gap      omega  full diag
   1   -117.2474666 -0.117247E+03  0.861E-02    0.47       0.0  T
   2   -117.2473883  0.782884E-04  0.584E-02    0.45       1.0  T
   3   -117.2469890  0.399328E-03  0.762E-02    0.51       1.0  T
   4   -117.2474490 -0.460069E-03  0.275E-02    0.46       1.0  T
   5   -117.2474874 -0.383441E-04  0.272E-03    0.47       4.1  T
   6   -117.2474877 -0.296093E-06  0.105E-03    0.47      10.7  T
   7   -117.2474877 -0.253357E-07  0.474E-04    0.47      23.7  T
   8   -117.2474877 -0.418092E-08  0.315E-04    0.47      35.8  T
     SCC iter.                  ...        0 min,  0.125 sec
     gradient                   ...        0 min,  0.090 sec
 * total energy  :  -115.3417670 Eh     change       -0.3069333E-03 Eh
   gradient norm :     0.0045038 Eh/α   predicted    -0.2424314E-03 ( -21.01%)
   displ. norm   :     0.6354658 α      lambda       -0.3895059E-03
   maximum displ.:     0.3216676 α      in ANC's #4, #5, #6, ...

........................................................................
.............................. CYCLE   19 ..............................
........................................................................

 iter      E             dE          RMSdq      gap      omega  full diag
   1   -117.2455389 -0.117246E+03  0.104E-01    0.46       0.0  T
   2   -117.2455421 -0.324421E-05  0.604E-02    0.47       1.0  T
   3   -117.2455395  0.259231E-05  0.326E-02    0.46       1.0  T
   4   -117.2455245  0.150440E-04  0.144E-02    0.47       1.0  T
   5   -117.2455429 -0.184300E-04  0.365E-03    0.46       3.1  T
   6   -117.2455439 -0.932909E-06  0.117E-03    0.47       9.6  T
   7   -117.2455439 -0.377365E-08  0.615E-04    0.47      18.3  T
   8   -117.2455439 -0.160584E-08  0.326E-04    0.47      34.5  T
   9   -117.2455439 -0.751001E-09  0.752E-05    0.47     149.7  T
     SCC iter.                  ...        0 min,  0.155 sec
     gradient                   ...        0 min,  0.081 sec
 * total energy  :  -115.3420996 Eh     change       -0.3325870E-03 Eh
   gradient norm :     0.0045111 Eh/α   predicted    -0.2733998E-03 ( -17.80%)
   displ. norm   :     0.6721043 α      lambda       -0.4347612E-03
   maximum displ.:     0.3095469 α      in ANC's #4, #5, #3, ...

........................................................................
.............................. CYCLE   20 ..............................
........................................................................

 iter      E             dE          RMSdq      gap      omega  full diag
   1   -117.2465049 -0.117247E+03  0.115E-01    0.48       0.0  T
   2   -117.2464744  0.305369E-04  0.705E-02    0.50       1.0  T
   3   -117.2458727  0.601644E-03  0.871E-02    0.43       1.0  T
   4   -117.2463755 -0.502760E-03  0.419E-02    0.50       1.0  T
   5   -117.2465179 -0.142438E-03  0.282E-03    0.48       4.0  T
   6   -117.2465180 -0.115229E-06  0.154E-03    0.48       7.3  T
   7   -117.2465181 -0.203450E-07  0.105E-03    0.48      10.7  T
   8   -117.2465181 -0.933906E-08  0.450E-04    0.48      25.0  T
   9   -117.2465181 -0.583242E-09  0.160E-04    0.48      70.2  T
     SCC iter.                  ...        0 min,  0.153 sec
     gradient                   ...        0 min,  0.082 sec
 * total energy  :  -115.3424583 Eh     change       -0.3587423E-03 Eh
   gradient norm :     0.0049075 Eh/α   predicted    -0.3155801E-03 ( -12.03%)
   displ. norm   :     0.7805259 α      lambda       -0.4570455E-03
   maximum displ.:     0.3774858 α      in ANC's #4, #5, #6, ...
 * RMSD in coord.:     0.7931947 α      energy gain  -0.5938247E-02 Eh

generating ANC from exact Hessian ...
Using Lindh-Hessian (1995)
 Shifting diagonal of input Hessian by    1.2614974152224184E-002
 Lowest  eigenvalues of input Hessian
    0.010000    0.012477    0.012527    0.000000    0.000000    0.000000
    0.000000    0.000000    0.000000    0.012701    0.012795    0.012877
    0.012929    0.013018    0.013133    0.013200    0.013230    0.013265
 Highest eigenvalues
    1.999319    2.001639    2.001878    2.014804    2.226891    2.297905


........................................................................
.............................. CYCLE   21 ..............................
........................................................................

 iter      E             dE          RMSdq      gap      omega  full diag
   1   -117.2382493 -0.117238E+03  0.124E-01    0.46       0.0  T
   2   -117.2382436  0.566834E-05  0.734E-02    0.47       1.0  T
   3   -117.2379742  0.269395E-03  0.627E-02    0.44       1.0  T
   4   -117.2380342 -0.599303E-04  0.491E-02    0.50       1.0  T
   5   -117.2382578 -0.223600E-03  0.295E-03    0.47       3.8  T
   6   -117.2382579 -0.163725E-06  0.187E-03    0.47       6.0  T
   7   -117.2382580 -0.288083E-07  0.101E-03    0.47      11.1  T
   8   -117.2382580 -0.132498E-08  0.374E-04    0.47      30.1  T
   9   -117.2382580 -0.699643E-09  0.145E-04    0.47      77.6  T
     SCC iter.                  ...        0 min,  0.143 sec
     gradient                   ...        0 min,  0.085 sec
 * total energy  :  -115.3428012 Eh     change       -0.3428987E-03 Eh
   gradient norm :     0.0090882 Eh/α   predicted     0.0000000E+00 (-100.00%)
   displ. norm   :     0.0860516 α      lambda       -0.2387670E-03
   maximum displ.:     0.0447001 α      in ANC's #23, #24, #29, ...

........................................................................
.............................. CYCLE   22 ..............................
........................................................................

 iter      E             dE          RMSdq      gap      omega  full diag
   1   -117.2465347 -0.117247E+03  0.423E-02    0.49       0.0  T
   2   -117.2465269  0.782617E-05  0.278E-02    0.47       1.0  T
   3   -117.2464875  0.394362E-04  0.276E-02    0.50       1.0  T
   4   -117.2465036 -0.161230E-04  0.217E-02    0.47       1.0  T
   5   -117.2465397 -0.360812E-04  0.333E-03    0.48       3.4  T
   6   -117.2465400 -0.312659E-06  0.168E-03    0.48       6.7  T
   7   -117.2465400 -0.114277E-07  0.645E-04    0.48      17.4  T
   8   -117.2465400 -0.494794E-08  0.291E-04    0.48      38.7  T
   9   -117.2465400 -0.229321E-09  0.111E-04    0.48     101.2  T
     SCC iter.                  ...        0 min,  0.145 sec
     gradient                   ...        0 min,  0.096 sec
 * total energy  :  -115.3428592 Eh     change       -0.5798872E-04 Eh
   gradient norm :     0.0059954 Eh/α   predicted    -0.1202681E-03 ( 107.40%)
   displ. norm   :     0.1763027 α      lambda       -0.4966471E-03
   maximum displ.:     0.0652658 α      in ANC's #17, #29, #5, ...

........................................................................
.............................. CYCLE   23 ..............................
........................................................................

 iter      E             dE          RMSdq      gap      omega  full diag
   1   -117.2637581 -0.117264E+03  0.713E-02    0.52       0.0  T
   2   -117.2636065  0.151621E-03  0.590E-02    0.48       1.0  T
   3   -117.2634538  0.152703E-03  0.649E-02    0.54       1.0  T
   4   -117.2637960 -0.342243E-03  0.143E-02    0.50       1.0  T
   5   -117.2637991 -0.310556E-05  0.428E-03    0.50       2.6  T
   6   -117.2637996 -0.463935E-06  0.268E-03    0.50       4.2  T
   7   -117.2637997 -0.109674E-06  0.917E-04    0.50      12.3  T
   8   -117.2637997 -0.151674E-07  0.429E-04    0.50      26.2  T
   9   -117.2637997 -0.249885E-08  0.170E-04    0.50      66.2  T
     SCC iter.                  ...        0 min,  0.132 sec
     gradient                   ...        0 min,  0.078 sec
 * total energy  :  -115.3428261 Eh     change        0.3306092E-04 Eh
   gradient norm :     0.0156256 Eh/α   predicted    -0.2560427E-03 (-874.46%)
   displ. norm   :     0.0521696 α      lambda       -0.3967130E-03
   maximum displ.:     0.0186287 α      in ANC's #25, #1, #75, ...

........................................................................
.............................. CYCLE   24 ..............................
........................................................................

 iter      E             dE          RMSdq      gap      omega  full diag
   1   -117.2526120 -0.117253E+03  0.378E-02    0.47       0.0  T
   2   -117.2525605  0.515255E-04  0.348E-02    0.50       1.0  T
   3   -117.2525672 -0.674713E-05  0.286E-02    0.47       1.0  T
   4   -117.2526219 -0.546659E-04  0.137E-02    0.49       1.0  T
   5   -117.2526293 -0.745098E-05  0.407E-03    0.49       2.8  T
   6   -117.2526296 -0.268535E-06  0.165E-03    0.49       6.8  T
   7   -117.2526296 -0.156175E-07  0.605E-04    0.49      18.6  T
   8   -117.2526296 -0.458481E-08  0.345E-04    0.49      32.6  T
   9   -117.2526296 -0.107741E-08  0.172E-04    0.49      65.6  T
     SCC iter.                  ...        0 min,  0.142 sec
     gradient                   ...        0 min,  0.094 sec
 * total energy  :  -115.3430407 Eh     change       -0.2145865E-03 Eh
   gradient norm :     0.0035842 Eh/α   predicted    -0.1988967E-03 (  -7.31%)
   displ. norm   :     0.0833774 α      lambda       -0.1131794E-03
   maximum displ.:     0.0470115 α      in ANC's #1, #13, #23, ...

........................................................................
.............................. CYCLE   25 ..............................
........................................................................

 iter      E             dE          RMSdq      gap      omega  full diag
   1   -117.2475328 -0.117248E+03  0.320E-02    0.48       0.0  T
   2   -117.2475127  0.200162E-04  0.278E-02    0.49       1.0  T
   3   -117.2475093  0.346635E-05  0.221E-02    0.47       1.0  T
   4   -117.2475276 -0.182783E-04  0.150E-02    0.49       1.0  T
   5   -117.2475420 -0.144002E-04  0.277E-03    0.48       4.1  T
   6   -117.2475421 -0.158723E-06  0.137E-03    0.48       8.2  T
   7   -117.2475422 -0.751696E-07  0.644E-04    0.48      17.5  T
   8   -117.2475422  0.353552E-09  0.350E-04    0.48      32.2  T
   9   -117.2475422 -0.126202E-08  0.148E-04    0.48      76.2  T
     SCC iter.                  ...        0 min,  0.151 sec
     gradient                   ...        0 min,  0.077 sec
 * total energy  :  -115.3430688 Eh     change       -0.2806994E-04 Eh
   gradient norm :     0.0026198 Eh/α   predicted    -0.5698405E-04 ( 103.01%)
   displ. norm   :     0.1166967 α      lambda       -0.1115663E-03
   maximum displ.:     0.0394729 α      in ANC's #13, #5, #6, ...

........................................................................
.............................. CYCLE   26 ..............................
........................................................................

 iter      E             dE          RMSdq      gap      omega  full diag
   1   -117.2477256 -0.117248E+03  0.276E-02    0.49       0.0  T
   2   -117.2477262 -0.623440E-06  0.170E-02    0.49       1.0  T
   3   -117.2477172  0.899956E-05  0.132E-02    0.48       1.0  T
   4   -117.2477107  0.646199E-05  0.136E-02    0.49       1.0  T
   5   -117.2477277 -0.169963E-04  0.215E-03    0.48       5.2  T
   6   -117.2477279 -0.213984E-06  0.114E-03    0.49       9.8  T
   7   -117.2477280 -0.247848E-07  0.398E-04    0.49      28.3  T
   8   -117.2477280  0.659810E-10  0.228E-04    0.49      49.4  T
     SCC iter.                  ...        0 min,  0.141 sec
     gradient                   ...        0 min,  0.101 sec
 * total energy  :  -115.3431524 Eh     change       -0.8358542E-04 Eh
   gradient norm :     0.0022277 Eh/α   predicted    -0.5654371E-04 ( -32.35%)
   displ. norm   :     0.3104982 α      lambda       -0.1878287E-03
   maximum displ.:     0.1158903 α      in ANC's #13, #5, #6, ...

........................................................................
.............................. CYCLE   27 ..............................
........................................................................

 iter      E             dE          RMSdq      gap      omega  full diag
   1   -117.2492733 -0.117249E+03  0.714E-02    0.49       0.0  T
   2   -117.2492757 -0.239615E-05  0.423E-02    0.49       1.0  T
   3   -117.2492716  0.417013E-05  0.240E-02    0.49       1.0  T
   4   -117.2492720 -0.431714E-06  0.973E-03    0.49       1.2  T
   5   -117.2492753 -0.328199E-05  0.539E-03    0.49       2.1  T
   6   -117.2492779 -0.265507E-05  0.113E-03    0.49      10.0  T
   7   -117.2492780 -0.431827E-07  0.507E-04    0.49      22.2  T
   8   -117.2492780 -0.772289E-09  0.277E-04    0.49      40.6  T
   9   -117.2492780 -0.947551E-09  0.992E-05    0.49     113.4  T
     SCC iter.                  ...        0 min,  0.138 sec
     gradient                   ...        0 min,  0.064 sec
 * total energy  :  -115.3432694 Eh     change       -0.1170213E-03 Eh
   gradient norm :     0.0030692 Eh/α   predicted    -0.1029746E-03 ( -12.00%)
   displ. norm   :     0.3454626 α      lambda       -0.1516787E-03
   maximum displ.:     0.1378890 α      in ANC's #13, #6, #5, ...

........................................................................
.............................. CYCLE   28 ..............................
........................................................................

 iter      E             dE          RMSdq      gap      omega  full diag
   1   -117.2480139 -0.117248E+03  0.733E-02    0.49       0.0  T
   2   -117.2480146 -0.738116E-06  0.430E-02    0.49       1.0  T
   3   -117.2479898  0.248064E-04  0.227E-02    0.49       1.0  T
   4   -117.2479890  0.757937E-06  0.167E-02    0.50       1.0  T
   5   -117.2480158 -0.267861E-04  0.238E-03    0.49       4.7  T
   6   -117.2480161 -0.275934E-06  0.967E-04    0.49      11.6  T
   7   -117.2480161 -0.361639E-08  0.406E-04    0.49      27.7  T
   8   -117.2480161 -0.135935E-08  0.200E-04    0.49      56.3  T
     SCC iter.                  ...        0 min,  0.149 sec
     gradient                   ...        0 min,  0.093 sec
 * total energy  :  -115.3433792 Eh     change       -0.1098544E-03 Eh
   gradient norm :     0.0030006 Eh/α   predicted    -0.8489307E-04 ( -22.72%)
   displ. norm   :     0.4379078 α      lambda       -0.1924853E-03
   maximum displ.:     0.1863359 α      in ANC's #13, #6, #5, ...

........................................................................
.............................. CYCLE   29 ..............................
........................................................................

 iter      E             dE          RMSdq      gap      omega  full diag
   1   -117.2473492 -0.117247E+03  0.936E-02    0.50       0.0  T
   2   -117.2473486  0.602485E-06  0.556E-02    0.49       1.0  T
   3   -117.2472555  0.931111E-04  0.393E-02    0.52       1.0  T
   4   -117.2472856 -0.301450E-04  0.266E-02    0.48       1.0  T
   5   -117.2473522 -0.666093E-04  0.265E-03    0.50       4.2  T
   6   -117.2473524 -0.201166E-06  0.103E-03    0.50      11.0  T
   7   -117.2473524 -0.122597E-08  0.531E-04    0.50      21.2  T
   8   -117.2473524 -0.340125E-08  0.238E-04    0.50      47.2  T
   9   -117.2473524 -0.885962E-09  0.848E-05    0.50     132.6  T
     SCC iter.                  ...        0 min,  0.142 sec
     gradient                   ...        0 min,  0.089 sec
 * total energy  :  -115.3435369 Eh     change       -0.1576690E-03 Eh
   gradient norm :     0.0030653 Eh/α   predicted    -0.1147045E-03 ( -27.25%)
   displ. norm   :     0.5593106 α      lambda       -0.3048994E-03
   maximum displ.:     0.2472191 α      in ANC's #13, #6, #5, ...

........................................................................
.............................. CYCLE   30 ..............................
........................................................................

 iter      E             dE          RMSdq      gap      omega  full diag
   1   -117.2483662 -0.117248E+03  0.121E-01    0.51       0.0  T
   2   -117.2483553  0.108396E-04  0.728E-02    0.50       1.0  T
   3   -117.2477127  0.642645E-03  0.833E-02    0.56       1.0  T
   4   -117.2483520 -0.639321E-03  0.186E-02    0.50       1.0  T
   5   -117.2483748 -0.227414E-04  0.237E-03    0.51       4.7  T
   6   -117.2483750 -0.199847E-06  0.109E-03    0.51      10.3  T
   7   -117.2483750 -0.193283E-07  0.573E-04    0.51      19.6  T
   8   -117.2483750 -0.204874E-08  0.247E-04    0.51      45.6  T
   9   -117.2483750 -0.417486E-09  0.115E-04    0.51      97.6  T
     SCC iter.                  ...        0 min,  0.156 sec
     gradient                   ...        0 min,  0.087 sec
 * total energy  :  -115.3437787 Eh     change       -0.2417668E-03 Eh
   gradient norm :     0.0046098 Eh/α   predicted    -0.2001498E-03 ( -17.21%)
   displ. norm   :     0.5756317 α      lambda       -0.3153771E-03
   maximum displ.:     0.2562874 α      in ANC's #13, #6, #5, ...

........................................................................
.............................. CYCLE   31 ..............................
........................................................................

 iter      E             dE          RMSdq      gap      omega  full diag
   1   -117.2483382 -0.117248E+03  0.131E-01    0.51       0.0  T
   2   -117.2483411 -0.289121E-05  0.773E-02    0.51       1.0  T
   3   -117.2483315  0.957861E-05  0.376E-02    0.52       1.0  T
   4   -117.2483378 -0.630916E-05  0.105E-02    0.50       1.1  T
   5   -117.2483402 -0.238948E-05  0.585E-03    0.51       1.9  T
   6   -117.2483433 -0.310410E-05  0.129E-03    0.51       8.7  T
   7   -117.2483434 -0.518467E-07  0.572E-04    0.51      19.7  T
   8   -117.2483434 -0.555684E-08  0.269E-04    0.51      41.8  T
   9   -117.2483434 -0.184821E-08  0.870E-05    0.51     129.4  T
     SCC iter.                  ...        0 min,  0.141 sec
     gradient                   ...        0 min,  0.081 sec
 * total energy  :  -115.3440297 Eh     change       -0.2510054E-03 Eh
   gradient norm :     0.0060095 Eh/α   predicted    -0.2099523E-03 ( -16.36%)
   displ. norm   :     0.6179976 α      lambda       -0.3419173E-03
   maximum displ.:     0.2750411 α      in ANC's #13, #6, #5, ...

........................................................................
.............................. CYCLE   32 ..............................
........................................................................

 iter      E             dE          RMSdq      gap      omega  full diag
   1   -117.2477233 -0.117248E+03  0.142E-01    0.52       0.0  T
   2   -117.2477253 -0.192094E-05  0.831E-02    0.52       1.0  T
   3   -117.2476478  0.774879E-04  0.409E-02    0.50       1.0  T
   4   -117.2475913  0.564519E-04  0.376E-02    0.54       1.0  T
   5   -117.2477291 -0.137762E-03  0.211E-03    0.52       5.3  T
   6   -117.2477291 -0.322512E-07  0.130E-03    0.52       8.6  T
   7   -117.2477291 -0.348319E-07  0.612E-04    0.52      18.4  T
   8   -117.2477291 -0.372950E-08  0.363E-04    0.52      31.0  T
   9   -117.2477291 -0.120427E-08  0.903E-05    0.52     124.6  T
     SCC iter.                  ...        0 min,  0.142 sec
     gradient                   ...        0 min,  0.091 sec
 * total energy  :  -115.3443102 Eh     change       -0.2805458E-03 Eh
   gradient norm :     0.0054846 Eh/α   predicted    -0.2362637E-03 ( -15.78%)
   displ. norm   :     0.6024073 α      lambda       -0.3986721E-03
   maximum displ.:     0.2599327 α      in ANC's #13, #6, #5, ...

........................................................................
.............................. CYCLE   33 ..............................
........................................................................

 iter      E             dE          RMSdq      gap      omega  full diag
   1   -117.2498677 -0.117250E+03  0.151E-01    0.52       0.0  T
   2   -117.2498746 -0.690361E-05  0.876E-02    0.52       1.0  T
   3   -117.2498722  0.240376E-05  0.466E-02    0.52       1.0  T
   4   -117.2498535  0.186549E-04  0.166E-02    0.53       1.0  T
   5   -117.2498772 -0.236356E-04  0.345E-03    0.52       3.3  T
   6   -117.2498778 -0.658257E-06  0.167E-03    0.52       6.7  T
   7   -117.2498779 -0.688283E-07  0.728E-04    0.52      15.5  T
   8   -117.2498779 -0.422190E-08  0.382E-04    0.52      29.4  T
   9   -117.2498779 -0.173607E-08  0.130E-04    0.52      86.5  T
     SCC iter.                  ...        0 min,  0.140 sec
     gradient                   ...        0 min,  0.076 sec
 * total energy  :  -115.3446315 Eh     change       -0.3212393E-03 Eh
   gradient norm :     0.0038801 Eh/α   predicted    -0.2716923E-03 ( -15.42%)
   displ. norm   :     0.7502110 α      lambda       -0.4288151E-03
   maximum displ.:     0.3278123 α      in ANC's #13, #6, #5, ...

........................................................................
.............................. CYCLE   34 ..............................
........................................................................

 iter      E             dE          RMSdq      gap      omega  full diag
   1   -117.2421435 -0.117242E+03  0.181E-01    0.51       0.0  T
   2   -117.2421408  0.266653E-05  0.106E-01    0.52       1.0  T
   3   -117.2419103  0.230537E-03  0.686E-02    0.49       1.0  T
   4   -117.2416505  0.259847E-03  0.719E-02    0.56       1.0  T
   5   -117.2421549 -0.504434E-03  0.305E-03    0.52       3.7  T
   6   -117.2421551 -0.222944E-06  0.144E-03    0.52       7.8  T
   7   -117.2421551 -0.171832E-07  0.465E-04    0.52      24.2  T
   8   -117.2421551 -0.158455E-08  0.216E-04    0.52      52.1  T
     SCC iter.                  ...        0 min,  0.138 sec
     gradient                   ...        0 min,  0.079 sec
 * total energy  :  -115.3449708 Eh     change       -0.3393312E-03 Eh
   gradient norm :     0.0070377 Eh/α   predicted    -0.3350995E-03 (  -1.25%)
   displ. norm   :     0.5823917 α      lambda       -0.7212356E-03
   maximum displ.:     0.1986147 α      in ANC's #20, #6, #12, ...

........................................................................
.............................. CYCLE   35 ..............................
........................................................................

 iter      E             dE          RMSdq      gap      omega  full diag
   1   -117.2594607 -0.117259E+03  0.175E-01    0.54       0.0  T
   2   -117.2593459  0.114872E-03  0.111E-01    0.57       1.0  T
   3   -117.2586268  0.719027E-03  0.111E-01    0.48       1.0  T
   4   -117.2588452 -0.218395E-03  0.898E-02    0.59       1.0  T
   5   -117.2595187 -0.673482E-03  0.109E-02    0.54       1.0  T
   6   -117.2595197 -0.998698E-06  0.315E-03    0.54       3.6  T
   7   -117.2595197  0.695636E-09  0.140E-03    0.54       8.0  T
   8   -117.2595197 -0.142073E-07  0.688E-04    0.54      16.3  T
   9   -117.2595197 -0.129232E-07  0.223E-04    0.54      50.5  T
  10   -117.2595197 -0.101338E-08  0.127E-04    0.54      88.3  T
     SCC iter.                  ...        0 min,  0.151 sec
     gradient                   ...        0 min,  0.089 sec
 * total energy  :  -115.3449779 Eh     change       -0.7118718E-05 Eh
   gradient norm :     0.0149630 Eh/α   predicted    -0.4829513E-03 (6684.24%)
   displ. norm   :     0.4304976 α      lambda       -0.7642690E-03
   maximum displ.:     0.1909431 α      in ANC's #13, #6, #5, ...

........................................................................
.............................. CYCLE   36 ..............................
........................................................................

 iter      E             dE          RMSdq      gap      omega  full diag
   1   -117.2463347 -0.117246E+03  0.103E-01    0.52       0.0  T
   2   -117.2462664  0.683353E-04  0.671E-02    0.50       1.0  T
   3   -117.2454055  0.860877E-03  0.102E-01    0.58       1.0  T
   4   -117.2463293 -0.923780E-03  0.250E-02    0.52       1.0  T
   5   -117.2463558 -0.264942E-04  0.372E-03    0.53       3.0  T
   6   -117.2463560 -0.258626E-06  0.166E-03    0.52       6.8  T
   7   -117.2463560 -0.832129E-08  0.706E-04    0.52      15.9  T
   8   -117.2463561 -0.102087E-07  0.358E-04    0.52      31.4  T
   9   -117.2463561 -0.161384E-08  0.171E-04    0.52      66.0  T
     SCC iter.                  ...        0 min,  0.151 sec
     gradient                   ...        0 min,  0.087 sec
 * total energy  :  -115.3454529 Eh     change       -0.4749931E-03 Eh
   gradient norm :     0.0068903 Eh/α   predicted    -0.4529587E-03 (  -4.64%)
   displ. norm   :     0.5168044 α      lambda       -0.2571059E-03
   maximum displ.:     0.2260436 α      in ANC's #13, #6, #5, ...

........................................................................
.............................. CYCLE   37 ..............................
........................................................................

 iter      E             dE          RMSdq      gap      omega  full diag
   1   -117.2416511 -0.117242E+03  0.127E-01    0.53       0.0  T
   2   -117.2416514 -0.282199E-06  0.743E-02    0.52       1.0  T
   3   -117.2415604  0.909542E-04  0.433E-02    0.55       1.0  T
   4   -117.2414511  0.109281E-03  0.460E-02    0.50       1.0  T
   5   -117.2416565 -0.205346E-03  0.194E-03    0.53       5.8  T
   6   -117.2416565 -0.517344E-07  0.989E-04    0.53      11.4  T
   7   -117.2416565 -0.324150E-09  0.534E-04    0.53      21.1  T
   8   -117.2416565 -0.831645E-08  0.292E-04    0.53      38.5  T
   9   -117.2416565 -0.198058E-08  0.932E-05    0.53     120.7  T
     SCC iter.                  ...        0 min,  0.138 sec
     gradient                   ...        0 min,  0.078 sec
 * total energy  :  -115.3456523 Eh     change       -0.1994182E-03 Eh
   gradient norm :     0.0072858 Eh/α   predicted    -0.1628874E-03 ( -18.32%)
   displ. norm   :     0.3694239 α      lambda       -0.3888330E-03
   maximum displ.:     0.1490215 α      in ANC's #13, #6, #5, ...

........................................................................
.............................. CYCLE   38 ..............................
........................................................................

 iter      E             dE          RMSdq      gap      omega  full diag
   1   -117.2496410 -0.117250E+03  0.970E-02    0.54       0.0  T
   2   -117.2495374  0.103601E-03  0.676E-02    0.51       1.0  T
   3   -117.2488478  0.689666E-03  0.966E-02    0.59       1.0  T
   4   -117.2496537 -0.805979E-03  0.241E-02    0.53       1.0  T
   5   -117.2496725 -0.187343E-04  0.361E-03    0.54       3.1  T
   6   -117.2496730 -0.560602E-06  0.162E-03    0.54       6.9  T
   7   -117.2496731 -0.316710E-07  0.996E-04    0.54      11.3  T
   8   -117.2496731 -0.299296E-07  0.424E-04    0.54      26.6  T
   9   -117.2496731 -0.270876E-08  0.200E-04    0.54      56.2  T
     SCC iter.                  ...        0 min,  0.155 sec
     gradient                   ...        0 min,  0.073 sec
 * total energy  :  -115.3458465 Eh     change       -0.1941362E-03 Eh
   gradient norm :     0.0085561 Eh/α   predicted    -0.2209515E-03 (  13.81%)
   displ. norm   :     0.6062396 α      lambda       -0.3392944E-03
   maximum displ.:     0.2704773 α      in ANC's #6, #13, #2, ...

........................................................................
.............................. CYCLE   39 ..............................
........................................................................

 iter      E             dE          RMSdq      gap      omega  full diag
   1   -117.2447402 -0.117245E+03  0.157E-01    0.51       0.0  T
   2   -117.2446946  0.455230E-04  0.953E-02    0.54       1.0  T
   3   -117.2437859  0.908716E-03  0.108E-01    0.46       1.0  T
   4   -117.2444391 -0.653134E-03  0.613E-02    0.56       1.0  T
   5   -117.2447596 -0.320502E-03  0.357E-03    0.53       3.2  T
   6   -117.2447597 -0.188756E-06  0.141E-03    0.53       8.0  T
   7   -117.2447598 -0.143872E-07  0.598E-04    0.53      18.8  T
   8   -117.2447598 -0.653301E-09  0.302E-04    0.53      37.2  T
   9   -117.2447598 -0.947836E-09  0.113E-04    0.53      99.8  T
     SCC iter.                  ...        0 min,  0.138 sec
     gradient                   ...        0 min,  0.078 sec
 * total energy  :  -115.3460909 Eh     change       -0.2444383E-03 Eh
   gradient norm :     0.0090499 Eh/α   predicted    -0.2319985E-03 (  -5.09%)
   displ. norm   :     0.4099732 α      lambda       -0.3614733E-03
   maximum displ.:     0.1714279 α      in ANC's #6, #2, #13, ...

........................................................................
.............................. CYCLE   40 ..............................
........................................................................

 iter      E             dE          RMSdq      gap      omega  full diag
   1   -117.2489425 -0.117249E+03  0.109E-01    0.55       0.0  T
   2   -117.2488772  0.653677E-04  0.706E-02    0.57       1.0  T
   3   -117.2480003  0.876825E-03  0.103E-01    0.49       1.0  T
   4   -117.2489100 -0.909667E-03  0.296E-02    0.56       1.0  T
   5   -117.2489647 -0.546692E-04  0.262E-03    0.55       4.3  T
   6   -117.2489649 -0.247793E-06  0.145E-03    0.55       7.7  T
   7   -117.2489650 -0.809405E-07  0.818E-04    0.55      13.8  T
   8   -117.2489650 -0.275840E-08  0.375E-04    0.55      30.0  T
   9   -117.2489650 -0.938769E-09  0.136E-04    0.55      82.7  T
     SCC iter.                  ...        0 min,  0.152 sec
     gradient                   ...        0 min,  0.083 sec
 * total energy  :  -115.3462931 Eh     change       -0.2021478E-03 Eh
   gradient norm :     0.0077993 Eh/α   predicted    -0.2111150E-03 (   4.44%)
   displ. norm   :     0.5014083 α      lambda       -0.2851331E-03
   maximum displ.:     0.2168794 α      in ANC's #6, #13, #2, ...

........................................................................
.............................. CYCLE   41 ..............................
........................................................................

 iter      E             dE          RMSdq      gap      omega  full diag
   1   -117.2490948 -0.117249E+03  0.126E-01    0.53       0.0  T
   2   -117.2490884  0.635876E-05  0.743E-02    0.52       1.0  T
   3   -117.2488415  0.246962E-03  0.619E-02    0.56       1.0  T
   4   -117.2488422 -0.725594E-06  0.526E-02    0.50       1.0  T
   5   -117.2491026 -0.260377E-03  0.420E-03    0.53       2.7  T
   6   -117.2491029 -0.355780E-06  0.113E-03    0.53      10.0  T
   7   -117.2491029 -0.469272E-08  0.526E-04    0.53      21.4  T
   8   -117.2491030 -0.569645E-08  0.234E-04    0.53      48.1  T
   9   -117.2491030 -0.102668E-08  0.956E-05    0.53     117.6  T
     SCC iter.                  ...        0 min,  0.152 sec
     gradient                   ...        0 min,  0.083 sec
 * total energy  :  -115.3465020 Eh     change       -0.2089124E-03 Eh
   gradient norm :     0.0065861 Eh/α   predicted    -0.1784100E-03 ( -14.60%)
   displ. norm   :     0.5751462 α      lambda       -0.2907933E-03
   maximum displ.:     0.2548667 α      in ANC's #6, #13, #2, ...

........................................................................
.............................. CYCLE   42 ..............................
........................................................................

 iter      E             dE          RMSdq      gap      omega  full diag
   1   -117.2490967 -0.117249E+03  0.143E-01    0.54       0.0  T
   2   -117.2490282  0.685304E-04  0.885E-02    0.51       1.0  T
   3   -117.2481815  0.846686E-03  0.107E-01    0.59       1.0  T
   4   -117.2488801 -0.698574E-03  0.552E-02    0.50       1.0  T
   5   -117.2491195 -0.239373E-03  0.531E-03    0.53       2.1  T
   6   -117.2491200 -0.510861E-06  0.125E-03    0.53       9.0  T
   7   -117.2491200 -0.222695E-07  0.616E-04    0.53      18.3  T
   8   -117.2491200 -0.621186E-08  0.323E-04    0.53      34.8  T
   9   -117.2491200 -0.281304E-08  0.126E-04    0.53      89.2  T
     SCC iter.                  ...        0 min,  0.155 sec
     gradient                   ...        0 min,  0.083 sec
 * total energy  :  -115.3467274 Eh     change       -0.2253913E-03 Eh
   gradient norm :     0.0057952 Eh/α   predicted    -0.1934980E-03 ( -14.15%)
   displ. norm   :     0.5049962 α      lambda       -0.2920792E-03
   maximum displ.:     0.2280643 α      in ANC's #2, #6, #13, ...
 * RMSD in coord.:     0.8689186 α      energy gain  -0.4269058E-02 Eh

generating ANC from exact Hessian ...
Using Lindh-Hessian (1995)
 Shifting diagonal of input Hessian by    1.2054861917667123E-002
 Lowest  eigenvalues of input Hessian
    0.010000    0.011899    0.011973    0.000000    0.000000    0.000000
    0.000000    0.000000    0.000000    0.012164    0.012293    0.012348
    0.012449    0.012521    0.012535    0.012636    0.012705    0.012801
 Highest eigenvalues
    2.006511    2.007895    2.008229    2.031874    2.241539    2.317638


........................................................................
.............................. CYCLE   43 ..............................
........................................................................

 iter      E             dE          RMSdq      gap      omega  full diag
   1   -117.2599015 -0.117260E+03  0.125E-01    0.54       0.0  T
   2   -117.2598939  0.759781E-05  0.737E-02    0.53       1.0  T
   3   -117.2597465  0.147382E-03  0.583E-02    0.57       1.0  T
   4   -117.2595392  0.207338E-03  0.629E-02    0.50       1.0  T
   5   -117.2599101 -0.370872E-03  0.822E-03    0.54       1.4  T
   6   -117.2599120 -0.196728E-05  0.134E-03    0.54       8.4  T
   7   -117.2599121 -0.318148E-07  0.551E-04    0.54      20.4  T
   8   -117.2599121 -0.207780E-08  0.305E-04    0.54      36.9  T
   9   -117.2599121 -0.177150E-08  0.131E-04    0.54      85.8  T
     SCC iter.                  ...        0 min,  0.140 sec
     gradient                   ...        0 min,  0.090 sec
 * total energy  :  -115.3468828 Eh     change       -0.1554860E-03 Eh
   gradient norm :     0.0066886 Eh/α   predicted     0.0000000E+00 (-100.00%)
   displ. norm   :     0.0582879 α      lambda       -0.9033261E-04
   maximum displ.:     0.0203515 α      in ANC's #3, #23, #6, ...

........................................................................
.............................. CYCLE   44 ..............................
........................................................................

 iter      E             dE          RMSdq      gap      omega  full diag
   1   -117.2554216 -0.117255E+03  0.259E-02    0.54       0.0  T
   2   -117.2553887  0.329294E-04  0.244E-02    0.55       1.0  T
   3   -117.2553948 -0.606702E-05  0.216E-02    0.53       1.0  T
   4   -117.2554289 -0.340997E-04  0.620E-03    0.54       1.8  T
   5   -117.2554293 -0.411306E-06  0.197E-03    0.54       5.7  T
   6   -117.2554294 -0.835034E-07  0.736E-04    0.54      15.3  T
   7   -117.2554294 -0.707738E-08  0.377E-04    0.54      29.9  T
   8   -117.2554294 -0.234779E-08  0.164E-04    0.54      68.5  T
     SCC iter.                  ...        0 min,  0.120 sec
     gradient                   ...        0 min,  0.084 sec
 * total energy  :  -115.3469507 Eh     change       -0.6783489E-04 Eh
   gradient norm :     0.0025418 Eh/α   predicted    -0.5936286E-04 ( -12.49%)
   displ. norm   :     0.1087930 α      lambda       -0.1196229E-03
   maximum displ.:     0.0538002 α      in ANC's #17, #3, #6, ...

........................................................................
.............................. CYCLE   45 ..............................
........................................................................

 iter      E             dE          RMSdq      gap      omega  full diag
   1   -117.2499728 -0.117250E+03  0.434E-02    0.54       0.0  T
   2   -117.2499511  0.217691E-04  0.304E-02    0.55       1.0  T
   3   -117.2498652  0.858381E-04  0.371E-02    0.52       1.0  T
   4   -117.2499668 -0.101562E-03  0.158E-02    0.55       1.0  T
   5   -117.2499800 -0.132251E-04  0.239E-03    0.54       4.7  T
   6   -117.2499801 -0.855799E-07  0.115E-03    0.54       9.8  T
   7   -117.2499801 -0.520508E-08  0.524E-04    0.54      21.5  T
   8   -117.2499801 -0.574606E-08  0.199E-04    0.54      56.6  T
   9   -117.2499801 -0.294264E-09  0.872E-05    0.54     129.0  T
     SCC iter.                  ...        0 min,  0.145 sec
     gradient                   ...        0 min,  0.092 sec
 * total energy  :  -115.3469172 Eh     change        0.3352339E-04 Eh
   gradient norm :     0.0073955 Eh/α   predicted    -0.6051985E-04 (-280.53%)
   displ. norm   :     0.0770860 α      lambda       -0.2127117E-03
   maximum displ.:     0.0257687 α      in ANC's #3, #6, #25, ...

........................................................................
.............................. CYCLE   46 ..............................
........................................................................

 iter      E             dE          RMSdq      gap      omega  full diag
   1   -117.2500048 -0.117250E+03  0.419E-02    0.54       0.0  T
   2   -117.2500077 -0.298744E-05  0.234E-02    0.53       1.0  T
   3   -117.2500076  0.181757E-06  0.135E-02    0.54       1.0  T
   4   -117.2499941  0.135141E-04  0.138E-02    0.53       1.0  T
   5   -117.2500068 -0.127413E-04  0.580E-03    0.54       1.9  T
   6   -117.2500092 -0.244204E-05  0.182E-03    0.54       6.2  T
   7   -117.2500093 -0.777430E-07  0.474E-04    0.54      23.7  T
   8   -117.2500093 -0.146228E-08  0.266E-04    0.54      42.3  T
     SCC iter.                  ...        0 min,  0.126 sec
     gradient                   ...        0 min,  0.084 sec
 * total energy  :  -115.3469979 Eh     change       -0.8070163E-04 Eh
   gradient norm :     0.0056971 Eh/α   predicted    -0.1069899E-03 (  32.57%)
   displ. norm   :     0.0536245 α      lambda       -0.1151883E-03
   maximum displ.:     0.0318877 α      in ANC's #1, #3, #23, ...

........................................................................
.............................. CYCLE   47 ..............................
........................................................................

 iter      E             dE          RMSdq      gap      omega  full diag
   1   -117.2549861 -0.117255E+03  0.280E-02    0.54       0.0  T
   2   -117.2549742  0.118860E-04  0.214E-02    0.53       1.0  T
   3   -117.2549477  0.265501E-04  0.238E-02    0.55       1.0  T
   4   -117.2549887 -0.409930E-04  0.921E-03    0.53       1.2  T
   5   -117.2549925 -0.382758E-05  0.351E-03    0.54       3.2  T
   6   -117.2549929 -0.368173E-06  0.177E-03    0.54       6.3  T
   7   -117.2549929 -0.124602E-07  0.558E-04    0.54      20.2  T
   8   -117.2549929 -0.333243E-08  0.328E-04    0.54      34.3  T
   9   -117.2549929 -0.152066E-08  0.144E-04    0.54      78.2  T
     SCC iter.                  ...        0 min,  0.136 sec
     gradient                   ...        0 min,  0.084 sec
 * total energy  :  -115.3470367 Eh     change       -0.3886793E-04 Eh
   gradient norm :     0.0018295 Eh/α   predicted    -0.5776066E-04 (  48.61%)
   displ. norm   :     0.1377765 α      lambda       -0.7230972E-04
   maximum displ.:     0.0586001 α      in ANC's #3, #6, #1, ...

........................................................................
.............................. CYCLE   48 ..............................
........................................................................

 iter      E             dE          RMSdq      gap      omega  full diag
   1   -117.2553576 -0.117255E+03  0.352E-02    0.54       0.0  T
   2   -117.2553599 -0.231979E-05  0.234E-02    0.54       1.0  T
   3   -117.2553609 -0.958645E-06  0.134E-02    0.54       1.0  T
   4   -117.2553567  0.419249E-05  0.766E-03    0.54       1.5  T
   5   -117.2553598 -0.315910E-05  0.476E-03    0.54       2.4  T
   6   -117.2553617 -0.186123E-05  0.139E-03    0.54       8.1  T
   7   -117.2553618 -0.799985E-07  0.558E-04    0.54      20.2  T
   8   -117.2553618 -0.767201E-09  0.231E-04    0.54      48.7  T
   9   -117.2553618 -0.914923E-09  0.116E-04    0.54      96.8  T
     SCC iter.                  ...        0 min,  0.140 sec
     gradient                   ...        0 min,  0.088 sec
 * total energy  :  -115.3470816 Eh     change       -0.4488933E-04 Eh
   gradient norm :     0.0024596 Eh/α   predicted    -0.3646482E-04 ( -18.77%)
   displ. norm   :     0.2119682 α      lambda       -0.1184330E-03
   maximum displ.:     0.0967352 α      in ANC's #3, #6, #17, ...

........................................................................
.............................. CYCLE   49 ..............................
........................................................................

 iter      E             dE          RMSdq      gap      omega  full diag
   1   -117.2527571 -0.117253E+03  0.444E-02    0.54       0.0  T
   2   -117.2527534  0.370818E-05  0.268E-02    0.54       1.0  T
   3   -117.2526706  0.827863E-04  0.325E-02    0.52       1.0  T
   4   -117.2527405 -0.698624E-04  0.154E-02    0.55       1.0  T
   5   -117.2527595 -0.189878E-04  0.220E-03    0.54       5.1  T
   6   -117.2527595 -0.855612E-07  0.104E-03    0.54      10.8  T
   7   -117.2527595 -0.423104E-08  0.374E-04    0.54      30.1  T
   8   -117.2527595 -0.410580E-09  0.196E-04    0.54      57.5  T
     SCC iter.                  ...        0 min,  0.127 sec
     gradient                   ...        0 min,  0.092 sec
 * total energy  :  -115.3471577 Eh     change       -0.7611827E-04 Eh
   gradient norm :     0.0033518 Eh/α   predicted    -0.6187924E-04 ( -18.71%)
   displ. norm   :     0.2997399 α      lambda       -0.1195627E-03
   maximum displ.:     0.1400955 α      in ANC's #3, #6, #2, ...

........................................................................
.............................. CYCLE   50 ..............................
........................................................................

 iter      E             dE          RMSdq      gap      omega  full diag
   1   -117.2524068 -0.117252E+03  0.584E-02    0.54       0.0  T
   2   -117.2524076 -0.838915E-06  0.343E-02    0.54       1.0  T
   3   -117.2524017  0.596489E-05  0.205E-02    0.54       1.0  T
   4   -117.2523834  0.182763E-04  0.162E-02    0.53       1.0  T
   5   -117.2524083 -0.249518E-04  0.239E-03    0.54       4.7  T
   6   -117.2524086 -0.299041E-06  0.897E-04    0.54      12.5  T
   7   -117.2524086 -0.187680E-08  0.422E-04    0.54      26.7  T
   8   -117.2524086 -0.568960E-09  0.186E-04    0.54      60.4  T
     SCC iter.                  ...        0 min,  0.128 sec
     gradient                   ...        0 min,  0.086 sec
 * total energy  :  -115.3472527 Eh     change       -0.9494270E-04 Eh
   gradient norm :     0.0031418 Eh/α   predicted    -0.6515490E-04 ( -31.37%)
   displ. norm   :     0.4627699 α      lambda       -0.1651763E-03
   maximum displ.:     0.2191430 α      in ANC's #3, #6, #2, ...

........................................................................
.............................. CYCLE   51 ..............................
........................................................................

 iter      E             dE          RMSdq      gap      omega  full diag
   1   -117.2537365 -0.117254E+03  0.900E-02    0.54       0.0  T
   2   -117.2537363  0.221657E-06  0.535E-02    0.53       1.0  T
   3   -117.2536625  0.737809E-04  0.386E-02    0.56       1.0  T
   4   -117.2536414  0.210984E-04  0.323E-02    0.52       1.0  T
   5   -117.2537406 -0.991822E-04  0.301E-03    0.54       3.7  T
   6   -117.2537410 -0.378394E-06  0.129E-03    0.54       8.7  T
   7   -117.2537410 -0.689700E-08  0.492E-04    0.54      22.9  T
   8   -117.2537410  0.122796E-09  0.261E-04    0.54      43.1  T
     SCC iter.                  ...        0 min,  0.123 sec
     gradient                   ...        0 min,  0.090 sec
 * total energy  :  -115.3473726 Eh     change       -0.1199332E-03 Eh
   gradient norm :     0.0026078 Eh/α   predicted    -0.1002755E-03 ( -16.39%)
   displ. norm   :     0.4391172 α      lambda       -0.1274834E-03
   maximum displ.:     0.2100256 α      in ANC's #3, #6, #2, ...

........................................................................
.............................. CYCLE   52 ..............................
........................................................................

 iter      E             dE          RMSdq      gap      omega  full diag
   1   -117.2536949 -0.117254E+03  0.851E-02    0.54       0.0  T
   2   -117.2536963 -0.138362E-05  0.504E-02    0.54       1.0  T
   3   -117.2536869  0.941870E-05  0.299E-02    0.55       1.0  T
   4   -117.2536752  0.116367E-04  0.164E-02    0.53       1.0  T
   5   -117.2536965 -0.212493E-04  0.448E-03    0.54       2.5  T
   6   -117.2536979 -0.144996E-05  0.106E-03    0.54      10.6  T
   7   -117.2536979 -0.728340E-08  0.451E-04    0.54      24.9  T
   8   -117.2536979  0.499796E-10  0.223E-04    0.54      50.6  T
     SCC iter.                  ...        0 min,  0.128 sec
     gradient                   ...        0 min,  0.078 sec
 * total energy  :  -115.3474680 Eh     change       -0.9543155E-04 Eh
   gradient norm :     0.0027418 Eh/α   predicted    -0.7603312E-04 ( -20.33%)
   displ. norm   :     0.4295139 α      lambda       -0.1222275E-03
   maximum displ.:     0.2099893 α      in ANC's #3, #6, #2, ...

........................................................................
.............................. CYCLE   53 ..............................
........................................................................

 iter      E             dE          RMSdq      gap      omega  full diag
   1   -117.2541327 -0.117254E+03  0.844E-02    0.54       0.0  T
   2   -117.2541344 -0.176756E-05  0.499E-02    0.54       1.0  T
   3   -117.2541282  0.624779E-05  0.285E-02    0.53       1.0  T
   4   -117.2541162  0.119862E-04  0.147E-02    0.55       1.0  T
   5   -117.2541354 -0.191950E-04  0.289E-03    0.54       3.9  T
   6   -117.2541359 -0.494183E-06  0.156E-03    0.54       7.2  T
   7   -117.2541359 -0.430688E-07  0.415E-04    0.54      27.1  T
   8   -117.2541359  0.734929E-09  0.228E-04    0.54      49.3  T
     SCC iter.                  ...        0 min,  0.117 sec
     gradient                   ...        0 min,  0.080 sec
 * total energy  :  -115.3475578 Eh     change       -0.8979222E-04 Eh
   gradient norm :     0.0025847 Eh/α   predicted    -0.7238902E-04 ( -19.38%)
   displ. norm   :     0.3750507 α      lambda       -0.1068566E-03
   maximum displ.:     0.1848223 α      in ANC's #3, #2, #6, ...

........................................................................
.............................. CYCLE   54 ..............................
........................................................................

 iter      E             dE          RMSdq      gap      omega  full diag
   1   -117.2552886 -0.117255E+03  0.756E-02    0.54       0.0  T
   2   -117.2552880  0.557884E-06  0.449E-02    0.54       1.0  T
   3   -117.2552406  0.474470E-04  0.334E-02    0.53       1.0  T
   4   -117.2552327  0.787148E-05  0.252E-02    0.55       1.0  T
   5   -117.2552902 -0.574994E-04  0.427E-03    0.54       2.6  T
   6   -117.2552910 -0.815452E-06  0.964E-04    0.54      11.7  T
   7   -117.2552910 -0.191906E-08  0.415E-04    0.54      27.1  T
   8   -117.2552910 -0.494538E-11  0.184E-04    0.54      61.0  T
     SCC iter.                  ...        0 min,  0.132 sec
     gradient                   ...        0 min,  0.083 sec
 * total energy  :  -115.3476329 Eh     change       -0.7502892E-04 Eh
   gradient norm :     0.0025021 Eh/α   predicted    -0.6094624E-04 ( -18.77%)
   displ. norm   :     0.3629191 α      lambda       -0.8327350E-04
   maximum displ.:     0.1820566 α      in ANC's #3, #2, #6, ...

........................................................................
.............................. CYCLE   55 ..............................
........................................................................

 iter      E             dE          RMSdq      gap      omega  full diag
   1   -117.2544514 -0.117254E+03  0.719E-02    0.54       0.0  T
   2   -117.2544518 -0.465529E-06  0.423E-02    0.54       1.0  T
   3   -117.2544364  0.154357E-04  0.249E-02    0.53       1.0  T
   4   -117.2544106  0.258548E-04  0.210E-02    0.55       1.0  T
   5   -117.2544532 -0.425940E-04  0.182E-03    0.54       6.2  T
   6   -117.2544532 -0.949975E-07  0.996E-04    0.54      11.3  T
   7   -117.2544533 -0.539973E-08  0.408E-04    0.54      27.6  T
   8   -117.2544533 -0.416762E-09  0.160E-04    0.54      70.4  T
     SCC iter.                  ...        0 min,  0.116 sec
     gradient                   ...        0 min,  0.077 sec
 * total energy  :  -115.3476980 Eh     change       -0.6514648E-04 Eh
   gradient norm :     0.0025531 Eh/α   predicted    -0.4712395E-04 ( -27.66%)
   displ. norm   :     0.3416396 α      lambda       -0.9602536E-04
   maximum displ.:     0.1685244 α      in ANC's #3, #2, #13, ...

........................................................................
.............................. CYCLE   56 ..............................
........................................................................

 iter      E             dE          RMSdq      gap      omega  full diag
   1   -117.2562618 -0.117256E+03  0.701E-02    0.54       0.0  T
   2   -117.2562630 -0.121967E-05  0.409E-02    0.54       1.0  T
   3   -117.2562626  0.408030E-06  0.206E-02    0.54       1.0  T
   4   -117.2562628 -0.186818E-06  0.394E-03    0.54       2.9  T
   5   -117.2562632 -0.396552E-06  0.233E-03    0.54       4.8  T
   6   -117.2562636 -0.395754E-06  0.977E-04    0.54      11.5  T
   7   -117.2562636 -0.387610E-07  0.549E-04    0.54      20.5  T
   8   -117.2562636 -0.645387E-08  0.148E-04    0.54      76.1  T
   9   -117.2562636 -0.227018E-09  0.770E-05    0.54     146.1  T
     SCC iter.                  ...        0 min,  0.147 sec
     gradient                   ...        0 min,  0.080 sec
 * total energy  :  -115.3477682 Eh     change       -0.7014996E-04 Eh
   gradient norm :     0.0020186 Eh/α   predicted    -0.5361735E-04 ( -23.57%)
   displ. norm   :     0.3908101 α      lambda       -0.7888518E-04
   maximum displ.:     0.1991527 α      in ANC's #3, #2, #6, ...

........................................................................
.............................. CYCLE   57 ..............................
........................................................................

 iter      E             dE          RMSdq      gap      omega  full diag
   1   -117.2536215 -0.117254E+03  0.806E-02    0.54       0.0  T
   2   -117.2536236 -0.207354E-05  0.468E-02    0.54       1.0  T
   3   -117.2536229  0.648616E-06  0.250E-02    0.54       1.0  T
   4   -117.2536183  0.463805E-05  0.847E-03    0.54       1.3  T
   5   -117.2536240 -0.575813E-05  0.264E-03    0.54       4.3  T
   6   -117.2536245 -0.490138E-06  0.917E-04    0.54      12.3  T
   7   -117.2536245 -0.767351E-08  0.569E-04    0.54      19.8  T
   8   -117.2536245 -0.332548E-08  0.167E-04    0.54      67.5  T
   9   -117.2536245 -0.118845E-09  0.676E-05    0.54     166.4  T
     SCC iter.                  ...        0 min,  0.135 sec
     gradient                   ...        0 min,  0.082 sec
 * total energy  :  -115.3478175 Eh     change       -0.4932361E-04 Eh
   gradient norm :     0.0024164 Eh/α   predicted    -0.4546885E-04 (  -7.82%)
   displ. norm   :     0.1854299 α      lambda       -0.5853135E-04
   maximum displ.:     0.0759067 α      in ANC's #3, #12, #10, ...

........................................................................
.............................. CYCLE   58 ..............................
........................................................................

 iter      E             dE          RMSdq      gap      omega  full diag
   1   -117.2572275 -0.117257E+03  0.417E-02    0.54       0.0  T
   2   -117.2572273  0.223825E-06  0.241E-02    0.54       1.0  T
   3   -117.2572201  0.720986E-05  0.167E-02    0.55       1.0  T
   4   -117.2571762  0.438310E-04  0.236E-02    0.53       1.0  T
   5   -117.2572291 -0.528745E-04  0.188E-03    0.54       6.0  T
   6   -117.2572292 -0.925593E-07  0.605E-04    0.54      18.6  T
   7   -117.2572292 -0.150864E-08  0.320E-04    0.54      35.1  T
   8   -117.2572292  0.233570E-09  0.169E-04    0.54      66.6  T
     SCC iter.                  ...        0 min,  0.139 sec
     gradient                   ...        0 min,  0.087 sec
 * total energy  :  -115.3478505 Eh     change       -0.3301033E-04 Eh
   gradient norm :     0.0021483 Eh/α   predicted    -0.3027276E-04 (  -8.29%)
   displ. norm   :     0.1385910 α      lambda       -0.2911384E-04
   maximum displ.:     0.0749642 α      in ANC's #3, #2, #13, ...

........................................................................
.............................. CYCLE   59 ..............................
........................................................................

 iter      E             dE          RMSdq      gap      omega  full diag
   1   -117.2566980 -0.117257E+03  0.296E-02    0.54       0.0  T
   2   -117.2566983 -0.281762E-06  0.171E-02    0.54       1.0  T
   3   -117.2566977  0.592578E-06  0.102E-02    0.55       1.1  T
   4   -117.2566905  0.717091E-05  0.909E-03    0.54       1.2  T
   5   -117.2566985 -0.795940E-05  0.965E-04    0.54      11.7  T
   6   -117.2566985 -0.378354E-07  0.279E-04    0.54      40.3  T
   7   -117.2566985 -0.821814E-10  0.154E-04    0.54      72.8  T
     SCC iter.                  ...        0 min,  0.112 sec
     gradient                   ...        0 min,  0.085 sec
 * total energy  :  -115.3478746 Eh     change       -0.2407704E-04 Eh
   gradient norm :     0.0016582 Eh/α   predicted    -0.1483796E-04 ( -38.37%)
   displ. norm   :     0.2710547 α      lambda       -0.5032052E-04
   maximum displ.:     0.1431636 α      in ANC's #3, #11, #13, ...

........................................................................
.............................. CYCLE   60 ..............................
........................................................................

 iter      E             dE          RMSdq      gap      omega  full diag
   1   -117.2560024 -0.117256E+03  0.583E-02    0.55       0.0  T
   2   -117.2560006  0.178048E-05  0.345E-02    0.55       1.0  T
   3   -117.2559641  0.364717E-04  0.272E-02    0.53       1.0  T
   4   -117.2559175  0.466696E-04  0.307E-02    0.56       1.0  T
   5   -117.2560047 -0.872796E-04  0.169E-03    0.55       6.7  T
   6   -117.2560048 -0.407301E-07  0.638E-04    0.55      17.6  T
   7   -117.2560048 -0.631971E-09  0.287E-04    0.55      39.3  T
   8   -117.2560048 -0.781384E-09  0.163E-04    0.55      68.8  T
     SCC iter.                  ...        0 min,  0.130 sec
     gradient                   ...        0 min,  0.087 sec
 * total energy  :  -115.3479092 Eh     change       -0.3459013E-04 Eh
   gradient norm :     0.0016222 Eh/α   predicted    -0.2598491E-04 ( -24.88%)
   displ. norm   :     0.0619736 α      lambda       -0.9468084E-05
   maximum displ.:     0.0356412 α      in ANC's #3, #13, #11, ...

........................................................................
.............................. CYCLE   61 ..............................
........................................................................

 iter      E             dE          RMSdq      gap      omega  full diag
   1   -117.2558188 -0.117256E+03  0.141E-02    0.55       0.0  T
   2   -117.2558167  0.207068E-05  0.971E-03    0.54       1.2  T
   3   -117.2558025  0.142020E-04  0.140E-02    0.55       1.0  T
   4   -117.2558188 -0.163415E-04  0.359E-03    0.54       3.1  T
   5   -117.2558193 -0.505230E-06  0.994E-04    0.55      11.3  T
   6   -117.2558194 -0.199759E-07  0.240E-04    0.55      46.8  T
   7   -117.2558194 -0.509374E-09  0.920E-05    0.55     122.3  T
     SCC iter.                  ...        0 min,  0.115 sec
     gradient                   ...        0 min,  0.089 sec
 * total energy  :  -115.3479195 Eh     change       -0.1037791E-04 Eh
   gradient norm :     0.0009658 Eh/α   predicted    -0.4744533E-05 ( -54.28%)
   displ. norm   :     0.1028683 α      lambda       -0.1551956E-04
   maximum displ.:     0.0570265 α      in ANC's #3, #11, #4, ...

........................................................................
.............................. CYCLE   62 ..............................
........................................................................

 iter      E             dE          RMSdq      gap      omega  full diag
   1   -117.2563341 -0.117256E+03  0.259E-02    0.55       0.0  T
   2   -117.2563295  0.456556E-05  0.167E-02    0.55       1.0  T
   3   -117.2563055  0.240162E-04  0.196E-02    0.54       1.0  T
   4   -117.2563277 -0.221800E-04  0.104E-02    0.55       1.1  T
   5   -117.2563355 -0.784565E-05  0.152E-03    0.55       7.4  T
   6   -117.2563355 -0.338185E-07  0.512E-04    0.55      22.0  T
   7   -117.2563355 -0.122110E-08  0.210E-04    0.55      53.6  T
   8   -117.2563355 -0.702713E-09  0.102E-04    0.55     110.5  T
     SCC iter.                  ...        0 min,  0.129 sec
     gradient                   ...        0 min,  0.085 sec
 * total energy  :  -115.3479317 Eh     change       -0.1220254E-04 Eh
   gradient norm :     0.0013106 Eh/α   predicted    -0.7800511E-05 ( -36.07%)
   displ. norm   :     0.0921568 α      lambda       -0.1010470E-04
   maximum displ.:     0.0521956 α      in ANC's #3, #11, #4, ...

........................................................................
.............................. CYCLE   63 ..............................
........................................................................

 iter      E             dE          RMSdq      gap      omega  full diag
   1   -117.2566535 -0.117257E+03  0.193E-02    0.55       0.0  T
   2   -117.2566512  0.237476E-05  0.126E-02    0.55       1.0  T
   3   -117.2566227  0.284767E-04  0.192E-02    0.56       1.0  T
   4   -117.2566532 -0.305455E-04  0.482E-03    0.55       2.3  T
   5   -117.2566543 -0.106601E-05  0.141E-03    0.55       8.0  T
   6   -117.2566543 -0.506395E-07  0.296E-04    0.55      38.0  T
   7   -117.2566543 -0.105817E-08  0.108E-04    0.55     104.0  T
     SCC iter.                  ...        0 min,  0.115 sec
     gradient                   ...        0 min,  0.089 sec
 * total energy  :  -115.3479431 Eh     change       -0.1133259E-04 Eh
   gradient norm :     0.0013831 Eh/α   predicted    -0.5074330E-05 ( -55.22%)
   displ. norm   :     0.1352841 α      lambda       -0.1246600E-04
   maximum displ.:     0.0780277 α      in ANC's #3, #11, #4, ...

........................................................................
.............................. CYCLE   64 ..............................
........................................................................

 iter      E             dE          RMSdq      gap      omega  full diag
   1   -117.2563702 -0.117256E+03  0.248E-02    0.55       0.0  T
   2   -117.2563689  0.133466E-05  0.152E-02    0.55       1.0  T
   3   -117.2563362  0.326136E-04  0.201E-02    0.56       1.0  T
   4   -117.2563671 -0.308883E-04  0.697E-03    0.55       1.6  T
   5   -117.2563707 -0.360355E-05  0.925E-04    0.55      12.2  T
   6   -117.2563708 -0.260543E-07  0.376E-04    0.55      29.9  T
   7   -117.2563708 -0.152579E-08  0.125E-04    0.55      90.1  T
     SCC iter.                  ...        0 min,  0.109 sec
     gradient                   ...        0 min,  0.086 sec
 * total energy  :  -115.3479580 Eh     change       -0.1496444E-04 Eh
   gradient norm :     0.0010148 Eh/α   predicted    -0.6286597E-05 ( -57.99%)
   displ. norm   :     0.1882218 α      lambda       -0.1432456E-04
   maximum displ.:     0.1044006 α      in ANC's #3, #11, #4, ...

........................................................................
.............................. CYCLE   65 ..............................
........................................................................

 iter      E             dE          RMSdq      gap      omega  full diag
   1   -117.2566525 -0.117257E+03  0.324E-02    0.55       0.0  T
   2   -117.2566527 -0.206738E-06  0.191E-02    0.55       1.0  T
   3   -117.2566518  0.933967E-06  0.838E-03    0.55       1.3  T
   4   -117.2566520 -0.186814E-06  0.327E-03    0.56       3.4  T
   5   -117.2566528 -0.835227E-06  0.994E-04    0.55      11.3  T
   6   -117.2566529 -0.659270E-07  0.383E-04    0.55      29.4  T
   7   -117.2566529 -0.326318E-08  0.151E-04    0.55      74.4  T
     SCC iter.                  ...        0 min,  0.108 sec
     gradient                   ...        0 min,  0.081 sec
 * total energy  :  -115.3479738 Eh     change       -0.1577068E-04 Eh
   gradient norm :     0.0007376 Eh/α   predicted    -0.7277755E-05 ( -53.85%)
   displ. norm   :     0.1785099 α      lambda       -0.9940624E-05
   maximum displ.:     0.1014669 α      in ANC's #3, #11, #4, ...

........................................................................
.............................. CYCLE   66 ..............................
........................................................................

 iter      E             dE          RMSdq      gap      omega  full diag
   1   -117.2564742 -0.117256E+03  0.308E-02    0.56       0.0  T
   2   -117.2564744 -0.213827E-06  0.181E-02    0.55       1.0  T
   3   -117.2564734  0.104939E-05  0.944E-03    0.56       1.2  T
   4   -117.2564717  0.171394E-05  0.561E-03    0.55       2.0  T
   5   -117.2564745 -0.283917E-05  0.124E-03    0.56       9.1  T
   6   -117.2564746 -0.110503E-06  0.315E-04    0.55      35.7  T
   7   -117.2564746 -0.238956E-09  0.195E-04    0.55      57.8  T
     SCC iter.                  ...        0 min,  0.112 sec
     gradient                   ...        0 min,  0.086 sec
 * total energy  :  -115.3479837 Eh     change       -0.9885802E-05 Eh
   gradient norm :     0.0008942 Eh/α   predicted    -0.5042365E-05 ( -48.99%)
   displ. norm   :     0.1742971 α      lambda        0.2813272E-05
   maximum displ.:     0.0990047 α      in ANC's #3, #11, #4, ...
 * RMSD in coord.:     0.4326459 α      energy gain  -0.1256335E-02 Eh

generating ANC from exact Hessian ...
Using Lindh-Hessian (1995)
 Shifting diagonal of input Hessian by    1.2011716832664176E-002
 Lowest  eigenvalues of input Hessian
    0.010000    0.011857    0.011924    0.000000    0.000000    0.000000
    0.000000    0.000000    0.000000    0.012137    0.012253    0.012292
    0.012426    0.012474    0.012540    0.012586    0.012672    0.012804
 Highest eigenvalues
    2.003018    2.004967    2.005732    2.024609    2.240943    2.313662


........................................................................
.............................. CYCLE   67 ..............................
........................................................................

 iter      E             dE          RMSdq      gap      omega  full diag
   1   -117.2560604 -0.117256E+03  0.301E-02    0.56       0.0  T
   2   -117.2560606 -0.204379E-06  0.177E-02    0.55       1.0  T
   3   -117.2560596  0.101229E-05  0.923E-03    0.56       1.2  T
   4   -117.2560580  0.161629E-05  0.548E-03    0.55       2.1  T
   5   -117.2560607 -0.270004E-05  0.123E-03    0.56       9.2  T
   6   -117.2560608 -0.108124E-06  0.312E-04    0.56      36.0  T
   7   -117.2560608 -0.231637E-09  0.190E-04    0.55      59.1  T
     SCC iter.                  ...        0 min,  0.114 sec
     gradient                   ...        0 min,  0.080 sec
 * total energy  :  -115.3479834 Eh     change        0.3163577E-06 Eh
   gradient norm :     0.0018729 Eh/α   predicted     0.0000000E+00 (-100.00%)
   displ. norm   :     0.0298283 α      lambda       -0.3390912E-05
   maximum displ.:     0.0125473 α      in ANC's #3, #1, #18, ...

........................................................................
.............................. CYCLE   68 ..............................
........................................................................

 iter      E             dE          RMSdq      gap      omega  full diag
   1   -117.2564525 -0.117256E+03  0.141E-02    0.56       0.0  T
   2   -117.2564528 -0.333316E-06  0.840E-03    0.56       1.3  T
   3   -117.2564528  0.413384E-07  0.646E-03    0.56       1.7  T
   4   -117.2564530 -0.279128E-06  0.262E-03    0.56       4.3  T
   5   -117.2564530  0.976111E-08  0.117E-03    0.56       9.6  T
   6   -117.2564530  0.519258E-07  0.133E-03    0.56       8.5  T
   7   -117.2564531 -0.155329E-06  0.181E-04    0.56      62.1  T
   8   -117.2564531 -0.673310E-10  0.104E-04    0.56     108.5  T
     SCC iter.                  ...        0 min,  0.134 sec
     gradient                   ...        0 min,  0.090 sec
 * total energy  :  -115.3479879 Eh     change       -0.4543169E-05 Eh
   gradient norm :     0.0014949 Eh/α   predicted    -0.6651830E-05 (  46.41%)
   displ. norm   :     0.0519534 α      lambda       -0.1722376E-04
   maximum displ.:     0.0224632 α      in ANC's #3, #26, #25, ...

........................................................................
.............................. CYCLE   69 ..............................
........................................................................

 iter      E             dE          RMSdq      gap      omega  full diag
   1   -117.2567727 -0.117257E+03  0.224E-02    0.56       0.0  T
   2   -117.2567708  0.193806E-05  0.139E-02    0.56       1.0  T
   3   -117.2567458  0.250024E-04  0.185E-02    0.55       1.0  T
   4   -117.2567698 -0.240762E-04  0.741E-03    0.56       1.5  T
   5   -117.2567737 -0.389171E-05  0.146E-03    0.56       7.7  T
   6   -117.2567738 -0.408348E-07  0.646E-04    0.56      17.4  T
   7   -117.2567738 -0.232144E-08  0.317E-04    0.56      35.5  T
   8   -117.2567738 -0.212864E-09  0.144E-04    0.56      78.2  T
     SCC iter.                  ...        0 min,  0.126 sec
     gradient                   ...        0 min,  0.087 sec
 * total energy  :  -115.3479597 Eh     change        0.2822946E-04 Eh
   gradient norm :     0.0037822 Eh/α   predicted    -0.8632364E-05 (-130.58%)
   displ. norm   :     0.0238300 α      lambda       -0.5397161E-04
   maximum displ.:     0.0106103 α      in ANC's #1, #26, #27, ...

........................................................................
.............................. CYCLE   70 ..............................
........................................................................

 iter      E             dE          RMSdq      gap      omega  full diag
   1   -117.2567068 -0.117257E+03  0.148E-02    0.56       0.0  T
   2   -117.2567072 -0.351420E-06  0.808E-03    0.56       1.4  T
   3   -117.2567069  0.316525E-06  0.565E-03    0.56       2.0  T
   4   -117.2567073 -0.433586E-06  0.259E-03    0.56       4.4  T
   5   -117.2567073  0.191221E-07  0.119E-03    0.56       9.4  T
   6   -117.2567072  0.784001E-07  0.138E-03    0.56       8.2  T
   7   -117.2567074 -0.170151E-06  0.215E-04    0.56      52.3  T
   8   -117.2567074 -0.436316E-09  0.111E-04    0.56     101.7  T
     SCC iter.                  ...        0 min,  0.131 sec
     gradient                   ...        0 min,  0.093 sec
 * total energy  :  -115.3479940 Eh     change       -0.3432677E-04 Eh
   gradient norm :     0.0017033 Eh/α   predicted    -0.2700206E-04 ( -21.34%)
   displ. norm   :     0.0359934 α      lambda        0.9771099E-05
   maximum displ.:     0.0157429 α      in ANC's #1, #26, #27, ...

........................................................................
.............................. CYCLE   71 ..............................
........................................................................

 iter      E             dE          RMSdq      gap      omega  full diag
   1   -117.2564215 -0.117256E+03  0.223E-02    0.56       0.0  T
   2   -117.2564218 -0.317839E-06  0.125E-02    0.55       1.0  T
   3   -117.2564129  0.892648E-05  0.126E-02    0.55       1.0  T
   4   -117.2564182 -0.535355E-05  0.767E-03    0.56       1.5  T
   5   -117.2564224 -0.423180E-05  0.306E-03    0.55       3.7  T
   6   -117.2564228 -0.366677E-06  0.107E-03    0.55      10.5  T
   7   -117.2564228 -0.301403E-07  0.319E-04    0.55      35.3  T
   8   -117.2564228 -0.209425E-09  0.169E-04    0.55      66.4  T
     SCC iter.                  ...        0 min,  0.125 sec
     gradient                   ...        0 min,  0.093 sec
 * total energy  :  -115.3479721 Eh     change        0.2195992E-04 Eh
   gradient norm :     0.0029590 Eh/α   predicted     0.4886854E-05 ( -77.75%)
   displ. norm   :     0.0395150 α      lambda       -0.5209627E-04
   maximum displ.:     0.0359183 α      in ANC's #1, #24, #27, ...

........................................................................
.............................. CYCLE   72 ..............................
........................................................................

 iter      E             dE          RMSdq      gap      omega  full diag
   1   -117.2563249 -0.117256E+03  0.170E-02    0.55       0.0  T
   2   -117.2563222  0.270672E-05  0.129E-02    0.55       1.0  T
   3   -117.2563185  0.376413E-05  0.115E-02    0.56       1.0  T
   4   -117.2563242 -0.567863E-05  0.742E-03    0.55       1.5  T
   5   -117.2563278 -0.361573E-05  0.262E-03    0.55       4.3  T
   6   -117.2563279 -0.136876E-06  0.122E-03    0.55       9.2  T
   7   -117.2563279 -0.361607E-08  0.388E-04    0.55      29.0  T
   8   -117.2563279 -0.100229E-09  0.238E-04    0.55      47.4  T
     SCC iter.                  ...        0 min,  0.128 sec
     gradient                   ...        0 min,  0.087 sec
 * total energy  :  -115.3479930 Eh     change       -0.2095043E-04 Eh
   gradient norm :     0.0014187 Eh/α   predicted    -0.2608940E-04 (  24.53%)
   displ. norm   :     0.0621368 α      lambda       -0.3840652E-04
   maximum displ.:     0.0273261 α      in ANC's #3, #1, #25, ...

........................................................................
.............................. CYCLE   73 ..............................
........................................................................

 iter      E             dE          RMSdq      gap      omega  full diag
   1   -117.2564873 -0.117256E+03  0.318E-02    0.55       0.0  T
   2   -117.2564865  0.729775E-06  0.209E-02    0.55       1.0  T
   3   -117.2564728  0.137317E-04  0.181E-02    0.56       1.0  T
   4   -117.2564670  0.575999E-05  0.173E-02    0.55       1.0  T
   5   -117.2564910 -0.239139E-04  0.473E-03    0.56       2.4  T
   6   -117.2564916 -0.640640E-06  0.184E-03    0.56       6.1  T
   7   -117.2564916 -0.463178E-07  0.651E-04    0.56      17.3  T
   8   -117.2564916 -0.187653E-08  0.407E-04    0.56      27.6  T
   9   -117.2564916 -0.115513E-08  0.132E-04    0.56      85.0  T
     SCC iter.                  ...        0 min,  0.146 sec
     gradient                   ...        0 min,  0.085 sec
 * total energy  :  -115.3479849 Eh     change        0.8101228E-05 Eh
   gradient norm :     0.0025582 Eh/α   predicted    -0.1923636E-04 (-337.45%)
   displ. norm   :     0.0209278 α      lambda       -0.3389689E-04
   maximum displ.:     0.0087356 α      in ANC's #25, #3, #1, ...

........................................................................
.............................. CYCLE   74 ..............................
........................................................................

 iter      E             dE          RMSdq      gap      omega  full diag
   1   -117.2565447 -0.117257E+03  0.154E-02    0.56       0.0  T
   2   -117.2565408  0.387601E-05  0.118E-02    0.56       1.0  T
   3   -117.2565347  0.608609E-05  0.124E-02    0.55       1.0  T
   4   -117.2565447 -0.100036E-04  0.573E-03    0.56       2.0  T
   5   -117.2565464 -0.171380E-05  0.250E-03    0.56       4.5  T
   6   -117.2565465 -0.100467E-06  0.686E-04    0.56      16.4  T
   7   -117.2565465 -0.142791E-08  0.282E-04    0.56      39.9  T
   8   -117.2565465 -0.281659E-09  0.182E-04    0.56      61.9  T
     SCC iter.                  ...        0 min,  0.123 sec
     gradient                   ...        0 min,  0.086 sec
 * total energy  :  -115.3480070 Eh     change       -0.2212070E-04 Eh
   gradient norm :     0.0010709 Eh/α   predicted    -0.1695746E-04 ( -23.34%)
   displ. norm   :     0.0385398 α      lambda       -0.1373614E-04
   maximum displ.:     0.0222129 α      in ANC's #3, #1, #4, ...

........................................................................
.............................. CYCLE   75 ..............................
........................................................................

 iter      E             dE          RMSdq      gap      omega  full diag
   1   -117.2564257 -0.117256E+03  0.163E-02    0.56       0.0  T
   2   -117.2564255  0.228339E-06  0.106E-02    0.55       1.1  T
   3   -117.2564232  0.227982E-05  0.834E-03    0.56       1.3  T
   4   -117.2564182  0.504513E-05  0.947E-03    0.55       1.2  T
   5   -117.2564263 -0.814852E-05  0.153E-03    0.55       7.4  T
   6   -117.2564264 -0.786834E-07  0.801E-04    0.55      14.1  T
   7   -117.2564264 -0.357187E-08  0.249E-04    0.55      45.2  T
   8   -117.2564264 -0.382258E-09  0.152E-04    0.55      73.8  T
     SCC iter.                  ...        0 min,  0.128 sec
     gradient                   ...        0 min,  0.083 sec
 * total energy  :  -115.3480110 Eh     change       -0.3989027E-05 Eh
   gradient norm :     0.0011200 Eh/α   predicted    -0.6875224E-05 (  72.35%)
   displ. norm   :     0.0342573 α      lambda       -0.8262426E-05
   maximum displ.:     0.0208332 α      in ANC's #3, #18, #8, ...

........................................................................
.............................. CYCLE   76 ..............................
........................................................................

 iter      E             dE          RMSdq      gap      omega  full diag
   1   -117.2564232 -0.117256E+03  0.971E-03    0.55       0.0  T
   2   -117.2564228  0.376718E-06  0.609E-03    0.56       1.8  T
   3   -117.2564174  0.536989E-05  0.841E-03    0.55       1.3  T
   4   -117.2564227 -0.529983E-05  0.296E-03    0.56       3.8  T
   5   -117.2564233 -0.603047E-06  0.501E-04    0.55      22.4  T
   6   -117.2564233 -0.862319E-08  0.212E-04    0.55      53.1  T
   7   -117.2564233 -0.411390E-09  0.891E-05    0.55     126.2  T
     SCC iter.                  ...        0 min,  0.107 sec
     gradient                   ...        0 min,  0.079 sec
 * total energy  :  -115.3480180 Eh     change       -0.6998239E-05 Eh
   gradient norm :     0.0007259 Eh/α   predicted    -0.4136785E-05 ( -40.89%)
   displ. norm   :     0.0582182 α      lambda       -0.8027665E-05
   maximum displ.:     0.0366458 α      in ANC's #3, #4, #8, ...

........................................................................
.............................. CYCLE   77 ..............................
........................................................................

 iter      E             dE          RMSdq      gap      omega  full diag
   1   -117.2564699 -0.117256E+03  0.123E-02    0.55       0.0  T
   2   -117.2564684  0.144033E-05  0.838E-03    0.56       1.3  T
   3   -117.2564567  0.116805E-04  0.125E-02    0.55       1.0  T
   4   -117.2564699 -0.132040E-04  0.261E-03    0.56       4.3  T
   5   -117.2564702 -0.303324E-06  0.615E-04    0.56      18.3  T
   6   -117.2564702 -0.984851E-08  0.325E-04    0.56      34.7  T
   7   -117.2564703 -0.184099E-08  0.152E-04    0.56      73.8  T
     SCC iter.                  ...        0 min,  0.114 sec
     gradient                   ...        0 min,  0.087 sec
 * total energy  :  -115.3480240 Eh     change       -0.5990591E-05 Eh
   gradient norm :     0.0008393 Eh/α   predicted    -0.4024187E-05 ( -32.82%)
   displ. norm   :     0.0725766 α      lambda       -0.7339519E-05
   maximum displ.:     0.0455121 α      in ANC's #3, #4, #6, ...

........................................................................
.............................. CYCLE   78 ..............................
........................................................................

 iter      E             dE          RMSdq      gap      omega  full diag
   1   -117.2564447 -0.117256E+03  0.142E-02    0.56       0.0  T
   2   -117.2564420  0.271914E-05  0.101E-02    0.55       1.1  T
   3   -117.2564328  0.922815E-05  0.124E-02    0.56       1.0  T
   4   -117.2564443 -0.115023E-04  0.455E-03    0.55       2.5  T
   5   -117.2564454 -0.114059E-05  0.102E-03    0.55      11.0  T
   6   -117.2564454 -0.216735E-07  0.284E-04    0.55      39.6  T
   7   -117.2564454 -0.139963E-08  0.105E-04    0.55     107.7  T
     SCC iter.                  ...        0 min,  0.106 sec
     gradient                   ...        0 min,  0.079 sec
 * total energy  :  -115.3480330 Eh     change       -0.8992034E-05 Eh
   gradient norm :     0.0006105 Eh/α   predicted    -0.3682578E-05 ( -59.05%)
   displ. norm   :     0.1688729 α      lambda       -0.1394569E-04
   maximum displ.:     0.1037628 α      in ANC's #3, #4, #6, ...

........................................................................
.............................. CYCLE   79 ..............................
........................................................................

 iter      E             dE          RMSdq      gap      omega  full diag
   1   -117.2562311 -0.117256E+03  0.308E-02    0.55       0.0  T
   2   -117.2562310  0.144113E-06  0.182E-02    0.55       1.0  T
   3   -117.2562239  0.706615E-05  0.128E-02    0.56       1.0  T
   4   -117.2562153  0.857743E-05  0.129E-02    0.54       1.0  T
   5   -117.2562315 -0.161757E-04  0.699E-04    0.55      16.1  T
   6   -117.2562315 -0.160667E-07  0.291E-04    0.55      38.6  T
   7   -117.2562315 -0.850918E-09  0.171E-04    0.55      65.8  T
     SCC iter.                  ...        0 min,  0.115 sec
     gradient                   ...        0 min,  0.076 sec
 * total energy  :  -115.3480496 Eh     change       -0.1660501E-04 Eh
   gradient norm :     0.0004682 Eh/α   predicted    -0.7063195E-05 ( -57.46%)
   displ. norm   :     0.2089884 α      lambda       -0.1208285E-04
   maximum displ.:     0.1301667 α      in ANC's #3, #4, #6, ...

........................................................................
.............................. CYCLE   80 ..............................
........................................................................

 iter      E             dE          RMSdq      gap      omega  full diag
   1   -117.2561521 -0.117256E+03  0.369E-02    0.55       0.0  T
   2   -117.2561523 -0.236816E-06  0.217E-02    0.55       1.0  T
   3   -117.2561510  0.132399E-05  0.114E-02    0.55       1.0  T
   4   -117.2561487  0.233299E-05  0.630E-03    0.55       1.8  T
   5   -117.2561525 -0.381130E-05  0.974E-04    0.55      11.6  T
   6   -117.2561526 -0.580405E-07  0.335E-04    0.55      33.6  T
   7   -117.2561526 -0.818645E-09  0.150E-04    0.55      74.8  T
     SCC iter.                  ...        0 min,  0.109 sec
     gradient                   ...        0 min,  0.080 sec
 * total energy  :  -115.3480636 Eh     change       -0.1398943E-04 Eh
   gradient norm :     0.0006287 Eh/α   predicted    -0.6159597E-05 ( -55.97%)
   displ. norm   :     0.1842564 α      lambda       -0.9972968E-05
   maximum displ.:     0.1157004 α      in ANC's #3, #4, #6, ...

........................................................................
.............................. CYCLE   81 ..............................
........................................................................

 iter      E             dE          RMSdq      gap      omega  full diag
   1   -117.2560781 -0.117256E+03  0.338E-02    0.55       0.0  T
   2   -117.2560785 -0.350368E-06  0.196E-02    0.55       1.0  T
   3   -117.2560781  0.313285E-06  0.105E-02    0.55       1.1  T
   4   -117.2560777  0.403586E-06  0.432E-03    0.55       2.6  T
   5   -117.2560783 -0.531654E-06  0.201E-03    0.55       5.6  T
   6   -117.2560786 -0.358883E-06  0.501E-04    0.55      22.5  T
   7   -117.2560786 -0.112776E-07  0.168E-04    0.55      67.0  T
   8   -117.2560786 -0.274127E-09  0.907E-05    0.55     124.0  T
     SCC iter.                  ...        0 min,  0.122 sec
     gradient                   ...        0 min,  0.083 sec
 * total energy  :  -115.3480731 Eh     change       -0.9474251E-05 Eh
   gradient norm :     0.0008605 Eh/α   predicted    -0.5063505E-05 ( -46.56%)
   displ. norm   :     0.1523631 α      lambda       -0.9339843E-05
   maximum displ.:     0.0993839 α      in ANC's #3, #4, #14, ...

........................................................................
.............................. CYCLE   82 ..............................
........................................................................

 iter      E             dE          RMSdq      gap      omega  full diag
   1   -117.2562566 -0.117256E+03  0.267E-02    0.55       0.0  T
   2   -117.2562568 -0.185087E-06  0.155E-02    0.55       1.0  T
   3   -117.2562553  0.146045E-05  0.869E-03    0.55       1.3  T
   4   -117.2562550  0.276378E-06  0.464E-03    0.55       2.4  T
   5   -117.2562568 -0.172780E-05  0.149E-03    0.55       7.5  T
   6   -117.2562569 -0.146809E-06  0.669E-04    0.55      16.8  T
   7   -117.2562569 -0.102433E-07  0.157E-04    0.55      71.5  T
   8   -117.2562569 -0.385114E-11  0.100E-04    0.55     112.1  T
     SCC iter.                  ...        0 min,  0.137 sec
     gradient                   ...        0 min,  0.088 sec
 * total energy  :  -115.3480837 Eh     change       -0.1064931E-04 Eh
   gradient norm :     0.0005287 Eh/α   predicted    -0.4721391E-05 ( -55.66%)
   displ. norm   :     0.1185293 α      lambda       -0.7854737E-05
   maximum displ.:     0.0782620 α      in ANC's #3, #4, #14, ...

........................................................................
.............................. CYCLE   83 ..............................
........................................................................

 iter      E             dE          RMSdq      gap      omega  full diag
   1   -117.2564500 -0.117256E+03  0.208E-02    0.55       0.0  T
   2   -117.2564500 -0.577688E-07  0.122E-02    0.55       1.0  T
   3   -117.2564488  0.119672E-05  0.675E-03    0.55       1.7  T
   4   -117.2564476  0.125909E-05  0.516E-03    0.55       2.2  T
   5   -117.2564501 -0.255003E-05  0.495E-04    0.55      22.7  T
   6   -117.2564501 -0.584227E-08  0.314E-04    0.55      35.9  T
   7   -117.2564501 -0.139168E-08  0.129E-04    0.55      87.1  T
     SCC iter.                  ...        0 min,  0.108 sec
     gradient                   ...        0 min,  0.092 sec
 * total energy  :  -115.3480930 Eh     change       -0.9322298E-05 Eh
   gradient norm :     0.0004462 Eh/α   predicted    -0.3956778E-05 ( -57.56%)
   displ. norm   :     0.1486344 α      lambda       -0.8968749E-05
   maximum displ.:     0.0974531 α      in ANC's #3, #4, #14, ...

........................................................................
.............................. CYCLE   84 ..............................
........................................................................

 iter      E             dE          RMSdq      gap      omega  full diag
   1   -117.2563586 -0.117256E+03  0.260E-02    0.55       0.0  T
   2   -117.2563579  0.697495E-06  0.155E-02    0.55       1.0  T
   3   -117.2563340  0.239245E-04  0.171E-02    0.56       1.0  T
   4   -117.2563541 -0.201836E-04  0.752E-03    0.55       1.5  T
   5   -117.2563590 -0.482103E-05  0.747E-04    0.55      15.1  T
   6   -117.2563590 -0.188626E-07  0.437E-04    0.55      25.8  T
   7   -117.2563590 -0.290881E-08  0.155E-04    0.55      72.7  T
     SCC iter.                  ...        0 min,  0.107 sec
     gradient                   ...        0 min,  0.087 sec
 * total energy  :  -115.3481043 Eh     change       -0.1122750E-04 Eh
   gradient norm :     0.0005046 Eh/α   predicted    -0.4531426E-05 ( -59.64%)
   displ. norm   :     0.1898154 α      lambda       -0.1021120E-04
   maximum displ.:     0.1241854 α      in ANC's #3, #4, #14, ...

........................................................................
.............................. CYCLE   85 ..............................
........................................................................

 iter      E             dE          RMSdq      gap      omega  full diag
   1   -117.2560697 -0.117256E+03  0.324E-02    0.55       0.0  T
   2   -117.2560698 -0.105535E-06  0.190E-02    0.55       1.0  T
   3   -117.2560650  0.479611E-05  0.980E-03    0.55       1.1  T
   4   -117.2560642  0.809139E-06  0.785E-03    0.56       1.4  T
   5   -117.2560701 -0.585456E-05  0.899E-04    0.55      12.5  T
   6   -117.2560701 -0.272269E-07  0.382E-04    0.55      29.5  T
   7   -117.2560701 -0.840259E-09  0.224E-04    0.55      50.2  T
     SCC iter.                  ...        0 min,  0.107 sec
     gradient                   ...        0 min,  0.085 sec
 * total energy  :  -115.3481152 Eh     change       -0.1094770E-04 Eh
   gradient norm :     0.0005648 Eh/α   predicted    -0.5191487E-05 ( -52.58%)
   displ. norm   :     0.1720390 α      lambda       -0.8622304E-05
   maximum displ.:     0.1138572 α      in ANC's #3, #4, #14, ...

........................................................................
.............................. CYCLE   86 ..............................
........................................................................

 iter      E             dE          RMSdq      gap      omega  full diag
   1   -117.2560036 -0.117256E+03  0.287E-02    0.55       0.0  T
   2   -117.2560025  0.101514E-05  0.171E-02    0.55       1.0  T
   3   -117.2559716  0.309876E-04  0.197E-02    0.56       1.0  T
   4   -117.2559978 -0.262002E-04  0.878E-03    0.55       1.3  T
   5   -117.2560042 -0.639627E-05  0.125E-03    0.55       9.0  T
   6   -117.2560042 -0.342646E-07  0.494E-04    0.55      22.8  T
   7   -117.2560042 -0.217919E-08  0.168E-04    0.55      66.8  T
     SCC iter.                  ...        0 min,  0.105 sec
     gradient                   ...        0 min,  0.079 sec
 * total energy  :  -115.3481236 Eh     change       -0.8372800E-05 Eh
   gradient norm :     0.0005469 Eh/α   predicted    -0.4369496E-05 ( -47.81%)
   displ. norm   :     0.1111377 α      lambda       -0.5720922E-05
   maximum displ.:     0.0745866 α      in ANC's #3, #4, #7, ...

........................................................................
.............................. CYCLE   87 ..............................
........................................................................

 iter      E             dE          RMSdq      gap      omega  full diag
   1   -117.2562040 -0.117256E+03  0.162E-02    0.55       0.0  T
   2   -117.2562035  0.500170E-06  0.991E-03    0.55       1.1  T
   3   -117.2561880  0.155104E-04  0.137E-02    0.56       1.0  T
   4   -117.2562034 -0.154195E-04  0.331E-03    0.55       3.4  T
   5   -117.2562042 -0.774102E-06  0.756E-04    0.55      14.9  T
   6   -117.2562042 -0.211306E-07  0.313E-04    0.55      36.0  T
   7   -117.2562042 -0.271133E-08  0.115E-04    0.55      98.0  T
     SCC iter.                  ...        0 min,  0.108 sec
     gradient                   ...        0 min,  0.087 sec
 * total energy  :  -115.3481310 Eh     change       -0.7453128E-05 Eh
   gradient norm :     0.0004678 Eh/α   predicted    -0.2876960E-05 ( -61.40%)
   displ. norm   :     0.1677959 α      lambda       -0.1076460E-04
   maximum displ.:     0.1097972 α      in ANC's #3, #4, #7, ...

........................................................................
.............................. CYCLE   88 ..............................
........................................................................

 iter      E             dE          RMSdq      gap      omega  full diag
   1   -117.2563736 -0.117256E+03  0.224E-02    0.55       0.0  T
   2   -117.2563733  0.254923E-06  0.135E-02    0.55       1.0  T
   3   -117.2563612  0.121082E-04  0.133E-02    0.54       1.0  T
   4   -117.2563705 -0.929851E-05  0.612E-03    0.55       1.8  T
   5   -117.2563738 -0.328070E-05  0.808E-04    0.55      13.9  T
   6   -117.2563738 -0.160619E-07  0.297E-04    0.55      37.9  T
   7   -117.2563738 -0.701704E-09  0.139E-04    0.55      81.2  T
     SCC iter.                  ...        0 min,  0.110 sec
     gradient                   ...        0 min,  0.083 sec
 * total energy  :  -115.3481444 Eh     change       -0.1334712E-04 Eh
   gradient norm :     0.0004102 Eh/α   predicted    -0.5454468E-05 ( -59.13%)
   displ. norm   :     0.2262290 α      lambda       -0.1169037E-04
   maximum displ.:     0.1478138 α      in ANC's #3, #4, #7, ...

........................................................................
.............................. CYCLE   89 ..............................
........................................................................

 iter      E             dE          RMSdq      gap      omega  full diag
   1   -117.2563042 -0.117256E+03  0.292E-02    0.55       0.0  T
   2   -117.2563040  0.250329E-06  0.173E-02    0.55       1.0  T
   3   -117.2562872  0.167728E-04  0.156E-02    0.56       1.0  T
   4   -117.2562983 -0.110689E-04  0.827E-03    0.54       1.4  T
   5   -117.2563047 -0.637289E-05  0.968E-04    0.55      11.6  T
   6   -117.2563047 -0.389822E-07  0.379E-04    0.55      29.7  T
   7   -117.2563047 -0.973003E-09  0.173E-04    0.55      65.0  T
     SCC iter.                  ...        0 min,  0.107 sec
     gradient                   ...        0 min,  0.081 sec
 * total energy  :  -115.3481570 Eh     change       -0.1258667E-04 Eh
   gradient norm :     0.0003953 Eh/α   predicted    -0.5982717E-05 ( -52.47%)
   displ. norm   :     0.1268010 α      lambda       -0.4262852E-05
   maximum displ.:     0.0854103 α      in ANC's #3, #4, #7, ...

........................................................................
.............................. CYCLE   90 ..............................
........................................................................

 iter      E             dE          RMSdq      gap      omega  full diag
   1   -117.2565017 -0.117257E+03  0.156E-02    0.55       0.0  T
   2   -117.2565017 -0.511431E-07  0.936E-03    0.55       1.2  T
   3   -117.2565012  0.492447E-06  0.672E-03    0.55       1.7  T
   4   -117.2565006  0.673280E-06  0.391E-03    0.55       2.9  T
   5   -117.2565016 -0.104956E-05  0.167E-03    0.55       6.7  T
   6   -117.2565018 -0.221212E-06  0.198E-04    0.55      56.8  T
   7   -117.2565018  0.343050E-10  0.118E-04    0.55      95.6  T
     SCC iter.                  ...        0 min,  0.111 sec
     gradient                   ...        0 min,  0.084 sec
 * total energy  :  -115.3481617 Eh     change       -0.4726890E-05 Eh
   gradient norm :     0.0003042 Eh/α   predicted    -0.2148892E-05 ( -54.54%)
   displ. norm   :     0.0638809 α      lambda       -0.2318181E-05
   maximum displ.:     0.0450433 α      in ANC's #3, #4, #7, ...

........................................................................
.............................. CYCLE   91 ..............................
........................................................................

 iter      E             dE          RMSdq      gap      omega  full diag
   1   -117.2566031 -0.117257E+03  0.787E-03    0.55       0.0  T
   2   -117.2566031 -0.246715E-07  0.458E-03    0.55       2.5  T
   3   -117.2566031  0.672416E-07  0.293E-03    0.55       3.8  T
   4   -117.2566027  0.404549E-06  0.237E-03    0.55       4.7  T
   5   -117.2566031 -0.460481E-06  0.692E-04    0.55      16.3  T
   6   -117.2566032 -0.345703E-07  0.124E-04    0.55      91.1  T
   7   -117.2566032 -0.160867E-10  0.667E-05    0.55     168.7  T
     SCC iter.                  ...        0 min,  0.099 sec
     gradient                   ...        0 min,  0.074 sec
 * total energy  :  -115.3481647 Eh     change       -0.2987269E-05 Eh
   gradient norm :     0.0002329 Eh/α   predicted    -0.1165340E-05 ( -60.99%)
   displ. norm   :     0.0551091 α      lambda       -0.2802421E-05
   maximum displ.:     0.0385799 α      in ANC's #3, #4, #7, ...

........................................................................
.............................. CYCLE   92 ..............................
........................................................................

 iter      E             dE          RMSdq      gap      omega  full diag
   1   -117.2566091 -0.117257E+03  0.902E-03    0.55       0.0  T
   2   -117.2566092 -0.414987E-07  0.521E-03    0.55       2.2  T
   3   -117.2566092 -0.935827E-08  0.309E-03    0.55       3.6  T
   4   -117.2566092 -0.467531E-08  0.958E-04    0.55      11.7  T
   5   -117.2566092 -0.278473E-08  0.177E-04    0.55      63.7  T
   6   -117.2566092  0.249860E-08  0.199E-04    0.55      56.4  T
     SCC iter.                  ...        0 min,  0.092 sec
     gradient                   ...        0 min,  0.069 sec
 * total energy  :  -115.3481683 Eh     change       -0.3651631E-05 Eh
   gradient norm :     0.0002127 Eh/α   predicted    -0.1406215E-05 ( -61.49%)
   displ. norm   :     0.0784287 α      lambda       -0.3715525E-05
   maximum displ.:     0.0538467 α      in ANC's #3, #4, #7, ...
 * RMSD in coord.:     0.1976731 α      energy gain  -0.1846450E-03 Eh

generating ANC from exact Hessian ...
Using Lindh-Hessian (1995)
 Shifting diagonal of input Hessian by    1.1847247176317558E-002
 Lowest  eigenvalues of input Hessian
    0.010000    0.011696    0.011765    0.000000    0.000000    0.000000
    0.000000    0.000000    0.000000    0.011969    0.012093    0.012134
    0.012273    0.012305    0.012365    0.012426    0.012500    0.012622
 Highest eigenvalues
    2.003286    2.004591    2.006079    2.025221    2.241774    2.313403


........................................................................
.............................. CYCLE   93 ..............................
........................................................................

 iter      E             dE          RMSdq      gap      omega  full diag
   1   -117.2565857 -0.117257E+03  0.148E-02    0.55       0.0  T
   2   -117.2565858 -0.856715E-07  0.860E-03    0.55       1.3  T
   3   -117.2565858  0.552779E-07  0.505E-03    0.55       2.2  T
   4   -117.2565851  0.662973E-06  0.305E-03    0.55       3.7  T
   5   -117.2565858 -0.689967E-06  0.996E-04    0.55      11.3  T
   6   -117.2565859 -0.755460E-07  0.189E-04    0.55      59.4  T
   7   -117.2565859 -0.242366E-09  0.115E-04    0.55      97.7  T
     SCC iter.                  ...        0 min,  0.106 sec
     gradient                   ...        0 min,  0.083 sec
 * total energy  :  -115.3481728 Eh     change       -0.4452428E-05 Eh
   gradient norm :     0.0002196 Eh/α   predicted     0.0000000E+00 (-100.00%)
   displ. norm   :     0.0110429 α      lambda       -0.5738179E-07
   maximum displ.:     0.0068052 α      in ANC's #3, #14, #6, ...

........................................................................
.............................. CYCLE   94 ..............................
........................................................................

 iter      E             dE          RMSdq      gap      omega  full diag
   1   -117.2565159 -0.117257E+03  0.266E-03    0.55       0.0  T
   2   -117.2565158  0.554473E-07  0.181E-03    0.55       6.2  T
   3   -117.2565155  0.356116E-06  0.238E-03    0.55       4.7  T
   4   -117.2565159 -0.384910E-06  0.960E-04    0.55      11.7  T
   5   -117.2565159 -0.465493E-07  0.271E-04    0.55      41.6  T
   6   -117.2565159 -0.245623E-08  0.599E-05    0.55     187.9  T
     SCC iter.                  ...        0 min,  0.099 sec
     gradient                   ...        0 min,  0.075 sec
 * total energy  :  -115.3481738 Eh     change       -0.9972924E-06 Eh
   gradient norm :     0.0002201 Eh/α   predicted    -0.4200578E-06 ( -57.88%)
   displ. norm   :     0.0584871 α      lambda       -0.3657773E-05
   maximum displ.:     0.0343119 α      in ANC's #3, #14, #6, ...

   *** GEOMETRY OPTIMIZATION CONVERGED AFTER 94 ITERATIONS ***

------------------------------------------------------------------------
 total energy gain   :        -0.0116537 Eh       -7.3128 kcal/mol
 total RMSD          :         1.8353549 a0        0.9712 Å
 total power (kW/mol):        -0.3254987 (step)   -1.2987 (real)
------------------------------------------------------------------------

 ANCopt (total)                0 d,  0 h,  0 min, 23.559 sec
 optimizer setup                ...        0 min,  0.001 sec (  0.004%)
 model hessian                  ...        0 min,  0.336 sec (  1.426%)
 ANC generation                 ...        0 min,  0.071 sec (  0.303%)
 coordinate transformation      ...        0 min,  0.015 sec (  0.064%)
 single point calculation       ...        0 min, 23.009 sec ( 97.667%)
 optimization log               ...        0 min,  0.064 sec (  0.273%)
 hessian update                 ...        0 min,  0.013 sec (  0.056%)
 rational function              ...        0 min,  0.031 sec (  0.131%)

================
 final structure:
================
79
 xtb: 6.7.1 (edcfbbe)
Ru           0.15671346411114        0.02910007678806       -0.25996639340666
N            0.01840288741989       -1.91609033131827        0.84093938979378
C            1.25363306575966       -2.72060916194758        0.84735319075887
C            2.49585005672858       -1.83213288816502        0.86570941947126
P            2.28910218670341       -0.65697823848604       -0.55995885001213
C            2.98849410812635       -1.67336236773933       -1.92069624412336
C            4.32820496735675       -2.05329563786340       -1.91819954171983
C            4.82905491280392       -2.82577811382526       -2.94900484606751
C            4.00076252049397       -3.22154214946450       -3.98910386383315
C            2.66990263964340       -2.83894041877342       -4.00007144723797
C            2.16616185269776       -2.06429294584300       -2.96890717052532
C            3.64965929975340        0.53895962305005       -0.38412834094723
C            4.59623763825700        0.55299640940453        0.63220093921952
C            5.57065059225968        1.53777491738920        0.65347168780364
C            5.60817677885627        2.50819076193398       -0.33309464127471
C            4.66485614041346        2.49911143223414       -1.34999455280067
C            3.69108856576133        1.52006603054419       -1.37349376442477
C           -0.56897175454839       -1.68819976466643        2.16580142538213
C           -1.94826751799062       -1.05217242292872        1.99689050844059
P           -1.80057025252735        0.39145152325594        0.81648863338604
C           -2.01386852084291        1.85430978412260        1.90025717573939
C           -1.14730121287857        2.92945820506001        1.75091615301260
C           -1.30842351948283        4.06884240143264        2.52018556213701
C           -2.33787580361266        4.14117968637045        3.44361232298801
C           -3.21474581383133        3.07668774528669        3.58659557017262
C           -3.06162546702311        1.94114494623582        2.81331281093427
C           -3.46651145061432        0.49036648940179        0.05551406859967
C           -3.52045537893494        1.31251853265425       -1.06715064310241
C           -4.71770657486771        1.53824830873589       -1.71895555842742
C           -5.87616517916603        0.93421561023330       -1.25518377901221
C           -5.82973235364859        0.11274109582407       -0.14180546526019
C           -4.63258338090802       -0.10718268376608        0.51826632473012
H            1.27799598397222       -3.31559423282657       -0.07486842071592
H            1.25442796877626       -3.40914753406094        1.70521865492488
H            3.40343727578709       -2.43646947858559        0.77870590832542
H            2.52780163657463       -1.23978402831684        1.78505829426109
H            4.97783841090465       -1.73260517655586       -1.11409370366654
H            5.86971278507227       -3.11808944396487       -2.94674554086865
H            4.39735041973914       -3.82333578423776       -4.79429234305052
H            2.02578294243109       -3.13971795773175       -4.81439083752903
H            1.13163183122449       -1.74399292579480       -2.96640310306315
H            4.58127233921443       -0.19570024502052        1.41120184423593
H            6.30518015607589        1.54675559274306        1.44669781463535
H            6.36980198634228        3.27431268160823       -0.30930541708450
H            4.68868093024582        3.25811685769345       -2.11904292647943
H            2.93760014918174        1.50392798954882       -2.15441383880780
H            0.08607007940789       -1.01612981288494        2.73029323479999
H           -0.66116591645783       -2.63915098338856        2.71664217912025
H           -2.63149896293806       -1.78114432649588        1.54484195026647
H           -2.34619837203840       -0.73876114343249        2.96500801383162
H           -0.34117819685883        2.85518097434927        1.03191770745315
H           -0.62959770873283        4.90090845858245        2.39794226342878
H           -2.46270848938662        5.02810149153443        4.04811469422045
H           -4.02468946463207        3.13636604418751        4.29992770684725
H           -3.76624570892791        1.12686234873544        2.91401022265048
H           -2.59824327459207        1.76241524968063       -1.42210070135706
H           -4.74952734936430        2.17581971686611       -2.59074532304486
H           -6.81373762576396        1.10287380668144       -1.76448047874489
H           -6.73296163666242       -0.35902866973211        0.21841777703852
H           -4.62322771582412       -0.74608511362311        1.38999559673008
C            0.23264910811249        1.58412697609585       -1.22544837508454
O            0.26760893347790        2.56195981151373       -1.85679363043404
H            0.80422078644947        0.64944114034907        1.02025196131544
O           -4.11135229490059       -0.32876295300465       -4.41742627987430
C           -3.58673435639644       -0.82592737216691       -3.44707558278644
C           -4.22944006462614       -1.77719795134193       -2.53467185533090
C           -3.49557945554085       -2.36031446290430       -1.50286138895994
C           -4.10025779702892       -3.26416560467042       -0.65011988408221
C           -5.44091334111710       -3.58142376694181       -0.81012703001568
C           -6.17933835383984       -2.99963594792153       -1.82969759257028
C           -5.57646126565889       -2.10565693423778       -2.69259808063232
H           -0.68069694444228       -2.44379620902268        0.30950671907118
H           -2.53860010025893       -0.58763572769406       -3.18474665971318
H           -0.47767335866557       -0.73353881695577       -1.46878701362718
H           -2.45577876998936       -2.08532428695414       -1.38629662072556
H           -3.53384115657850       -3.73320218080001        0.14283784651826
H           -5.91148189957408       -4.28515806317936       -0.13863444450407
H           -7.22341641724283       -3.24878140921304       -1.95058050349764
H           -6.12840560476194       -1.64415903256949       -3.49835970874404

 Bond Distances (Angstroems)
 ---------------------------
Ru1-N2=2.2394        Ru1-P5=2.2600        Ru1-P20=2.2630       Ru1-C61=1.8319       Ru1-H63=1.5630       Ru1-H74=1.5637       
N2-Ru1=2.2394        N2-C3=1.4741         N2-C18=1.4670        N2-H72=1.0245        C3-N2=1.4741         C3-C4=1.5274         
C3-H33=1.0978        C3-H34=1.1000        C4-C3=1.5274         C4-P5=1.8591         C4-H35=1.0938        C4-H36=1.0941        
P5-Ru1=2.2600        P5-C4=1.8591         P5-C6=1.8368         P5-C12=1.8200        C6-P5=1.8368         C6-C7=1.3925         
C6-C11=1.3885        C7-C6=1.3925         C7-C8=1.3821         C7-H37=1.0823        C8-C7=1.3821         C8-C9=1.3873         
C8-H38=1.0809        C9-C8=1.3873         C9-C10=1.3848        C9-H39=1.0806        C10-C9=1.3848        C10-C11=1.3846       
C10-H40=1.0810       C11-C6=1.3885        C11-C10=1.3846       C11-H41=1.0830       C12-P5=1.8200        C12-C13=1.3889       
C12-C17=1.3940       C13-C12=1.3889       C13-C14=1.3855       C13-H42=1.0806       C14-C13=1.3855       C14-C15=1.3844       
C14-H43=1.0811       C15-C14=1.3844       C15-C16=1.3871       C15-H44=1.0805       C16-C15=1.3871       C16-C17=1.3811       
C16-H45=1.0808       C17-C12=1.3940       C17-C16=1.3811       C17-H46=1.0853       C18-N2=1.4670        C18-C19=1.5282       
C18-H47=1.0952       C18-H48=1.1028       C19-C18=1.5282       C19-P20=1.8706       C19-H49=1.0966       C19-H50=1.0926       
P20-Ru1=2.2630       P20-C19=1.8706       P20-C21=1.8330       P20-C27=1.8342       C21-P20=1.8330       C21-C22=1.3890       
C21-C26=1.3925       C22-C21=1.3890       C22-C23=1.3842       C22-H51=1.0827       C23-C22=1.3842       C23-C24=1.3848       
C23-H52=1.0808       C24-C23=1.3848       C24-C25=1.3865       C24-H53=1.0806       C25-C24=1.3865       C25-C26=1.3823       
C25-H54=1.0809       C26-C21=1.3925       C26-C25=1.3823       C26-H55=1.0815       C27-P20=1.8342       C27-C28=1.3926       
C27-C32=1.3896       C28-C27=1.3926       C28-C29=1.3817       C28-H56=1.0858       C29-C28=1.3817       C29-C30=1.3864       
C29-H57=1.0805       C30-C29=1.3864       C30-C31=1.3844       C30-H58=1.0802       C31-C30=1.3844       C31-C32=1.3846       
C31-H59=1.0808       C32-C27=1.3896       C32-C31=1.3846       C32-H60=1.0808       H33-C3=1.0978        H34-C3=1.1000        
H35-C4=1.0938        H36-C4=1.0941        H37-C7=1.0823        H38-C8=1.0809        H39-C9=1.0806        H40-C10=1.0810       
H41-C11=1.0830       H42-C13=1.0806       H43-C14=1.0811       H44-C15=1.0805       H45-C16=1.0808       H46-C17=1.0853       
H47-C18=1.0952       H48-C18=1.1028       H49-C19=1.0966       H50-C19=1.0926       H51-C22=1.0827       H52-C23=1.0808       
H53-C24=1.0806       H54-C25=1.0809       H55-C26=1.0815       H56-C28=1.0858       H57-C29=1.0805       H58-C30=1.0802       
H59-C31=1.0808       H60-C32=1.0808       C61-Ru1=1.8319       C61-O62=1.1645       O62-C61=1.1645       H63-Ru1=1.5630       
O64-C65=1.2099       C65-O64=1.2099       C65-C66=1.4664       C65-H73=1.1064       C66-C65=1.4664       C66-C67=1.3940       
C66-C71=1.3955       C67-C66=1.3940       C67-C68=1.3819       C67-H75=1.0818       C68-C67=1.3819       C68-C69=1.3869       
C68-H76=1.0815       C69-C68=1.3869       C69-C70=1.3868       C69-H77=1.0805       C70-C69=1.3868       C70-C71=1.3810       
C70-H78=1.0802       C71-C66=1.3955       C71-C70=1.3810       C71-H79=1.0802       H72-N2=1.0245        H73-C65=1.1064       
H74-Ru1=1.5637       H75-C67=1.0818       H76-C68=1.0815       H77-C69=1.0805       H78-C70=1.0802       H79-C71=1.0802       
 C  H  Rav=1.0857 sigma=0.0076  Rmin=1.0802  Rmax=1.1064    34
 C  C  Rav=1.3978 sigma=0.0359  Rmin=1.3810  Rmax=1.5282    33
 N  H  Rav=1.0245 sigma=0.0000  Rmin=1.0245  Rmax=1.0245     1
 N  C  Rav=1.4706 sigma=0.0036  Rmin=1.4670  Rmax=1.4741     2
 O  C  Rav=1.1872 sigma=0.0227  Rmin=1.1645  Rmax=1.2099     2
 P  C  Rav=1.8423 sigma=0.0172  Rmin=1.8200  Rmax=1.8706     6
 Ru H  Rav=1.5634 sigma=0.0004  Rmin=1.5630  Rmax=1.5637     2
 Ru C  Rav=1.8319 sigma=0.0000  Rmin=1.8319  Rmax=1.8319     1
 Ru N  Rav=2.2394 sigma=0.0000  Rmin=2.2394  Rmax=2.2394     1
 Ru P  Rav=2.2615 sigma=0.0015  Rmin=2.2600  Rmax=2.2630     2

 selected bond angles (degree)
 --------------------
P5-Ru1-N2= 81.94               P20-Ru1-N2= 81.48              P20-Ru1-P5=158.10              C61-Ru1-N2=177.40              
C61-Ru1-P5= 98.55              C61-Ru1-P20= 98.66             H63-Ru1-N2= 88.15              H63-Ru1-P5= 80.70              
H63-Ru1-P20= 84.56             H63-Ru1-C61= 94.45             H74-Ru1-N2= 86.06              H74-Ru1-P5= 97.59              
H74-Ru1-P20= 95.45             H74-Ru1-C61= 91.34             H74-Ru1-H63=174.14             C3-N2-Ru1=115.12               
C18-N2-Ru1=109.50              C18-N2-C3=114.60               H72-N2-Ru1=103.57              H72-N2-C3=107.03               
H72-N2-C18=105.98              C4-C3-N2=111.35                H33-C3-N2=108.10               H33-C3-C4=107.90               
H34-C3-N2=110.22               H34-C3-C4=110.74               H34-C3-H33=108.41              P5-C4-C3=105.55                
H35-C4-C3=110.64               H35-C4-P5=112.37               H36-C4-C3=110.41               H36-C4-P5=107.78               
H36-C4-H35=109.98              C4-P5-Ru1=101.25               C6-P5-Ru1=128.72               C6-P5-C4=100.14                
C12-P5-Ru1=119.54              C12-P5-C4=104.96               C12-P5-C6= 98.66               C7-C6-P5=121.06                
C11-C6-P5=119.31               C11-C6-C7=119.63               C8-C7-C6=119.99                H37-C7-C6=119.86               
H37-C7-C8=120.15               C9-C8-C7=120.15                H38-C8-C7=119.90               H38-C8-C9=119.95               
C10-C9-C8=120.06               H39-C9-C8=119.89               H39-C9-C10=120.04              C11-C10-C9=119.89              
H40-C10-C9=120.12              H40-C10-C11=119.99             

 selected dihedral angles (degree)
 ---------------------------------
C3-N2-Ru1-P5=358.51           C3-N2-Ru1-P20=192.87          C3-N2-Ru1-C61= 99.55          C3-N2-Ru1-H63=277.64          
C3-N2-Ru1-H74= 96.76          C18-N2-Ru1-P5=129.33          C18-N2-Ru1-P20=323.70         C18-N2-Ru1-C61=230.37         
C18-N2-Ru1-H63= 48.47         C18-N2-Ru1-H74=227.58         H72-N2-Ru1-P5=242.03          H72-N2-Ru1-P20= 76.39         
H72-N2-Ru1-C61=343.07         H72-N2-Ru1-H63=161.16         H72-N2-Ru1-H74=340.28         C4-C3-N2-Ru1= 33.39           
C4-C3-N2-C18=265.07           C4-C3-N2-H72=147.88           H33-C3-N2-Ru1=275.03          H33-C3-N2-C18=146.71          
H33-C3-N2-H72= 29.52          H34-C3-N2-Ru1=156.70          H34-C3-N2-C18= 28.38          H34-C3-N2-H72=271.19          
P5-C4-C3-N2=306.93            P5-C4-C3-H33= 65.41           P5-C4-C3-H34=183.91           H35-C4-C3-N2=185.13           
H35-C4-C3-H33=303.61          H35-C4-C3-H34= 62.12          H36-C4-C3-N2= 63.14           H36-C4-C3-H33=181.62          
H36-C4-C3-H34=300.13          C4-P5-Ru1-N2=336.69           C4-P5-Ru1-P20= 17.82          C4-P5-Ru1-C61=159.27          
C4-P5-Ru1-H63= 66.12          C4-P5-Ru1-H74=251.79          C6-P5-Ru1-N2= 89.61           C6-P5-Ru1-P20=130.74          
C6-P5-Ru1-C61=272.19          C6-P5-Ru1-H63=179.04          C6-P5-Ru1-H74=  4.71          C12-P5-Ru1-N2=222.16          
C12-P5-Ru1-P20=263.28         C12-P5-Ru1-C61= 44.74         C12-P5-Ru1-H63=311.59         C12-P5-Ru1-H74=137.25         
Ru1-P5-C4-C3= 47.25           Ru1-P5-C4-H35=167.92          Ru1-P5-C4-H36=289.25          C6-P5-C4-C3=274.13            
C6-P5-C4-H35= 34.80           C6-P5-C4-H36=156.13           C12-P5-C4-C3=172.24           C12-P5-C4-H35=292.91          
C12-P5-C4-H36= 54.24          C7-C6-P5-Ru1=182.74           C7-C6-P5-C4=296.15            C7-C6-P5-C12= 43.16           
C11-C6-P5-Ru1=  2.92          C11-C6-P5-C4=116.33           C11-C6-P5-C12=223.33          C8-C7-C6-P5=179.57            
C8-C7-C6-C11=359.39           H37-C7-C6-P5=358.85           H37-C7-C6-C11=178.67          C9-C8-C7-C6=  0.16            
C9-C8-C7-H37=180.88           H38-C8-C7-C6=179.87           H38-C8-C7-H37=  0.59          C10-C9-C8-C7=  0.25           
C10-C9-C8-H38=180.54          H39-C9-C8-C7=179.84           H39-C9-C8-H38=  0.13          C11-C10-C9-C8=359.79          
C11-C10-C9-H39=180.21         H40-C10-C9-C8=179.48          H40-C10-C9-H39=359.89         

 CMA Distance (Angstroems)
 ---------------------------
R(CMA):  5.8077
           -------------------------------------------------
          |                Final Singlepoint                |
           -------------------------------------------------

          ...................................................
          :                      SETUP                      :
          :.................................................:
          :  # basis functions                 223          :
          :  # atomic orbitals                 220          :
          :  # shells                          124          :
          :  # electrons                       216          :
          :  max. iterations                   500          :
          :  Hamiltonian                  GFN2-xTB          :
          :  restarted?                      false          :
          :  GBSA solvation                   true          :
          :  PC potential                    false          :
          :  electronic temp.          300.0000000     K    :
          :  accuracy                    0.5000000          :
          :  -> integral cutoff          0.2801030E+02      :
          :  -> integral neglect         0.5000000E-08      :
          :  -> SCF convergence          0.5000000E-06 Eh   :
          :  -> wf. convergence          0.5000000E-04 e    :
          :  Broyden damping             0.4000000          :
          :  net charge                          0          :
          :  unpaired electrons                  0          :
          ...................................................

 iter      E             dE          RMSdq      gap      omega  full diag
   1   -117.2565159 -0.117257E+03  0.257E-05    0.55       0.0  T
   2   -117.2565159  0.263611E-10  0.245E-05    0.55     458.5  T
   3   -117.2565159 -0.108571E-10  0.190E-05    0.55     591.2  T

   *** convergence criteria satisfied after 3 iterations ***

         #    Occupation            Energy/Eh            Energy/eV
      -------------------------------------------------------------
         1        2.0000           -0.7147911             -19.4505
       ...           ...                  ...                  ...
       102        2.0000           -0.3933826             -10.7045
       103        2.0000           -0.3879648             -10.5571
       104        2.0000           -0.3713434             -10.1048
       105        2.0000           -0.3576894              -9.7332
       106        2.0000           -0.3307180              -8.9993
       107        2.0000           -0.3123139              -8.4985
       108        2.0000           -0.3081372              -8.3848 (HOMO)
       109        0.0000           -0.2879320              -7.8350 (LUMO)
       110                         -0.2468904              -6.7182
       111                         -0.2427195              -6.6047
       112                         -0.2366961              -6.4408
       113                         -0.2332857              -6.3480
       ...                                ...                  ...
       220                          3.0226791              82.2513
      -------------------------------------------------------------
                  HL-Gap            0.0202053 Eh            0.5498 eV
             Fermi-level           -0.2980288 Eh           -8.1098 eV

 SCC (total)                   0 d,  0 h,  0 min,  0.156 sec
 SCC setup                      ...        0 min,  0.003 sec (  2.068%)
 Dispersion                     ...        0 min,  0.002 sec (  1.353%)
 classical contributions        ...        0 min,  0.000 sec (  0.299%)
 integral evaluation            ...        0 min,  0.023 sec ( 14.995%)
 iterations                     ...        0 min,  0.049 sec ( 31.362%)
 molecular gradient             ...        0 min,  0.077 sec ( 49.098%)
 printout                       ...        0 min,  0.001 sec (  0.802%)

         :::::::::::::::::::::::::::::::::::::::::::::::::::::
         ::                     SUMMARY                     ::
         :::::::::::::::::::::::::::::::::::::::::::::::::::::
         :: total energy            -115.348173789728 Eh    ::
         :: total w/o Gsasa/hb      -115.297300085891 Eh    ::
         :: gradient norm              0.000228572013 Eh/a0 ::
         :: HOMO-LUMO gap              0.549813190964 eV    ::
         ::.................................................::
         :: SCC energy              -117.252218356895 Eh    ::
         :: -> isotropic ES            0.048686396686 Eh    ::
         :: -> anisotropic ES          0.016008866468 Eh    ::
         :: -> anisotropic XC          0.069143170150 Eh    ::
         :: -> dispersion             -0.126539739423 Eh    ::
         :: -> Gsolv                  -0.059443272589 Eh    ::
         ::    -> Gelec               -0.008569568752 Eh    ::
         ::    -> Gsasa               -0.053081846975 Eh    ::
         ::    -> Ghb                  0.000000000000 Eh    ::
         ::    -> Gshift               0.002208143139 Eh    ::
         :: repulsion energy           1.904044567167 Eh    ::
         :: add. restraining           0.000000000000 Eh    ::
         :: total charge               0.000000000007 e     ::
         :::::::::::::::::::::::::::::::::::::::::::::::::::::

           -------------------------------------------------
          |                Property Printout                |
           -------------------------------------------------

    * Orbital Energies and Occupations

         #    Occupation            Energy/Eh            Energy/eV
      -------------------------------------------------------------
         1        2.0000           -0.7147911             -19.4505
       ...           ...                  ...                  ...
        96        2.0000           -0.4075180             -11.0891
        97        2.0000           -0.4060000             -11.0478
        98        2.0000           -0.4059372             -11.0461
        99        2.0000           -0.4020187             -10.9395
       100        2.0000           -0.3987204             -10.8497
       101        2.0000           -0.3951207             -10.7518
       102        2.0000           -0.3933826             -10.7045
       103        2.0000           -0.3879648             -10.5571
       104        2.0000           -0.3713434             -10.1048
       105        2.0000           -0.3576894              -9.7332
       106        2.0000           -0.3307180              -8.9993
       107        2.0000           -0.3123139              -8.4985
       108        2.0000           -0.3081372              -8.3848 (HOMO)
       109        0.0000           -0.2879320              -7.8350 (LUMO)
       110                         -0.2468904              -6.7182
       111                         -0.2427195              -6.6047
       112                         -0.2366961              -6.4408
       113                         -0.2332857              -6.3480
       114                         -0.2295435              -6.2462
       115                         -0.2260669              -6.1516
       116                         -0.2255716              -6.1381
       117                         -0.2235814              -6.0840
       118                         -0.2228545              -6.0642
       119                         -0.1993200              -5.4238
       ...                                ...                  ...
       220                          3.0226791              82.2513
      -------------------------------------------------------------
                  HL-Gap            0.0202053 Eh            0.5498 eV
             Fermi-level           -0.2980288 Eh           -8.1098 eV

     #   Z          covCN         q      C6AA      α(0)
     1  44 Ru       5.521    -0.323   321.913    30.179
     2   7 N        3.403    -0.089    22.962     7.117
     3   6 C        3.879     0.026    20.087     6.372
     4   6 C        3.751    -0.034    21.247     6.574
     5  15 P        4.214    -0.061   162.955    22.931
     6   6 C        2.918     0.026    27.428     8.588
     7   6 C        2.978    -0.026    28.650     8.780
     8   6 C        2.919    -0.028    28.707     8.786
     9   6 C        2.920    -0.026    28.650     8.777
    10   6 C        2.918    -0.027    28.678     8.782
    11   6 C        2.994    -0.019    28.468     8.752
    12   6 C        2.918     0.039    27.115     8.539
    13   6 C        2.958    -0.026    28.657     8.780
    14   6 C        2.919    -0.028    28.707     8.786
    15   6 C        2.920    -0.027    28.673     8.781
    16   6 C        2.918    -0.025    28.640     8.776
    17   6 C        3.053    -0.014    28.304     8.725
    18   6 C        3.833     0.026    20.116     6.381
    19   6 C        3.751    -0.040    21.348     6.589
    20  15 P        4.159    -0.064   163.081    22.940
    21   6 C        2.918     0.033    27.252     8.561
    22   6 C        3.000    -0.015    28.372     8.738
    23   6 C        2.918    -0.026    28.654     8.778
    24   6 C        2.920    -0.026    28.650     8.777
    25   6 C        2.919    -0.029    28.726     8.789
    26   6 C        2.976    -0.028    28.697     8.787
    27   6 C        2.917     0.026    27.415     8.586
    28   6 C        3.056    -0.015    28.342     8.731
    29   6 C        2.917    -0.025    28.619     8.773
    30   6 C        2.920    -0.026    28.663     8.780
    31   6 C        2.919    -0.030    28.740     8.791
    32   6 C        2.950    -0.030    28.746     8.794
    33   1 H        0.924     0.055     2.263     2.352
    34   1 H        0.923     0.041     2.430     2.438
    35   1 H        0.924     0.058     2.218     2.329
    36   1 H        0.925     0.074     2.044     2.236
    37   1 H        0.925     0.037     2.488     2.467
    38   1 H        0.926     0.035     2.521     2.483
    39   1 H        0.926     0.034     2.524     2.484
    40   1 H        0.926     0.033     2.539     2.492
    41   1 H        0.925     0.060     2.200     2.320
    42   1 H        0.926     0.040     2.447     2.446
    43   1 H        0.926     0.036     2.500     2.473
    44   1 H        0.926     0.035     2.515     2.480
    45   1 H        0.926     0.034     2.534     2.489
    46   1 H        0.925     0.044     2.399     2.422
    47   1 H        0.924     0.073     2.050     2.239
    48   1 H        0.923     0.033     2.544     2.495
    49   1 H        0.925     0.061     2.189     2.314
    50   1 H        0.925     0.067     2.121     2.278
    51   1 H        0.925     0.066     2.135     2.285
    52   1 H        0.926     0.035     2.519     2.482
    53   1 H        0.926     0.036     2.507     2.476
    54   1 H        0.926     0.036     2.502     2.474
    55   1 H        0.925     0.039     2.457     2.451
    56   1 H        0.925     0.051     2.311     2.377
    57   1 H        0.926     0.034     2.526     2.485
    58   1 H        0.926     0.036     2.506     2.475
    59   1 H        0.926     0.036     2.503     2.474
    60   1 H        0.926     0.037     2.487     2.466
    61   6 C        1.789     0.195    26.573     8.332
    62   8 O        0.857    -0.277    19.379     5.902
    63   1 H        0.960    -0.181     9.487     4.814
    64   8 O        0.856    -0.369    21.063     6.153
    65   6 C        2.767     0.212    23.514     7.942
    66   6 C        2.971    -0.005    28.142     8.702
    67   6 C        2.923    -0.021    28.524     8.758
    68   6 C        2.917    -0.025    28.632     8.775
    69   6 C        2.921    -0.020    28.503     8.755
    70   6 C        2.917    -0.026    28.641     8.776
    71   6 C        2.923    -0.013    28.331     8.729
    72   1 H        0.859     0.188     1.168     1.693
    73   1 H        0.922     0.026     2.643     2.543
    74   1 H        0.960    -0.247    15.129     6.079
    75   1 H        0.925     0.057     2.236     2.339
    76   1 H        0.925     0.036     2.497     2.471
    77   1 H        0.926     0.046     2.369     2.407
    78   1 H        0.926     0.044     2.390     2.418
    79   1 H        0.926     0.053     2.279     2.361

 Mol. C6AA /au·bohr⁶  :      93306.706011
 Mol. C8AA /au·bohr⁸  :    2732619.435271
 Mol. α(0) /au        :        494.448005


Wiberg/Mayer (AO) data.
largest (>0.10) Wiberg bond orders for each atom

 ---------------------------------------------------------------------------
     #   Z sym  total        # sym  WBO       # sym  WBO       # sym  WBO
 ---------------------------------------------------------------------------
     1  44 Ru   6.521 --    61 C    1.542    20 P    1.057     5 P    1.038
                            74 H    0.782    63 H    0.703     2 N    0.470
                            62 O    0.348
     2   7 N    3.478 --    18 C    0.983     3 C    0.978    72 H    0.908
                             1 Ru   0.470
     3   6 C    3.977 --     4 C    0.989     2 N    0.978    34 H    0.964
                            33 H    0.962
     4   6 C    3.994 --     3 C    0.989     5 P    0.981    35 H    0.941
                            36 H    0.935
     5  15 P    4.571 --     1 Ru   1.038    12 C    0.987     4 C    0.981
                             6 C    0.968
     6   6 C    3.980 --    11 C    1.398     7 C    1.378     5 P    0.968
                             9 C    0.105
     7   6 C    3.991 --     8 C    1.456     6 C    1.378    37 H    0.960
                            10 C    0.111
     8   6 C    3.990 --     7 C    1.456     9 C    1.427    38 H    0.969
                            11 C    0.107
     9   6 C    3.989 --    10 C    1.445     8 C    1.427    39 H    0.971
                             6 C    0.105
    10   6 C    3.991 --     9 C    1.445    11 C    1.437    40 H    0.970
                             7 C    0.111
    11   6 C    3.988 --    10 C    1.437     6 C    1.398    41 H    0.944
                             8 C    0.107
    12   6 C    3.981 --    13 C    1.394    17 C    1.373     5 P    0.987
                            15 C    0.106
    13   6 C    3.989 --    14 C    1.438    12 C    1.394    42 H    0.961
                            16 C    0.107
    14   6 C    3.990 --    15 C    1.443    13 C    1.438    43 H    0.970
                            17 C    0.110
    15   6 C    3.986 --    14 C    1.443    16 C    1.427    44 H    0.971
                            12 C    0.106
    16   6 C    3.990 --    17 C    1.457    15 C    1.427    45 H    0.970
                            13 C    0.107
    17   6 C    3.989 --    16 C    1.457    12 C    1.373    46 H    0.944
                            14 C    0.110
    18   6 C    3.975 --    19 C    0.993     2 N    0.983    48 H    0.964
                            47 H    0.953
    19   6 C    3.991 --    18 C    0.993    20 P    0.981    50 H    0.940
                            49 H    0.935
    20  15 P    4.559 --     1 Ru   1.057    19 C    0.981    27 C    0.973
                            21 C    0.970
    21   6 C    3.981 --    22 C    1.393    26 C    1.379    20 P    0.970
                            24 C    0.105
    22   6 C    3.987 --    23 C    1.439    21 C    1.393    51 H    0.937
                            25 C    0.107
    23   6 C    3.991 --    24 C    1.443    22 C    1.439    52 H    0.970
                            26 C    0.110
    24   6 C    3.985 --    23 C    1.443    25 C    1.428    53 H    0.971
                            21 C    0.105
    25   6 C    3.989 --    26 C    1.454    24 C    1.428    54 H    0.969
                            22 C    0.107
    26   6 C    3.991 --    25 C    1.454    21 C    1.379    55 H    0.958
                            23 C    0.110
    27   6 C    3.979 --    32 C    1.391    28 C    1.380    20 P    0.973
                            30 C    0.105
    28   6 C    3.989 --    29 C    1.449    27 C    1.380    56 H    0.940
                            31 C    0.108
    29   6 C    3.990 --    28 C    1.449    30 C    1.429    57 H    0.970
                            32 C    0.107
    30   6 C    3.986 --    31 C    1.440    29 C    1.429    58 H    0.971
                            27 C    0.105
    31   6 C    3.990 --    30 C    1.440    32 C    1.439    59 H    0.969
                            28 C    0.108
    32   6 C    3.989 --    31 C    1.439    27 C    1.391    60 H    0.961
                            29 C    0.107
    33   1 H    0.997 --     3 C    0.962
    34   1 H    0.997 --     3 C    0.964
    35   1 H    0.996 --     4 C    0.941
    36   1 H    0.994 --     4 C    0.935
    37   1 H    0.999 --     7 C    0.960
    38   1 H    0.998 --     8 C    0.969
    39   1 H    0.998 --     9 C    0.971
    40   1 H    0.998 --    10 C    0.970
    41   1 H    0.996 --    11 C    0.944
    42   1 H    0.998 --    13 C    0.961
    43   1 H    0.998 --    14 C    0.970
    44   1 H    0.998 --    15 C    0.971
    45   1 H    0.998 --    16 C    0.970
    46   1 H    0.997 --    17 C    0.944
    47   1 H    0.994 --    18 C    0.953
    48   1 H    0.998 --    18 C    0.964
    49   1 H    0.996 --    19 C    0.935
    50   1 H    0.995 --    19 C    0.940
    51   1 H    0.995 --    22 C    0.937
    52   1 H    0.998 --    23 C    0.970
    53   1 H    0.998 --    24 C    0.971
    54   1 H    0.998 --    25 C    0.969
    55   1 H    0.998 --    26 C    0.958
    56   1 H    0.997 --    28 C    0.940
    57   1 H    0.998 --    29 C    0.970
    58   1 H    0.998 --    30 C    0.971
    59   1 H    0.998 --    31 C    0.969
    60   1 H    0.998 --    32 C    0.961
    61   6 C    3.671 --    62 O    1.971     1 Ru   1.542
    62   8 O    2.385 --    61 C    1.971     1 Ru   0.348
    63   1 H    0.962 --     1 Ru   0.703
    64   8 O    2.057 --    65 C    1.848
    65   6 C    3.914 --    64 O    1.848    66 C    1.061    73 H    0.929
    66   6 C    3.989 --    67 C    1.372    71 C    1.371    65 C    1.061
    67   6 C    3.985 --    68 C    1.458    66 C    1.372    75 H    0.948
                            70 C    0.105
    68   6 C    3.992 --    67 C    1.458    69 C    1.429    76 H    0.969
                            71 C    0.105
    69   6 C    3.991 --    70 C    1.430    68 C    1.429    77 H    0.970
    70   6 C    3.992 --    71 C    1.459    69 C    1.430    78 H    0.970
                            67 C    0.105
    71   6 C    3.988 --    70 C    1.459    66 C    1.371    79 H    0.967
                            68 C    0.105
    72   1 H    0.964 --     2 N    0.908
    73   1 H    0.999 --    65 C    0.929
    74   1 H    0.937 --     1 Ru   0.782
    75   1 H    0.997 --    67 C    0.948
    76   1 H    0.998 --    68 C    0.969
    77   1 H    0.997 --    69 C    0.970
    78   1 H    0.997 --    70 C    0.970
    79   1 H    0.997 --    71 C    0.967
 ---------------------------------------------------------------------------

Topologies differ in total number of bonds
Writing topology from bond orders to xtbtopo.mol

molecular dipole:
                 x           y           z       tot (Debye)
 q only:        0.193      -2.972       3.303
   full:        0.242      -3.413       3.589      12.605
molecular quadrupole (traceless):
                xx          xy          yy          xz          yz          zz
 q only:       21.347       4.803       5.878     -21.761       4.494     -27.225
  q+dip:       24.385       9.181       4.912     -22.238       1.182     -29.298
   full:       20.789       5.737       8.210     -23.692       3.699     -29.000

           -------------------------------------------------
          |                Geometry Summary                 |
           -------------------------------------------------

      molecular mass/u    :      678.6982773
   center of mass at/Å    :       -0.4883669      -0.1247717      -0.4519354
  moments of inertia/u·Å² :        0.4959744E+04   0.8876837E+04   0.1127694E+05
rotational constants/cm⁻¹ :        0.3398891E-02   0.1899058E-02   0.1494877E-02

 * 81 selected distances

     #   Z          #   Z                                           value/Å
     2   7 N        3   6 C                                       1.4741390
     3   6 C        4   6 C                                       1.5273606
     1  44 Ru       5  15 P                                       2.2600402
     4   6 C        5  15 P                                       1.8591030
     5  15 P        6   6 C                                       1.8367887
     6   6 C        7   6 C                                       1.3925448
     7   6 C        8   6 C                                       1.3820781
     8   6 C        9   6 C                                       1.3872649
     9   6 C       10   6 C                                       1.3848078
     6   6 C       11   6 C                                       1.3884537
    10   6 C       11   6 C                                       1.3846059
     5  15 P       12   6 C                                       1.8199725
    12   6 C       13   6 C                                       1.3889324
    13   6 C       14   6 C                                       1.3855404
    14   6 C       15   6 C                                       1.3843513
    15   6 C       16   6 C                                       1.3870912
    12   6 C       17   6 C                                       1.3939621
    16   6 C       17   6 C                                       1.3810524
     2   7 N       18   6 C                                       1.4670388
    18   6 C       19   6 C                                       1.5282405
     1  44 Ru      20  15 P                                       2.2629659 (max)
    19   6 C       20  15 P                                       1.8706186
    20  15 P       21   6 C                                       1.8330317
    21   6 C       22   6 C                                       1.3889514
    22   6 C       23   6 C                                       1.3841721
    23   6 C       24   6 C                                       1.3848184
    24   6 C       25   6 C                                       1.3865384
    21   6 C       26   6 C                                       1.3924819
    25   6 C       26   6 C                                       1.3823422
    20  15 P       27   6 C                                       1.8341830
    27   6 C       28   6 C                                       1.3925589
    28   6 C       29   6 C                                       1.3817432
    29   6 C       30   6 C                                       1.3863500
    30   6 C       31   6 C                                       1.3844089
    27   6 C       32   6 C                                       1.3895786
    31   6 C       32   6 C                                       1.3846398
     3   6 C       33   1 H                                       1.0977676
     3   6 C       34   1 H                                       1.1000087
     4   6 C       35   1 H                                       1.0938497
     4   6 C       36   1 H                                       1.0941209
     7   6 C       37   1 H                                       1.0823365
     8   6 C       38   1 H                                       1.0809348
     9   6 C       39   1 H                                       1.0806323
    10   6 C       40   1 H                                       1.0809596
    11   6 C       41   1 H                                       1.0829824
    13   6 C       42   1 H                                       1.0805616
    14   6 C       43   1 H                                       1.0811208
    15   6 C       44   1 H                                       1.0805470
    16   6 C       45   1 H                                       1.0807833
    17   6 C       46   1 H                                       1.0852841
    18   6 C       47   1 H                                       1.0951754
    18   6 C       48   1 H                                       1.1028299
    19   6 C       49   1 H                                       1.0966099
    19   6 C       50   1 H                                       1.0926241
    22   6 C       51   1 H                                       1.0827328
    23   6 C       52   1 H                                       1.0807784
    24   6 C       53   1 H                                       1.0805725
    25   6 C       54   1 H                                       1.0809316
    26   6 C       55   1 H                                       1.0815202
    28   6 C       56   1 H                                       1.0857587
    29   6 C       57   1 H                                       1.0805219
    30   6 C       58   1 H                                       1.0802180
    31   6 C       59   1 H                                       1.0808103
    32   6 C       60   1 H                                       1.0808312
     1  44 Ru      61   6 C                                       1.8319473
    61   6 C       62   8 O                                       1.1644640
     1  44 Ru      63   1 H                                       1.5630254
    64   8 O       65   6 C                                       1.2099493
    66   6 C       67   6 C                                       1.3939905
    67   6 C       68   6 C                                       1.3819375
    68   6 C       69   6 C                                       1.3869436
    69   6 C       70   6 C                                       1.3868212
    66   6 C       71   6 C                                       1.3954542
    70   6 C       71   6 C                                       1.3810347
     2   7 N       72   1 H                                       1.0245169 (min)
     1  44 Ru      74   1 H                                       1.5637495
    67   6 C       75   1 H                                       1.0818469
    68   6 C       76   1 H                                       1.0814829
    69   6 C       77   1 H                                       1.0805458
    70   6 C       78   1 H                                       1.0801784
    71   6 C       79   1 H                                       1.0802198

 * 9 distinct bonds (by element types)

   Z      Z             #   av. dist./Å        max./Å        min./Å
   1 H    6 C          33     1.0850933     1.1028299     1.0801784
   6 C    6 C          32     1.3956579     1.5282405     1.3810347
   1 H    7 N           1     1.0245169     1.0245169     1.0245169
   6 C    7 N           2     1.4705889     1.4741390     1.4670388
   6 C    8 O           2     1.1872066     1.2099493     1.1644640
   6 C   15 P           6     1.8422829     1.8706186     1.8199725
   1 H   44 Ru          2     1.5633874     1.5637495     1.5630254
   6 C   44 Ru          1     1.8319473     1.8319473     1.8319473
  15 P   44 Ru          2     2.2615030     2.2629659     2.2600402


optimized geometry written to: xtbopt.xyz


           -------------------------------------------------
          | TOTAL ENERGY             -115.348173789728 Eh   |
          | GRADIENT NORM               0.000228572013 Eh/α |
          | HOMO-LUMO GAP               0.549813190964 eV   |
           -------------------------------------------------

------------------------------------------------------------------------
 * finished run on 2026/09/13 at 02:04:01.225     
------------------------------------------------------------------------
 total:
 * wall-time:     0 d,  0 h,  0 min, 24.230 sec
 *  cpu-time:     0 d,  0 h,  0 min,  6.234 sec
 * ratio c/w:     0.257 speedup
 SCF:
 * wall-time:     0 d,  0 h,  0 min,  0.405 sec
 *  cpu-time:     0 d,  0 h,  0 min,  0.031 sec
 * ratio c/w:     0.077 speedup
 ANC optimizer:
 * wall-time:     0 d,  0 h,  0 min, 23.731 sec
 *  cpu-time:     0 d,  0 h,  0 min,  6.188 sec
 * ratio c/w:     0.261 speedup


normal termination of xtb
Note: The following floating-point exceptions are signalling: IEEE_DIVIDE_BY_ZERO IEEE_UNDERFLOW_FLAG IEEE_DENORMAL
