79
 energy: -115.348173789728 gnorm: 0.000228572013 xtb: 6.7.1 (edcfbbe)
Ru           0.15671346411114        0.02910007678806       -0.25996639340666
N            0.01840288741989       -1.91609033131827        0.84093938979378
C            1.25363306575966       -2.72060916194758        0.84735319075887
C            2.49585005672858       -1.83213288816502        0.86570941947126
P            2.28910218670341       -0.65697823848604       -0.55995885001213
C            2.98849410812635       -1.67336236773933       -1.92069624412336
C            4.32820496735675       -2.05329563786340       -1.91819954171983
C            4.82905491280392       -2.82577811382526       -2.94900484606751
C            4.00076252049397       -3.22154214946450       -3.98910386383315
C            2.66990263964340       -2.83894041877342       -4.00007144723797
C            2.16616185269776       -2.06429294584300       -2.96890717052532
C            3.64965929975340        0.53895962305005       -0.38412834094723
C            4.59623763825700        0.55299640940453        0.63220093921952
C            5.57065059225968        1.53777491738920        0.65347168780364
C            5.60817677885627        2.50819076193398       -0.33309464127471
C            4.66485614041346        2.49911143223414       -1.34999455280067
C            3.69108856576133        1.52006603054419       -1.37349376442477
C           -0.56897175454839       -1.68819976466643        2.16580142538213
C           -1.94826751799062       -1.05217242292872        1.99689050844059
P           -1.80057025252735        0.39145152325594        0.81648863338604
C           -2.01386852084291        1.85430978412260        1.90025717573939
C           -1.14730121287857        2.92945820506001        1.75091615301260
C           -1.30842351948283        4.06884240143264        2.52018556213701
C           -2.33787580361266        4.14117968637045        3.44361232298801
C           -3.21474581383133        3.07668774528669        3.58659557017262
C           -3.06162546702311        1.94114494623582        2.81331281093427
C           -3.46651145061432        0.49036648940179        0.05551406859967
C           -3.52045537893494        1.31251853265425       -1.06715064310241
C           -4.71770657486771        1.53824830873589       -1.71895555842742
C           -5.87616517916603        0.93421561023330       -1.25518377901221
C           -5.82973235364859        0.11274109582407       -0.14180546526019
C           -4.63258338090802       -0.10718268376608        0.51826632473012
H            1.27799598397222       -3.31559423282657       -0.07486842071592
H            1.25442796877626       -3.40914753406094        1.70521865492488
H            3.40343727578709       -2.43646947858559        0.77870590832542
H            2.52780163657463       -1.23978402831684        1.78505829426109
H            4.97783841090465       -1.73260517655586       -1.11409370366654
H            5.86971278507227       -3.11808944396487       -2.94674554086865
H            4.39735041973914       -3.82333578423776       -4.79429234305052
H            2.02578294243109       -3.13971795773175       -4.81439083752903
H            1.13163183122449       -1.74399292579480       -2.96640310306315
H            4.58127233921443       -0.19570024502052        1.41120184423593
H            6.30518015607589        1.54675559274306        1.44669781463535
H            6.36980198634228        3.27431268160823       -0.30930541708450
H            4.68868093024582        3.25811685769345       -2.11904292647943
H            2.93760014918174        1.50392798954882       -2.15441383880780
H            0.08607007940789       -1.01612981288494        2.73029323479999
H           -0.66116591645783       -2.63915098338856        2.71664217912025
H           -2.63149896293806       -1.78114432649588        1.54484195026647
H           -2.34619837203840       -0.73876114343249        2.96500801383162
H           -0.34117819685883        2.85518097434927        1.03191770745315
H           -0.62959770873283        4.90090845858245        2.39794226342878
H           -2.46270848938662        5.02810149153443        4.04811469422045
H           -4.02468946463207        3.13636604418751        4.29992770684725
H           -3.76624570892791        1.12686234873544        2.91401022265048
H           -2.59824327459207        1.76241524968063       -1.42210070135706
H           -4.74952734936430        2.17581971686611       -2.59074532304486
H           -6.81373762576396        1.10287380668144       -1.76448047874489
H           -6.73296163666242       -0.35902866973211        0.21841777703852
H           -4.62322771582412       -0.74608511362311        1.38999559673008
C            0.23264910811249        1.58412697609585       -1.22544837508454
O            0.26760893347790        2.56195981151373       -1.85679363043404
H            0.80422078644947        0.64944114034907        1.02025196131544
O           -4.11135229490059       -0.32876295300465       -4.41742627987430
C           -3.58673435639644       -0.82592737216691       -3.44707558278644
C           -4.22944006462614       -1.77719795134193       -2.53467185533090
C           -3.49557945554085       -2.36031446290430       -1.50286138895994
C           -4.10025779702892       -3.26416560467042       -0.65011988408221
C           -5.44091334111710       -3.58142376694181       -0.81012703001568
C           -6.17933835383984       -2.99963594792153       -1.82969759257028
C           -5.57646126565889       -2.10565693423778       -2.69259808063232
H           -0.68069694444228       -2.44379620902268        0.30950671907118
H           -2.53860010025893       -0.58763572769406       -3.18474665971318
H           -0.47767335866557       -0.73353881695577       -1.46878701362718
H           -2.45577876998936       -2.08532428695414       -1.38629662072556
H           -3.53384115657850       -3.73320218080001        0.14283784651826
H           -5.91148189957408       -4.28515806317936       -0.13863444450407
H           -7.22341641724283       -3.24878140921304       -1.95058050349764
H           -6.12840560476194       -1.64415903256949       -3.49835970874404
