      -----------------------------------------------------------      
     |                   =====================                   |     
     |                           x T B                           |     
     |                   =====================                   |     
     |                         S. Grimme                         |     
     |          Mulliken Center for Theoretical Chemistry        |     
     |                    University of Bonn                     |     
      -----------------------------------------------------------      

   * xtb version 6.7.1 (edcfbbe) compiled by 'VssAdministrator@runnervm171ch' on 2026-06-10

   xtb is free software: you can redistribute it and/or modify it under
   the terms of the GNU Lesser General Public License as published by
   the Free Software Foundation, either version 3 of the License, or
   (at your option) any later version.
   
   xtb is distributed in the hope that it will be useful,
   but WITHOUT ANY WARRANTY; without even the implied warranty of
   MERCHANTABILITY or FITNESS FOR A PARTICULAR PURPOSE.  See the
   GNU Lesser General Public License for more details.
   
   Cite this work as:
   * C. Bannwarth, E. Caldeweyher, S. Ehlert, A. Hansen, P. Pracht,
     J. Seibert, S. Spicher, S. Grimme, WIREs Comput. Mol. Sci., 2020, 11,
     e01493. DOI: 10.1002/wcms.1493
   
   for GFN2-xTB:
   * C. Bannwarth, S. Ehlert and S. Grimme., J. Chem. Theory Comput., 2019,
     15, 1652-1671. DOI: 10.1021/acs.jctc.8b01176
   for GFN1-xTB:
   * S. Grimme, C. Bannwarth, P. Shushkov, J. Chem. Theory Comput., 2017,
     13, 1989-2009. DOI: 10.1021/acs.jctc.7b00118
   for GFN0-xTB:
   * P. Pracht, E. Caldeweyher, S. Ehlert, S. Grimme, ChemRxiv, 2019, preprint.
     DOI: 10.26434/chemrxiv.8326202.v1
   for GFN-FF:
   * S. Spicher and S. Grimme, Angew. Chem. Int. Ed., 2020, 59, 15665-15673.
     DOI: 10.1002/anie.202004239
   
   for ALPB and GBSA implicit solvation:
   * S. Ehlert, M. Stahn, S. Spicher, S. Grimme, J. Chem. Theory Comput.,
     2021, 17, 4250-4261. DOI: 10.1021/acs.jctc.1c00471
   
   for ddCOSMO and CPCM-X implicit solvation:
   * M. Stahn, S. Ehlert, S. Grimme, J. Phys. Chem. A,
     2023, XX, XXXX-XXXX. DOI: 10.1021/acs.jpca.3c04382
   
   for DFT-D4:
   * E. Caldeweyher, C. Bannwarth and S. Grimme, J. Chem. Phys., 2017,
     147, 034112. DOI: 10.1063/1.4993215
   * E. Caldeweyher, S. Ehlert, A. Hansen, H. Neugebauer, S. Spicher,
     C. Bannwarth and S. Grimme, J. Chem. Phys., 2019, 150, 154122.
     DOI: 10.1063/1.5090222
   * E. Caldeweyher, J.-M. Mewes, S. Ehlert and S. Grimme, Phys. Chem. Chem. Phys.
     2020, 22, 8499-8512. DOI: 10.1039/D0CP00502A
   
   for sTDA-xTB:
   * S. Grimme and C. Bannwarth, J. Chem. Phys., 2016, 145, 054103.
     DOI: 10.1063/1.4959605
   
   in the mass-spec context:
   * V. Asgeirsson, C. Bauer and S. Grimme, Chem. Sci., 2017, 8, 4879.
     DOI: 10.1039/c7sc00601b
   * J. Koopman and S. Grimme, ACS Omega 2019, 4, 12, 15120-15133.
     DOI: 10.1021/acsomega.9b02011
   
   for metadynamics refer to:
   * S. Grimme, J. Chem. Theory Comput., 2019, 155, 2847-2862
     DOI: 10.1021/acs.jctc.9b00143
   
   for SPH calculations refer to:
   * S. Spicher and S. Grimme, J. Chem. Theory Comput., 2021, 17, 1701-1714
     DOI: 10.1021/acs.jctc.0c01306
   
   for ONIOM refer to:
   * C. Plett, A. Katbashev, S. Ehlert, S. Grimme, M. Bursch,
     Phys. Chem. Chem. Phys., 2023, 25, 17860-17868. DOI: 10.1039/D3CP02178E
   
   for DIPRO refer to:
   * J. Kohn, N. Gildemeister, S. Grimme, D. Fazzi, A. Hansen,
     J. Chem. Phys., 2023, just accepted.
   
   for PTB refer to:
   * S. Grimme, M. Mueller, A. Hansen, J. Chem. Phys., 2023, 158, 124111.
     DOI: 10.1063/5.0137838
   
   with help from (in alphabetical order)
   P. Atkinson, C. Bannwarth, F. Bohle, G. Brandenburg, E. Caldeweyher
   M. Checinski, S. Dohm, S. Ehlert, S. Ehrlich, I. Gerasimov, C. Hölzer
   A. Katbashev, J. Kohn, J. Koopman, C. Lavigne, S. Lehtola, F. März, M. Müller,
   F. Musil, H. Neugebauer, J. Pisarek, C. Plett, P. Pracht, F. Pultar,
   J. Seibert, P. Shushkov, S. Spicher, M. Stahn, M. Steiner, T. Strunk,
   J. Stückrath, T. Rose, and J. Unsleber
   
 * started run on 2026/09/13 at 02:55:32.698     
   ID    Z sym.   atoms
    1   44 Ru     1
    2    7 N      2
    3    6 C      3, 4, 6-13, 15-20, 57, 61-67
    4   15 P      5, 14
    5    1 H      21-56, 59, 68-75
    6    8 O      58, 60

           -------------------------------------------------
          |                Calculation Setup                |
           -------------------------------------------------

          program call               : C:\Users\HUIWEI\miniconda3\envs\phase2ff\Library\bin\xtb.exe input.xyz --gfn 2 --chrg 0 --uhf 0 --etemp 300.0 --iterations 500 --acc 0.5 --opt tight --cycles 250 --grad --alpb toluene gsolv
          coordinate file            : input.xyz
          omp threads                :                     2

########################################################################
[WARNING] Please study the warnings concerning your input carefully
-1- prog_main_parseArguments: Unknown reference state 'gsolv'
########################################################################

           -------------------------------------------------
          |                 G F N 2 - x T B                 |
           -------------------------------------------------

        Reference                      10.1021/acs.jctc.8b01176
      * Hamiltonian:
        H0-scaling (s, p, d)           1.850000    2.230000    2.230000
        zeta-weighting                 0.500000
      * Dispersion:
        s8                             2.700000
        a1                             0.520000
        a2                             5.000000
        s9                             5.000000
      * Repulsion:
        kExp                           1.500000    1.000000
        rExp                           1.000000
      * Coulomb:
        alpha                          2.000000
        third order                    shell-resolved
        anisotropic                    true
        a3                             3.000000
        a5                             4.000000
        cn-shift                       1.200000
        cn-exp                         4.000000
        max-rad                        5.000000

      * Solvation model:               ALPB
        Solvent                        toluene
        Parameter file                 internal GFN2-xTB/ALPB
        Dielectric constant                7.0000E+00
        Reference state                gsolv [1 M gas/solution]
        Free energy shift                  2.2081E-03 Eh       1.3856E+00 kcal/mol
        Temperature                        2.9815E+02 K
        Density                            8.6700E-01 kg/L
        Solvent mass                       7.8110E+01 g/mol
        Interaction kernel             P16
        Born radius scaling (c1)           1.7172E+00
        Born radii integrator          GBOBC
        Born offset                        0.0000E+00 a0       0.0000E+00 AA
        H-bond correction              false
        Ion screening                  false
        Surface tension                    1.0000E-05 Eh       1.5569E+01 dyn/cm
        Grid points                               230 per atom

          ...................................................
          :                      SETUP                      :
          :.................................................:
          :  # basis functions                 183          :
          :  # atomic orbitals                 180          :
          :  # shells                          108          :
          :  # electrons                       176          :
          :  max. iterations                   500          :
          :  Hamiltonian                  GFN2-xTB          :
          :  restarted?                      false          :
          :  GBSA solvation                   true          :
          :  PC potential                    false          :
          :  electronic temp.          300.0000000     K    :
          :  accuracy                    0.5000000          :
          :  -> integral cutoff          0.2801030E+02      :
          :  -> integral neglect         0.5000000E-08      :
          :  -> SCF convergence          0.5000000E-06 Eh   :
          :  -> wf. convergence          0.5000000E-04 e    :
          :  Broyden damping             0.4000000          :
          :  net charge                          0          :
          :  unpaired electrons                  0          :
          ...................................................

 iter      E             dE          RMSdq      gap      omega  full diag
   1    -91.6933332 -0.916933E+02  0.617E+00    0.46       0.0  T
   2    -85.0790002  0.661433E+01  0.100E+01    0.37       1.0  T
   3    -92.5412438 -0.746224E+01  0.493E+00    0.77       1.0  T
   4    -93.8432116 -0.130197E+01  0.294E+00    0.87       1.0  T
   5    -93.3036694  0.539542E+00  0.303E+00    0.19       1.0  T
   6    -94.0591108 -0.755441E+00  0.117E+00    1.49       1.0  T
   7    -94.0938954 -0.347846E-01  0.593E-01    1.48       1.0  T
   8    -94.1096823 -0.157869E-01  0.446E-01    1.29       1.0  T
   9    -94.1120672 -0.238495E-02  0.329E-01    1.17       1.0  T
  10    -94.1132531 -0.118589E-02  0.232E-01    1.08       1.0  T
  11    -94.1144411 -0.118795E-02  0.160E-01    0.98       1.0  T
  12    -94.1150839 -0.642828E-03  0.112E-01    0.89       1.0  T
  13    -94.1152329 -0.148948E-03  0.642E-02    0.85       1.0  T
  14    -94.1153916 -0.158714E-03  0.406E-02    0.81       1.0  T
  15    -94.1154576 -0.660476E-04  0.182E-02    0.77       1.0  T
  16    -94.1154650 -0.739236E-05  0.608E-03    0.74       1.9  T
  17    -94.1154660 -0.994432E-06  0.305E-03    0.74       3.8  T
  18    -94.1154665 -0.451100E-06  0.132E-03    0.74       8.7  T
  19    -94.1154665  0.178504E-08  0.938E-04    0.74      12.3  T
  20    -94.1154665 -0.290082E-07  0.410E-04    0.74      28.2  T
  21    -94.1154665 -0.522768E-08  0.172E-04    0.74      67.1  T

   *** convergence criteria satisfied after 21 iterations ***

         #    Occupation            Energy/Eh            Energy/eV
      -------------------------------------------------------------
         1        2.0000           -0.8469180             -23.0458
       ...           ...                  ...                  ...
        82        2.0000           -0.4355461             -11.8518
        83        2.0000           -0.4238682             -11.5340
        84        2.0000           -0.4160314             -11.3208
        85        2.0000           -0.4097693             -11.1504
        86        2.0000           -0.3999068             -10.8820
        87        2.0000           -0.3918173             -10.6619
        88        2.0000           -0.3308253              -9.0022 (HOMO)
        89        0.0000           -0.3035742              -8.2607 (LUMO)
        90                         -0.2899827              -7.8908
        91                         -0.2773749              -7.5478
        92                         -0.2732916              -7.4366
        93                         -0.2681971              -7.2980
       ...                                ...                  ...
       180                          4.1903697             114.0258
      -------------------------------------------------------------
                  HL-Gap            0.0272512 Eh            0.7415 eV
             Fermi-level           -0.3171997 Eh           -8.6314 eV

 SCC (total)                   0 d,  0 h,  0 min,  0.661 sec
 SCC setup                      ...        0 min,  0.007 sec (  1.058%)
 Dispersion                     ...        0 min,  0.002 sec (  0.299%)
 classical contributions        ...        0 min,  0.001 sec (  0.077%)
 integral evaluation            ...        0 min,  0.029 sec (  4.414%)
 iterations                     ...        0 min,  0.522 sec ( 78.898%)
 molecular gradient             ...        0 min,  0.099 sec ( 14.941%)
 printout                       ...        0 min,  0.002 sec (  0.304%)

         :::::::::::::::::::::::::::::::::::::::::::::::::::::
         ::                     SUMMARY                     ::
         :::::::::::::::::::::::::::::::::::::::::::::::::::::
         :: total energy             -92.789061400657 Eh    ::
         :: total w/o Gsasa/hb       -92.755395829561 Eh    ::
         :: gradient norm              0.528342561709 Eh/a0 ::
         :: HOMO-LUMO gap              0.741541905429 eV    ::
         ::.................................................::
         :: SCC energy               -94.110709454086 Eh    ::
         :: -> isotropic ES            0.133396795384 Eh    ::
         :: -> anisotropic ES          0.016176380218 Eh    ::
         :: -> anisotropic XC          0.051998905718 Eh    ::
         :: -> dispersion             -0.111670447595 Eh    ::
         :: -> Gsolv                  -0.112688298356 Eh    ::
         ::    -> Gelec               -0.079022727260 Eh    ::
         ::    -> Gsasa               -0.035873714234 Eh    ::
         ::    -> Ghb                  0.000000000000 Eh    ::
         ::    -> Gshift               0.002208143139 Eh    ::
         :: repulsion energy           1.321648053429 Eh    ::
         :: add. restraining           0.000000000000 Eh    ::
         :: total charge              -0.000000000001 e     ::
         :::::::::::::::::::::::::::::::::::::::::::::::::::::

      ----------------------------------------------------------- 
     |                   =====================                   |
     |                        A N C O P T                        |
     |                   =====================                   |
     |               Approximate Normal Coordinate               |
     |                Rational Function Optimizer                |
      ----------------------------------------------------------- 
      ----------------------------------------------------------- 
     |                   =====================                   |
     |                        A N C O P T                        |
     |                   =====================                   |
     |               Approximate Normal Coordinate               |
     |                Rational Function Optimizer                |
      ----------------------------------------------------------- 

          ...................................................
          :                      SETUP                      :
          :.................................................:
          :   optimization level             tight          :
          :   max. optcycles                   250          :
          :   ANC micro-cycles                  20          :
          :   degrees of freedom               219          :
          :.................................................:
          :   RF solver                   davidson          :
          :   write xtbopt.log                true          :
          :   linear?                        false          :
          :   energy convergence         0.1000000E-05 Eh   :
          :   grad. convergence          0.8000000E-03 Eh/α :
          :   maxmium RF displ.          1.0000000          :
          :   Hlow (freq-cutoff)         0.1000000E-01      :
          :   Hmax (freq-cutoff)         5.0000000          :
          :   S6 in model hess.         20.0000000          :
          ...................................................

generating ANC from exact Hessian ...
Using Lindh-Hessian (1995)
 Shifting diagonal of input Hessian by    9.7910218338876642E-003
 Lowest  eigenvalues of input Hessian
    0.000000    0.000000    0.000000    0.000000    0.000000    0.000000
    0.010000    0.010325    0.010666    0.010736    0.010924    0.011258
    0.011367    0.011676    0.012142    0.012248    0.012646    0.013329
 Highest eigenvalues
    1.792852    1.886645    1.993670    2.171777    2.214218    2.296981


........................................................................
.............................. CYCLE    1 ..............................
........................................................................

 iter      E             dE          RMSdq      gap      omega  full diag
   1    -94.1154665 -0.941155E+02  0.691E-05    0.74       0.0  T
   2    -94.1154665  0.544418E-10  0.692E-05    0.74     166.8  T
   3    -94.1154665 -0.804192E-10  0.462E-05    0.74     249.7  T
     SCC iter.                  ...        0 min,  0.080 sec
     gradient                   ...        0 min,  0.126 sec
 * total energy  :   -92.7890614 Eh     change       -0.8530918E-09 Eh
   gradient norm :     0.5283418 Eh/α   predicted     0.0000000E+00 (-100.00%)
   displ. norm   :     0.6405917 α      lambda       -0.2801159E+00
   maximum displ.:     0.1481711 α      in ANC's #149, #145, #120, ...

........................................................................
.............................. CYCLE    2 ..............................
........................................................................

 iter      E             dE          RMSdq      gap      omega  full diag
   1    -94.2885284 -0.942885E+02  0.916E-01    1.32       0.0  T
   2    -94.2881247  0.403662E-03  0.877E-01    1.40       1.0  T
   3    -94.3298436 -0.417189E-01  0.297E-01    1.41       1.0  T
   4    -94.3235587  0.628486E-02  0.319E-01    1.29       1.0  T
   5    -94.3287304 -0.517167E-02  0.174E-01    1.39       1.0  T
   6    -94.3308310 -0.210057E-02  0.584E-02    1.36       1.0  T
   7    -94.3309150 -0.840042E-04  0.221E-02    1.37       1.0  T
   8    -94.3309224 -0.744314E-05  0.116E-02    1.37       1.0  T
   9    -94.3309238 -0.141733E-05  0.473E-03    1.37       2.4  T
  10    -94.3309240 -0.171760E-06  0.195E-03    1.37       5.9  T
  11    -94.3309241 -0.459438E-07  0.865E-04    1.37      13.4  T
  12    -94.3309241 -0.571383E-08  0.361E-04    1.37      32.0  T
  13    -94.3309241 -0.158268E-08  0.186E-04    1.37      62.1  T
     SCC iter.                  ...        0 min,  0.349 sec
     gradient                   ...        0 min,  0.100 sec
 * total energy  :   -93.0263255 Eh     change       -0.2372641E+00 Eh
   gradient norm :     0.3622535 Eh/α   predicted    -0.1975799E+00 ( -16.73%)
   displ. norm   :     0.7466302 α      lambda       -0.2469459E+00
   maximum displ.:     0.2038766 α      in ANC's #149, #145, #166, ...

........................................................................
.............................. CYCLE    3 ..............................
........................................................................

 iter      E             dE          RMSdq      gap      omega  full diag
   1    -94.5249404 -0.945249E+02  0.805E-01    2.08       0.0  T
   2    -94.5334346 -0.849424E-02  0.682E-01    2.19       1.0  T
   3    -94.5507160 -0.172814E-01  0.258E-01    2.19       1.0  T
   4    -94.5506889  0.271274E-04  0.146E-01    2.17       1.0  T
   5    -94.5498115  0.877421E-03  0.132E-01    2.15       1.0  T
   6    -94.5507369 -0.925481E-03  0.732E-02    2.19       1.0  T
   7    -94.5511118 -0.374851E-03  0.221E-02    2.17       1.0  T
   8    -94.5511176 -0.577199E-05  0.108E-02    2.17       1.1  T
   9    -94.5511191 -0.156163E-05  0.434E-03    2.17       2.7  T
  10    -94.5511193 -0.165351E-06  0.171E-03    2.17       6.7  T
  11    -94.5511193 -0.454460E-07  0.818E-04    2.17      14.1  T
  12    -94.5511193 -0.117680E-09  0.415E-04    2.17      27.8  T
  13    -94.5511193 -0.295702E-08  0.150E-04    2.17      77.0  T
     SCC iter.                  ...        0 min,  0.314 sec
     gradient                   ...        0 min,  0.100 sec
 * total energy  :   -93.2255973 Eh     change       -0.1992718E+00 Eh
   gradient norm :     0.2268060 Eh/α   predicted    -0.1923038E+00 (  -3.50%)
   displ. norm   :     0.7598855 α      lambda       -0.1565319E+00
   maximum displ.:     0.1933333 α      in ANC's #149, #145, #157, ...

........................................................................
.............................. CYCLE    4 ..............................
........................................................................

 iter      E             dE          RMSdq      gap      omega  full diag
   1    -94.6751839 -0.946752E+02  0.528E-01    2.56       0.0  T
   2    -94.6790914 -0.390746E-02  0.410E-01    2.57       1.0  T
   3    -94.6834608 -0.436942E-02  0.190E-01    2.57       1.0  T
   4    -94.6805976  0.286320E-02  0.214E-01    2.49       1.0  T
   5    -94.6836120 -0.301435E-02  0.894E-02    2.59       1.0  T
   6    -94.6840739 -0.461966E-03  0.316E-02    2.56       1.0  T
   7    -94.6840983 -0.243582E-04  0.156E-02    2.56       1.0  T
   8    -94.6840994 -0.114738E-05  0.685E-03    2.56       1.7  T
   9    -94.6841000 -0.563052E-06  0.293E-03    2.56       3.9  T
  10    -94.6841000 -0.329983E-07  0.128E-03    2.56       9.0  T
  11    -94.6841001 -0.271652E-07  0.540E-04    2.56      21.4  T
  12    -94.6841001 -0.110481E-08  0.263E-04    2.56      43.9  T
  13    -94.6841001 -0.104184E-08  0.998E-05    2.56     115.7  T
     SCC iter.                  ...        0 min,  0.350 sec
     gradient                   ...        0 min,  0.139 sec
 * total energy  :   -93.3551187 Eh     change       -0.1295214E+00 Eh
   gradient norm :     0.1564022 Eh/α   predicted    -0.1234589E+00 (  -4.68%)
   displ. norm   :     0.7924822 α      lambda       -0.1087838E+00
   maximum displ.:     0.1878343 α      in ANC's #43, #49, #149, ...

........................................................................
.............................. CYCLE    5 ..............................
........................................................................

 iter      E             dE          RMSdq      gap      omega  full diag
   1    -94.7665529 -0.947666E+02  0.387E-01    2.50       0.0  T
   2    -94.7685436 -0.199073E-02  0.273E-01    2.48       1.0  T
   3    -94.7699073 -0.136366E-02  0.152E-01    2.50       1.0  T
   4    -94.7675057  0.240159E-02  0.194E-01    2.41       1.0  T
   5    -94.7704759 -0.297024E-02  0.548E-02    2.50       1.0  T
   6    -94.7706066 -0.130645E-03  0.223E-02    2.48       1.0  T
   7    -94.7706146 -0.808101E-05  0.110E-02    2.48       1.0  T
   8    -94.7706155 -0.903209E-06  0.453E-03    2.48       2.5  T
   9    -94.7706158 -0.215499E-06  0.189E-03    2.48       6.1  T
  10    -94.7706158 -0.100924E-07  0.910E-04    2.48      12.7  T
  11    -94.7706158 -0.157494E-07  0.370E-04    2.48      31.2  T
  12    -94.7706158 -0.587164E-09  0.190E-04    2.48      60.7  T
     SCC iter.                  ...        0 min,  0.336 sec
     gradient                   ...        0 min,  0.122 sec
 * total energy  :   -93.4475007 Eh     change       -0.9238199E-01 Eh
   gradient norm :     0.1123126 Eh/α   predicted    -0.8855154E-01 (  -4.15%)
   displ. norm   :     0.8237737 α      lambda       -0.8131190E-01
   maximum displ.:     0.2159852 α      in ANC's #43, #49, #54, ...

........................................................................
.............................. CYCLE    6 ..............................
........................................................................

 iter      E             dE          RMSdq      gap      omega  full diag
   1    -94.8284256 -0.948284E+02  0.294E-01    2.44       0.0  T
   2    -94.8296279 -0.120226E-02  0.176E-01    2.44       1.0  T
   3    -94.8300671 -0.439258E-03  0.113E-01    2.44       1.0  T
   4    -94.8301368 -0.696337E-04  0.699E-02    2.42       1.0  T
   5    -94.8300797  0.570407E-04  0.566E-02    2.45       1.0  T
   6    -94.8303089 -0.229221E-03  0.241E-02    2.43       1.0  T
   7    -94.8303418 -0.328608E-04  0.730E-03    2.44       1.6  T
   8    -94.8303431 -0.127308E-05  0.289E-03    2.44       4.0  T
   9    -94.8303432 -0.778573E-07  0.145E-03    2.44       8.0  T
  10    -94.8303432 -0.148459E-07  0.686E-04    2.44      16.8  T
  11    -94.8303432 -0.652253E-08  0.264E-04    2.44      43.7  T
  12    -94.8303432 -0.727610E-09  0.123E-04    2.44      93.8  T
     SCC iter.                  ...        0 min,  0.358 sec
     gradient                   ...        0 min,  0.112 sec
 * total energy  :   -93.5174738 Eh     change       -0.6997309E-01 Eh
   gradient norm :     0.0812183 Eh/α   predicted    -0.6824521E-01 (  -2.47%)
   displ. norm   :     0.8354167 α      lambda       -0.6024962E-01
   maximum displ.:     0.2323124 α      in ANC's #43, #49, #40, ...

........................................................................
.............................. CYCLE    7 ..............................
........................................................................

 iter      E             dE          RMSdq      gap      omega  full diag
   1    -94.8706894 -0.948707E+02  0.284E-01    2.39       0.0  T
   2    -94.8706243  0.650734E-04  0.201E-01    2.34       1.0  T
   3    -94.8699459  0.678374E-03  0.172E-01    2.43       1.0  T
   4    -94.8708027 -0.856766E-03  0.128E-01    2.34       1.0  T
   5    -94.8718869 -0.108415E-02  0.302E-02    2.38       1.0  T
   6    -94.8719183 -0.314656E-04  0.129E-02    2.37       1.0  T
   7    -94.8719194 -0.105861E-05  0.615E-03    2.38       1.9  T
   8    -94.8719196 -0.214954E-06  0.297E-03    2.38       3.9  T
   9    -94.8719196 -0.410287E-07  0.134E-03    2.37       8.6  T
  10    -94.8719196 -0.712372E-08  0.596E-04    2.37      19.4  T
  11    -94.8719196 -0.499207E-08  0.231E-04    2.37      50.1  T
  12    -94.8719196 -0.340606E-09  0.109E-04    2.37     106.1  T
     SCC iter.                  ...        0 min,  0.364 sec
     gradient                   ...        0 min,  0.101 sec
 * total energy  :   -93.5689547 Eh     change       -0.5148092E-01 Eh
   gradient norm :     0.0628241 Eh/α   predicted    -0.5114957E-01 (  -0.64%)
   displ. norm   :     0.8639663 α      lambda       -0.4719836E-01
   maximum displ.:     0.2501670 α      in ANC's #43, #40, #49, ...

........................................................................
.............................. CYCLE    8 ..............................
........................................................................

 iter      E             dE          RMSdq      gap      omega  full diag
   1    -94.8918366 -0.948918E+02  0.297E-01    2.29       0.0  T
   2    -94.8900872  0.174937E-02  0.255E-01    2.36       1.0  T
   3    -94.8897805  0.306652E-03  0.216E-01    2.25       1.0  T
   4    -94.8921007 -0.232020E-02  0.122E-01    2.33       1.0  T
   5    -94.8929853 -0.884551E-03  0.312E-02    2.30       1.0  T
   6    -94.8929992 -0.139396E-04  0.131E-02    2.30       1.0  T
   7    -94.8930004 -0.118332E-05  0.631E-03    2.30       1.8  T
   8    -94.8930008 -0.415005E-06  0.273E-03    2.30       4.2  T
   9    -94.8930010 -0.158720E-06  0.108E-03    2.30      10.6  T
  10    -94.8930010 -0.116403E-07  0.531E-04    2.30      21.8  T
  11    -94.8930010 -0.470472E-08  0.257E-04    2.30      45.0  T
  12    -94.8930010 -0.893266E-09  0.118E-04    2.30      98.0  T
     SCC iter.                  ...        0 min,  0.316 sec
     gradient                   ...        0 min,  0.119 sec
 * total energy  :   -93.6070357 Eh     change       -0.3808097E-01 Eh
   gradient norm :     0.0622793 Eh/α   predicted    -0.4121450E-01 (   8.23%)
   displ. norm   :     0.8801968 α      lambda       -0.3932124E-01
   maximum displ.:     0.2364184 α      in ANC's #43, #40, #15, ...

........................................................................
.............................. CYCLE    9 ..............................
........................................................................

 iter      E             dE          RMSdq      gap      omega  full diag
   1    -94.9162246 -0.949162E+02  0.347E-01    2.27       0.0  T
   2    -94.9103909  0.583372E-02  0.361E-01    2.14       1.0  T
   3    -94.9139710 -0.358011E-02  0.244E-01    2.32       1.0  T
   4    -94.9177138 -0.374273E-02  0.117E-01    2.22       1.0  T
   5    -94.9181072 -0.393442E-03  0.356E-02    2.26       1.0  T
   6    -94.9181630 -0.557846E-04  0.143E-02    2.24       1.0  T
   7    -94.9181645 -0.154923E-05  0.576E-03    2.25       2.0  T
   8    -94.9181647 -0.154241E-06  0.328E-03    2.25       3.5  T
   9    -94.9181647 -0.164219E-07  0.140E-03    2.25       8.3  T
  10    -94.9181647 -0.129986E-07  0.745E-04    2.25      15.5  T
  11    -94.9181647 -0.508513E-08  0.288E-04    2.25      40.1  T
  12    -94.9181647 -0.666148E-09  0.111E-04    2.25     104.1  T
     SCC iter.                  ...        0 min,  0.354 sec
     gradient                   ...        0 min,  0.142 sec
 * total energy  :   -93.6367586 Eh     change       -0.2972289E-01 Eh
   gradient norm :     0.0492543 Eh/α   predicted    -0.3489265E-01 (  17.39%)
   displ. norm   :     0.8034530 α      lambda       -0.2551534E-01
   maximum displ.:     0.2217004 α      in ANC's #40, #21, #43, ...

........................................................................
.............................. CYCLE   10 ..............................
........................................................................

 iter      E             dE          RMSdq      gap      omega  full diag
   1    -94.9300269 -0.949300E+02  0.177E-01    2.20       0.0  T
   2    -94.9301006 -0.736718E-04  0.120E-01    2.21       1.0  T
   3    -94.9296102  0.490352E-03  0.120E-01    2.17       1.0  T
   4    -94.9298234 -0.213153E-03  0.812E-02    2.23       1.0  T
   5    -94.9303136 -0.490287E-03  0.289E-02    2.19       1.0  T
   6    -94.9303473 -0.336355E-04  0.793E-03    2.20       1.5  T
   7    -94.9303477 -0.416673E-06  0.378E-03    2.20       3.1  T
   8    -94.9303479 -0.239731E-06  0.170E-03    2.20       6.8  T
   9    -94.9303479 -0.968691E-08  0.818E-04    2.20      14.1  T
  10    -94.9303480 -0.521521E-08  0.388E-04    2.20      29.8  T
  11    -94.9303480 -0.193992E-08  0.151E-04    2.20      76.6  T
     SCC iter.                  ...        0 min,  0.321 sec
     gradient                   ...        0 min,  0.120 sec
 * total energy  :   -93.6586524 Eh     change       -0.2189385E-01 Eh
   gradient norm :     0.0419599 Eh/α   predicted    -0.2099323E-01 (  -4.11%)
   displ. norm   :     0.7985365 α      lambda       -0.1967421E-01
   maximum displ.:     0.2391536 α      in ANC's #16, #40, #21, ...

........................................................................
.............................. CYCLE   11 ..............................
........................................................................

 iter      E             dE          RMSdq      gap      omega  full diag
   1    -94.9389942 -0.949390E+02  0.166E-01    2.16       0.0  T
   2    -94.9374968  0.149741E-02  0.182E-01    2.21       1.0  T
   3    -94.9387731 -0.127628E-02  0.116E-01    2.14       1.0  T
   4    -94.9394014 -0.628297E-03  0.711E-02    2.18       1.0  T
   5    -94.9395389 -0.137488E-03  0.189E-02    2.17       1.0  T
   6    -94.9395510 -0.121148E-04  0.674E-03    2.17       1.7  T
   7    -94.9395512 -0.232207E-06  0.401E-03    2.17       2.9  T
   8    -94.9395516 -0.345298E-06  0.140E-03    2.17       8.3  T
   9    -94.9395516 -0.644719E-08  0.624E-04    2.17      18.5  T
  10    -94.9395516 -0.114096E-07  0.288E-04    2.17      40.1  T
  11    -94.9395516 -0.824130E-09  0.136E-04    2.17      85.0  T
     SCC iter.                  ...        0 min,  0.287 sec
     gradient                   ...        0 min,  0.114 sec
 * total energy  :   -93.6754353 Eh     change       -0.1678289E-01 Eh
   gradient norm :     0.0337445 Eh/α   predicted    -0.1610984E-01 (  -4.01%)
   displ. norm   :     0.8022361 α      lambda       -0.1534348E-01
   maximum displ.:     0.2750619 α      in ANC's #16, #21, #40, ...

........................................................................
.............................. CYCLE   12 ..............................
........................................................................

 iter      E             dE          RMSdq      gap      omega  full diag
   1    -94.9465771 -0.949466E+02  0.149E-01    2.16       0.0  T
   2    -94.9467249 -0.147749E-03  0.105E-01    2.15       1.0  T
   3    -94.9467609 -0.360449E-04  0.782E-02    2.16       1.0  T
   4    -94.9467693 -0.841495E-05  0.257E-02    2.16       1.0  T
   5    -94.9467602  0.916527E-05  0.167E-02    2.15       1.0  T
   6    -94.9467560  0.416881E-05  0.163E-02    2.16       1.0  T
   7    -94.9467782 -0.222118E-04  0.307E-03    2.16       3.8  T
   8    -94.9467786 -0.349151E-06  0.159E-03    2.16       7.3  T
   9    -94.9467786 -0.370764E-07  0.708E-04    2.16      16.3  T
  10    -94.9467786 -0.509964E-08  0.355E-04    2.16      32.6  T
  11    -94.9467786 -0.833012E-09  0.152E-04    2.16      75.7  T
     SCC iter.                  ...        0 min,  0.279 sec
     gradient                   ...        0 min,  0.109 sec
 * total energy  :   -93.6884071 Eh     change       -0.1297183E-01 Eh
   gradient norm :     0.0352884 Eh/α   predicted    -0.1260915E-01 (  -2.80%)
   displ. norm   :     0.8009153 α      lambda       -0.1307153E-01
   maximum displ.:     0.2961031 α      in ANC's #16, #40, #21, ...

........................................................................
.............................. CYCLE   13 ..............................
........................................................................

 iter      E             dE          RMSdq      gap      omega  full diag
   1    -94.9612697 -0.949613E+02  0.147E-01    2.16       0.0  T
   2    -94.9603907  0.879066E-03  0.138E-01    2.20       1.0  T
   3    -94.9605795 -0.188832E-03  0.120E-01    2.14       1.0  T
   4    -94.9614309 -0.851367E-03  0.490E-02    2.18       1.0  T
   5    -94.9615273 -0.964758E-04  0.138E-02    2.17       1.0  T
   6    -94.9615280 -0.686815E-06  0.512E-03    2.17       2.3  T
   7    -94.9615281 -0.312548E-07  0.296E-03    2.17       3.9  T
   8    -94.9615282 -0.125436E-06  0.157E-03    2.17       7.3  T
   9    -94.9615282 -0.702870E-08  0.801E-04    2.17      14.4  T
  10    -94.9615282 -0.273143E-08  0.367E-04    2.17      31.5  T
  11    -94.9615282 -0.303307E-08  0.126E-04    2.17      91.4  T
     SCC iter.                  ...        0 min,  0.273 sec
     gradient                   ...        0 min,  0.109 sec
 * total energy  :   -93.6983963 Eh     change       -0.9989154E-02 Eh
   gradient norm :     0.0425323 Eh/α   predicted    -0.1072824E-01 (   7.40%)
   displ. norm   :     0.7594929 α      lambda       -0.1101780E-01
   maximum displ.:     0.3031268 α      in ANC's #16, #21, #40, ...

........................................................................
.............................. CYCLE   14 ..............................
........................................................................

 iter      E             dE          RMSdq      gap      omega  full diag
   1    -94.9614718 -0.949615E+02  0.163E-01    2.19       0.0  T
   2    -94.9612908  0.180991E-03  0.133E-01    2.20       1.0  T
   3    -94.9611672  0.123633E-03  0.104E-01    2.16       1.0  T
   4    -94.9613272 -0.159966E-03  0.816E-02    2.21       1.0  T
   5    -94.9616371 -0.309917E-03  0.339E-02    2.18       1.0  T
   6    -94.9617097 -0.725772E-04  0.779E-03    2.19       1.5  T
   7    -94.9617101 -0.422560E-06  0.312E-03    2.19       3.7  T
   8    -94.9617101 -0.407443E-07  0.169E-03    2.19       6.8  T
   9    -94.9617102 -0.316884E-07  0.941E-04    2.19      12.3  T
  10    -94.9617102 -0.759550E-08  0.423E-04    2.19      27.3  T
  11    -94.9617102 -0.167850E-08  0.174E-04    2.19      66.4  T
     SCC iter.                  ...        0 min,  0.237 sec
     gradient                   ...        0 min,  0.098 sec
 * total energy  :   -93.7068233 Eh     change       -0.8427051E-02 Eh
   gradient norm :     0.0295646 Eh/α   predicted    -0.8686595E-02 (   3.08%)
   displ. norm   :     0.7357546 α      lambda       -0.7517558E-02
   maximum displ.:     0.3258457 α      in ANC's #16, #40, #21, ...

........................................................................
.............................. CYCLE   15 ..............................
........................................................................

 iter      E             dE          RMSdq      gap      omega  full diag
   1    -94.9677560 -0.949678E+02  0.147E-01    2.20       0.0  T
   2    -94.9666726  0.108337E-02  0.149E-01    2.23       1.0  T
   3    -94.9672427 -0.570126E-03  0.114E-01    2.18       1.0  T
   4    -94.9679571 -0.714394E-03  0.628E-02    2.21       1.0  T
   5    -94.9680272 -0.700535E-04  0.129E-02    2.20       1.0  T
   6    -94.9680303 -0.314189E-05  0.478E-03    2.20       2.4  T
   7    -94.9680303 -0.299774E-07  0.272E-03    2.20       4.2  T
   8    -94.9680304 -0.895775E-07  0.118E-03    2.20       9.8  T
   9    -94.9680304 -0.878711E-08  0.489E-04    2.20      23.6  T
  10    -94.9680304 -0.783828E-09  0.294E-04    2.20      39.3  T
     SCC iter.                  ...        0 min,  0.221 sec
     gradient                   ...        0 min,  0.091 sec
 * total energy  :   -93.7132918 Eh     change       -0.6468465E-02 Eh
   gradient norm :     0.0270713 Eh/α   predicted    -0.5793546E-02 ( -10.43%)
   displ. norm   :     0.7334505 α      lambda       -0.6725991E-02
   maximum displ.:     0.3440634 α      in ANC's #16, #40, #21, ...

........................................................................
.............................. CYCLE   16 ..............................
........................................................................

 iter      E             dE          RMSdq      gap      omega  full diag
   1    -94.9794840 -0.949795E+02  0.149E-01    2.22       0.0  T
   2    -94.9789574  0.526631E-03  0.121E-01    2.24       1.0  T
   3    -94.9782715  0.685898E-03  0.136E-01    2.19       1.0  T
   4    -94.9795429 -0.127138E-02  0.560E-02    2.23       1.0  T
   5    -94.9796210 -0.780931E-04  0.115E-02    2.22       1.0  T
   6    -94.9796214 -0.414925E-06  0.462E-03    2.22       2.5  T
   7    -94.9796215 -0.152465E-06  0.239E-03    2.22       4.8  T
   8    -94.9796215 -0.260095E-07  0.103E-03    2.22      11.3  T
   9    -94.9796215 -0.323642E-08  0.503E-04    2.22      23.0  T
  10    -94.9796215 -0.178287E-08  0.247E-04    2.22      46.8  T
  11    -94.9796215 -0.544730E-09  0.987E-05    2.22     117.0  T
     SCC iter.                  ...        0 min,  0.360 sec
     gradient                   ...        0 min,  0.154 sec
 * total energy  :   -93.7190042 Eh     change       -0.5712370E-02 Eh
   gradient norm :     0.0224528 Eh/α   predicted    -0.5172107E-02 (  -9.46%)
   displ. norm   :     0.7379706 α      lambda       -0.5684176E-02
   maximum displ.:     0.3675280 α      in ANC's #16, #40, #51, ...

........................................................................
.............................. CYCLE   17 ..............................
........................................................................

 iter      E             dE          RMSdq      gap      omega  full diag
   1    -94.9868620 -0.949869E+02  0.148E-01    2.22       0.0  T
   2    -94.9867652  0.967295E-04  0.978E-02    2.24       1.0  T
   3    -94.9857168  0.104847E-02  0.130E-01    2.20       1.0  T
   4    -94.9866911 -0.974309E-03  0.683E-02    2.24       1.0  T
   5    -94.9869232 -0.232135E-03  0.931E-03    2.23       1.2  T
   6    -94.9869236 -0.403290E-06  0.405E-03    2.23       2.8  T
   7    -94.9869238 -0.228721E-06  0.173E-03    2.23       6.7  T
   8    -94.9869239 -0.284253E-07  0.794E-04    2.23      14.5  T
   9    -94.9869239 -0.183393E-08  0.399E-04    2.23      28.9  T
  10    -94.9869239 -0.129243E-08  0.177E-04    2.23      65.2  T
     SCC iter.                  ...        0 min,  0.314 sec
     gradient                   ...        0 min,  0.163 sec
 * total energy  :   -93.7238175 Eh     change       -0.4813335E-02 Eh
   gradient norm :     0.0181118 Eh/α   predicted    -0.4389901E-02 (  -8.80%)
   displ. norm   :     0.7369261 α      lambda       -0.4879768E-02
   maximum displ.:     0.3587013 α      in ANC's #16, #40, #51, ...

........................................................................
.............................. CYCLE   18 ..............................
........................................................................

 iter      E             dE          RMSdq      gap      omega  full diag
   1    -94.9963003 -0.949963E+02  0.143E-01    2.22       0.0  T
   2    -94.9962981  0.220444E-05  0.890E-02    2.23       1.0  T
   3    -94.9959998  0.298241E-03  0.873E-02    2.21       1.0  T
   4    -94.9960036 -0.374491E-05  0.658E-02    2.24       1.0  T
   5    -94.9963327 -0.329131E-03  0.110E-02    2.22       1.0  T
   6    -94.9963357 -0.302923E-05  0.439E-03    2.23       2.6  T
   7    -94.9963360 -0.271518E-06  0.198E-03    2.23       5.8  T
   8    -94.9963360 -0.320138E-07  0.868E-04    2.23      13.3  T
   9    -94.9963360 -0.383305E-08  0.389E-04    2.23      29.7  T
  10    -94.9963360 -0.313108E-08  0.141E-04    2.23      82.2  T
     SCC iter.                  ...        0 min,  0.353 sec
     gradient                   ...        0 min,  0.151 sec
 * total energy  :   -93.7278834 Eh     change       -0.4065907E-02 Eh
   gradient norm :     0.0202925 Eh/α   predicted    -0.3764892E-02 (  -7.40%)
   displ. norm   :     0.7400868 α      lambda       -0.4343703E-02
   maximum displ.:     0.3442277 α      in ANC's #16, #40, #2, ...

........................................................................
.............................. CYCLE   19 ..............................
........................................................................

 iter      E             dE          RMSdq      gap      omega  full diag
   1    -94.9997622 -0.949998E+02  0.140E-01    2.21       0.0  T
   2    -94.9997341  0.281097E-04  0.941E-02    2.22       1.0  T
   3    -94.9994711  0.262966E-03  0.874E-02    2.21       1.0  T
   4    -94.9993531  0.118031E-03  0.797E-02    2.23       1.0  T
   5    -94.9998072 -0.454145E-03  0.107E-02    2.22       1.1  T
   6    -94.9998103 -0.309187E-05  0.388E-03    2.22       3.0  T
   7    -94.9998105 -0.205414E-06  0.166E-03    2.22       7.0  T
   8    -94.9998105 -0.167207E-07  0.763E-04    2.22      15.1  T
   9    -94.9998105 -0.165613E-08  0.355E-04    2.22      32.6  T
  10    -94.9998105 -0.257839E-08  0.152E-04    2.22      76.1  T
     SCC iter.                  ...        0 min,  0.343 sec
     gradient                   ...        0 min,  0.162 sec
 * total energy  :   -93.7314552 Eh     change       -0.3571771E-02 Eh
   gradient norm :     0.0209775 Eh/α   predicted    -0.3361443E-02 (  -5.89%)
   displ. norm   :     0.7301952 α      lambda       -0.3942175E-02
   maximum displ.:     0.3115310 α      in ANC's #16, #40, #2, ...

........................................................................
.............................. CYCLE   20 ..............................
........................................................................

 iter      E             dE          RMSdq      gap      omega  full diag
   1    -95.0041851 -0.950042E+02  0.126E-01    2.21       0.0  T
   2    -95.0041069  0.782295E-04  0.860E-02    2.21       1.0  T
   3    -95.0037008  0.406116E-03  0.904E-02    2.19       1.0  T
   4    -95.0039244 -0.223633E-03  0.718E-02    2.22       1.0  T
   5    -95.0042276 -0.303172E-03  0.104E-02    2.21       1.1  T
   6    -95.0042291 -0.150409E-05  0.331E-03    2.21       3.5  T
   7    -95.0042292 -0.129353E-06  0.137E-03    2.21       8.4  T
   8    -95.0042292 -0.858294E-08  0.562E-04    2.21      20.6  T
   9    -95.0042292 -0.661075E-09  0.293E-04    2.21      39.4  T
  10    -95.0042292 -0.131222E-08  0.126E-04    2.21      91.5  T
     SCC iter.                  ...        0 min,  0.359 sec
     gradient                   ...        0 min,  0.160 sec
 * total energy  :   -93.7348111 Eh     change       -0.3355925E-02 Eh
   gradient norm :     0.0207920 Eh/α   predicted    -0.3022058E-02 (  -9.95%)
   displ. norm   :     0.7354964 α      lambda       -0.3894658E-02
   maximum displ.:     0.2518284 α      in ANC's #40, #16, #2, ...
 * RMSD in coord.:     1.4480086 α      energy gain  -0.9457497E+00 Eh

generating ANC from exact Hessian ...
Using Lindh-Hessian (1995)
 Shifting diagonal of input Hessian by    1.2753088773813039E-002
 Lowest  eigenvalues of input Hessian
    0.010000    0.011640    0.011816    0.012595    0.012621    0.000000
    0.000000    0.000000    0.000000    0.000000    0.000000    0.012827
    0.012953    0.013090    0.013208    0.013476    0.013573    0.013621
 Highest eigenvalues
    1.582417    1.621023    1.900106    2.007138    2.029779    2.318795


........................................................................
.............................. CYCLE   21 ..............................
........................................................................

 iter      E             dE          RMSdq      gap      omega  full diag
   1    -95.0124166 -0.950124E+02  0.122E-01    2.20       0.0  T
   2    -95.0123989  0.176806E-04  0.832E-02    2.20       1.0  T
   3    -95.0123311  0.678133E-04  0.610E-02    2.19       1.0  T
   4    -95.0120607  0.270333E-03  0.704E-02    2.21       1.0  T
   5    -95.0124414 -0.380682E-03  0.164E-02    2.20       1.0  T
   6    -95.0124514 -0.997857E-05  0.341E-03    2.20       3.4  T
   7    -95.0124516 -0.161667E-06  0.144E-03    2.20       8.0  T
   8    -95.0124516 -0.699532E-08  0.647E-04    2.20      17.8  T
   9    -95.0124516  0.120500E-08  0.337E-04    2.20      34.2  T
  10    -95.0124516 -0.352719E-08  0.142E-04    2.20      81.1  T
     SCC iter.                  ...        0 min,  0.339 sec
     gradient                   ...        0 min,  0.171 sec
 * total energy  :   -93.7381218 Eh     change       -0.3310707E-02 Eh
   gradient norm :     0.0226558 Eh/α   predicted     0.0000000E+00 (-100.00%)
   displ. norm   :     0.3985887 α      lambda       -0.4235466E-02
   maximum displ.:     0.1517473 α      in ANC's #9, #1, #33, ...

........................................................................
.............................. CYCLE   22 ..............................
........................................................................

 iter      E             dE          RMSdq      gap      omega  full diag
   1    -95.0119330 -0.950119E+02  0.120E-01    2.20       0.0  T
   2    -95.0117954  0.137594E-03  0.886E-02    2.20       1.0  T
   3    -95.0113681  0.427294E-03  0.946E-02    2.18       1.0  T
   4    -95.0117782 -0.410044E-03  0.672E-02    2.21       1.0  T
   5    -95.0119840 -0.205833E-03  0.811E-03    2.20       1.4  T
   6    -95.0119869 -0.291452E-05  0.342E-03    2.20       3.4  T
   7    -95.0119869 -0.255449E-07  0.175E-03    2.20       6.6  T
   8    -95.0119870 -0.553848E-07  0.636E-04    2.20      18.2  T
   9    -95.0119870 -0.313146E-08  0.350E-04    2.20      33.0  T
  10    -95.0119870 -0.597225E-09  0.153E-04    2.20      75.7  T
     SCC iter.                  ...        0 min,  0.397 sec
     gradient                   ...        0 min,  0.142 sec
 * total energy  :   -93.7412507 Eh     change       -0.3128908E-02 Eh
   gradient norm :     0.0109086 Eh/α   predicted    -0.2467695E-02 ( -21.13%)
   displ. norm   :     0.6177697 α      lambda       -0.4173706E-02
   maximum displ.:     0.2897538 α      in ANC's #9, #17, #33, ...

........................................................................
.............................. CYCLE   23 ..............................
........................................................................

 iter      E             dE          RMSdq      gap      omega  full diag
   1    -95.0069319 -0.950069E+02  0.181E-01    2.18       0.0  T
   2    -95.0066746  0.257319E-03  0.135E-01    2.17       1.0  T
   3    -95.0063690  0.305614E-03  0.109E-01    2.15       1.0  T
   4    -95.0064550 -0.860347E-04  0.986E-02    2.18       1.0  T
   5    -95.0070799 -0.624904E-03  0.188E-02    2.16       1.0  T
   6    -95.0070823 -0.238933E-05  0.753E-03    2.16       1.5  T
   7    -95.0070821  0.238338E-06  0.385E-03    2.16       3.0  T
   8    -95.0070825 -0.410557E-06  0.163E-03    2.16       7.1  T
   9    -95.0070825 -0.654869E-08  0.606E-04    2.16      19.1  T
  10    -95.0070825 -0.127012E-08  0.274E-04    2.16      42.1  T
  11    -95.0070825 -0.390813E-09  0.173E-04    2.16      66.6  T
     SCC iter.                  ...        0 min,  0.367 sec
     gradient                   ...        0 min,  0.167 sec
 * total energy  :   -93.7429230 Eh     change       -0.1672242E-02 Eh
   gradient norm :     0.0276664 Eh/α   predicted    -0.2883285E-02 (  72.42%)
   displ. norm   :     0.5507196 α      lambda       -0.4979762E-02
   maximum displ.:     0.2655697 α      in ANC's #9, #17, #18, ...

........................................................................
.............................. CYCLE   24 ..............................
........................................................................

 iter      E             dE          RMSdq      gap      omega  full diag
   1    -95.0053927 -0.950054E+02  0.160E-01    2.15       0.0  T
   2    -95.0049507  0.442003E-03  0.128E-01    2.15       1.0  T
   3    -95.0046056  0.345089E-03  0.121E-01    2.13       1.0  T
   4    -95.0053368 -0.731254E-03  0.700E-02    2.15       1.0  T
   5    -95.0055617 -0.224904E-03  0.181E-02    2.14       1.0  T
   6    -95.0055661 -0.432960E-05  0.643E-03    2.14       1.8  T
   7    -95.0055658  0.289953E-06  0.336E-03    2.14       3.4  T
   8    -95.0055662 -0.387008E-06  0.136E-03    2.14       8.5  T
   9    -95.0055662 -0.735363E-08  0.404E-04    2.14      28.6  T
  10    -95.0055662 -0.918206E-09  0.193E-04    2.14      59.8  T
     SCC iter.                  ...        0 min,  0.348 sec
     gradient                   ...        0 min,  0.151 sec
 * total energy  :   -93.7454490 Eh     change       -0.2526033E-02 Eh
   gradient norm :     0.0286854 Eh/α   predicted    -0.3245044E-02 (  28.46%)
   displ. norm   :     0.4307562 α      lambda       -0.3173023E-02
   maximum displ.:     0.2369782 α      in ANC's #9, #11, #1, ...

........................................................................
.............................. CYCLE   25 ..............................
........................................................................

 iter      E             dE          RMSdq      gap      omega  full diag
   1    -95.0149563 -0.950150E+02  0.765E-02    2.13       0.0  T
   2    -95.0147706  0.185678E-03  0.721E-02    2.13       1.0  T
   3    -95.0148034 -0.327045E-04  0.560E-02    2.14       1.0  T
   4    -95.0149593 -0.155966E-03  0.309E-02    2.13       1.0  T
   5    -95.0150063 -0.470161E-04  0.625E-03    2.14       1.8  T
   6    -95.0150082 -0.181733E-05  0.307E-03    2.14       3.8  T
   7    -95.0150082 -0.778608E-07  0.999E-04    2.14      11.6  T
   8    -95.0150082  0.125291E-08  0.625E-04    2.14      18.5  T
   9    -95.0150082 -0.291567E-08  0.260E-04    2.14      44.4  T
  10    -95.0150082 -0.189951E-08  0.119E-04    2.14      97.1  T
     SCC iter.                  ...        0 min,  0.308 sec
     gradient                   ...        0 min,  0.177 sec
 * total energy  :   -93.7478633 Eh     change       -0.2414271E-02 Eh
   gradient norm :     0.0157419 Eh/α   predicted    -0.1880894E-02 ( -22.09%)
   displ. norm   :     0.7192397 α      lambda       -0.3587178E-02
   maximum displ.:     0.4113451 α      in ANC's #9, #11, #17, ...

........................................................................
.............................. CYCLE   26 ..............................
........................................................................

 iter      E             dE          RMSdq      gap      omega  full diag
   1    -95.0221868 -0.950222E+02  0.106E-01    2.11       0.0  T
   2    -95.0221822  0.461701E-05  0.782E-02    2.11       1.0  T
   3    -95.0221655  0.167546E-04  0.505E-02    2.12       1.0  T
   4    -95.0219764  0.189031E-03  0.542E-02    2.11       1.0  T
   5    -95.0222024 -0.225949E-03  0.154E-02    2.12       1.0  T
   6    -95.0222190 -0.166000E-04  0.389E-03    2.11       3.0  T
   7    -95.0222190 -0.382784E-07  0.175E-03    2.11       6.6  T
   8    -95.0222190 -0.967802E-08  0.955E-04    2.11      12.1  T
   9    -95.0222190 -0.288230E-08  0.368E-04    2.11      31.4  T
  10    -95.0222190 -0.257899E-08  0.202E-04    2.11      57.2  T
     SCC iter.                  ...        0 min,  0.366 sec
     gradient                   ...        0 min,  0.197 sec
 * total energy  :   -93.7508615 Eh     change       -0.2998203E-02 Eh
   gradient norm :     0.0129791 Eh/α   predicted    -0.2721427E-02 (  -9.23%)
   displ. norm   :     0.8220588 α      lambda       -0.3143052E-02
   maximum displ.:     0.4593679 α      in ANC's #9, #11, #17, ...

........................................................................
.............................. CYCLE   27 ..............................
........................................................................

 iter      E             dE          RMSdq      gap      omega  full diag
   1    -95.0236739 -0.950237E+02  0.100E-01    2.09       0.0  T
   2    -95.0236534  0.204453E-04  0.674E-02    2.09       1.0  T
   3    -95.0235550  0.984467E-04  0.572E-02    2.08       1.0  T
   4    -95.0234690  0.860011E-04  0.573E-02    2.10       1.0  T
   5    -95.0236981 -0.229083E-03  0.153E-02    2.09       1.0  T
   6    -95.0237050 -0.694802E-05  0.333E-03    2.09       3.5  T
   7    -95.0237052 -0.223422E-06  0.130E-03    2.09       8.9  T
   8    -95.0237053 -0.151381E-07  0.646E-04    2.09      17.9  T
   9    -95.0237053 -0.169726E-08  0.293E-04    2.09      39.4  T
  10    -95.0237053 -0.654580E-09  0.117E-04    2.09      98.4  T
     SCC iter.                  ...        0 min,  0.408 sec
     gradient                   ...        0 min,  0.182 sec
 * total energy  :   -93.7536111 Eh     change       -0.2749584E-02 Eh
   gradient norm :     0.0119866 Eh/α   predicted    -0.2633553E-02 (  -4.22%)
   displ. norm   :     0.8242740 α      lambda       -0.2826683E-02
   maximum displ.:     0.4608620 α      in ANC's #9, #11, #17, ...

........................................................................
.............................. CYCLE   28 ..............................
........................................................................

 iter      E             dE          RMSdq      gap      omega  full diag
   1    -95.0273349 -0.950273E+02  0.107E-01    2.07       0.0  T
   2    -95.0271635  0.171332E-03  0.820E-02    2.06       1.0  T
   3    -95.0269367  0.226808E-03  0.814E-02    2.05       1.0  T
   4    -95.0273050 -0.368289E-03  0.497E-02    2.07       1.0  T
   5    -95.0274038 -0.987883E-04  0.154E-02    2.06       1.0  T
   6    -95.0274047 -0.932431E-06  0.349E-03    2.06       3.3  T
   7    -95.0274047  0.341523E-07  0.205E-03    2.06       5.6  T
   8    -95.0274048 -0.796310E-07  0.105E-03    2.06      11.0  T
   9    -95.0274048 -0.447210E-08  0.403E-04    2.06      28.7  T
  10    -95.0274048 -0.153963E-08  0.193E-04    2.06      59.8  T
     SCC iter.                  ...        0 min,  0.333 sec
     gradient                   ...        0 min,  0.162 sec
 * total energy  :   -93.7560139 Eh     change       -0.2402884E-02 Eh
   gradient norm :     0.0081872 Eh/α   predicted    -0.2373609E-02 (  -1.22%)
   displ. norm   :     0.8387523 α      lambda       -0.2326959E-02
   maximum displ.:     0.4577410 α      in ANC's #9, #11, #17, ...

........................................................................
.............................. CYCLE   29 ..............................
........................................................................

 iter      E             dE          RMSdq      gap      omega  full diag
   1    -95.0260965 -0.950261E+02  0.986E-02    2.04       0.0  T
   2    -95.0260749  0.215705E-04  0.639E-02    2.04       1.0  T
   3    -95.0259573  0.117572E-03  0.552E-02    2.04       1.0  T
   4    -95.0258794  0.778968E-04  0.579E-02    2.05       1.0  T
   5    -95.0261246 -0.245108E-03  0.120E-02    2.04       1.0  T
   6    -95.0261252 -0.650982E-06  0.318E-03    2.04       3.6  T
   7    -95.0261252  0.425860E-07  0.164E-03    2.04       7.1  T
   8    -95.0261252 -0.671871E-07  0.669E-04    2.04      17.3  T
   9    -95.0261252 -0.140733E-08  0.270E-04    2.04      42.7  T
  10    -95.0261252 -0.131308E-09  0.142E-04    2.04      81.2  T
     SCC iter.                  ...        0 min,  0.402 sec
     gradient                   ...        0 min,  0.171 sec
 * total energy  :   -93.7579700 Eh     change       -0.1956101E-02 Eh
   gradient norm :     0.0104310 Eh/α   predicted    -0.1982002E-02 (   1.32%)
   displ. norm   :     0.7884141 α      lambda       -0.2158368E-02
   maximum displ.:     0.4294435 α      in ANC's #9, #17, #4, ...

........................................................................
.............................. CYCLE   30 ..............................
........................................................................

 iter      E             dE          RMSdq      gap      omega  full diag
   1    -95.0353008 -0.950353E+02  0.101E-01    2.03       0.0  T
   2    -95.0353078 -0.701522E-05  0.592E-02    2.02       1.0  T
   3    -95.0352738  0.340199E-04  0.431E-02    2.03       1.0  T
   4    -95.0350712  0.202625E-03  0.550E-02    2.02       1.0  T
   5    -95.0353221 -0.250885E-03  0.684E-03    2.03       1.7  T
   6    -95.0353238 -0.169281E-05  0.321E-03    2.03       3.6  T
   7    -95.0353238 -0.741411E-07  0.153E-03    2.03       7.6  T
   8    -95.0353239 -0.131925E-07  0.764E-04    2.03      15.1  T
   9    -95.0353239 -0.514899E-08  0.281E-04    2.03      41.0  T
  10    -95.0353239 -0.164702E-08  0.142E-04    2.03      81.3  T
     SCC iter.                  ...        0 min,  0.400 sec
     gradient                   ...        0 min,  0.151 sec
 * total energy  :   -93.7595932 Eh     change       -0.1623206E-02 Eh
   gradient norm :     0.0138567 Eh/α   predicted    -0.1750003E-02 (   7.81%)
   displ. norm   :     0.7673657 α      lambda       -0.1791689E-02
   maximum displ.:     0.3983571 α      in ANC's #9, #4, #6, ...

........................................................................
.............................. CYCLE   31 ..............................
........................................................................

 iter      E             dE          RMSdq      gap      omega  full diag
   1    -95.0324477 -0.950324E+02  0.100E-01    2.01       0.0  T
   2    -95.0322780  0.169698E-03  0.775E-02    2.01       1.0  T
   3    -95.0321063  0.171625E-03  0.740E-02    2.00       1.0  T
   4    -95.0324298 -0.323494E-03  0.429E-02    2.01       1.0  T
   5    -95.0325093 -0.794449E-04  0.125E-02    2.01       1.0  T
   6    -95.0325099 -0.603335E-06  0.308E-03    2.01       3.7  T
   7    -95.0325098  0.511522E-07  0.203E-03    2.01       5.7  T
   8    -95.0325099 -0.956849E-07  0.105E-03    2.01      11.0  T
   9    -95.0325099 -0.115873E-07  0.351E-04    2.00      32.9  T
  10    -95.0325099 -0.324206E-09  0.186E-04    2.00      62.0  T
     SCC iter.                  ...        0 min,  0.364 sec
     gradient                   ...        0 min,  0.140 sec
 * total energy  :   -93.7610391 Eh     change       -0.1445811E-02 Eh
   gradient norm :     0.0089640 Eh/α   predicted    -0.1423369E-02 (  -1.55%)
   displ. norm   :     0.7250021 α      lambda       -0.1413469E-02
   maximum displ.:     0.3598455 α      in ANC's #9, #4, #6, ...

........................................................................
.............................. CYCLE   32 ..............................
........................................................................

 iter      E             dE          RMSdq      gap      omega  full diag
   1    -95.0345707 -0.950346E+02  0.801E-02    2.00       0.0  T
   2    -95.0345752 -0.447240E-05  0.486E-02    1.99       1.0  T
   3    -95.0345672  0.800898E-05  0.321E-02    1.99       1.0  T
   4    -95.0344633  0.103832E-03  0.369E-02    2.00       1.0  T
   5    -95.0345810 -0.117685E-03  0.646E-03    1.99       1.8  T
   6    -95.0345821 -0.111493E-05  0.220E-03    1.99       5.3  T
   7    -95.0345821 -0.107340E-07  0.114E-03    1.99      10.1  T
   8    -95.0345821 -0.106699E-07  0.500E-04    1.99      23.1  T
   9    -95.0345821  0.173259E-09  0.230E-04    1.99      50.2  T
     SCC iter.                  ...        0 min,  0.337 sec
     gradient                   ...        0 min,  0.149 sec
 * total energy  :   -93.7622528 Eh     change       -0.1213707E-02 Eh
   gradient norm :     0.0064914 Eh/α   predicted    -0.1078216E-02 ( -11.16%)
   displ. norm   :     0.7335359 α      lambda       -0.1373055E-02
   maximum displ.:     0.3246656 α      in ANC's #4, #9, #6, ...

........................................................................
.............................. CYCLE   33 ..............................
........................................................................

 iter      E             dE          RMSdq      gap      omega  full diag
   1    -95.0359076 -0.950359E+02  0.905E-02    1.99       0.0  T
   2    -95.0359055  0.206005E-05  0.533E-02    1.98       1.0  T
   3    -95.0358105  0.950330E-04  0.456E-02    1.98       1.0  T
   4    -95.0357112  0.993330E-04  0.514E-02    1.99       1.0  T
   5    -95.0359239 -0.212725E-03  0.101E-02    1.98       1.1  T
   6    -95.0359243 -0.411766E-06  0.253E-03    1.98       4.6  T
   7    -95.0359243 -0.131295E-07  0.100E-03    1.98      11.5  T
   8    -95.0359243 -0.449405E-08  0.535E-04    1.98      21.6  T
   9    -95.0359243 -0.145941E-08  0.257E-04    1.98      45.0  T
  10    -95.0359243 -0.434966E-09  0.950E-05    1.98     121.6  T
     SCC iter.                  ...        0 min,  0.344 sec
     gradient                   ...        0 min,  0.178 sec
 * total energy  :   -93.7634018 Eh     change       -0.1149014E-02 Eh
   gradient norm :     0.0082180 Eh/α   predicted    -0.1055933E-02 (  -8.10%)
   displ. norm   :     0.7393849 α      lambda       -0.1320215E-02
   maximum displ.:     0.3458295 α      in ANC's #4, #6, #9, ...

........................................................................
.............................. CYCLE   34 ..............................
........................................................................

 iter      E             dE          RMSdq      gap      omega  full diag
   1    -95.0389886 -0.950390E+02  0.847E-02    1.98       0.0  T
   2    -95.0389805  0.811429E-05  0.509E-02    1.98       1.0  T
   3    -95.0387042  0.276331E-03  0.612E-02    1.97       1.0  T
   4    -95.0389289 -0.224718E-03  0.300E-02    1.98       1.0  T
   5    -95.0389991 -0.702100E-04  0.263E-03    1.97       4.4  T
   6    -95.0389991 -0.189839E-07  0.214E-03    1.97       5.4  T
   7    -95.0389992 -0.748822E-07  0.751E-04    1.97      15.4  T
   8    -95.0389992 -0.203768E-08  0.378E-04    1.97      30.6  T
   9    -95.0389992 -0.598547E-09  0.174E-04    1.97      66.2  T
     SCC iter.                  ...        0 min,  0.351 sec
     gradient                   ...        0 min,  0.148 sec
 * total energy  :   -93.7643943 Eh     change       -0.9925304E-03 Eh
   gradient norm :     0.0114571 Eh/α   predicted    -0.1020983E-02 (   2.87%)
   displ. norm   :     0.7413953 α      lambda       -0.1231380E-02
   maximum displ.:     0.3266244 α      in ANC's #4, #6, #9, ...

........................................................................
.............................. CYCLE   35 ..............................
........................................................................

 iter      E             dE          RMSdq      gap      omega  full diag
   1    -95.0336187 -0.950336E+02  0.982E-02    1.97       0.0  T
   2    -95.0336080  0.106701E-04  0.625E-02    1.97       1.0  T
   3    -95.0334538  0.154204E-03  0.641E-02    1.98       1.0  T
   4    -95.0334724 -0.185481E-04  0.454E-02    1.97       1.0  T
   5    -95.0336263 -0.153871E-03  0.122E-02    1.97       1.0  T
   6    -95.0336356 -0.934732E-05  0.268E-03    1.97       4.3  T
   7    -95.0336357 -0.104834E-06  0.987E-04    1.97      11.7  T
   8    -95.0336357 -0.967997E-08  0.464E-04    1.97      24.9  T
   9    -95.0336357 -0.135569E-08  0.202E-04    1.97      57.2  T
     SCC iter.                  ...        0 min,  0.292 sec
     gradient                   ...        0 min,  0.139 sec
 * total energy  :   -93.7652894 Eh     change       -0.8950732E-03 Eh
   gradient norm :     0.0102154 Eh/α   predicted    -0.9541164E-03 (   6.60%)
   displ. norm   :     0.6268440 α      lambda       -0.9819902E-03
   maximum displ.:     0.2857637 α      in ANC's #7, #4, #6, ...

........................................................................
.............................. CYCLE   36 ..............................
........................................................................

 iter      E             dE          RMSdq      gap      omega  full diag
   1    -95.0360694 -0.950361E+02  0.742E-02    1.97       0.0  T
   2    -95.0360697 -0.228864E-06  0.469E-02    1.97       1.0  T
   3    -95.0360232  0.464950E-04  0.406E-02    1.98       1.0  T
   4    -95.0359789  0.442698E-04  0.358E-02    1.97       1.0  T
   5    -95.0360736 -0.946697E-04  0.937E-03    1.97       1.2  T
   6    -95.0360800 -0.641883E-05  0.208E-03    1.97       5.6  T
   7    -95.0360800 -0.388427E-07  0.102E-03    1.97      11.4  T
   8    -95.0360800 -0.312453E-08  0.557E-04    1.97      20.7  T
   9    -95.0360800 -0.307058E-08  0.247E-04    1.97      46.7  T
  10    -95.0360800 -0.588003E-09  0.108E-04    1.97     107.1  T
     SCC iter.                  ...        0 min,  0.348 sec
     gradient                   ...        0 min,  0.181 sec
 * total energy  :   -93.7660501 Eh     change       -0.7606809E-03 Eh
   gradient norm :     0.0118844 Eh/α   predicted    -0.6839274E-03 ( -10.09%)
   displ. norm   :     0.6707035 α      lambda       -0.9583767E-03
   maximum displ.:     0.3165016 α      in ANC's #7, #4, #6, ...

........................................................................
.............................. CYCLE   37 ..............................
........................................................................

 iter      E             dE          RMSdq      gap      omega  full diag
   1    -95.0364845 -0.950365E+02  0.753E-02    1.98       0.0  T
   2    -95.0364783  0.623998E-05  0.464E-02    1.97       1.0  T
   3    -95.0363660  0.112308E-03  0.461E-02    1.98       1.0  T
   4    -95.0363750 -0.903881E-05  0.384E-02    1.97       1.0  T
   5    -95.0364917 -0.116686E-03  0.329E-03    1.98       3.5  T
   6    -95.0364920 -0.295894E-06  0.185E-03    1.98       6.3  T
   7    -95.0364920 -0.446668E-07  0.657E-04    1.98      17.6  T
   8    -95.0364920 -0.625636E-08  0.291E-04    1.98      39.6  T
   9    -95.0364920 -0.573991E-09  0.161E-04    1.98      71.9  T
     SCC iter.                  ...        0 min,  0.283 sec
     gradient                   ...        0 min,  0.164 sec
 * total energy  :   -93.7667734 Eh     change       -0.7233500E-03 Eh
   gradient norm :     0.0063562 Eh/α   predicted    -0.6947547E-03 (  -3.95%)
   displ. norm   :     0.6224088 α      lambda       -0.6779545E-03
   maximum displ.:     0.3296795 α      in ANC's #7, #4, #6, ...

........................................................................
.............................. CYCLE   38 ..............................
........................................................................

 iter      E             dE          RMSdq      gap      omega  full diag
   1    -95.0376783 -0.950377E+02  0.787E-02    1.99       0.0  T
   2    -95.0376753  0.296568E-05  0.500E-02    1.99       1.0  T
   3    -95.0376469  0.283554E-04  0.381E-02    1.99       1.0  T
   4    -95.0375284  0.118574E-03  0.450E-02    1.99       1.0  T
   5    -95.0376847 -0.156322E-03  0.806E-03    1.99       1.4  T
   6    -95.0376877 -0.299884E-05  0.241E-03    1.99       4.8  T
   7    -95.0376879 -0.212006E-06  0.902E-04    1.99      12.8  T
   8    -95.0376879 -0.451077E-08  0.557E-04    1.99      20.7  T
   9    -95.0376879 -0.147283E-08  0.186E-04    1.99      62.0  T
  10    -95.0376879 -0.193481E-09  0.832E-05    1.99     138.7  T
     SCC iter.                  ...        0 min,  0.313 sec
     gradient                   ...        0 min,  0.166 sec
 * total energy  :   -93.7672974 Eh     change       -0.5240015E-03 Eh
   gradient norm :     0.0077388 Eh/α   predicted    -0.4702968E-03 ( -10.25%)
   displ. norm   :     0.6697373 α      lambda       -0.5896321E-03
   maximum displ.:     0.3363838 α      in ANC's #7, #4, #6, ...

........................................................................
.............................. CYCLE   39 ..............................
........................................................................

 iter      E             dE          RMSdq      gap      omega  full diag
   1    -95.0375218 -0.950375E+02  0.822E-02    2.00       0.0  T
   2    -95.0374112  0.110661E-03  0.627E-02    2.00       1.0  T
   3    -95.0372234  0.187804E-03  0.675E-02    2.01       1.0  T
   4    -95.0374945 -0.271088E-03  0.328E-02    2.00       1.0  T
   5    -95.0375473 -0.528018E-04  0.294E-03    2.00       3.9  T
   6    -95.0375473 -0.221294E-07  0.186E-03    2.00       6.2  T
   7    -95.0375473 -0.397068E-07  0.684E-04    2.00      16.9  T
   8    -95.0375473 -0.123749E-07  0.293E-04    2.00      39.5  T
   9    -95.0375473 -0.216190E-09  0.146E-04    2.00      79.2  T
     SCC iter.                  ...        0 min,  0.325 sec
     gradient                   ...        0 min,  0.163 sec
 * total energy  :   -93.7677277 Eh     change       -0.4303237E-03 Eh
   gradient norm :     0.0076767 Eh/α   predicted    -0.4270589E-03 (  -0.76%)
   displ. norm   :     0.5422693 α      lambda       -0.5752284E-03
   maximum displ.:     0.3185821 α      in ANC's #7, #2, #6, ...

........................................................................
.............................. CYCLE   40 ..............................
........................................................................

 iter      E             dE          RMSdq      gap      omega  full diag
   1    -95.0413754 -0.950414E+02  0.750E-02    2.01       0.0  T
   2    -95.0413355  0.399109E-04  0.505E-02    2.01       1.0  T
   3    -95.0411490  0.186454E-03  0.590E-02    2.02       1.0  T
   4    -95.0413160 -0.166945E-03  0.328E-02    2.01       1.0  T
   5    -95.0413886 -0.726269E-04  0.226E-03    2.01       5.1  T
   6    -95.0413886 -0.266048E-07  0.159E-03    2.01       7.3  T
   7    -95.0413886 -0.189388E-07  0.734E-04    2.01      15.7  T
   8    -95.0413886  0.215680E-08  0.425E-04    2.01      27.2  T
   9    -95.0413886 -0.370446E-08  0.157E-04    2.01      73.4  T
     SCC iter.                  ...        0 min,  0.333 sec
     gradient                   ...        0 min,  0.148 sec
 * total energy  :   -93.7681146 Eh     change       -0.3868702E-03 Eh
   gradient norm :     0.0064728 Eh/α   predicted    -0.3721932E-03 (  -3.79%)
   displ. norm   :     0.5532835 α      lambda       -0.4302193E-03
   maximum displ.:     0.2931959 α      in ANC's #7, #6, #4, ...

........................................................................
.............................. CYCLE   41 ..............................
........................................................................

 iter      E             dE          RMSdq      gap      omega  full diag
   1    -95.0388933 -0.950389E+02  0.782E-02    2.02       0.0  T
   2    -95.0388953 -0.200220E-05  0.485E-02    2.02       1.0  T
   3    -95.0388868  0.849247E-05  0.360E-02    2.02       1.0  T
   4    -95.0388434  0.433294E-04  0.276E-02    2.02       1.0  T
   5    -95.0388924 -0.489339E-04  0.953E-03    2.02       1.2  T
   6    -95.0388992 -0.679698E-05  0.224E-03    2.02       5.2  T
   7    -95.0388994 -0.205024E-06  0.720E-04    2.02      16.0  T
   8    -95.0388994 -0.535064E-08  0.409E-04    2.02      28.2  T
   9    -95.0388994 -0.483581E-09  0.160E-04    2.02      72.3  T
     SCC iter.                  ...        0 min,  0.383 sec
     gradient                   ...        0 min,  0.174 sec
 * total energy  :   -93.7684276 Eh     change       -0.3130408E-03 Eh
   gradient norm :     0.0076876 Eh/α   predicted    -0.2809613E-03 ( -10.25%)
   displ. norm   :     0.4570376 α      lambda       -0.4125661E-03
   maximum displ.:     0.2408380 α      in ANC's #7, #2, #6, ...

........................................................................
.............................. CYCLE   42 ..............................
........................................................................

 iter      E             dE          RMSdq      gap      omega  full diag
   1    -95.0443097 -0.950443E+02  0.727E-02    2.02       0.0  T
   2    -95.0440161  0.293564E-03  0.757E-02    2.02       1.0  T
   3    -95.0441812 -0.165050E-03  0.547E-02    2.03       1.0  T
   4    -95.0443563 -0.175199E-03  0.266E-02    2.02       1.0  T
   5    -95.0443726 -0.162780E-04  0.638E-03    2.02       1.8  T
   6    -95.0443728 -0.142801E-06  0.191E-03    2.02       6.1  T
   7    -95.0443729 -0.134869E-06  0.886E-04    2.02      13.0  T
   8    -95.0443729 -0.917159E-08  0.498E-04    2.02      23.2  T
   9    -95.0443729 -0.259992E-08  0.174E-04    2.02      66.2  T
     SCC iter.                  ...        0 min,  0.319 sec
     gradient                   ...        0 min,  0.174 sec
 * total energy  :   -93.7687142 Eh     change       -0.2865356E-03 Eh
   gradient norm :     0.0074781 Eh/α   predicted    -0.2493755E-03 ( -12.97%)
   displ. norm   :     0.4896144 α      lambda       -0.3825350E-03
   maximum displ.:     0.2512110 α      in ANC's #7, #6, #2, ...
 * RMSD in coord.:     1.3351498 α      energy gain  -0.3390308E-01 Eh

generating ANC from exact Hessian ...
Using Lindh-Hessian (1995)
 Shifting diagonal of input Hessian by    1.0155245180314285E-002
 Lowest  eigenvalues of input Hessian
    0.010000    0.000000    0.010083    0.000000    0.000000    0.000000
    0.000000    0.000000    0.010262    0.010311    0.010443    0.010556
    0.010691    0.010766    0.010862    0.010975    0.011043    0.011111
 Highest eigenvalues
    1.583204    1.613789    1.897249    2.000534    2.024007    2.293292


........................................................................
.............................. CYCLE   43 ..............................
........................................................................

 iter      E             dE          RMSdq      gap      omega  full diag
   1    -95.0417320 -0.950417E+02  0.853E-02    2.02       0.0  T
   2    -95.0417206  0.114021E-04  0.539E-02    2.02       1.0  T
   3    -95.0416430  0.776404E-04  0.442E-02    2.01       1.0  T
   4    -95.0415451  0.978601E-04  0.514E-02    2.02       1.0  T
   5    -95.0417475 -0.202384E-03  0.886E-03    2.02       1.3  T
   6    -95.0417482 -0.687580E-06  0.168E-03    2.02       6.9  T
   7    -95.0417482  0.724590E-08  0.102E-03    2.02      11.3  T
   8    -95.0417482 -0.255088E-07  0.547E-04    2.02      21.1  T
   9    -95.0417482 -0.108746E-08  0.184E-04    2.02      62.8  T
  10    -95.0417482 -0.185736E-10  0.113E-04    2.02     102.3  T
     SCC iter.                  ...        0 min,  0.395 sec
     gradient                   ...        0 min,  0.162 sec
 * total energy  :   -93.7689676 Eh     change       -0.2534028E-03 Eh
   gradient norm :     0.0072949 Eh/α   predicted     0.0000000E+00 (-100.00%)
   displ. norm   :     0.0869100 α      lambda       -0.2053437E-03
   maximum displ.:     0.0390122 α      in ANC's #4, #7, #24, ...

........................................................................
.............................. CYCLE   44 ..............................
........................................................................

 iter      E             dE          RMSdq      gap      omega  full diag
   1    -95.0426802 -0.950427E+02  0.307E-02    2.01       0.0  T
   2    -95.0426622  0.180164E-04  0.245E-02    2.01       1.0  T
   3    -95.0426402  0.219625E-04  0.251E-02    2.02       1.0  T
   4    -95.0426791 -0.388375E-04  0.133E-02    2.01       1.0  T
   5    -95.0426862 -0.715332E-05  0.351E-03    2.01       3.3  T
   6    -95.0426863 -0.849142E-07  0.988E-04    2.01      11.7  T
   7    -95.0426863  0.325281E-08  0.579E-04    2.01      19.9  T
   8    -95.0426863 -0.978577E-08  0.315E-04    2.01      36.7  T
   9    -95.0426863  0.114383E-09  0.130E-04    2.01      88.8  T
     SCC iter.                  ...        0 min,  0.330 sec
     gradient                   ...        0 min,  0.158 sec
 * total energy  :   -93.7691159 Eh     change       -0.1482874E-03 Eh
   gradient norm :     0.0030785 Eh/α   predicted    -0.1034768E-03 ( -30.22%)
   displ. norm   :     0.2264822 α      lambda       -0.3151537E-03
   maximum displ.:     0.1046276 α      in ANC's #4, #7, #23, ...

........................................................................
.............................. CYCLE   45 ..............................
........................................................................

 iter      E             dE          RMSdq      gap      omega  full diag
   1    -95.0430652 -0.950431E+02  0.706E-02    2.01       0.0  T
   2    -95.0429749  0.903462E-04  0.581E-02    2.01       1.0  T
   3    -95.0429222  0.527048E-04  0.521E-02    2.02       1.0  T
   4    -95.0430310 -0.108848E-03  0.341E-02    2.01       1.0  T
   5    -95.0430977 -0.666173E-04  0.552E-03    2.01       2.1  T
   6    -95.0430978 -0.108494E-06  0.290E-03    2.01       4.0  T
   7    -95.0430979 -0.140972E-06  0.125E-03    2.01       9.3  T
   8    -95.0430979 -0.136886E-07  0.561E-04    2.01      20.6  T
   9    -95.0430979 -0.143226E-08  0.280E-04    2.01      41.3  T
  10    -95.0430979 -0.275890E-09  0.172E-04    2.01      67.1  T
     SCC iter.                  ...        0 min,  0.363 sec
     gradient                   ...        0 min,  0.150 sec
 * total energy  :   -93.7690099 Eh     change        0.1059464E-03 Eh
   gradient norm :     0.0110795 Eh/α   predicted    -0.1656605E-03 (-256.36%)
   displ. norm   :     0.1525755 α      lambda       -0.6372411E-03
   maximum displ.:     0.0705302 α      in ANC's #4, #23, #7, ...

........................................................................
.............................. CYCLE   46 ..............................
........................................................................

 iter      E             dE          RMSdq      gap      omega  full diag
   1    -95.0428842 -0.950429E+02  0.622E-02    2.01       0.0  T
   2    -95.0428903 -0.608203E-05  0.389E-02    2.01       1.0  T
   3    -95.0428896  0.729040E-06  0.253E-02    2.01       1.0  T
   4    -95.0428622  0.274088E-04  0.203E-02    2.01       1.0  T
   5    -95.0428886 -0.264057E-04  0.953E-03    2.01       1.2  T
   6    -95.0428949 -0.638862E-05  0.219E-03    2.01       5.3  T
   7    -95.0428951 -0.140300E-06  0.801E-04    2.01      14.4  T
   8    -95.0428951  0.111569E-09  0.416E-04    2.01      27.7  T
   9    -95.0428951 -0.160792E-08  0.145E-04    2.01      79.9  T
     SCC iter.                  ...        0 min,  0.283 sec
     gradient                   ...        0 min,  0.130 sec
 * total energy  :   -93.7692450 Eh     change       -0.2350250E-03 Eh
   gradient norm :     0.0091072 Eh/α   predicted    -0.3260414E-03 (  38.73%)
   displ. norm   :     0.0809877 α      lambda       -0.2634781E-03
   maximum displ.:     0.0321656 α      in ANC's #22, #21, #24, ...

........................................................................
.............................. CYCLE   47 ..............................
........................................................................

 iter      E             dE          RMSdq      gap      omega  full diag
   1    -95.0425009 -0.950425E+02  0.463E-02    2.00       0.0  T
   2    -95.0424524  0.484998E-04  0.381E-02    2.00       1.0  T
   3    -95.0424275  0.249136E-04  0.353E-02    2.00       1.0  T
   4    -95.0425001 -0.725621E-04  0.197E-02    2.00       1.0  T
   5    -95.0425172 -0.171655E-04  0.367E-03    2.00       3.1  T
   6    -95.0425173 -0.906448E-07  0.180E-03    2.00       6.4  T
   7    -95.0425174 -0.467712E-07  0.610E-04    2.00      18.9  T
   8    -95.0425174 -0.215036E-08  0.331E-04    2.00      34.9  T
   9    -95.0425174 -0.114720E-08  0.152E-04    2.00      76.1  T
     SCC iter.                  ...        0 min,  0.284 sec
     gradient                   ...        0 min,  0.143 sec
 * total energy  :   -93.7693476 Eh     change       -0.1026408E-03 Eh
   gradient norm :     0.0028086 Eh/α   predicted    -0.1326031E-03 (  29.19%)
   displ. norm   :     0.1149564 α      lambda       -0.1205817E-03
   maximum displ.:     0.0619280 α      in ANC's #4, #7, #3, ...

........................................................................
.............................. CYCLE   48 ..............................
........................................................................

 iter      E             dE          RMSdq      gap      omega  full diag
   1    -95.0426962 -0.950427E+02  0.219E-02    2.00       0.0  T
   2    -95.0426865  0.968700E-05  0.178E-02    2.00       1.0  T
   3    -95.0426798  0.662409E-05  0.169E-02    2.01       1.0  T
   4    -95.0426943 -0.144247E-04  0.944E-03    2.00       1.2  T
   5    -95.0426991 -0.481100E-05  0.140E-03    2.00       8.3  T
   6    -95.0426991 -0.201295E-07  0.785E-04    2.00      14.7  T
   7    -95.0426991 -0.105204E-07  0.313E-04    2.00      36.9  T
   8    -95.0426991 -0.198384E-09  0.164E-04    2.00      70.3  T
     SCC iter.                  ...        0 min,  0.317 sec
     gradient                   ...        0 min,  0.154 sec
 * total energy  :   -93.7694442 Eh     change       -0.9657922E-04 Eh
   gradient norm :     0.0017131 Eh/α   predicted    -0.6109121E-04 ( -36.74%)
   displ. norm   :     0.4684129 α      lambda       -0.1965449E-03
   maximum displ.:     0.2552388 α      in ANC's #4, #7, #3, ...

........................................................................
.............................. CYCLE   49 ..............................
........................................................................

 iter      E             dE          RMSdq      gap      omega  full diag
   1    -95.0410396 -0.950410E+02  0.674E-02    2.00       0.0  T
   2    -95.0410266  0.130347E-04  0.445E-02    2.00       1.0  T
   3    -95.0409881  0.385011E-04  0.365E-02    2.01       1.0  T
   4    -95.0409210  0.671150E-04  0.397E-02    2.00       1.0  T
   5    -95.0410496 -0.128658E-03  0.402E-03    2.00       2.9  T
   6    -95.0410499 -0.302418E-06  0.197E-03    2.00       5.9  T
   7    -95.0410500 -0.695289E-07  0.983E-04    2.00      11.7  T
   8    -95.0410500 -0.112301E-07  0.540E-04    2.00      21.4  T
   9    -95.0410500 -0.333314E-08  0.165E-04    2.00      70.1  T
  10    -95.0410500 -0.456879E-09  0.796E-05    2.00     145.0  T
     SCC iter.                  ...        0 min,  0.368 sec
     gradient                   ...        0 min,  0.152 sec
 * total energy  :   -93.7696412 Eh     change       -0.1970782E-03 Eh
   gradient norm :     0.0036332 Eh/α   predicted    -0.1078583E-03 ( -45.27%)
   displ. norm   :     0.2672534 α      lambda       -0.1358232E-03
   maximum displ.:     0.1501306 α      in ANC's #4, #3, #7, ...

........................................................................
.............................. CYCLE   50 ..............................
........................................................................

 iter      E             dE          RMSdq      gap      omega  full diag
   1    -95.0409667 -0.950410E+02  0.282E-02    2.00       0.0  T
   2    -95.0409655  0.122685E-05  0.173E-02    2.00       1.0  T
   3    -95.0409321  0.334286E-04  0.218E-02    2.00       1.0  T
   4    -95.0409617 -0.296228E-04  0.958E-03    2.00       1.2  T
   5    -95.0409677 -0.599162E-05  0.140E-03    2.00       8.2  T
   6    -95.0409677 -0.566261E-07  0.712E-04    2.00      16.2  T
   7    -95.0409677 -0.428119E-08  0.285E-04    2.00      40.5  T
   8    -95.0409677 -0.280110E-09  0.145E-04    2.00      79.6  T
     SCC iter.                  ...        0 min,  0.283 sec
     gradient                   ...        0 min,  0.172 sec
 * total energy  :   -93.7697551 Eh     change       -0.1138427E-03 Eh
   gradient norm :     0.0029157 Eh/α   predicted    -0.7276646E-04 ( -36.08%)
   displ. norm   :     0.3853015 α      lambda       -0.1945932E-03
   maximum displ.:     0.2198722 α      in ANC's #4, #3, #7, ...

........................................................................
.............................. CYCLE   51 ..............................
........................................................................

 iter      E             dE          RMSdq      gap      omega  full diag
   1    -95.0417302 -0.950417E+02  0.447E-02    2.00       0.0  T
   2    -95.0417282  0.201835E-05  0.276E-02    2.00       1.0  T
   3    -95.0416965  0.316177E-04  0.266E-02    2.00       1.0  T
   4    -95.0416905  0.607669E-05  0.221E-02    2.00       1.0  T
   5    -95.0417320 -0.414974E-04  0.157E-03    2.00       7.4  T
   6    -95.0417320 -0.417317E-07  0.734E-04    2.00      15.7  T
   7    -95.0417320 -0.767149E-08  0.511E-04    2.00      22.6  T
   8    -95.0417320 -0.410424E-08  0.203E-04    2.00      56.8  T
   9    -95.0417320 -0.286221E-09  0.892E-05    2.00     129.5  T
     SCC iter.                  ...        0 min,  0.335 sec
     gradient                   ...        0 min,  0.146 sec
 * total energy  :   -93.7699085 Eh     change       -0.1534447E-03 Eh
   gradient norm :     0.0021578 Eh/α   predicted    -0.1117442E-03 ( -27.18%)
   displ. norm   :     0.4212273 α      lambda       -0.1644791E-03
   maximum displ.:     0.2422032 α      in ANC's #4, #3, #7, ...

........................................................................
.............................. CYCLE   52 ..............................
........................................................................

 iter      E             dE          RMSdq      gap      omega  full diag
   1    -95.0419208 -0.950419E+02  0.441E-02    2.00       0.0  T
   2    -95.0419204  0.431372E-06  0.269E-02    2.00       1.0  T
   3    -95.0419025  0.179281E-04  0.227E-02    2.00       1.0  T
   4    -95.0418931  0.935303E-05  0.187E-02    2.00       1.0  T
   5    -95.0419221 -0.289438E-04  0.168E-03    2.00       6.9  T
   6    -95.0419222 -0.111663E-06  0.807E-04    2.00      14.3  T
   7    -95.0419222 -0.667060E-08  0.320E-04    2.00      36.1  T
   8    -95.0419222 -0.480611E-09  0.178E-04    2.00      64.8  T
     SCC iter.                  ...        0 min,  0.257 sec
     gradient                   ...        0 min,  0.163 sec
 * total energy  :   -93.7700439 Eh     change       -0.1353677E-03 Eh
   gradient norm :     0.0022815 Eh/α   predicted    -0.9683362E-04 ( -28.47%)
   displ. norm   :     0.4293407 α      lambda       -0.1565523E-03
   maximum displ.:     0.2497503 α      in ANC's #4, #3, #7, ...

........................................................................
.............................. CYCLE   53 ..............................
........................................................................

 iter      E             dE          RMSdq      gap      omega  full diag
   1    -95.0428850 -0.950429E+02  0.455E-02    2.01       0.0  T
   2    -95.0428710  0.140117E-04  0.307E-02    2.01       1.0  T
   3    -95.0427780  0.930536E-04  0.389E-02    2.01       1.0  T
   4    -95.0428680 -0.900358E-04  0.188E-02    2.00       1.0  T
   5    -95.0428891 -0.210723E-04  0.196E-03    2.01       5.9  T
   6    -95.0428891 -0.225421E-07  0.753E-04    2.01      15.3  T
   7    -95.0428891 -0.748912E-10  0.357E-04    2.01      32.3  T
   8    -95.0428891 -0.140258E-08  0.197E-04    2.01      58.6  T
     SCC iter.                  ...        0 min,  0.336 sec
     gradient                   ...        0 min,  0.163 sec
 * total energy  :   -93.7701772 Eh     change       -0.1332724E-03 Eh
   gradient norm :     0.0026803 Eh/α   predicted    -0.9270607E-04 ( -30.44%)
   displ. norm   :     0.4678395 α      lambda       -0.1655763E-03
   maximum displ.:     0.2726582 α      in ANC's #4, #3, #7, ...

........................................................................
.............................. CYCLE   54 ..............................
........................................................................

 iter      E             dE          RMSdq      gap      omega  full diag
   1    -95.0432590 -0.950433E+02  0.498E-02    2.01       0.0  T
   2    -95.0432483  0.107075E-04  0.327E-02    2.01       1.0  T
   3    -95.0431610  0.872667E-04  0.384E-02    2.02       1.0  T
   4    -95.0432246 -0.636236E-04  0.237E-02    2.01       1.0  T
   5    -95.0432626 -0.379933E-04  0.154E-03    2.01       7.5  T
   6    -95.0432626 -0.180839E-07  0.821E-04    2.01      14.1  T
   7    -95.0432626 -0.793662E-09  0.325E-04    2.01      35.5  T
   8    -95.0432626 -0.551637E-09  0.195E-04    2.01      59.3  T
     SCC iter.                  ...        0 min,  0.268 sec
     gradient                   ...        0 min,  0.128 sec
 * total energy  :   -93.7703188 Eh     change       -0.1416160E-03 Eh
   gradient norm :     0.0022007 Eh/α   predicted    -0.1009097E-03 ( -28.74%)
   displ. norm   :     0.5015813 α      lambda       -0.1717262E-03
   maximum displ.:     0.2911202 α      in ANC's #4, #3, #7, ...

........................................................................
.............................. CYCLE   55 ..............................
........................................................................

 iter      E             dE          RMSdq      gap      omega  full diag
   1    -95.0442319 -0.950442E+02  0.552E-02    2.02       0.0  T
   2    -95.0442164  0.154495E-04  0.359E-02    2.02       1.0  T
   3    -95.0440830  0.133483E-03  0.457E-02    2.03       1.0  T
   4    -95.0442050 -0.122085E-03  0.229E-02    2.02       1.0  T
   5    -95.0442370 -0.320025E-04  0.241E-03    2.02       4.8  T
   6    -95.0442371 -0.238192E-07  0.991E-04    2.02      11.7  T
   7    -95.0442371 -0.212555E-08  0.435E-04    2.02      26.5  T
   8    -95.0442371 -0.438192E-09  0.284E-04    2.02      40.7  T
     SCC iter.                  ...        0 min,  0.266 sec
     gradient                   ...        0 min,  0.143 sec
 * total energy  :   -93.7704598 Eh     change       -0.1410084E-03 Eh
   gradient norm :     0.0026925 Eh/α   predicted    -0.1074683E-03 ( -23.79%)
   displ. norm   :     0.5287433 α      lambda       -0.1513238E-03
   maximum displ.:     0.3075572 α      in ANC's #4, #3, #7, ...

........................................................................
.............................. CYCLE   56 ..............................
........................................................................

 iter      E             dE          RMSdq      gap      omega  full diag
   1    -95.0422832 -0.950423E+02  0.583E-02    2.03       0.0  T
   2    -95.0422774  0.584424E-05  0.360E-02    2.03       1.0  T
   3    -95.0421635  0.113908E-03  0.418E-02    2.03       1.0  T
   4    -95.0422425 -0.790011E-04  0.248E-02    2.02       1.0  T
   5    -95.0422862 -0.437869E-04  0.172E-03    2.03       6.7  T
   6    -95.0422863 -0.141190E-07  0.950E-04    2.03      12.2  T
   7    -95.0422863 -0.169143E-08  0.432E-04    2.03      26.7  T
   8    -95.0422863 -0.704432E-09  0.262E-04    2.03      44.1  T
     SCC iter.                  ...        0 min,  0.276 sec
     gradient                   ...        0 min,  0.145 sec
 * total energy  :   -93.7705779 Eh     change       -0.1181194E-03 Eh
   gradient norm :     0.0028247 Eh/α   predicted    -0.9682088E-04 ( -18.03%)
   displ. norm   :     0.4719038 α      lambda       -0.1497705E-03
   maximum displ.:     0.2670621 α      in ANC's #4, #3, #7, ...

........................................................................
.............................. CYCLE   57 ..............................
........................................................................

 iter      E             dE          RMSdq      gap      omega  full diag
   1    -95.0445752 -0.950446E+02  0.548E-02    2.03       0.0  T
   2    -95.0445761 -0.865233E-06  0.325E-02    2.03       1.0  T
   3    -95.0445731  0.304035E-05  0.193E-02    2.03       1.0  T
   4    -95.0445696  0.344847E-05  0.925E-03    2.03       1.2  T
   5    -95.0445762 -0.658799E-05  0.259E-03    2.03       4.5  T
   6    -95.0445766 -0.427991E-06  0.101E-03    2.03      11.4  T
   7    -95.0445766 -0.245707E-07  0.432E-04    2.03      26.8  T
   8    -95.0445766 -0.166978E-09  0.251E-04    2.03      45.9  T
     SCC iter.                  ...        0 min,  0.253 sec
     gradient                   ...        0 min,  0.151 sec
 * total energy  :   -93.7706842 Eh     change       -0.1062999E-03 Eh
   gradient norm :     0.0032760 Eh/α   predicted    -0.9156276E-04 ( -13.86%)
   displ. norm   :     0.4532594 α      lambda       -0.1142174E-03
   maximum displ.:     0.2608191 α      in ANC's #4, #3, #7, ...

........................................................................
.............................. CYCLE   58 ..............................
........................................................................

 iter      E             dE          RMSdq      gap      omega  full diag
   1    -95.0427200 -0.950427E+02  0.544E-02    2.03       0.0  T
   2    -95.0427176  0.245061E-05  0.328E-02    2.04       1.0  T
   3    -95.0426136  0.103975E-03  0.379E-02    2.04       1.0  T
   4    -95.0427032 -0.896199E-04  0.165E-02    2.03       1.0  T
   5    -95.0427224 -0.191989E-04  0.227E-03    2.04       5.1  T
   6    -95.0427225 -0.752669E-07  0.103E-03    2.04      11.2  T
   7    -95.0427225 -0.485164E-08  0.432E-04    2.04      26.8  T
   8    -95.0427225 -0.818304E-09  0.224E-04    2.04      51.6  T
     SCC iter.                  ...        0 min,  0.305 sec
     gradient                   ...        0 min,  0.163 sec
 * total energy  :   -93.7707673 Eh     change       -0.8310633E-04 Eh
   gradient norm :     0.0027135 Eh/α   predicted    -0.6884497E-04 ( -17.16%)
   displ. norm   :     0.3214354 α      lambda       -0.9997336E-04
   maximum displ.:     0.1807878 α      in ANC's #3, #4, #1, ...

........................................................................
.............................. CYCLE   59 ..............................
........................................................................

 iter      E             dE          RMSdq      gap      omega  full diag
   1    -95.0444255 -0.950444E+02  0.459E-02    2.03       0.0  T
   2    -95.0444264 -0.886312E-06  0.276E-02    2.03       1.0  T
   3    -95.0444237  0.267487E-05  0.182E-02    2.03       1.0  T
   4    -95.0443988  0.249019E-04  0.183E-02    2.03       1.0  T
   5    -95.0444276 -0.287613E-04  0.199E-03    2.03       5.8  T
   6    -95.0444276 -0.377319E-07  0.105E-03    2.03      11.0  T
   7    -95.0444277 -0.190166E-07  0.540E-04    2.03      21.4  T
   8    -95.0444277 -0.261497E-08  0.198E-04    2.03      58.2  T
   9    -95.0444277 -0.154614E-10  0.111E-04    2.03     104.3  T
     SCC iter.                  ...        0 min,  0.346 sec
     gradient                   ...        0 min,  0.146 sec
 * total energy  :   -93.7708358 Eh     change       -0.6847890E-04 Eh
   gradient norm :     0.0023741 Eh/α   predicted    -0.5515301E-04 ( -19.46%)
   displ. norm   :     0.3029427 α      lambda       -0.6047344E-04
   maximum displ.:     0.1696604 α      in ANC's #3, #4, #1, ...

........................................................................
.............................. CYCLE   60 ..............................
........................................................................

 iter      E             dE          RMSdq      gap      omega  full diag
   1    -95.0429345 -0.950429E+02  0.429E-02    2.03       0.0  T
   2    -95.0429357 -0.112365E-05  0.256E-02    2.03       1.0  T
   3    -95.0429352  0.434350E-06  0.162E-02    2.03       1.0  T
   4    -95.0429291  0.612108E-05  0.939E-03    2.03       1.2  T
   5    -95.0429362 -0.705861E-05  0.242E-03    2.03       4.8  T
   6    -95.0429364 -0.262576E-06  0.981E-04    2.03      11.8  T
   7    -95.0429364 -0.164897E-07  0.480E-04    2.03      24.1  T
   8    -95.0429364 -0.118831E-08  0.222E-04    2.03      52.1  T
     SCC iter.                  ...        0 min,  0.254 sec
     gradient                   ...        0 min,  0.152 sec
 * total energy  :   -93.7708759 Eh     change       -0.4012911E-04 Eh
   gradient norm :     0.0021009 Eh/α   predicted    -0.3301637E-04 ( -17.72%)
   displ. norm   :     0.1780981 α      lambda       -0.5085624E-04
   maximum displ.:     0.0880141 α      in ANC's #3, #4, #1, ...

........................................................................
.............................. CYCLE   61 ..............................
........................................................................

 iter      E             dE          RMSdq      gap      omega  full diag
   1    -95.0445438 -0.950445E+02  0.303E-02    2.02       0.0  T
   2    -95.0445442 -0.392138E-06  0.191E-02    2.02       1.0  T
   3    -95.0445434  0.863478E-06  0.128E-02    2.02       1.0  T
   4    -95.0445290  0.143258E-04  0.136E-02    2.02       1.0  T
   5    -95.0445451 -0.160860E-04  0.228E-03    2.02       5.1  T
   6    -95.0445454 -0.232548E-06  0.691E-04    2.02      16.7  T
   7    -95.0445454  0.865441E-09  0.529E-04    2.02      21.8  T
   8    -95.0445454 -0.446316E-08  0.169E-04    2.02      68.3  T
   9    -95.0445454 -0.235715E-09  0.911E-05    2.02     126.7  T
     SCC iter.                  ...        0 min,  0.298 sec
     gradient                   ...        0 min,  0.150 sec
 * total energy  :   -93.7709091 Eh     change       -0.3319447E-04 Eh
   gradient norm :     0.0019142 Eh/α   predicted    -0.2623639E-04 ( -20.96%)
   displ. norm   :     0.2838406 α      lambda       -0.3780627E-04
   maximum displ.:     0.1506073 α      in ANC's #3, #4, #1, ...

........................................................................
.............................. CYCLE   62 ..............................
........................................................................

 iter      E             dE          RMSdq      gap      omega  full diag
   1    -95.0435376 -0.950435E+02  0.415E-02    2.02       0.0  T
   2    -95.0435362  0.131516E-05  0.253E-02    2.02       1.0  T
   3    -95.0435203  0.159080E-04  0.214E-02    2.02       1.0  T
   4    -95.0434883  0.320425E-04  0.243E-02    2.02       1.0  T
   5    -95.0435399 -0.515907E-04  0.236E-03    2.02       4.9  T
   6    -95.0435399 -0.687136E-07  0.966E-04    2.02      12.0  T
   7    -95.0435400 -0.221778E-07  0.464E-04    2.02      24.9  T
   8    -95.0435400  0.510738E-10  0.255E-04    2.02      45.2  T
     SCC iter.                  ...        0 min,  0.241 sec
     gradient                   ...        0 min,  0.138 sec
 * total energy  :   -93.7709453 Eh     change       -0.3614791E-04 Eh
   gradient norm :     0.0020235 Eh/α   predicted    -0.1958058E-04 ( -45.83%)
   displ. norm   :     0.0932722 α      lambda       -0.2782297E-04
   maximum displ.:     0.0374079 α      in ANC's #3, #1, #4, ...

........................................................................
.............................. CYCLE   63 ..............................
........................................................................

 iter      E             dE          RMSdq      gap      omega  full diag
   1    -95.0442247 -0.950442E+02  0.137E-02    2.02       0.0  T
   2    -95.0442224  0.223642E-05  0.100E-02    2.02       1.2  T
   3    -95.0442157  0.668794E-05  0.117E-02    2.02       1.0  T
   4    -95.0442236 -0.780470E-05  0.554E-03    2.02       2.1  T
   5    -95.0442254 -0.184041E-05  0.105E-03    2.02      11.0  T
   6    -95.0442254 -0.104543E-07  0.360E-04    2.02      32.1  T
   7    -95.0442254 -0.525915E-09  0.191E-04    2.02      60.4  T
     SCC iter.                  ...        0 min,  0.227 sec
     gradient                   ...        0 min,  0.150 sec
 * total energy  :   -93.7709672 Eh     change       -0.2188634E-04 Eh
   gradient norm :     0.0015857 Eh/α   predicted    -0.1403518E-04 ( -35.87%)
   displ. norm   :     0.3085333 α      lambda       -0.3787945E-04
   maximum displ.:     0.1490081 α      in ANC's #3, #4, #1, ...

........................................................................
.............................. CYCLE   64 ..............................
........................................................................

 iter      E             dE          RMSdq      gap      omega  full diag
   1    -95.0437328 -0.950437E+02  0.379E-02    2.02       0.0  T
   2    -95.0437132  0.196239E-04  0.275E-02    2.02       1.0  T
   3    -95.0436376  0.756469E-04  0.364E-02    2.02       1.0  T
   4    -95.0437317 -0.941691E-04  0.119E-02    2.02       1.0  T
   5    -95.0437378 -0.600705E-05  0.213E-03    2.02       5.4  T
   6    -95.0437378 -0.622346E-08  0.965E-04    2.02      12.0  T
   7    -95.0437378 -0.201037E-07  0.473E-04    2.02      24.4  T
   8    -95.0437378 -0.150642E-08  0.238E-04    2.02      48.6  T
     SCC iter.                  ...        0 min,  0.310 sec
     gradient                   ...        0 min,  0.147 sec
 * total energy  :   -93.7709950 Eh     change       -0.2784230E-04 Eh
   gradient norm :     0.0016572 Eh/α   predicted    -0.1974232E-04 ( -29.09%)
   displ. norm   :     0.0773199 α      lambda       -0.1217810E-04
   maximum displ.:     0.0350584 α      in ANC's #3, #4, #1, ...

........................................................................
.............................. CYCLE   65 ..............................
........................................................................

 iter      E             dE          RMSdq      gap      omega  full diag
   1    -95.0442710 -0.950443E+02  0.967E-03    2.02       0.0  T
   2    -95.0442710 -0.370638E-07  0.635E-03    2.02       1.8  T
   3    -95.0442710  0.862963E-07  0.458E-03    2.02       2.5  T
   4    -95.0442704  0.551310E-06  0.289E-03    2.02       4.0  T
   5    -95.0442711 -0.721650E-06  0.667E-04    2.02      17.3  T
   6    -95.0442711 -0.195659E-07  0.231E-04    2.02      49.9  T
   7    -95.0442711 -0.154316E-09  0.103E-04    2.02     112.0  T
     SCC iter.                  ...        0 min,  0.221 sec
     gradient                   ...        0 min,  0.142 sec
 * total energy  :   -93.7710101 Eh     change       -0.1506800E-04 Eh
   gradient norm :     0.0012423 Eh/α   predicted    -0.6109911E-05 ( -59.45%)
   displ. norm   :     0.2336338 α      lambda       -0.2902886E-04
   maximum displ.:     0.1097918 α      in ANC's #4, #3, #1, ...

........................................................................
.............................. CYCLE   66 ..............................
........................................................................

 iter      E             dE          RMSdq      gap      omega  full diag
   1    -95.0446197 -0.950446E+02  0.301E-02    2.02       0.0  T
   2    -95.0446196  0.488807E-07  0.184E-02    2.02       1.0  T
   3    -95.0446171  0.250207E-05  0.137E-02    2.02       1.0  T
   4    -95.0446028  0.143482E-04  0.144E-02    2.02       1.0  T
   5    -95.0446206 -0.177947E-04  0.165E-03    2.02       7.0  T
   6    -95.0446207 -0.109000E-06  0.789E-04    2.02      14.6  T
   7    -95.0446207 -0.707820E-08  0.296E-04    2.02      38.9  T
   8    -95.0446207  0.247027E-09  0.182E-04    2.02      63.6  T
     SCC iter.                  ...        0 min,  0.284 sec
     gradient                   ...        0 min,  0.155 sec
 * total energy  :   -93.7710351 Eh     change       -0.2498925E-04 Eh
   gradient norm :     0.0013469 Eh/α   predicted    -0.1487094E-04 ( -40.49%)
   displ. norm   :     0.1636186 α      lambda       -0.1178215E-04
   maximum displ.:     0.0711266 α      in ANC's #1, #4, #3, ...
 * RMSD in coord.:     0.6957620 α      energy gain  -0.2320881E-02 Eh

generating ANC from exact Hessian ...
Using Lindh-Hessian (1995)
 Shifting diagonal of input Hessian by    1.0149482354744508E-002
 Lowest  eigenvalues of input Hessian
    0.010000    0.000000    0.010071    0.000000    0.000000    0.000000
    0.000000    0.000000    0.010232    0.010299    0.010386    0.010515
    0.010648    0.010782    0.010883    0.010964    0.011019    0.011075
 Highest eigenvalues
    1.590754    1.618159    1.900030    2.003456    2.026749    2.303887


........................................................................
.............................. CYCLE   67 ..............................
........................................................................

 iter      E             dE          RMSdq      gap      omega  full diag
   1    -95.0442597 -0.950443E+02  0.244E-02    2.02       0.0  T
   2    -95.0442595  0.232597E-06  0.159E-02    2.02       1.0  T
   3    -95.0442586  0.848551E-06  0.984E-03    2.01       1.2  T
   4    -95.0442443  0.143241E-04  0.138E-02    2.02       1.0  T
   5    -95.0442607 -0.163715E-04  0.172E-03    2.02       6.7  T
   6    -95.0442608 -0.630396E-07  0.579E-04    2.02      20.0  T
   7    -95.0442608 -0.139417E-08  0.355E-04    2.02      32.5  T
   8    -95.0442608 -0.620361E-09  0.176E-04    2.02      65.6  T
     SCC iter.                  ...        0 min,  0.339 sec
     gradient                   ...        0 min,  0.164 sec
 * total energy  :   -93.7710459 Eh     change       -0.1087130E-04 Eh
   gradient norm :     0.0012042 Eh/α   predicted     0.0000000E+00 (-100.00%)
   displ. norm   :     0.0327193 α      lambda       -0.9464313E-05
   maximum displ.:     0.0112816 α      in ANC's #21, #9, #2, ...

........................................................................
.............................. CYCLE   68 ..............................
........................................................................

 iter      E             dE          RMSdq      gap      omega  full diag
   1    -95.0445440 -0.950445E+02  0.183E-02    2.02       0.0  T
   2    -95.0445419  0.209474E-05  0.129E-02    2.02       1.0  T
   3    -95.0445400  0.191986E-05  0.962E-03    2.02       1.2  T
   4    -95.0445406 -0.624371E-06  0.813E-03    2.02       1.4  T
   5    -95.0445452 -0.460457E-05  0.174E-03    2.02       6.6  T
   6    -95.0445452 -0.232847E-07  0.693E-04    2.02      16.7  T
   7    -95.0445452 -0.725871E-08  0.284E-04    2.02      40.6  T
   8    -95.0445452 -0.235943E-09  0.135E-04    2.02      85.7  T
     SCC iter.                  ...        0 min,  0.358 sec
     gradient                   ...        0 min,  0.176 sec
 * total energy  :   -93.7710405 Eh     change        0.5391847E-05 Eh
   gradient norm :     0.0019468 Eh/α   predicted    -0.4749219E-05 (-188.08%)
   displ. norm   :     0.0629087 α      lambda       -0.2902365E-04
   maximum displ.:     0.0222536 α      in ANC's #9, #2, #7, ...

........................................................................
.............................. CYCLE   69 ..............................
........................................................................

 iter      E             dE          RMSdq      gap      omega  full diag
   1    -95.0451047 -0.950451E+02  0.208E-02    2.02       0.0  T
   2    -95.0451054 -0.716422E-06  0.137E-02    2.02       1.0  T
   3    -95.0451057 -0.255980E-06  0.904E-03    2.02       1.3  T
   4    -95.0451058 -0.119286E-06  0.287E-03    2.02       4.0  T
   5    -95.0451058 -0.267652E-07  0.990E-04    2.02      11.7  T
   6    -95.0451058  0.702566E-08  0.611E-04    2.02      18.9  T
   7    -95.0451058  0.122599E-07  0.534E-04    2.02      21.6  T
   8    -95.0451058 -0.220270E-07  0.190E-04    2.02      60.8  T
   9    -95.0451058 -0.171165E-08  0.506E-05    2.02     228.4  T
     SCC iter.                  ...        0 min,  0.346 sec
     gradient                   ...        0 min,  0.151 sec
 * total energy  :   -93.7710394 Eh     change        0.1124597E-05 Eh
   gradient norm :     0.0036105 Eh/α   predicted    -0.1453762E-04 (*******%)
   displ. norm   :     0.0187176 α      lambda       -0.3247081E-04
   maximum displ.:     0.0072291 α      in ANC's #23, #22, #25, ...

........................................................................
.............................. CYCLE   70 ..............................
........................................................................

 iter      E             dE          RMSdq      gap      omega  full diag
   1    -95.0447362 -0.950447E+02  0.143E-02    2.01       0.0  T
   2    -95.0447334  0.281055E-05  0.112E-02    2.01       1.0  T
   3    -95.0447315  0.193699E-05  0.944E-03    2.01       1.2  T
   4    -95.0447352 -0.371028E-05  0.656E-03    2.01       1.8  T
   5    -95.0447375 -0.234820E-05  0.145E-03    2.01       8.0  T
   6    -95.0447375 -0.142975E-09  0.599E-04    2.01      19.3  T
   7    -95.0447375 -0.807367E-08  0.232E-04    2.01      49.7  T
   8    -95.0447375 -0.370221E-09  0.109E-04    2.01     105.7  T
     SCC iter.                  ...        0 min,  0.260 sec
     gradient                   ...        0 min,  0.144 sec
 * total energy  :   -93.7710573 Eh     change       -0.1789028E-04 Eh
   gradient norm :     0.0013302 Eh/α   predicted    -0.1624149E-04 (  -9.22%)
   displ. norm   :     0.0270999 α      lambda       -0.1121336E-04
   maximum displ.:     0.0078246 α      in ANC's #2, #23, #21, ...

........................................................................
.............................. CYCLE   71 ..............................
........................................................................

 iter      E             dE          RMSdq      gap      omega  full diag
   1    -95.0442476 -0.950442E+02  0.134E-02    2.01       0.0  T
   2    -95.0442477 -0.143951E-06  0.918E-03    2.01       1.3  T
   3    -95.0442478 -0.118317E-06  0.569E-03    2.01       2.0  T
   4    -95.0442479 -0.392124E-07  0.158E-03    2.01       7.3  T
   5    -95.0442479 -0.766234E-08  0.488E-04    2.01      23.7  T
   6    -95.0442479 -0.386862E-09  0.182E-04    2.01      63.6  T
     SCC iter.                  ...        0 min,  0.205 sec
     gradient                   ...        0 min,  0.135 sec
 * total energy  :   -93.7710613 Eh     change       -0.3945122E-05 Eh
   gradient norm :     0.0010360 Eh/α   predicted    -0.5609161E-05 (  42.18%)
   displ. norm   :     0.0358600 α      lambda       -0.6726810E-05
   maximum displ.:     0.0137351 α      in ANC's #2, #9, #7, ...

........................................................................
.............................. CYCLE   72 ..............................
........................................................................

 iter      E             dE          RMSdq      gap      omega  full diag
   1    -95.0443366 -0.950443E+02  0.912E-03    2.01       0.0  T
   2    -95.0443366 -0.450514E-07  0.592E-03    2.01       1.9  T
   3    -95.0443365  0.124639E-06  0.390E-03    2.01       3.0  T
   4    -95.0443354  0.113686E-05  0.414E-03    2.01       2.8  T
   5    -95.0443367 -0.131447E-05  0.159E-03    2.01       7.2  T
   6    -95.0443368 -0.129500E-06  0.390E-04    2.01      29.6  T
   7    -95.0443368 -0.280212E-08  0.131E-04    2.01      87.9  T
     SCC iter.                  ...        0 min,  0.225 sec
     gradient                   ...        0 min,  0.138 sec
 * total energy  :   -93.7710679 Eh     change       -0.6667521E-05 Eh
   gradient norm :     0.0005690 Eh/α   predicted    -0.3366605E-05 ( -49.51%)
   displ. norm   :     0.0362554 α      lambda        0.3434902E-06
   maximum displ.:     0.0138942 α      in ANC's #2, #9, #7, ...

........................................................................
.............................. CYCLE   73 ..............................
........................................................................

 iter      E             dE          RMSdq      gap      omega  full diag
   1    -95.0444044 -0.950444E+02  0.915E-03    2.01       0.0  T
   2    -95.0444044 -0.235793E-07  0.596E-03    2.01       1.9  T
   3    -95.0444042  0.172672E-06  0.400E-03    2.01       2.9  T
   4    -95.0444030  0.123462E-05  0.438E-03    2.01       2.6  T
   5    -95.0444045 -0.150826E-05  0.153E-03    2.01       7.6  T
   6    -95.0444046 -0.107317E-06  0.401E-04    2.01      28.8  T
   7    -95.0444046 -0.320712E-08  0.133E-04    2.01      86.7  T
     SCC iter.                  ...        0 min,  0.215 sec
     gradient                   ...        0 min,  0.141 sec
 * total energy  :   -93.7710677 Eh     change        0.1796071E-06 Eh
   gradient norm :     0.0012899 Eh/α   predicted     0.1716803E-06 (  -4.41%)
   displ. norm   :     0.0433531 α      lambda       -0.7292510E-05
   maximum displ.:     0.0176460 α      in ANC's #2, #9, #7, ...

........................................................................
.............................. CYCLE   74 ..............................
........................................................................

 iter      E             dE          RMSdq      gap      omega  full diag
   1    -95.0445003 -0.950445E+02  0.838E-03    2.01       0.0  T
   2    -95.0444999  0.411426E-06  0.573E-03    2.01       2.0  T
   3    -95.0444982  0.175768E-05  0.615E-03    2.01       1.9  T
   4    -95.0444996 -0.144844E-05  0.411E-03    2.01       2.8  T
   5    -95.0445006 -0.991583E-06  0.906E-04    2.01      12.7  T
   6    -95.0445006 -0.215447E-07  0.374E-04    2.01      30.9  T
   7    -95.0445006 -0.436246E-08  0.725E-05    2.01     159.2  T
     SCC iter.                  ...        0 min,  0.220 sec
     gradient                   ...        0 min,  0.148 sec
 * total energy  :   -93.7710754 Eh     change       -0.7705393E-05 Eh
   gradient norm :     0.0006788 Eh/α   predicted    -0.3649965E-05 ( -52.63%)
   displ. norm   :     0.1049481 α      lambda       -0.9173709E-05
   maximum displ.:     0.0447063 α      in ANC's #2, #7, #9, ...

........................................................................
.............................. CYCLE   75 ..............................
........................................................................

 iter      E             dE          RMSdq      gap      omega  full diag
   1    -95.0442976 -0.950443E+02  0.156E-02    2.01       0.0  T
   2    -95.0442976  0.917985E-07  0.955E-03    2.01       1.2  T
   3    -95.0442965  0.105928E-05  0.693E-03    2.01       1.7  T
   4    -95.0442905  0.598394E-05  0.932E-03    2.01       1.2  T
   5    -95.0442980 -0.744931E-05  0.868E-04    2.01      13.3  T
   6    -95.0442980 -0.124904E-07  0.368E-04    2.01      31.4  T
   7    -95.0442980 -0.610157E-09  0.182E-04    2.01      63.5  T
     SCC iter.                  ...        0 min,  0.234 sec
     gradient                   ...        0 min,  0.140 sec
 * total energy  :   -93.7710848 Eh     change       -0.9384506E-05 Eh
   gradient norm :     0.0005460 Eh/α   predicted    -0.4609904E-05 ( -50.88%)
   displ. norm   :     0.1490319 α      lambda       -0.7711964E-05
   maximum displ.:     0.0648103 α      in ANC's #2, #7, #9, ...

........................................................................
.............................. CYCLE   76 ..............................
........................................................................

 iter      E             dE          RMSdq      gap      omega  full diag
   1    -95.0440910 -0.950441E+02  0.189E-02    2.01       0.0  T
   2    -95.0440911 -0.793637E-07  0.119E-02    2.01       1.0  T
   3    -95.0440909  0.178334E-06  0.827E-03    2.01       1.4  T
   4    -95.0440898  0.108077E-05  0.442E-03    2.01       2.6  T
   5    -95.0440914 -0.155137E-05  0.102E-03    2.01      11.3  T
   6    -95.0440915 -0.630492E-07  0.457E-04    2.01      25.3  T
   7    -95.0440915 -0.666070E-08  0.174E-04    2.01      66.2  T
     SCC iter.                  ...        0 min,  0.217 sec
     gradient                   ...        0 min,  0.131 sec
 * total energy  :   -93.7710923 Eh     change       -0.7481958E-05 Eh
   gradient norm :     0.0007511 Eh/α   predicted    -0.3895306E-05 ( -47.94%)
   displ. norm   :     0.1158853 α      lambda       -0.4878391E-05
   maximum displ.:     0.0533090 α      in ANC's #2, #7, #9, ...

........................................................................
.............................. CYCLE   77 ..............................
........................................................................

 iter      E             dE          RMSdq      gap      omega  full diag
   1    -95.0442133 -0.950442E+02  0.176E-02    2.00       0.0  T
   2    -95.0442133 -0.292895E-07  0.108E-02    2.00       1.1  T
   3    -95.0442128  0.532533E-06  0.689E-03    2.00       1.7  T
   4    -95.0442060  0.675028E-05  0.977E-03    2.01       1.2  T
   5    -95.0442137 -0.768654E-05  0.128E-03    2.00       9.0  T
   6    -95.0442137 -0.448686E-07  0.467E-04    2.00      24.7  T
   7    -95.0442138 -0.810792E-08  0.227E-04    2.00      50.8  T
     SCC iter.                  ...        0 min,  0.292 sec
     gradient                   ...        0 min,  0.182 sec
 * total energy  :   -93.7710969 Eh     change       -0.4556061E-05 Eh
   gradient norm :     0.0003996 Eh/α   predicted    -0.2456991E-05 ( -46.07%)
   displ. norm   :     0.0688368 α      lambda       -0.3091443E-05
   maximum displ.:     0.0348412 α      in ANC's #2, #7, #11, ...

........................................................................
.............................. CYCLE   78 ..............................
........................................................................

 iter      E             dE          RMSdq      gap      omega  full diag
   1    -95.0444920 -0.950445E+02  0.945E-03    2.00       0.0  T
   2    -95.0444911  0.887878E-06  0.648E-03    2.00       1.8  T
   3    -95.0444860  0.510857E-05  0.902E-03    2.01       1.3  T
   4    -95.0444918 -0.582696E-05  0.369E-03    2.00       3.1  T
   5    -95.0444923 -0.448860E-06  0.541E-04    2.01      21.3  T
   6    -95.0444923 -0.361283E-08  0.261E-04    2.01      44.3  T
   7    -95.0444923 -0.132620E-08  0.979E-05    2.01     117.9  T
     SCC iter.                  ...        0 min,  0.304 sec
     gradient                   ...        0 min,  0.181 sec
 * total energy  :   -93.7711000 Eh     change       -0.3178727E-05 Eh
   gradient norm :     0.0003615 Eh/α   predicted    -0.1551876E-05 ( -51.18%)
   displ. norm   :     0.0680779 α      lambda       -0.3380191E-05
   maximum displ.:     0.0354381 α      in ANC's #2, #6, #11, ...

........................................................................
.............................. CYCLE   79 ..............................
........................................................................

 iter      E             dE          RMSdq      gap      omega  full diag
   1    -95.0446443 -0.950446E+02  0.101E-02    2.01       0.0  T
   2    -95.0446443 -0.372264E-07  0.614E-03    2.01       1.9  T
   3    -95.0446443  0.259168E-07  0.408E-03    2.01       2.8  T
   4    -95.0446441  0.184369E-06  0.177E-03    2.01       6.5  T
   5    -95.0446443 -0.238643E-06  0.589E-04    2.01      19.6  T
   6    -95.0446443 -0.199157E-07  0.201E-04    2.01      57.5  T
   7    -95.0446443 -0.629015E-09  0.138E-04    2.01      83.6  T
     SCC iter.                  ...        0 min,  0.243 sec
     gradient                   ...        0 min,  0.167 sec
 * total energy  :   -93.7711040 Eh     change       -0.3940961E-05 Eh
   gradient norm :     0.0004821 Eh/α   predicted    -0.1694691E-05 ( -57.00%)
   displ. norm   :     0.0959815 α      lambda       -0.4648369E-05
   maximum displ.:     0.0493287 α      in ANC's #2, #6, #15, ...

........................................................................
.............................. CYCLE   80 ..............................
........................................................................

 iter      E             dE          RMSdq      gap      omega  full diag
   1    -95.0445676 -0.950446E+02  0.139E-02    2.01       0.0  T
   2    -95.0445675  0.134037E-06  0.837E-03    2.01       1.4  T
   3    -95.0445633  0.413626E-05  0.855E-03    2.01       1.4  T
   4    -95.0445652 -0.185005E-05  0.566E-03    2.01       2.0  T
   5    -95.0445677 -0.257397E-05  0.459E-04    2.01      25.2  T
   6    -95.0445677 -0.110174E-08  0.287E-04    2.01      40.2  T
   7    -95.0445678 -0.159579E-08  0.143E-04    2.01      81.0  T
     SCC iter.                  ...        0 min,  0.254 sec
     gradient                   ...        0 min,  0.160 sec
 * total energy  :   -93.7711089 Eh     change       -0.4957896E-05 Eh
   gradient norm :     0.0004513 Eh/α   predicted    -0.2337766E-05 ( -52.85%)
   displ. norm   :     0.0949718 α      lambda       -0.3815917E-05
   maximum displ.:     0.0507793 α      in ANC's #2, #6, #1, ...

........................................................................
.............................. CYCLE   81 ..............................
........................................................................

 iter      E             dE          RMSdq      gap      omega  full diag
   1    -95.0444590 -0.950445E+02  0.174E-02    2.01       0.0  T
   2    -95.0444592 -0.183601E-06  0.104E-02    2.01       1.1  T
   3    -95.0444591  0.291680E-07  0.673E-03    2.01       1.7  T
   4    -95.0444584  0.780709E-06  0.359E-03    2.01       3.2  T
   5    -95.0444592 -0.871533E-06  0.116E-03    2.01       9.9  T
   6    -95.0444593 -0.808193E-07  0.383E-04    2.01      30.1  T
   7    -95.0444593 -0.479200E-08  0.195E-04    2.01      59.2  T
     SCC iter.                  ...        0 min,  0.283 sec
     gradient                   ...        0 min,  0.162 sec
 * total energy  :   -93.7711121 Eh     change       -0.3119957E-05 Eh
   gradient norm :     0.0005078 Eh/α   predicted    -0.1919252E-05 ( -38.48%)
   displ. norm   :     0.0667929 α      lambda       -0.3007029E-05
   maximum displ.:     0.0376157 α      in ANC's #2, #6, #31, ...

........................................................................
.............................. CYCLE   82 ..............................
........................................................................

 iter      E             dE          RMSdq      gap      omega  full diag
   1    -95.0444234 -0.950444E+02  0.118E-02    2.00       0.0  T
   2    -95.0444234 -0.529183E-07  0.684E-03    2.00       1.7  T
   3    -95.0444220  0.141035E-05  0.542E-03    2.00       2.1  T
   4    -95.0444224 -0.388660E-06  0.358E-03    2.01       3.2  T
   5    -95.0444235 -0.107507E-05  0.896E-04    2.00      12.9  T
   6    -95.0444235 -0.261584E-07  0.329E-04    2.00      35.0  T
   7    -95.0444235 -0.521226E-09  0.126E-04    2.00      91.7  T
     SCC iter.                  ...        0 min,  0.217 sec
     gradient                   ...        0 min,  0.145 sec
 * total energy  :   -93.7711150 Eh     change       -0.2979120E-05 Eh
   gradient norm :     0.0002883 Eh/α   predicted    -0.1509070E-05 ( -49.35%)
   displ. norm   :     0.0575132 α      lambda       -0.2654789E-05
   maximum displ.:     0.0335099 α      in ANC's #2, #6, #31, ...

........................................................................
.............................. CYCLE   83 ..............................
........................................................................

 iter      E             dE          RMSdq      gap      omega  full diag
   1    -95.0444026 -0.950444E+02  0.107E-02    2.00       0.0  T
   2    -95.0444022  0.382333E-06  0.673E-03    2.00       1.7  T
   3    -95.0443956  0.657359E-05  0.947E-03    2.01       1.2  T
   4    -95.0444020 -0.638193E-05  0.347E-03    2.00       3.3  T
   5    -95.0444027 -0.712557E-06  0.436E-04    2.00      26.5  T
   6    -95.0444027 -0.139819E-08  0.208E-04    2.00      55.5  T
   7    -95.0444027 -0.116407E-08  0.950E-05    2.00     121.6  T
     SCC iter.                  ...        0 min,  0.252 sec
     gradient                   ...        0 min,  0.165 sec
 * total energy  :   -93.7711183 Eh     change       -0.3239794E-05 Eh
   gradient norm :     0.0003483 Eh/α   predicted    -0.1331584E-05 ( -58.90%)
   displ. norm   :     0.1045286 α      lambda       -0.4647211E-05
   maximum displ.:     0.0604727 α      in ANC's #2, #31, #7, ...

........................................................................
.............................. CYCLE   84 ..............................
........................................................................

 iter      E             dE          RMSdq      gap      omega  full diag
   1    -95.0443099 -0.950443E+02  0.194E-02    2.00       0.0  T
   2    -95.0443101 -0.156349E-06  0.114E-02    2.00       1.0  T
   3    -95.0443099  0.188957E-06  0.647E-03    2.00       1.8  T
   4    -95.0443093  0.616810E-06  0.326E-03    2.00       3.5  T
   5    -95.0443101 -0.816311E-06  0.112E-03    2.00      10.3  T
   6    -95.0443102 -0.677815E-07  0.394E-04    2.00      29.3  T
   7    -95.0443102 -0.165522E-08  0.157E-04    2.00      73.6  T
     SCC iter.                  ...        0 min,  0.317 sec
     gradient                   ...        0 min,  0.155 sec
 * total energy  :   -93.7711230 Eh     change       -0.4749699E-05 Eh
   gradient norm :     0.0004037 Eh/α   predicted    -0.2339407E-05 ( -50.75%)
   displ. norm   :     0.0913298 α      lambda       -0.2963886E-05
   maximum displ.:     0.0546142 α      in ANC's #2, #7, #6, ...

........................................................................
.............................. CYCLE   85 ..............................
........................................................................

 iter      E             dE          RMSdq      gap      omega  full diag
   1    -95.0442622 -0.950443E+02  0.160E-02    2.00       0.0  T
   2    -95.0442607  0.154615E-05  0.105E-02    2.00       1.1  T
   3    -95.0442395  0.211651E-04  0.167E-02    2.00       1.0  T
   4    -95.0442621 -0.225750E-04  0.449E-03    2.00       2.6  T
   5    -95.0442626 -0.525526E-06  0.535E-04    2.00      21.6  T
   6    -95.0442626 -0.158802E-08  0.295E-04    2.00      39.2  T
   7    -95.0442626 -0.263844E-08  0.110E-04    2.00     105.4  T
     SCC iter.                  ...        0 min,  0.227 sec
     gradient                   ...        0 min,  0.139 sec
 * total energy  :   -93.7711262 Eh     change       -0.3202119E-05 Eh
   gradient norm :     0.0003512 Eh/α   predicted    -0.1491767E-05 ( -53.41%)
   displ. norm   :     0.0896507 α      lambda       -0.2932964E-05
   maximum displ.:     0.0540372 α      in ANC's #2, #7, #4, ...

........................................................................
.............................. CYCLE   86 ..............................
........................................................................

 iter      E             dE          RMSdq      gap      omega  full diag
   1    -95.0443328 -0.950443E+02  0.148E-02    2.00       0.0  T
   2    -95.0443328 -0.266256E-07  0.881E-03    2.00       1.3  T
   3    -95.0443316  0.123684E-05  0.563E-03    2.00       2.0  T
   4    -95.0443318 -0.183540E-06  0.359E-03    2.00       3.2  T
   5    -95.0443329 -0.111446E-05  0.390E-04    2.00      29.6  T
   6    -95.0443329 -0.266503E-08  0.200E-04    2.00      57.7  T
   7    -95.0443329 -0.623814E-09  0.121E-04    2.00      95.2  T
     SCC iter.                  ...        0 min,  0.233 sec
     gradient                   ...        0 min,  0.140 sec
 * total energy  :   -93.7711300 Eh     change       -0.3754311E-05 Eh
   gradient norm :     0.0003124 Eh/α   predicted    -0.1474420E-05 ( -60.73%)
   displ. norm   :     0.1420907 α      lambda       -0.5014301E-05
   maximum displ.:     0.0852317 α      in ANC's #2, #7, #4, ...

........................................................................
.............................. CYCLE   87 ..............................
........................................................................

 iter      E             dE          RMSdq      gap      omega  full diag
   1    -95.0443832 -0.950444E+02  0.231E-02    2.00       0.0  T
   2    -95.0443832  0.612201E-07  0.137E-02    2.00       1.0  T
   3    -95.0443754  0.779758E-05  0.114E-02    2.00       1.0  T
   4    -95.0443806 -0.523219E-05  0.599E-03    2.00       1.9  T
   5    -95.0443834 -0.284175E-05  0.597E-04    2.00      19.3  T
   6    -95.0443834 -0.403068E-08  0.333E-04    2.00      34.7  T
   7    -95.0443834 -0.704659E-09  0.143E-04    2.00      80.9  T
     SCC iter.                  ...        0 min,  0.236 sec
     gradient                   ...        0 min,  0.152 sec
 * total energy  :   -93.7711360 Eh     change       -0.6028249E-05 Eh
   gradient norm :     0.0003874 Eh/α   predicted    -0.2532428E-05 ( -57.99%)
   displ. norm   :     0.1603533 α      lambda       -0.4665920E-05
   maximum displ.:     0.0965431 α      in ANC's #2, #7, #4, ...

........................................................................
.............................. CYCLE   88 ..............................
........................................................................

 iter      E             dE          RMSdq      gap      omega  full diag
   1    -95.0443121 -0.950443E+02  0.263E-02    2.00       0.0  T
   2    -95.0443122 -0.129597E-06  0.156E-02    2.00       1.0  T
   3    -95.0443113  0.914923E-06  0.926E-03    2.00       1.2  T
   4    -95.0443118 -0.491069E-06  0.255E-03    2.00       4.5  T
   5    -95.0443122 -0.430074E-06  0.128E-03    2.00       9.0  T
   6    -95.0443123 -0.122862E-06  0.376E-04    2.00      30.7  T
   7    -95.0443123 -0.143169E-08  0.165E-04    2.00      69.9  T
     SCC iter.                  ...        0 min,  0.220 sec
     gradient                   ...        0 min,  0.159 sec
 * total energy  :   -93.7711413 Eh     change       -0.5276044E-05 Eh
   gradient norm :     0.0003904 Eh/α   predicted    -0.2361887E-05 ( -55.23%)
   displ. norm   :     0.1190010 α      lambda       -0.3230082E-05
   maximum displ.:     0.0725006 α      in ANC's #2, #7, #4, ...

........................................................................
.............................. CYCLE   89 ..............................
........................................................................

 iter      E             dE          RMSdq      gap      omega  full diag
   1    -95.0444163 -0.950444E+02  0.203E-02    2.00       0.0  T
   2    -95.0444164 -0.907059E-07  0.120E-02    2.00       1.0  T
   3    -95.0444158  0.546797E-06  0.798E-03    2.00       1.4  T
   4    -95.0444152  0.595990E-06  0.373E-03    2.00       3.1  T
   5    -95.0444164 -0.120131E-05  0.102E-03    2.00      11.3  T
   6    -95.0444165 -0.594766E-07  0.338E-04    2.00      34.2  T
   7    -95.0444165 -0.111329E-08  0.152E-04    2.00      75.8  T
     SCC iter.                  ...        0 min,  0.246 sec
     gradient                   ...        0 min,  0.143 sec
 * total energy  :   -93.7711452 Eh     change       -0.3891233E-05 Eh
   gradient norm :     0.0003452 Eh/α   predicted    -0.1627199E-05 ( -58.18%)
   displ. norm   :     0.1056504 α      lambda       -0.3336295E-05
   maximum displ.:     0.0645763 α      in ANC's #2, #7, #4, ...

........................................................................
.............................. CYCLE   90 ..............................
........................................................................

 iter      E             dE          RMSdq      gap      omega  full diag
   1    -95.0445193 -0.950445E+02  0.190E-02    2.00       0.0  T
   2    -95.0445193 -0.294518E-07  0.115E-02    2.00       1.0  T
   3    -95.0445188  0.534487E-06  0.798E-03    2.00       1.4  T
   4    -95.0445168  0.197661E-05  0.554E-03    2.00       2.1  T
   5    -95.0445195 -0.268363E-05  0.774E-04    2.00      14.9  T
   6    -95.0445195 -0.247289E-07  0.308E-04    2.00      37.6  T
   7    -95.0445195 -0.845148E-09  0.167E-04    2.00      69.0  T
     SCC iter.                  ...        0 min,  0.239 sec
     gradient                   ...        0 min,  0.156 sec
 * total energy  :   -93.7711495 Eh     change       -0.4363109E-05 Eh
   gradient norm :     0.0002932 Eh/α   predicted    -0.1678306E-05 ( -61.53%)
   displ. norm   :     0.1348468 α      lambda       -0.4631123E-05
   maximum displ.:     0.0821408 α      in ANC's #2, #7, #4, ...

........................................................................
.............................. CYCLE   91 ..............................
........................................................................

 iter      E             dE          RMSdq      gap      omega  full diag
   1    -95.0444504 -0.950445E+02  0.253E-02    2.00       0.0  T
   2    -95.0444505 -0.158664E-06  0.154E-02    2.00       1.0  T
   3    -95.0444504  0.116042E-06  0.101E-02    2.00       1.1  T
   4    -95.0444496  0.790575E-06  0.396E-03    2.00       2.9  T
   5    -95.0444507 -0.111715E-05  0.123E-03    2.00       9.4  T
   6    -95.0444508 -0.951673E-07  0.453E-04    2.00      25.5  T
   7    -95.0444508 -0.522093E-08  0.246E-04    2.00      46.9  T
     SCC iter.                  ...        0 min,  0.246 sec
     gradient                   ...        0 min,  0.142 sec
 * total energy  :   -93.7711556 Eh     change       -0.6069606E-05 Eh
   gradient norm :     0.0003057 Eh/α   predicted    -0.2338644E-05 ( -61.47%)
   displ. norm   :     0.1694222 α      lambda       -0.5545789E-05
   maximum displ.:     0.1035981 α      in ANC's #2, #7, #4, ...

........................................................................
.............................. CYCLE   92 ..............................
........................................................................

 iter      E             dE          RMSdq      gap      omega  full diag
   1    -95.0443730 -0.950444E+02  0.318E-02    2.00       0.0  T
   2    -95.0443733 -0.257182E-06  0.193E-02    2.00       1.0  T
   3    -95.0443732  0.178766E-07  0.127E-02    2.00       1.0  T
   4    -95.0443735 -0.290777E-06  0.228E-03    2.00       5.1  T
   5    -95.0443737 -0.149929E-06  0.998E-04    2.00      11.6  T
   6    -95.0443737 -0.206224E-07  0.754E-04    2.00      15.3  T
   7    -95.0443737 -0.354619E-07  0.354E-04    2.00      32.6  T
   8    -95.0443737 -0.278261E-08  0.139E-04    2.00      82.9  T
     SCC iter.                  ...        0 min,  0.264 sec
     gradient                   ...        0 min,  0.148 sec
 * total energy  :   -93.7711627 Eh     change       -0.7112182E-05 Eh
   gradient norm :     0.0003831 Eh/α   predicted    -0.2813170E-05 ( -60.45%)
   displ. norm   :     0.2040002 α      lambda       -0.5951723E-05
   maximum displ.:     0.1258502 α      in ANC's #2, #7, #4, ...
 * RMSD in coord.:     0.1992258 α      energy gain  -0.1276691E-03 Eh

generating ANC from exact Hessian ...
Using Lindh-Hessian (1995)
 Shifting diagonal of input Hessian by    1.0146437136575316E-002
 Lowest  eigenvalues of input Hessian
    0.010000    0.000000    0.010068    0.000000    0.000000    0.000000
    0.000000    0.000000    0.010239    0.010297    0.010391    0.010502
    0.010639    0.010774    0.010872    0.010989    0.011018    0.011105
 Highest eigenvalues
    1.592331    1.618633    1.899950    2.003205    2.026477    2.304266


........................................................................
.............................. CYCLE   93 ..............................
........................................................................

 iter      E             dE          RMSdq      gap      omega  full diag
   1    -95.0442336 -0.950442E+02  0.373E-02    2.00       0.0  T
   2    -95.0442339 -0.310553E-06  0.225E-02    2.00       1.0  T
   3    -95.0442336  0.282045E-06  0.148E-02    2.00       1.0  T
   4    -95.0442340 -0.448122E-06  0.257E-03    2.00       4.5  T
   5    -95.0442342 -0.201028E-06  0.149E-03    2.00       7.8  T
   6    -95.0442344 -0.138590E-06  0.647E-04    2.00      17.8  T
   7    -95.0442344 -0.170047E-07  0.371E-04    2.00      31.1  T
   8    -95.0442344 -0.175413E-08  0.144E-04    2.00      80.2  T
     SCC iter.                  ...        0 min,  0.281 sec
     gradient                   ...        0 min,  0.139 sec
 * total energy  :   -93.7711700 Eh     change       -0.7266372E-05 Eh
   gradient norm :     0.0005019 Eh/α   predicted     0.0000000E+00 (-100.00%)
   displ. norm   :     0.0158287 α      lambda       -0.2691124E-06
   maximum displ.:     0.0059697 α      in ANC's #24, #6, #7, ...

........................................................................
.............................. CYCLE   94 ..............................
........................................................................

 iter      E             dE          RMSdq      gap      omega  full diag
   1    -95.0445903 -0.950446E+02  0.489E-03    2.00       0.0  T
   2    -95.0445898  0.409454E-06  0.361E-03    2.00       3.2  T
   3    -95.0445891  0.791579E-06  0.425E-03    2.00       2.7  T
   4    -95.0445903 -0.122858E-05  0.187E-03    2.00       6.2  T
   5    -95.0445904 -0.101963E-06  0.461E-04    2.00      25.1  T
   6    -95.0445904 -0.219049E-08  0.212E-04    2.00      54.5  T
     SCC iter.                  ...        0 min,  0.209 sec
     gradient                   ...        0 min,  0.142 sec
 * total energy  :   -93.7711714 Eh     change       -0.1387370E-05 Eh
   gradient norm :     0.0006005 Eh/α   predicted    -0.1052442E-05 ( -24.14%)
   displ. norm   :     0.0600717 α      lambda       -0.6707778E-05
   maximum displ.:     0.0211903 α      in ANC's #7, #6, #21, ...

........................................................................
.............................. CYCLE   95 ..............................
........................................................................

 iter      E             dE          RMSdq      gap      omega  full diag
   1    -95.0455475 -0.950455E+02  0.232E-02    2.00       0.0  T
   2    -95.0455476 -0.108024E-06  0.159E-02    2.00       1.0  T
   3    -95.0455479 -0.310023E-06  0.785E-03    2.00       1.5  T
   4    -95.0455391  0.884630E-05  0.105E-02    1.99       1.1  T
   5    -95.0455485 -0.937935E-05  0.214E-03    2.00       5.4  T
   6    -95.0455486 -0.164000E-06  0.716E-04    2.00      16.1  T
   7    -95.0455486 -0.299828E-08  0.356E-04    2.00      32.4  T
   8    -95.0455486 -0.315154E-09  0.157E-04    2.00      73.7  T
     SCC iter.                  ...        0 min,  0.274 sec
     gradient                   ...        0 min,  0.149 sec
 * total energy  :   -93.7711580 Eh     change        0.1336774E-04 Eh
   gradient norm :     0.0025163 Eh/α   predicted    -0.3359458E-05 (-125.13%)
   displ. norm   :     0.0166694 α      lambda       -0.2234289E-04
   maximum displ.:     0.0097065 α      in ANC's #21, #19, #24, ...

........................................................................
.............................. CYCLE   96 ..............................
........................................................................

 iter      E             dE          RMSdq      gap      omega  full diag
   1    -95.0451226 -0.950451E+02  0.103E-02    2.00       0.0  T
   2    -95.0451226  0.126404E-07  0.678E-03    2.00       1.7  T
   3    -95.0451225  0.143181E-06  0.468E-03    2.00       2.5  T
   4    -95.0451208  0.165794E-05  0.493E-03    2.00       2.3  T
   5    -95.0451228 -0.199195E-05  0.697E-04    2.00      16.6  T
   6    -95.0451228 -0.111491E-07  0.431E-04    2.00      26.8  T
   7    -95.0451228 -0.621765E-08  0.127E-04    2.00      91.1  T
     SCC iter.                  ...        0 min,  0.238 sec
     gradient                   ...        0 min,  0.138 sec
 * total energy  :   -93.7711727 Eh     change       -0.1469069E-04 Eh
   gradient norm :     0.0012124 Eh/α   predicted    -0.1117677E-04 ( -23.92%)
   displ. norm   :     0.0177637 α      lambda       -0.6577807E-05
   maximum displ.:     0.0065383 α      in ANC's #21, #23, #24, ...

........................................................................
.............................. CYCLE   97 ..............................
........................................................................

 iter      E             dE          RMSdq      gap      omega  full diag
   1    -95.0440771 -0.950441E+02  0.112E-02    2.00       0.0  T
   2    -95.0440763  0.798406E-06  0.831E-03    2.00       1.4  T
   3    -95.0440756  0.724331E-06  0.589E-03    2.00       2.0  T
   4    -95.0440752  0.409051E-06  0.593E-03    2.00       1.9  T
   5    -95.0440776 -0.242431E-05  0.876E-04    2.00      13.2  T
   6    -95.0440776 -0.331326E-08  0.379E-04    2.00      30.5  T
   7    -95.0440776 -0.100452E-08  0.203E-04    2.00      56.8  T
     SCC iter.                  ...        0 min,  0.204 sec
     gradient                   ...        0 min,  0.130 sec
 * total energy  :   -93.7711738 Eh     change       -0.1100701E-05 Eh
   gradient norm :     0.0011249 Eh/α   predicted    -0.3290205E-05 ( 198.92%)
   displ. norm   :     0.0222020 α      lambda       -0.3730181E-05
   maximum displ.:     0.0096120 α      in ANC's #7, #6, #2, ...

........................................................................
.............................. CYCLE   98 ..............................
........................................................................

 iter      E             dE          RMSdq      gap      omega  full diag
   1    -95.0444333 -0.950444E+02  0.800E-03    2.00       0.0  T
   2    -95.0444324  0.893567E-06  0.618E-03    2.00       1.9  T
   3    -95.0444316  0.745563E-06  0.543E-03    2.00       2.1  T
   4    -95.0444328 -0.119275E-05  0.373E-03    2.00       3.1  T
   5    -95.0444336 -0.768137E-06  0.487E-04    2.00      23.7  T
   6    -95.0444336 -0.463473E-09  0.233E-04    2.00      49.6  T
   7    -95.0444336 -0.365006E-09  0.113E-04    2.00     102.0  T
     SCC iter.                  ...        0 min,  0.185 sec
     gradient                   ...        0 min,  0.131 sec
 * total energy  :   -93.7711765 Eh     change       -0.2693016E-05 Eh
   gradient norm :     0.0003283 Eh/α   predicted    -0.1865779E-05 ( -30.72%)
   displ. norm   :     0.0202433 α      lambda       -0.1592106E-05
   maximum displ.:     0.0100620 α      in ANC's #7, #6, #2, ...

........................................................................
.............................. CYCLE   99 ..............................
........................................................................

 iter      E             dE          RMSdq      gap      omega  full diag
   1    -95.0446924 -0.950447E+02  0.602E-03    2.00       0.0  T
   2    -95.0446924 -0.388345E-07  0.380E-03    2.00       3.0  T
   3    -95.0446924 -0.241141E-07  0.196E-03    2.00       5.9  T
   4    -95.0446924  0.623847E-07  0.107E-03    2.00      10.8  T
   5    -95.0446924 -0.461965E-07  0.558E-04    2.00      20.7  T
   6    -95.0446924 -0.220908E-07  0.221E-04    2.00      52.2  T
   7    -95.0446924 -0.184568E-08  0.708E-05    2.00     163.0  T
     SCC iter.                  ...        0 min,  0.166 sec
     gradient                   ...        0 min,  0.144 sec
 * total energy  :   -93.7711778 Eh     change       -0.1285406E-05 Eh
   gradient norm :     0.0004208 Eh/α   predicted    -0.7969807E-06 ( -38.00%)
   displ. norm   :     0.0309811 α      lambda       -0.1461535E-05
   maximum displ.:     0.0157951 α      in ANC's #7, #6, #2, ...

........................................................................
.............................. CYCLE  100 ..............................
........................................................................

 iter      E             dE          RMSdq      gap      omega  full diag
   1    -95.0446500 -0.950447E+02  0.591E-03    2.00       0.0  T
   2    -95.0446500 -0.146437E-07  0.343E-03    2.00       3.4  T
   3    -95.0446499  0.116208E-06  0.229E-03    2.00       5.0  T
   4    -95.0446498  0.958755E-07  0.160E-03    2.00       7.2  T
   5    -95.0446500 -0.202724E-06  0.592E-04    2.00      19.5  T
   6    -95.0446500 -0.211036E-07  0.130E-04    2.00      89.2  T
   7    -95.0446500 -0.189715E-10  0.393E-05    2.00     294.1  T
     SCC iter.                  ...        0 min,  0.288 sec
     gradient                   ...        0 min,  0.174 sec
 * total energy  :   -93.7711797 Eh     change       -0.1900777E-05 Eh
   gradient norm :     0.0003436 Eh/α   predicted    -0.7327300E-06 ( -61.45%)
   displ. norm   :     0.1111137 α      lambda       -0.4838121E-05
   maximum displ.:     0.0554983 α      in ANC's #7, #6, #2, ...

........................................................................
.............................. CYCLE  101 ..............................
........................................................................

 iter      E             dE          RMSdq      gap      omega  full diag
   1    -95.0442941 -0.950443E+02  0.193E-02    2.00       0.0  T
   2    -95.0442942 -0.753876E-07  0.116E-02    2.00       1.0  T
   3    -95.0442940  0.185613E-06  0.746E-03    2.00       1.5  T
   4    -95.0442943 -0.240288E-06  0.890E-04    2.00      13.0  T
   5    -95.0442943 -0.292616E-08  0.410E-04    2.00      28.2  T
   6    -95.0442943  0.723311E-08  0.446E-04    2.00      25.9  T
     SCC iter.                  ...        0 min,  0.270 sec
     gradient                   ...        0 min,  0.201 sec
 * total energy  :   -93.7711854 Eh     change       -0.5671061E-05 Eh
   gradient norm :     0.0002997 Eh/α   predicted    -0.2437311E-05 ( -57.02%)
   displ. norm   :     0.1676947 α      lambda       -0.4979843E-05
   maximum displ.:     0.0845301 α      in ANC's #7, #2, #6, ...

........................................................................
.............................. CYCLE  102 ..............................
........................................................................

 iter      E             dE          RMSdq      gap      omega  full diag
   1    -95.0441759 -0.950442E+02  0.291E-02    2.00       0.0  T
   2    -95.0441758  0.517883E-07  0.174E-02    2.00       1.0  T
   3    -95.0441691  0.676899E-05  0.130E-02    2.00       1.0  T
   4    -95.0441675  0.154059E-05  0.101E-02    2.00       1.1  T
   5    -95.0441762 -0.869879E-05  0.703E-04    2.00      16.4  T
   6    -95.0441762 -0.175112E-08  0.365E-04    2.00      31.7  T
   7    -95.0441762 -0.108808E-08  0.228E-04    2.00      50.7  T
     SCC iter.                  ...        0 min,  0.292 sec
     gradient                   ...        0 min,  0.168 sec
 * total energy  :   -93.7711905 Eh     change       -0.5170773E-05 Eh
   gradient norm :     0.0005589 Eh/α   predicted    -0.2525082E-05 ( -51.17%)
   displ. norm   :     0.1294295 α      lambda       -0.3092114E-05
   maximum displ.:     0.0666827 α      in ANC's #7, #2, #6, ...

........................................................................
.............................. CYCLE  103 ..............................
........................................................................

 iter      E             dE          RMSdq      gap      omega  full diag
   1    -95.0441924 -0.950442E+02  0.236E-02    2.00       0.0  T
   2    -95.0441919  0.548456E-06  0.148E-02    2.00       1.0  T
   3    -95.0441841  0.779994E-05  0.134E-02    2.00       1.0  T
   4    -95.0441803  0.372059E-05  0.124E-02    2.00       1.0  T
   5    -95.0441928 -0.124654E-04  0.830E-04    2.00      13.9  T
   6    -95.0441928 -0.849136E-08  0.323E-04    2.00      35.7  T
   7    -95.0441928 -0.538392E-09  0.187E-04    2.00      61.6  T
     SCC iter.                  ...        0 min,  0.304 sec
     gradient                   ...        0 min,  0.178 sec
 * total energy  :   -93.7711938 Eh     change       -0.3249906E-05 Eh
   gradient norm :     0.0004468 Eh/α   predicted    -0.1558057E-05 ( -52.06%)
   displ. norm   :     0.1016643 α      lambda       -0.2598934E-05
   maximum displ.:     0.0538585 α      in ANC's #7, #2, #6, ...

........................................................................
.............................. CYCLE  104 ..............................
........................................................................

 iter      E             dE          RMSdq      gap      omega  full diag
   1    -95.0444010 -0.950444E+02  0.194E-02    2.00       0.0  T
   2    -95.0444010 -0.309217E-07  0.116E-02    2.00       1.0  T
   3    -95.0443998  0.122946E-05  0.788E-03    2.01       1.5  T
   4    -95.0443956  0.419435E-05  0.797E-03    2.00       1.4  T
   5    -95.0444012 -0.560726E-05  0.763E-04    2.00      15.1  T
   6    -95.0444012 -0.311087E-08  0.301E-04    2.00      38.3  T
   7    -95.0444012 -0.136436E-08  0.173E-04    2.00      66.9  T
     SCC iter.                  ...        0 min,  0.317 sec
     gradient                   ...        0 min,  0.168 sec
 * total energy  :   -93.7711970 Eh     change       -0.3265337E-05 Eh
   gradient norm :     0.0002342 Eh/α   predicted    -0.1310286E-05 ( -59.87%)
   displ. norm   :     0.1356663 α      lambda       -0.3760167E-05
   maximum displ.:     0.0738800 α      in ANC's #7, #2, #6, ...

........................................................................
.............................. CYCLE  105 ..............................
........................................................................

 iter      E             dE          RMSdq      gap      omega  full diag
   1    -95.0446338 -0.950446E+02  0.268E-02    2.01       0.0  T
   2    -95.0446340 -0.186431E-06  0.163E-02    2.01       1.0  T
   3    -95.0446339  0.116934E-06  0.108E-02    2.01       1.1  T
   4    -95.0446341 -0.202806E-06  0.198E-03    2.01       5.8  T
   5    -95.0446341 -0.368246E-07  0.118E-03    2.01       9.8  T
   6    -95.0446342 -0.935232E-07  0.561E-04    2.01      20.6  T
   7    -95.0446342 -0.149008E-07  0.272E-04    2.01      42.5  T
   8    -95.0446342 -0.959943E-09  0.867E-05    2.01     133.2  T
     SCC iter.                  ...        0 min,  0.336 sec
     gradient                   ...        0 min,  0.154 sec
 * total energy  :   -93.7712015 Eh     change       -0.4499404E-05 Eh
   gradient norm :     0.0002557 Eh/α   predicted    -0.1899438E-05 ( -57.78%)
   displ. norm   :     0.1546958 α      lambda       -0.4162807E-05
   maximum displ.:     0.0858441 α      in ANC's #7, #2, #1, ...

........................................................................
.............................. CYCLE  106 ..............................
........................................................................

 iter      E             dE          RMSdq      gap      omega  full diag
   1    -95.0446054 -0.950446E+02  0.318E-02    2.01       0.0  T
   2    -95.0446057 -0.339273E-06  0.189E-02    2.01       1.0  T
   3    -95.0446050  0.748019E-06  0.118E-02    2.01       1.0  T
   4    -95.0445989  0.602913E-05  0.897E-03    2.01       1.3  T
   5    -95.0446060 -0.707114E-05  0.140E-03    2.01       8.3  T
   6    -95.0446060 -0.359202E-07  0.542E-04    2.01      21.3  T
   7    -95.0446060 -0.591668E-08  0.285E-04    2.01      40.6  T
   8    -95.0446060 -0.918263E-09  0.103E-04    2.01     112.3  T
     SCC iter.                  ...        0 min,  0.359 sec
     gradient                   ...        0 min,  0.191 sec
 * total energy  :   -93.7712061 Eh     change       -0.4550873E-05 Eh
   gradient norm :     0.0003370 Eh/α   predicted    -0.2107159E-05 ( -53.70%)
   displ. norm   :     0.1213238 α      lambda       -0.3108087E-05
   maximum displ.:     0.0677310 α      in ANC's #7, #2, #1, ...

........................................................................
.............................. CYCLE  107 ..............................
........................................................................

 iter      E             dE          RMSdq      gap      omega  full diag
   1    -95.0445348 -0.950445E+02  0.239E-02    2.02       0.0  T
   2    -95.0445346  0.202098E-06  0.147E-02    2.02       1.0  T
   3    -95.0445301  0.451749E-05  0.123E-02    2.01       1.0  T
   4    -95.0445257  0.431113E-05  0.103E-02    2.02       1.1  T
   5    -95.0445351 -0.936255E-05  0.841E-04    2.02      13.7  T
   6    -95.0445351 -0.242484E-07  0.309E-04    2.02      37.4  T
   7    -95.0445351 -0.444999E-09  0.221E-04    2.02      52.4  T
     SCC iter.                  ...        0 min,  0.344 sec
     gradient                   ...        0 min,  0.179 sec
 * total energy  :   -93.7712098 Eh     change       -0.3695401E-05 Eh
   gradient norm :     0.0002227 Eh/α   predicted    -0.1568063E-05 ( -57.57%)
   displ. norm   :     0.1234420 α      lambda       -0.3258440E-05
   maximum displ.:     0.0684245 α      in ANC's #7, #2, #1, ...

........................................................................
.............................. CYCLE  108 ..............................
........................................................................

 iter      E             dE          RMSdq      gap      omega  full diag
   1    -95.0446218 -0.950446E+02  0.242E-02    2.02       0.0  T
   2    -95.0446219 -0.101840E-06  0.144E-02    2.02       1.0  T
   3    -95.0446210  0.903808E-06  0.955E-03    2.02       1.2  T
   4    -95.0446169  0.414811E-05  0.765E-03    2.02       1.5  T
   5    -95.0446221 -0.522406E-05  0.132E-03    2.02       8.8  T
   6    -95.0446222 -0.470200E-07  0.350E-04    2.02      33.0  T
   7    -95.0446222 -0.528942E-09  0.194E-04    2.02      59.4  T
     SCC iter.                  ...        0 min,  0.325 sec
     gradient                   ...        0 min,  0.116 sec
 * total energy  :   -93.7712137 Eh     change       -0.3911159E-05 Eh
   gradient norm :     0.0002287 Eh/α   predicted    -0.1642252E-05 ( -58.01%)
   displ. norm   :     0.1452581 α      lambda       -0.3657961E-05
   maximum displ.:     0.0807763 α      in ANC's #7, #2, #1, ...

........................................................................
.............................. CYCLE  109 ..............................
........................................................................

 iter      E             dE          RMSdq      gap      omega  full diag
   1    -95.0444684 -0.950445E+02  0.271E-02    2.02       0.0  T
   2    -95.0444678  0.675116E-06  0.165E-02    2.02       1.0  T
   3    -95.0444522  0.155594E-04  0.169E-02    2.02       1.0  T
   4    -95.0444584 -0.623518E-05  0.111E-02    2.02       1.0  T
   5    -95.0444688 -0.103918E-04  0.813E-04    2.02      14.2  T
   6    -95.0444689 -0.199931E-07  0.339E-04    2.02      34.1  T
   7    -95.0444689 -0.175091E-08  0.175E-04    2.02      66.1  T
     SCC iter.                  ...        0 min,  0.305 sec
     gradient                   ...        0 min,  0.174 sec
 * total energy  :   -93.7712179 Eh     change       -0.4188627E-05 Eh
   gradient norm :     0.0002561 Eh/α   predicted    -0.1849686E-05 ( -55.84%)
   displ. norm   :     0.1495670 α      lambda       -0.3283227E-05
   maximum displ.:     0.0827944 α      in ANC's #7, #2, #1, ...

........................................................................
.............................. CYCLE  110 ..............................
........................................................................

 iter      E             dE          RMSdq      gap      omega  full diag
   1    -95.0443353 -0.950443E+02  0.286E-02    2.02       0.0  T
   2    -95.0443353 -0.188970E-07  0.171E-02    2.02       1.0  T
   3    -95.0443330  0.235313E-05  0.120E-02    2.02       1.0  T
   4    -95.0443246  0.839902E-05  0.111E-02    2.02       1.0  T
   5    -95.0443357 -0.111181E-04  0.156E-03    2.02       7.4  T
   6    -95.0443357 -0.475382E-07  0.379E-04    2.02      30.5  T
   7    -95.0443357 -0.100044E-09  0.210E-04    2.02      54.9  T
     SCC iter.                  ...        0 min,  0.317 sec
     gradient                   ...        0 min,  0.176 sec
 * total energy  :   -93.7712215 Eh     change       -0.3596346E-05 Eh
   gradient norm :     0.0003569 Eh/α   predicted    -0.1661972E-05 ( -53.79%)
   displ. norm   :     0.1181246 α      lambda       -0.2638758E-05
   maximum displ.:     0.0654956 α      in ANC's #2, #7, #1, ...

........................................................................
.............................. CYCLE  111 ..............................
........................................................................

 iter      E             dE          RMSdq      gap      omega  full diag
   1    -95.0444362 -0.950444E+02  0.218E-02    2.02       0.0  T
   2    -95.0444356  0.605111E-06  0.132E-02    2.02       1.0  T
   3    -95.0444243  0.113075E-04  0.141E-02    2.02       1.0  T
   4    -95.0444292 -0.485809E-05  0.936E-03    2.03       1.2  T
   5    -95.0444365 -0.735103E-05  0.681E-04    2.02      17.0  T
   6    -95.0444365 -0.133449E-07  0.296E-04    2.02      39.0  T
   7    -95.0444365 -0.237027E-08  0.139E-04    2.02      83.0  T
     SCC iter.                  ...        0 min,  0.301 sec
     gradient                   ...        0 min,  0.174 sec
 * total energy  :   -93.7712243 Eh     change       -0.2858120E-05 Eh
   gradient norm :     0.0003162 Eh/α   predicted    -0.1328447E-05 ( -53.52%)
   displ. norm   :     0.0976609 α      lambda       -0.2443328E-05
   maximum displ.:     0.0560056 α      in ANC's #2, #7, #1, ...

........................................................................
.............................. CYCLE  112 ..............................
........................................................................

 iter      E             dE          RMSdq      gap      omega  full diag
   1    -95.0444599 -0.950445E+02  0.183E-02    2.03       0.0  T
   2    -95.0444599 -0.540018E-07  0.111E-02    2.03       1.0  T
   3    -95.0444597  0.277060E-06  0.761E-03    2.03       1.5  T
   4    -95.0444587  0.943766E-06  0.394E-03    2.03       2.9  T
   5    -95.0444599 -0.121310E-05  0.139E-03    2.03       8.3  T
   6    -95.0444601 -0.118076E-06  0.240E-04    2.03      48.2  T
   7    -95.0444601 -0.113147E-09  0.146E-04    2.03      79.0  T
     SCC iter.                  ...        0 min,  0.303 sec
     gradient                   ...        0 min,  0.184 sec
 * total energy  :   -93.7712273 Eh     change       -0.2961394E-05 Eh
   gradient norm :     0.0002130 Eh/α   predicted    -0.1227830E-05 ( -58.54%)
   displ. norm   :     0.1207240 α      lambda       -0.3144511E-05
   maximum displ.:     0.0704502 α      in ANC's #2, #7, #1, ...

........................................................................
.............................. CYCLE  113 ..............................
........................................................................

 iter      E             dE          RMSdq      gap      omega  full diag
   1    -95.0444560 -0.950445E+02  0.227E-02    2.03       0.0  T
   2    -95.0444559  0.744398E-07  0.137E-02    2.03       1.0  T
   3    -95.0444538  0.210395E-05  0.103E-02    2.03       1.1  T
   4    -95.0444474  0.646460E-05  0.101E-02    2.03       1.1  T
   5    -95.0444563 -0.891360E-05  0.101E-03    2.03      11.4  T
   6    -95.0444563 -0.481176E-07  0.280E-04    2.03      41.2  T
   7    -95.0444563 -0.873527E-09  0.188E-04    2.03      61.3  T
     SCC iter.                  ...        0 min,  0.303 sec
     gradient                   ...        0 min,  0.171 sec
 * total energy  :   -93.7712311 Eh     change       -0.3767771E-05 Eh
   gradient norm :     0.0002482 Eh/α   predicted    -0.1585415E-05 ( -57.92%)
   displ. norm   :     0.1319731 α      lambda       -0.3134400E-05
   maximum displ.:     0.0783355 α      in ANC's #2, #7, #1, ...

........................................................................
.............................. CYCLE  114 ..............................
........................................................................

 iter      E             dE          RMSdq      gap      omega  full diag
   1    -95.0444400 -0.950444E+02  0.247E-02    2.03       0.0  T
   2    -95.0444399  0.149286E-06  0.153E-02    2.03       1.0  T
   3    -95.0444375  0.238450E-05  0.117E-02    2.03       1.0  T
   4    -95.0444297  0.780133E-05  0.110E-02    2.03       1.0  T
   5    -95.0444404 -0.106867E-04  0.119E-03    2.03       9.7  T
   6    -95.0444405 -0.675467E-07  0.298E-04    2.03      38.7  T
   7    -95.0444405 -0.224887E-09  0.228E-04    2.03      50.7  T
     SCC iter.                  ...        0 min,  0.310 sec
     gradient                   ...        0 min,  0.179 sec
 * total energy  :   -93.7712347 Eh     change       -0.3594007E-05 Eh
   gradient norm :     0.0002651 Eh/α   predicted    -0.1581036E-05 ( -56.01%)
   displ. norm   :     0.1112386 α      lambda       -0.2505006E-05
   maximum displ.:     0.0672556 α      in ANC's #2, #7, #1, ...

........................................................................
.............................. CYCLE  115 ..............................
........................................................................

 iter      E             dE          RMSdq      gap      omega  full diag
   1    -95.0444544 -0.950445E+02  0.207E-02    2.03       0.0  T
   2    -95.0444540  0.381298E-06  0.128E-02    2.03       1.0  T
   3    -95.0444503  0.372828E-05  0.108E-02    2.03       1.1  T
   4    -95.0444433  0.696954E-05  0.114E-02    2.03       1.0  T
   5    -95.0444548 -0.114519E-04  0.913E-04    2.03      12.6  T
   6    -95.0444548 -0.217155E-07  0.306E-04    2.03      37.8  T
   7    -95.0444548 -0.261217E-08  0.201E-04    2.03      57.5  T
     SCC iter.                  ...        0 min,  0.300 sec
     gradient                   ...        0 min,  0.174 sec
 * total energy  :   -93.7712376 Eh     change       -0.2962695E-05 Eh
   gradient norm :     0.0002755 Eh/α   predicted    -0.1262517E-05 ( -57.39%)
   displ. norm   :     0.1087619 α      lambda       -0.2422505E-05
   maximum displ.:     0.0668142 α      in ANC's #2, #7, #1, ...

........................................................................
.............................. CYCLE  116 ..............................
........................................................................

 iter      E             dE          RMSdq      gap      omega  full diag
   1    -95.0445381 -0.950445E+02  0.199E-02    2.03       0.0  T
   2    -95.0445376  0.446030E-06  0.126E-02    2.03       1.0  T
   3    -95.0445337  0.388749E-05  0.109E-02    2.03       1.1  T
   4    -95.0445279  0.582029E-05  0.109E-02    2.04       1.1  T
   5    -95.0445384 -0.105186E-04  0.744E-04    2.03      15.5  T
   6    -95.0445385 -0.131406E-07  0.243E-04    2.03      47.5  T
   7    -95.0445385 -0.501714E-09  0.198E-04    2.03      58.3  T
     SCC iter.                  ...        0 min,  0.318 sec
     gradient                   ...        0 min,  0.179 sec
 * total energy  :   -93.7712406 Eh     change       -0.2923566E-05 Eh
   gradient norm :     0.0001971 Eh/α   predicted    -0.1220191E-05 ( -58.26%)
   displ. norm   :     0.1099281 α      lambda       -0.2193966E-05
   maximum displ.:     0.0677921 α      in ANC's #2, #7, #1, ...

........................................................................
.............................. CYCLE  117 ..............................
........................................................................

 iter      E             dE          RMSdq      gap      omega  full diag
   1    -95.0444635 -0.950445E+02  0.198E-02    2.04       0.0  T
   2    -95.0444629  0.580971E-06  0.125E-02    2.04       1.0  T
   3    -95.0444572  0.571338E-05  0.117E-02    2.04       1.0  T
   4    -95.0444540  0.316167E-05  0.106E-02    2.04       1.1  T
   5    -95.0444638 -0.981893E-05  0.740E-04    2.04      15.6  T
   6    -95.0444638 -0.114215E-07  0.267E-04    2.04      43.3  T
   7    -95.0444638 -0.131108E-08  0.182E-04    2.04      63.6  T
     SCC iter.                  ...        0 min,  0.321 sec
     gradient                   ...        0 min,  0.189 sec
 * total energy  :   -93.7712432 Eh     change       -0.2694059E-05 Eh
   gradient norm :     0.0002428 Eh/α   predicted    -0.1105967E-05 ( -58.95%)
   displ. norm   :     0.1041188 α      lambda       -0.1975515E-05
   maximum displ.:     0.0655360 α      in ANC's #2, #7, #1, ...

........................................................................
.............................. CYCLE  118 ..............................
........................................................................

 iter      E             dE          RMSdq      gap      omega  full diag
   1    -95.0445258 -0.950445E+02  0.181E-02    2.04       0.0  T
   2    -95.0445255  0.328618E-06  0.112E-02    2.04       1.0  T
   3    -95.0445210  0.450542E-05  0.104E-02    2.04       1.1  T
   4    -95.0445189  0.206682E-05  0.903E-03    2.04       1.3  T
   5    -95.0445261 -0.715288E-05  0.588E-04    2.04      19.6  T
   6    -95.0445261 -0.739806E-08  0.195E-04    2.04      59.2  T
   7    -95.0445261 -0.298755E-09  0.136E-04    2.04      85.1  T
     SCC iter.                  ...        0 min,  0.316 sec
     gradient                   ...        0 min,  0.181 sec
 * total energy  :   -93.7712457 Eh     change       -0.2452565E-05 Eh
   gradient norm :     0.0002070 Eh/α   predicted    -0.9949824E-06 ( -59.43%)
   displ. norm   :     0.1028598 α      lambda       -0.1858838E-05
   maximum displ.:     0.0652347 α      in ANC's #2, #7, #1, ...

........................................................................
.............................. CYCLE  119 ..............................
........................................................................

 iter      E             dE          RMSdq      gap      omega  full diag
   1    -95.0444803 -0.950445E+02  0.178E-02    2.04       0.0  T
   2    -95.0444797  0.542770E-06  0.111E-02    2.04       1.0  T
   3    -95.0444717  0.802259E-05  0.121E-02    2.04       1.0  T
   4    -95.0444751 -0.341902E-05  0.800E-03    2.04       1.4  T
   5    -95.0444805 -0.540341E-05  0.520E-04    2.04      22.2  T
   6    -95.0444805 -0.537587E-08  0.205E-04    2.04      56.4  T
   7    -95.0444805 -0.697028E-09  0.118E-04    2.04      97.5  T
     SCC iter.                  ...        0 min,  0.310 sec
     gradient                   ...        0 min,  0.179 sec
 * total energy  :   -93.7712480 Eh     change       -0.2347899E-05 Eh
   gradient norm :     0.0002108 Eh/α   predicted    -0.9362255E-06 ( -60.12%)
   displ. norm   :     0.0943490 α      lambda       -0.1797734E-05
   maximum displ.:     0.0612833 α      in ANC's #2, #7, #1, ...

........................................................................
.............................. CYCLE  120 ..............................
........................................................................

 iter      E             dE          RMSdq      gap      omega  full diag
   1    -95.0445124 -0.950445E+02  0.161E-02    2.04       0.0  T
   2    -95.0445123  0.588740E-07  0.966E-03    2.04       1.2  T
   3    -95.0445103  0.205978E-05  0.802E-03    2.04       1.4  T
   4    -95.0445094  0.868737E-06  0.589E-03    2.04       2.0  T
   5    -95.0445125 -0.309088E-05  0.442E-04    2.04      26.1  T
   6    -95.0445125 -0.609417E-08  0.166E-04    2.04      69.5  T
   7    -95.0445125 -0.136509E-09  0.824E-05    2.04     140.1  T
     SCC iter.                  ...        0 min,  0.232 sec
     gradient                   ...        0 min,  0.173 sec
 * total energy  :   -93.7712504 Eh     change       -0.2368616E-05 Eh
   gradient norm :     0.0001896 Eh/α   predicted    -0.9039457E-06 ( -61.84%)
   displ. norm   :     0.1027062 α      lambda       -0.2066031E-05
   maximum displ.:     0.0676465 α      in ANC's #2, #7, #1, ...
 * RMSD in coord.:     0.2109989 α      energy gain  -0.8768616E-04 Eh

generating ANC from exact Hessian ...
Using Lindh-Hessian (1995)
 Shifting diagonal of input Hessian by    1.0147634883776792E-002
 Lowest  eigenvalues of input Hessian
    0.010000    0.000000    0.000000    0.010080    0.000000    0.000000
    0.000000    0.000000    0.010224    0.010283    0.010340    0.010503
    0.010642    0.010773    0.010883    0.010963    0.011014    0.011077
 Highest eigenvalues
    1.593881    1.619615    1.900695    2.004137    2.027018    2.303951


........................................................................
.............................. CYCLE  121 ..............................
........................................................................

 iter      E             dE          RMSdq      gap      omega  full diag
   1    -95.0444818 -0.950445E+02  0.174E-02    2.04       0.0  T
   2    -95.0444816  0.210231E-06  0.106E-02    2.04       1.1  T
   3    -95.0444760  0.557885E-05  0.105E-02    2.04       1.1  T
   4    -95.0444781 -0.207098E-05  0.665E-03    2.04       1.7  T
   5    -95.0444819 -0.386797E-05  0.434E-04    2.04      26.6  T
   6    -95.0444819 -0.572717E-08  0.194E-04    2.04      59.5  T
   7    -95.0444819 -0.449347E-09  0.983E-05    2.04     117.5  T
     SCC iter.                  ...        0 min,  0.334 sec
     gradient                   ...        0 min,  0.200 sec
 * total energy  :   -93.7712531 Eh     change       -0.2715822E-05 Eh
   gradient norm :     0.0002181 Eh/α   predicted     0.0000000E+00 (-100.00%)
   displ. norm   :     0.0093900 α      lambda       -0.4556824E-07
   maximum displ.:     0.0032558 α      in ANC's #3, #8, #15, ...

........................................................................
.............................. CYCLE  122 ..............................
........................................................................

 iter      E             dE          RMSdq      gap      omega  full diag
   1    -95.0445439 -0.950445E+02  0.177E-03    2.04       0.0  T
   2    -95.0445438  0.657137E-07  0.147E-03    2.04       7.8  T
   3    -95.0445438  0.442817E-07  0.136E-03    2.04       8.5  T
   4    -95.0445439 -0.104964E-06  0.820E-04    2.04      14.1  T
   5    -95.0445439 -0.281377E-07  0.246E-04    2.04      47.0  T
   6    -95.0445439 -0.189445E-09  0.580E-05    2.04     199.2  T
     SCC iter.                  ...        0 min,  0.280 sec
     gradient                   ...        0 min,  0.185 sec
 * total energy  :   -93.7712538 Eh     change       -0.6579537E-06 Eh
   gradient norm :     0.0001648 Eh/α   predicted    -0.2875960E-06 ( -56.29%)
   displ. norm   :     0.0790134 α      lambda       -0.4191576E-05
   maximum displ.:     0.0273607 α      in ANC's #15, #3, #8, ...

   *** GEOMETRY OPTIMIZATION CONVERGED AFTER 122 ITERATIONS ***

------------------------------------------------------------------------
 total energy gain   :        -0.9821924 Eh     -616.3350 kcal/mol
 total RMSD          :         2.5930422 a0        1.3722 Å
 total power (kW/mol):       -21.1372604 (step)  -40.6219 (real)
------------------------------------------------------------------------

 ANCopt (total)                0 d,  0 h,  1 min,  3.482 sec
 optimizer setup                ...        0 min,  0.002 sec (  0.004%)
 model hessian                  ...        0 min,  1.325 sec (  2.088%)
 ANC generation                 ...        0 min,  0.251 sec (  0.395%)
 coordinate transformation      ...        0 min,  0.055 sec (  0.087%)
 single point calculation       ...        1 min,  1.470 sec ( 96.831%)
 optimization log               ...        0 min,  0.164 sec (  0.258%)
 hessian update                 ...        0 min,  0.049 sec (  0.077%)
 rational function              ...        0 min,  0.099 sec (  0.157%)

================
 final structure:
================
75
 xtb: 6.7.1 (edcfbbe)
Ru           0.07323341138113        0.00932050141369       -0.57370312769488
N            0.01448912674387       -1.87836738530734       -1.02265243680955
C            1.16008276103431       -2.75022343973235       -1.24943935614459
C            2.49156801835461       -2.07864415733931       -0.90736021522817
P            2.24410000096852       -0.28261388770418       -1.21971817856842
C            2.53450381991520       -0.25808930416004       -3.07596328042907
C            3.99797601139103       -0.33458287425174       -3.50301067725989
C            1.81493740319127        0.91292314954114       -3.74055032006090
C            3.74303946434794        0.52516971276774       -0.46146582874653
C            3.70645229325033        2.01963293290245       -0.77435209290948
C            3.71444373046522        0.32223791325725        1.05088848372301
C           -1.19096759183730       -2.68458150157763       -1.14976046970028
C           -2.45201584678807       -1.83048407229703       -1.28377474604259
P           -2.19178888762306       -0.26295742227268       -0.33708149698330
C           -3.00008860367265       -0.68137558938917        1.30299222012417
C           -2.86828581387050        0.48828116415737        2.27633469760656
C           -2.36431684629566       -1.93664905871634        1.89712011338742
C           -3.49016379131274        0.89006997717524       -1.05294411405719
C           -3.16195933413776        2.33623847313005       -0.67119603223122
C           -3.59581539683965        0.79213620155701       -2.57379485376787
H            1.16739236659358       -3.08734092016963       -2.30372311873717
H            1.04707502829355       -3.66034292446324       -0.63311336703511
H            2.69858189181908       -2.21503380475969        0.15564277679378
H            3.31563867184785       -2.50070697069767       -1.48926211767883
H            2.03238538478789       -1.17903126091212       -3.41084689569929
H            4.05295251839094       -0.52065809988462       -4.57546441756059
H            4.51833065032401        0.59810726704637       -3.29940383781049
H            4.52084712199513       -1.14343383559525       -2.99513551938311
H            0.75824063812761        0.90570898696407       -3.46189940368649
H            1.88595577325504        0.83555539744268       -4.82551632629996
H            2.23642956145558        1.86867181954787       -3.43661627607282
H            4.64830462435998        0.06770430382937       -0.87764718815613
H            4.50296482660300        2.53895904491858       -0.24281936727925
H            3.82674846633282        2.21530656757109       -1.83730674098000
H            2.74940653559723        2.43432681980547       -0.45354024943257
H            4.52238368233334        0.88218474900748        1.51983062317007
H            2.76494994430510        0.69180235363615        1.44209278240142
H            3.82650562444039       -0.72429159828078        1.32541924764183
H           -1.26856711422833       -3.36428193323030       -0.28417037915365
H           -1.10689314139591       -3.33259105225402       -2.04343053024563
H           -3.34949535006620       -2.36937365776257       -0.96718092982637
H           -2.56094070166639       -1.55002718598220       -2.33499458844441
H           -4.06361168095074       -0.87694534105855        1.10516282786340
H           -3.52544819607652        1.30928912085242        2.00101137538406
H           -1.83718315915702        0.84676239759493        2.28322127454962
H           -3.13349071713774        0.17330642479742        3.28501967851516
H           -2.68607429399591       -2.83342188716782        1.37225163653424
H           -2.65099026099903       -2.04659057651173        2.94269987476995
H           -1.27793238570905       -1.86928754419485        1.84541513144751
H           -4.45112157642016        0.60422291204258       -0.60480277021717
H           -4.05705409539187        2.95512651479842       -0.71929735770961
H           -2.73694273010117        2.40743352560581        0.32735833842495
H           -2.43025843920198        2.74499757276022       -1.36364480655925
H           -2.60117153884067        0.83846651298319       -3.02188669147507
H           -4.09247441813126       -0.12184126432002       -2.89302038356863
H           -4.17373780464546        1.63419261019265       -2.95285902611515
C            0.04997270601337        1.77564954045487       -1.07859383314061
O            0.06306499602215        2.85349575275800       -1.51998069370502
H            0.32046162919948        0.54665978155459        0.88115724100325
O            1.27093311545471       -2.12561299503601        2.06071972838804
C            1.34232186171970       -1.60772603926234        3.36795833242071
C            2.16982801278053       -2.50040509752008        4.25794344190952
C            2.03500083975378       -2.41541069603369        5.63886480196744
C            2.80639576715840       -3.20789087187228        6.46918082585588
C            3.71974715556668       -4.09928447677988        5.92940973633403
C            3.85625008122506       -4.19140033819204        4.55540831774564
C            3.08777754745429       -3.39398144865679        3.72486622736960
H            0.91983122079308       -1.43326334258571        1.46503253684175
H            1.79894747497289       -0.60487563076944        3.35879029643994
H            0.33227741348352       -1.50429647457558        3.79584950707365
H            1.32094107094852       -1.72285900033864        6.06282430363532
H            2.69312412071686       -3.13318280885433        7.54138574319001
H            4.32003044829096       -4.72054334978425        6.57851778200603
H            4.56509872790213       -4.88613998205047        4.12728802526552
H            3.18601555203071       -3.46886762810564        2.65252820562433

 Bond Distances (Angstroems)
 ---------------------------
Ru1-N2=1.9412        Ru1-P5=2.2837        Ru1-P14=2.2936       Ru1-C57=1.8372       Ru1-H59=1.5705       N2-Ru1=1.9412        
N2-C3=1.4574         N2-C12=1.4558        C3-N2=1.4574         C3-C4=1.5300         C3-H21=1.1069        C3-H22=1.1050        
C4-C3=1.5300         C4-P5=1.8397         C4-H23=1.0915        C4-H24=1.0935        P5-Ru1=2.2837        P5-C4=1.8397         
P5-C6=1.8790         P5-C9=1.8639         C6-P5=1.8790         C6-C7=1.5264         C6-C8=1.5267         C6-H25=1.1011        
C7-C6=1.5264         C7-H26=1.0899        C7-H27=1.0873        C7-H28=1.0888        C8-C6=1.5267         C8-H29=1.0928        
C8-H30=1.0900        C8-H31=1.0879        C9-P5=1.8639         C9-C10=1.5273        C9-C11=1.5262        C9-H32=1.0964        
C10-C9=1.5273        C10-H33=1.0893       C10-H34=1.0875       C10-H35=1.0913       C11-C9=1.5262        C11-H36=1.0891       
C11-H37=1.0914       C11-H38=1.0877       C12-N2=1.4558        C12-C13=1.5289       C12-H39=1.1033       C12-H40=1.1071       
C13-C12=1.5289       C13-P14=1.8496       C13-H41=1.0937       C13-H42=1.0934       P14-Ru1=2.2936       P14-C13=1.8496       
P14-C15=1.8757       P14-C18=1.8782       C15-P14=1.8757       C15-C16=1.5274       C15-C17=1.5274       C15-H43=1.0993       
C16-C15=1.5274       C16-H44=1.0871       C16-H45=1.0917       C16-H46=1.0895       C17-C15=1.5274       C17-H47=1.0878       
C17-H48=1.0897       C17-H49=1.0897       C18-P14=1.8782       C18-C19=1.5313       C18-C20=1.5277       C18-H50=1.0982       
C19-C18=1.5313       C19-H51=1.0893       C19-H52=1.0876       C19-H53=1.0872       C20-C18=1.5277       C20-H54=1.0919       
C20-H55=1.0881       C20-H56=1.0894       H21-C3=1.1069        H22-C3=1.1050        H23-C4=1.0915        H24-C4=1.0935        
H25-C6=1.1011        H26-C7=1.0899        H27-C7=1.0873        H28-C7=1.0888        H29-C8=1.0928        H30-C8=1.0900        
H31-C8=1.0879        H32-C9=1.0964        H33-C10=1.0893       H34-C10=1.0875       H35-C10=1.0913       H36-C11=1.0891       
H37-C11=1.0914       H38-C11=1.0877       H39-C12=1.1033       H40-C12=1.1071       H41-C13=1.0937       H42-C13=1.0934       
H43-C15=1.0993       H44-C16=1.0871       H45-C16=1.0917       H46-C16=1.0895       H47-C17=1.0878       H48-C17=1.0897       
H49-C17=1.0897       H50-C18=1.0982       H51-C19=1.0893       H52-C19=1.0876       H53-C19=1.0872       H54-C20=1.0919       
H55-C20=1.0881       H56-C20=1.0894       C57-Ru1=1.8372       C57-O58=1.1648       O58-C57=1.1648       H59-Ru1=1.5705       
O60-C61=1.4079       O60-H68=0.9785       C61-O60=1.4079       C61-C62=1.5079       C61-H69=1.1020       C61-H70=1.1018       
C62-C61=1.5079       C62-C63=1.3901       C62-C67=1.3875       C63-C62=1.3901       C63-C64=1.3829       C63-H71=1.0813       
C64-C63=1.3829       C64-C65=1.3857       C64-H72=1.0808       C65-C64=1.3857       C65-C66=1.3838       C65-H73=1.0806       
C66-C65=1.3838       C66-C67=1.3843       C66-H74=1.0809       C67-C62=1.3875       C67-C66=1.3843       C67-H75=1.0794       
H68-O60=0.9785       H69-C61=1.1020       H70-C61=1.1018       H71-C63=1.0813       H72-C64=1.0808       H73-C65=1.0806       
H74-C66=1.0809       H75-C67=1.0794       
 C  H  Rav=1.0916 sigma=0.0069  Rmin=1.0794  Rmax=1.1071    43
 C  C  Rav=1.4766 sigma=0.0673  Rmin=1.3829  Rmax=1.5313    17
 N  C  Rav=1.4566 sigma=0.0008  Rmin=1.4558  Rmax=1.4574     2
 O  H  Rav=0.9785 sigma=0.0000  Rmin=0.9785  Rmax=0.9785     1
 O  C  Rav=1.2863 sigma=0.1216  Rmin=1.1648  Rmax=1.4079     2
 P  C  Rav=1.8644 sigma=0.0151  Rmin=1.8397  Rmax=1.8790     6
 Ru H  Rav=1.5705 sigma=0.0000  Rmin=1.5705  Rmax=1.5705     1
 Ru C  Rav=1.8372 sigma=0.0000  Rmin=1.8372  Rmax=1.8372     1
 Ru N  Rav=1.9412 sigma=0.0000  Rmin=1.9412  Rmax=1.9412     1
 Ru P  Rav=2.2886 sigma=0.0049  Rmin=2.2837  Rmax=2.2936     2

 selected bond angles (degree)
 --------------------
P5-Ru1-N2= 80.74               P14-Ru1-N2= 83.02              P14-Ru1-P5=162.32              C57-Ru1-N2=150.57              
C57-Ru1-P5= 93.28              C57-Ru1-P14= 97.47             H59-Ru1-N2=123.48              H59-Ru1-P5= 98.98              
H59-Ru1-P14= 95.77             H59-Ru1-C57= 85.85             C3-N2-Ru1=126.44               C12-N2-Ru1=125.72              
C12-N2-C3=107.82               C4-C3-N2=112.75                H21-C3-N2=109.61               H21-C3-C4=109.93               
H22-C3-N2=109.00               H22-C3-C4=109.02               H22-C3-H21=106.33              P5-C4-C3=105.87                
H23-C4-C3=109.14               H23-C4-P5=108.23               H24-C4-C3=111.56               H24-C4-P5=112.82               
H24-C4-H23=109.09              C4-P5-Ru1=101.81               C6-P5-Ru1=115.13               C6-P5-C4= 99.19                
C9-P5-Ru1=126.44               C9-P5-C4=104.23                C9-P5-C6=105.78                C7-C6-P5=115.08                
C8-C6-P5=111.54                C8-C6-C7=111.63                H25-C6-P5=102.65               H25-C6-C7=108.07               
H25-C6-C8=107.11               H26-C7-C6=109.40               H27-C7-C6=111.31               H27-C7-H26=107.85              
H28-C7-C6=111.54               H28-C7-H26=107.93              H28-C7-H27=108.67              H29-C8-C6=109.86               
H30-C8-C6=110.37               H30-C8-H29=108.44              H31-C8-C6=111.69               H31-C8-H29=108.01              
H31-C8-H30=108.37              C10-C9-P5=108.75               C11-C9-P5=109.29               C11-C9-C10=109.43              
H32-C9-P5=109.19               H32-C9-C10=110.51              H32-C9-C11=109.64              H33-C10-C9=110.43              
H34-C10-C9=111.94              H34-C10-H33=108.08             H35-C10-C9=109.43              H35-C10-H33=108.46             
H35-C10-H34=108.42             

 selected dihedral angles (degree)
 ---------------------------------
C3-N2-Ru1-P5= 13.49           C3-N2-Ru1-P14=186.48          C3-N2-Ru1-C57= 93.63          C3-N2-Ru1-H59=278.79          
C12-N2-Ru1-P5=191.36          C12-N2-Ru1-P14=  4.35         C12-N2-Ru1-C57=271.51         C12-N2-Ru1-H59= 96.67         
C4-C3-N2-Ru1=  8.09           C4-C3-N2-C12=189.90           H21-C3-N2-Ru1=245.28          H21-C3-N2-C12= 67.09          
H22-C3-N2-Ru1=129.29          H22-C3-N2-C12=311.10          P5-C4-C3-N2=330.12            P5-C4-C3-H21= 92.74           
P5-C4-C3-H22=208.92           H23-C4-C3-N2= 86.41           H23-C4-C3-H21=209.04          H23-C4-C3-H22=325.22          
H24-C4-C3-N2=207.04           H24-C4-C3-H21=329.66          H24-C4-C3-H22= 85.84          C4-P5-Ru1-N2=334.65           
C4-P5-Ru1-P14=311.14          C4-P5-Ru1-C57=183.66          C4-P5-Ru1-H59= 97.35          C6-P5-Ru1-N2= 80.81           
C6-P5-Ru1-P14= 57.29          C6-P5-Ru1-C57=289.81          C6-P5-Ru1-H59=203.50          C9-P5-Ru1-N2=216.84           
C9-P5-Ru1-P14=193.33          C9-P5-Ru1-C57= 65.85          C9-P5-Ru1-H59=339.53          Ru1-P5-C4-C3= 35.78           
Ru1-P5-C4-H23=278.86          Ru1-P5-C4-H24=158.05          C6-P5-C4-C3=277.52            C6-P5-C4-H23=160.61           
C6-P5-C4-H24= 39.80           C9-P5-C4-C3=168.54            C9-P5-C4-H23= 51.63           C9-P5-C4-H24=290.82           
C7-C6-P5-Ru1=175.05           C7-C6-P5-C4=282.80            C7-C6-P5-C9= 30.53            C8-C6-P5-Ru1= 46.57           
C8-C6-P5-C4=154.32            C8-C6-P5-C9=262.05            H25-C6-P5-Ru1=292.19          H25-C6-P5-C4= 39.94           
H25-C6-P5-C9=147.66           H26-C7-C6-P5=168.41           H26-C7-C6-C8=296.85           H26-C7-C6-H25= 54.39          
H27-C7-C6-P5=287.51           H27-C7-C6-C8= 55.95           H27-C7-C6-H25=173.49          H28-C7-C6-P5= 49.07           
H28-C7-C6-C8=177.51           H28-C7-C6-H25=295.05          H29-C8-C6-P5=306.97           H29-C8-C6-C7=176.67           
H29-C8-C6-H25= 58.56          H30-C8-C6-P5=187.44           H30-C8-C6-C7= 57.14           H30-C8-C6-H25=299.03          
H31-C8-C6-P5= 66.81           H31-C8-C6-C7=296.51           H31-C8-C6-H25=178.40          C10-C9-P5-Ru1=291.63          
C10-C9-P5-C4=174.91           C10-C9-P5-C6= 70.85           C11-C9-P5-Ru1= 51.04          C11-C9-P5-C4=294.32           
C11-C9-P5-C6=190.26           H32-C9-P5-Ru1=170.98          H32-C9-P5-C4= 54.25           H32-C9-P5-C6=310.20           
H33-C10-C9-P5=173.08          H33-C10-C9-C11= 53.75         H33-C10-C9-H32=292.92         H34-C10-C9-P5=293.54          
H34-C10-C9-C11=174.21         H34-C10-C9-H32= 53.38         H35-C10-C9-P5= 53.76          H35-C10-C9-C11=294.43         
H35-C10-C9-H32=173.60         
           -------------------------------------------------
          |                Final Singlepoint                |
           -------------------------------------------------

          ...................................................
          :                      SETUP                      :
          :.................................................:
          :  # basis functions                 183          :
          :  # atomic orbitals                 180          :
          :  # shells                          108          :
          :  # electrons                       176          :
          :  max. iterations                   500          :
          :  Hamiltonian                  GFN2-xTB          :
          :  restarted?                      false          :
          :  GBSA solvation                   true          :
          :  PC potential                    false          :
          :  electronic temp.          300.0000000     K    :
          :  accuracy                    0.5000000          :
          :  -> integral cutoff          0.2801030E+02      :
          :  -> integral neglect         0.5000000E-08      :
          :  -> SCF convergence          0.5000000E-06 Eh   :
          :  -> wf. convergence          0.5000000E-04 e    :
          :  Broyden damping             0.4000000          :
          :  net charge                          0          :
          :  unpaired electrons                  0          :
          ...................................................

 iter      E             dE          RMSdq      gap      omega  full diag
   1    -95.0445439 -0.950445E+02  0.342E-05    2.04       0.0  T
   2    -95.0445439  0.123364E-09  0.459E-05    2.04     251.4  T
   3    -95.0445439 -0.116501E-09  0.233E-05    2.04     496.0  T

   *** convergence criteria satisfied after 3 iterations ***

         #    Occupation            Energy/Eh            Energy/eV
      -------------------------------------------------------------
         1        2.0000           -0.7116446             -19.3648
       ...           ...                  ...                  ...
        82        2.0000           -0.3900046             -10.6126
        83        2.0000           -0.3845735             -10.4648
        84        2.0000           -0.3788200             -10.3082
        85        2.0000           -0.3466830              -9.4337
        86        2.0000           -0.3297443              -8.9728
        87        2.0000           -0.3214157              -8.7462
        88        2.0000           -0.3141204              -8.5477 (HOMO)
        89                         -0.2391909              -6.5087 (LUMO)
        90                         -0.2167564              -5.8982
        91                         -0.2149364              -5.8487
        92                         -0.1921541              -5.2288
        93                         -0.1794980              -4.8844
       ...                                ...                  ...
       180                          3.2185345              87.5808
      -------------------------------------------------------------
                  HL-Gap            0.0749295 Eh            2.0389 eV
             Fermi-level           -0.2766557 Eh           -7.5282 eV

 SCC (total)                   0 d,  0 h,  0 min,  0.389 sec
 SCC setup                      ...        0 min,  0.008 sec (  2.059%)
 Dispersion                     ...        0 min,  0.005 sec (  1.374%)
 classical contributions        ...        0 min,  0.001 sec (  0.305%)
 integral evaluation            ...        0 min,  0.048 sec ( 12.472%)
 iterations                     ...        0 min,  0.141 sec ( 36.314%)
 molecular gradient             ...        0 min,  0.181 sec ( 46.693%)
 printout                       ...        0 min,  0.003 sec (  0.750%)

         :::::::::::::::::::::::::::::::::::::::::::::::::::::
         ::                     SUMMARY                     ::
         :::::::::::::::::::::::::::::::::::::::::::::::::::::
         :: total energy             -93.771253791641 Eh    ::
         :: total w/o Gsasa/hb       -93.731427810109 Eh    ::
         :: gradient norm              0.000194376679 Eh/a0 ::
         :: HOMO-LUMO gap              2.038935557346 eV    ::
         ::.................................................::
         :: SCC energy               -95.041105903846 Eh    ::
         :: -> isotropic ES            0.047521337076 Eh    ::
         :: -> anisotropic ES          0.016517322173 Eh    ::
         :: -> anisotropic XC          0.046549806020 Eh    ::
         :: -> dispersion             -0.095516390794 Eh    ::
         :: -> Gsolv                  -0.042735026647 Eh    ::
         ::    -> Gelec               -0.002909045115 Eh    ::
         ::    -> Gsasa               -0.042034124671 Eh    ::
         ::    -> Ghb                  0.000000000000 Eh    ::
         ::    -> Gshift               0.002208143139 Eh    ::
         :: repulsion energy           1.269852112206 Eh    ::
         :: add. restraining           0.000000000000 Eh    ::
         :: total charge              -0.000000000000 e     ::
         :::::::::::::::::::::::::::::::::::::::::::::::::::::

           -------------------------------------------------
          |                Property Printout                |
           -------------------------------------------------

    * Orbital Energies and Occupations

         #    Occupation            Energy/Eh            Energy/eV
      -------------------------------------------------------------
         1        2.0000           -0.7116446             -19.3648
       ...           ...                  ...                  ...
        76        2.0000           -0.4111778             -11.1887
        77        2.0000           -0.4093014             -11.1377
        78        2.0000           -0.4080616             -11.1039
        79        2.0000           -0.4067457             -11.0681
        80        2.0000           -0.3976521             -10.8207
        81        2.0000           -0.3959262             -10.7737
        82        2.0000           -0.3900046             -10.6126
        83        2.0000           -0.3845735             -10.4648
        84        2.0000           -0.3788200             -10.3082
        85        2.0000           -0.3466830              -9.4337
        86        2.0000           -0.3297443              -8.9728
        87        2.0000           -0.3214157              -8.7462
        88        2.0000           -0.3141204              -8.5477 (HOMO)
        89                         -0.2391909              -6.5087 (LUMO)
        90                         -0.2167564              -5.8982
        91                         -0.2149364              -5.8487
        92                         -0.1921541              -5.2288
        93                         -0.1794980              -4.8844
        94                         -0.1616095              -4.3976
        95                         -0.1366348              -3.7180
        96                         -0.1287461              -3.5034
        97                         -0.1208949              -3.2897
        98                         -0.1026644              -2.7936
        99                         -0.0870402              -2.3685
       ...                                ...                  ...
       180                          3.2185345              87.5808
      -------------------------------------------------------------
                  HL-Gap            0.0749295 Eh            2.0389 eV
             Fermi-level           -0.2766557 Eh           -7.5282 eV

     #   Z          covCN         q      C6AA      α(0)
     1  44 Ru       4.709    -0.324   333.250    38.669
     2   7 N        2.760    -0.190    25.118     7.444
     3   6 C        3.918     0.049    19.689     6.307
     4   6 C        3.751    -0.054    21.603     6.628
     5  15 P        4.248    -0.007   160.513    22.759
     6   6 C        3.796     0.002    20.546     6.454
     7   6 C        3.787    -0.101    22.435     6.746
     8   6 C        3.809    -0.091    22.229     6.711
     9   6 C        3.798    -0.000    20.590     6.461
    10   6 C        3.847    -0.099    22.359     6.726
    11   6 C        3.841    -0.105    22.462     6.742
    12   6 C        3.877     0.049    19.707     6.312
    13   6 C        3.751    -0.046    21.460     6.606
    14  15 P        4.156    -0.008   160.566    22.762
    15   6 C        3.797     0.001    20.575     6.459
    16   6 C        3.822    -0.105    22.480     6.747
    17   6 C        3.825    -0.098    22.340     6.726
    18   6 C        3.796    -0.003    20.633     6.468
    19   6 C        3.827    -0.104    22.466     6.744
    20   6 C        3.802    -0.096    22.338     6.729
    21   1 H        0.922     0.001     3.033     2.723
    22   1 H        0.922     0.012     2.858     2.644
    23   1 H        0.926     0.077     2.005     2.214
    24   1 H        0.925     0.046     2.369     2.407
    25   1 H        0.926     0.053     2.285     2.364
    26   1 H        0.925     0.041     2.430     2.438
    27   1 H        0.925     0.045     2.381     2.413
    28   1 H        0.925     0.041     2.429     2.437
    29   1 H        0.924     0.056     2.252     2.347
    30   1 H        0.925     0.036     2.505     2.475
    31   1 H        0.925     0.043     2.407     2.426
    32   1 H        0.925     0.054     2.270     2.356
    33   1 H        0.925     0.043     2.414     2.430
    34   1 H        0.925     0.040     2.445     2.445
    35   1 H        0.924     0.057     2.234     2.337
    36   1 H        0.925     0.043     2.403     2.424
    37   1 H        0.924     0.063     2.164     2.300
    38   1 H        0.925     0.046     2.368     2.406
    39   1 H        0.923     0.016     2.794     2.614
    40   1 H        0.922    -0.001     3.074     2.742
    41   1 H        0.925     0.045     2.377     2.411
    42   1 H        0.926     0.061     2.187     2.313
    43   1 H        0.924     0.045     2.385     2.415
    44   1 H        0.925     0.043     2.411     2.428
    45   1 H        0.924     0.061     2.193     2.316
    46   1 H        0.925     0.042     2.423     2.434
    47   1 H        0.925     0.035     2.520     2.482
    48   1 H        0.925     0.038     2.473     2.459
    49   1 H        0.925     0.067     2.116     2.275
    50   1 H        0.925     0.048     2.341     2.393
    51   1 H        0.925     0.038     2.480     2.462
    52   1 H        0.925     0.056     2.248     2.344
    53   1 H        0.925     0.055     2.264     2.353
    54   1 H        0.924     0.046     2.376     2.411
    55   1 H        0.925     0.038     2.481     2.463
    56   1 H        0.925     0.045     2.386     2.415
    57   6 C        1.795     0.168    27.154     8.422
    58   8 O        0.857    -0.273    19.301     5.890
    59   1 H        0.958    -0.148     7.582     4.304
    60   8 O        1.654    -0.463    22.117     6.349
    61   6 C        3.679     0.088    19.325     6.297
    62   6 C        2.968     0.010    27.779     8.645
    63   6 C        2.924    -0.041    29.019     8.834
    64   6 C        2.919    -0.030    28.746     8.792
    65   6 C        2.920    -0.034    28.840     8.807
    66   6 C        2.919    -0.031    28.784     8.798
    67   6 C        2.924    -0.029    28.718     8.788
    68   1 H        0.803     0.330     0.637     1.254
    69   1 H        0.923     0.026     2.638     2.540
    70   1 H        0.923     0.022     2.698     2.569
    71   1 H        0.925     0.027     2.631     2.536
    72   1 H        0.926     0.030     2.586     2.515
    73   1 H        0.926     0.029     2.606     2.525
    74   1 H        0.926     0.029     2.601     2.522
    75   1 H        0.926     0.041     2.430     2.438

 Mol. C6AA /au·bohr⁶  :      59059.969344
 Mol. C8AA /au·bohr⁸  :    1682180.263239
 Mol. α(0) /au        :        387.341593


Wiberg/Mayer (AO) data.
largest (>0.10) Wiberg bond orders for each atom

 ---------------------------------------------------------------------------
     #   Z sym  total        # sym  WBO       # sym  WBO       # sym  WBO
 ---------------------------------------------------------------------------
     1  44 Ru   6.280 --    57 C    1.501     2 N    1.052    14 P    0.936
                             5 P    0.921    59 H    0.847    58 O    0.343
     2   7 N    3.373 --     1 Ru   1.052     3 C    1.002    12 C    1.001
     3   6 C    3.992 --     2 N    1.002     4 C    0.984    22 H    0.959
                            21 H    0.956
     4   6 C    3.996 --     5 P    1.004     3 C    0.984    24 H    0.943
                            23 H    0.931
     5  15 P    4.399 --     4 C    1.004     9 C    0.965     6 C    0.958
                             1 Ru   0.921
     6   6 C    3.990 --     8 C    0.999     7 C    0.997     5 P    0.958
                            25 H    0.928
     7   6 C    3.995 --     6 C    0.997    26 H    0.981    27 H    0.981
                            28 H    0.977
     8   6 C    3.995 --     6 C    0.999    30 H    0.983    31 H    0.978
                            29 H    0.952
     9   6 C    3.989 --    11 C    0.996    10 C    0.996     5 P    0.965
                            32 H    0.935
    10   6 C    3.993 --     9 C    0.996    33 H    0.981    34 H    0.974
                            35 H    0.968
    11   6 C    3.993 --     9 C    0.996    36 H    0.981    38 H    0.976
                            37 H    0.959
    12   6 C    3.992 --     2 N    1.001    13 C    0.986    40 H    0.960
                            39 H    0.953
    13   6 C    3.996 --    14 P    0.997    12 C    0.986    41 H    0.945
                            42 H    0.936
    14  15 P    4.381 --    13 C    0.997    18 C    0.963    15 C    0.962
                             1 Ru   0.936
    15   6 C    3.988 --    16 C    0.998    17 C    0.997    14 P    0.962
                            43 H    0.936
    16   6 C    3.994 --    15 C    0.998    46 H    0.981    44 H    0.978
                            45 H    0.964
    17   6 C    3.993 --    15 C    0.997    48 H    0.981    47 H    0.980
                            49 H    0.956
    18   6 C    3.990 --    20 C    1.001    19 C    0.996    14 P    0.963
                            50 H    0.938
    19   6 C    3.993 --    18 C    0.996    51 H    0.985    53 H    0.976
                            52 H    0.964
    20   6 C    3.995 --    18 C    1.001    55 H    0.981    56 H    0.981
                            54 H    0.971
    21   1 H    0.999 --     3 C    0.956
    22   1 H    0.997 --     3 C    0.959
    23   1 H    0.994 --     4 C    0.931
    24   1 H    0.997 --     4 C    0.943
    25   1 H    0.997 --     6 C    0.928
    26   1 H    0.996 --     7 C    0.981
    27   1 H    0.998 --     7 C    0.981
    28   1 H    0.998 --     7 C    0.977
    29   1 H    0.997 --     8 C    0.952
    30   1 H    0.998 --     8 C    0.983
    31   1 H    0.998 --     8 C    0.978
    32   1 H    0.996 --     9 C    0.935
    33   1 H    0.998 --    10 C    0.981
    34   1 H    0.998 --    10 C    0.974
    35   1 H    0.996 --    10 C    0.968
    36   1 H    0.998 --    11 C    0.981
    37   1 H    0.996 --    11 C    0.959
    38   1 H    0.998 --    11 C    0.976
    39   1 H    0.997 --    12 C    0.953
    40   1 H    0.998 --    12 C    0.960
    41   1 H    0.997 --    13 C    0.945
    42   1 H    0.996 --    13 C    0.936
    43   1 H    0.997 --    15 C    0.936
    44   1 H    0.998 --    16 C    0.978
    45   1 H    0.996 --    16 C    0.964
    46   1 H    0.998 --    16 C    0.981
    47   1 H    0.999 --    17 C    0.980
    48   1 H    0.998 --    17 C    0.981
    49   1 H    0.995 --    17 C    0.956
    50   1 H    0.997 --    18 C    0.938
    51   1 H    0.998 --    19 C    0.985
    52   1 H    0.996 --    19 C    0.964
    53   1 H    0.997 --    19 C    0.976
    54   1 H    0.998 --    20 C    0.971
    55   1 H    0.999 --    20 C    0.981
    56   1 H    0.998 --    20 C    0.981
    57   6 C    3.658 --    58 O    1.979     1 Ru   1.501
    58   8 O    2.386 --    57 C    1.979     1 Ru   0.343
    59   1 H    0.978 --     1 Ru   0.847
    60   8 O    1.947 --    61 C    1.001    68 H    0.818
    61   6 C    3.961 --    62 C    1.003    60 O    1.001    70 H    0.960
                            69 H    0.953
    62   6 C    3.987 --    67 C    1.419    63 C    1.407    61 C    1.003
                            65 C    0.110
    63   6 C    3.992 --    64 C    1.453    62 C    1.407    71 H    0.970
                            66 C    0.112
    64   6 C    3.992 --    63 C    1.453    65 C    1.432    72 H    0.971
                            67 C    0.110
    65   6 C    3.993 --    66 C    1.444    64 C    1.432    73 H    0.972
                            62 C    0.110
    66   6 C    3.993 --    65 C    1.444    67 C    1.439    74 H    0.971
                            63 C    0.112
    67   6 C    3.991 --    66 C    1.439    62 C    1.419    75 H    0.967
                            64 C    0.110
    68   1 H    0.890 --    60 O    0.818
    69   1 H    0.999 --    61 C    0.953
    70   1 H    0.999 --    61 C    0.960
    71   1 H    0.999 --    63 C    0.970
    72   1 H    0.999 --    64 C    0.971
    73   1 H    0.999 --    65 C    0.972
    74   1 H    0.999 --    66 C    0.971
    75   1 H    0.998 --    67 C    0.967
 ---------------------------------------------------------------------------

Topologies differ in total number of bonds
Writing topology from bond orders to xtbtopo.mol

molecular dipole:
                 x           y           z       tot (Debye)
 q only:       -0.078      -0.542      -0.259
   full:       -0.322      -1.450      -1.061       4.639
molecular quadrupole (traceless):
                xx          xy          yy          xz          yz          zz
 q only:       20.726       0.625     -19.271      -5.803       6.857      -1.456
  q+dip:       20.166       0.179     -21.233      -8.262      10.898       1.067
   full:       19.931       1.625     -20.006      -7.492      11.614       0.075

           -------------------------------------------------
          |                Geometry Summary                 |
           -------------------------------------------------

      molecular mass/u    :      542.6329725
   center of mass at/Å    :        0.5432238      -0.6372057       0.2226105
  moments of inertia/u·Å² :        0.3252787E+04   0.5505732E+04   0.7187869E+04
rotational constants/cm⁻¹ :        0.5182520E-02   0.3061833E-02   0.2345289E-02

 * 75 selected distances

     #   Z          #   Z                                           value/Å
     1  44 Ru       2   7 N                                       1.9412297
     2   7 N        3   6 C                                       1.4573779
     3   6 C        4   6 C                                       1.5299968
     1  44 Ru       5  15 P                                       2.2836865
     4   6 C        5  15 P                                       1.8397101
     5  15 P        6   6 C                                       1.8789844
     6   6 C        7   6 C                                       1.5264246
     6   6 C        8   6 C                                       1.5266704
     5  15 P        9   6 C                                       1.8639424
     9   6 C       10   6 C                                       1.5273039
     9   6 C       11   6 C                                       1.5261766
     2   7 N       12   6 C                                       1.4557692
    12   6 C       13   6 C                                       1.5289491
     1  44 Ru      14  15 P                                       2.2935675 (max)
    13   6 C       14  15 P                                       1.8496180
    14  15 P       15   6 C                                       1.8757038
    15   6 C       16   6 C                                       1.5273719
    15   6 C       17   6 C                                       1.5273852
    14  15 P       18   6 C                                       1.8782198
    18   6 C       19   6 C                                       1.5312915
    18   6 C       20   6 C                                       1.5276586
     3   6 C       21   1 H                                       1.1068948
     3   6 C       22   1 H                                       1.1049643
     4   6 C       23   1 H                                       1.0915276
     4   6 C       24   1 H                                       1.0935445
     6   6 C       25   1 H                                       1.1010923
     7   6 C       26   1 H                                       1.0898641
     7   6 C       27   1 H                                       1.0872607
     7   6 C       28   1 H                                       1.0888395
     8   6 C       29   1 H                                       1.0928434
     8   6 C       30   1 H                                       1.0900371
     8   6 C       31   1 H                                       1.0878820
     9   6 C       32   1 H                                       1.0963516
    10   6 C       33   1 H                                       1.0893388
    10   6 C       34   1 H                                       1.0874889
    10   6 C       35   1 H                                       1.0912507
    11   6 C       36   1 H                                       1.0891347
    11   6 C       37   1 H                                       1.0914016
    11   6 C       38   1 H                                       1.0877266
    12   6 C       39   1 H                                       1.1032954
    12   6 C       40   1 H                                       1.1070823
    13   6 C       41   1 H                                       1.0936651
    13   6 C       42   1 H                                       1.0934277
    15   6 C       43   1 H                                       1.0993023
    16   6 C       44   1 H                                       1.0870693
    16   6 C       45   1 H                                       1.0916635
    16   6 C       46   1 H                                       1.0894899
    17   6 C       47   1 H                                       1.0877576
    17   6 C       48   1 H                                       1.0897275
    17   6 C       49   1 H                                       1.0896983
    18   6 C       50   1 H                                       1.0981709
    19   6 C       51   1 H                                       1.0892800
    19   6 C       52   1 H                                       1.0875748
    19   6 C       53   1 H                                       1.0871779
    20   6 C       54   1 H                                       1.0919017
    20   6 C       55   1 H                                       1.0880855
    20   6 C       56   1 H                                       1.0893774
     1  44 Ru      57   6 C                                       1.8372193
    57   6 C       58   8 O                                       1.1647946
     1  44 Ru      59   1 H                                       1.5705013
    60   8 O       61   6 C                                       1.4078979
    62   6 C       63   6 C                                       1.3900887
    63   6 C       64   6 C                                       1.3829317
    64   6 C       65   6 C                                       1.3856935
    65   6 C       66   6 C                                       1.3838348
    62   6 C       67   6 C                                       1.3875452
    66   6 C       67   6 C                                       1.3842787
    60   8 O       68   1 H                                       0.9785009 (min)
    61   6 C       69   1 H                                       1.1019529
    61   6 C       70   1 H                                       1.1018069
    63   6 C       71   1 H                                       1.0813191
    64   6 C       72   1 H                                       1.0807568
    65   6 C       73   1 H                                       1.0805758
    66   6 C       74   1 H                                       1.0809333
    67   6 C       75   1 H                                       1.0794293

 * 10 distinct bonds (by element types)

   Z      Z             #   av. dist./Å        max./Å        min./Å
   1 H    6 C          43     1.0915806     1.1070823     1.0794293
   6 C    6 C          16     1.4746001     1.5312915     1.3829317
   6 C    7 N           2     1.4565736     1.4573779     1.4557692
   1 H    8 O           1     0.9785009     0.9785009     0.9785009
   6 C    8 O           2     1.2863462     1.4078979     1.1647946
   6 C   15 P           6     1.8643631     1.8789844     1.8397101
   1 H   44 Ru          1     1.5705013     1.5705013     1.5705013
   6 C   44 Ru          1     1.8372193     1.8372193     1.8372193
   7 N   44 Ru          1     1.9412297     1.9412297     1.9412297
  15 P   44 Ru          2     2.2886270     2.2935675     2.2836865


optimized geometry written to: xtbopt.xyz


           -------------------------------------------------
          | TOTAL ENERGY              -93.771253791641 Eh   |
          | GRADIENT NORM               0.000194376679 Eh/α |
          | HOMO-LUMO GAP               2.038935557346 eV   |
           -------------------------------------------------

------------------------------------------------------------------------
 * finished run on 2026/09/13 at 02:56:37.466     
------------------------------------------------------------------------
 total:
 * wall-time:     0 d,  0 h,  1 min,  4.763 sec
 *  cpu-time:     0 d,  0 h,  0 min, 16.453 sec
 * ratio c/w:     0.254 speedup
 SCF:
 * wall-time:     0 d,  0 h,  0 min,  0.663 sec
 *  cpu-time:     0 d,  0 h,  0 min,  0.078 sec
 * ratio c/w:     0.118 speedup
 ANC optimizer:
 * wall-time:     0 d,  0 h,  1 min,  3.892 sec
 *  cpu-time:     0 d,  0 h,  0 min, 16.344 sec
 * ratio c/w:     0.256 speedup


normal termination of xtb
Note: The following floating-point exceptions are signalling: IEEE_DIVIDE_BY_ZERO IEEE_UNDERFLOW_FLAG IEEE_DENORMAL
