75
 energy: -93.771253791641 gnorm: 0.000194376679 xtb: 6.7.1 (edcfbbe)
Ru           0.07323341138113        0.00932050141369       -0.57370312769488
N            0.01448912674387       -1.87836738530734       -1.02265243680955
C            1.16008276103431       -2.75022343973235       -1.24943935614459
C            2.49156801835461       -2.07864415733931       -0.90736021522817
P            2.24410000096852       -0.28261388770418       -1.21971817856842
C            2.53450381991520       -0.25808930416004       -3.07596328042907
C            3.99797601139103       -0.33458287425174       -3.50301067725989
C            1.81493740319127        0.91292314954114       -3.74055032006090
C            3.74303946434794        0.52516971276774       -0.46146582874653
C            3.70645229325033        2.01963293290245       -0.77435209290948
C            3.71444373046522        0.32223791325725        1.05088848372301
C           -1.19096759183730       -2.68458150157763       -1.14976046970028
C           -2.45201584678807       -1.83048407229703       -1.28377474604259
P           -2.19178888762306       -0.26295742227268       -0.33708149698330
C           -3.00008860367265       -0.68137558938917        1.30299222012417
C           -2.86828581387050        0.48828116415737        2.27633469760656
C           -2.36431684629566       -1.93664905871634        1.89712011338742
C           -3.49016379131274        0.89006997717524       -1.05294411405719
C           -3.16195933413776        2.33623847313005       -0.67119603223122
C           -3.59581539683965        0.79213620155701       -2.57379485376787
H            1.16739236659358       -3.08734092016963       -2.30372311873717
H            1.04707502829355       -3.66034292446324       -0.63311336703511
H            2.69858189181908       -2.21503380475969        0.15564277679378
H            3.31563867184785       -2.50070697069767       -1.48926211767883
H            2.03238538478789       -1.17903126091212       -3.41084689569929
H            4.05295251839094       -0.52065809988462       -4.57546441756059
H            4.51833065032401        0.59810726704637       -3.29940383781049
H            4.52084712199513       -1.14343383559525       -2.99513551938311
H            0.75824063812761        0.90570898696407       -3.46189940368649
H            1.88595577325504        0.83555539744268       -4.82551632629996
H            2.23642956145558        1.86867181954787       -3.43661627607282
H            4.64830462435998        0.06770430382937       -0.87764718815613
H            4.50296482660300        2.53895904491858       -0.24281936727925
H            3.82674846633282        2.21530656757109       -1.83730674098000
H            2.74940653559723        2.43432681980547       -0.45354024943257
H            4.52238368233334        0.88218474900748        1.51983062317007
H            2.76494994430510        0.69180235363615        1.44209278240142
H            3.82650562444039       -0.72429159828078        1.32541924764183
H           -1.26856711422833       -3.36428193323030       -0.28417037915365
H           -1.10689314139591       -3.33259105225402       -2.04343053024563
H           -3.34949535006620       -2.36937365776257       -0.96718092982637
H           -2.56094070166639       -1.55002718598220       -2.33499458844441
H           -4.06361168095074       -0.87694534105855        1.10516282786340
H           -3.52544819607652        1.30928912085242        2.00101137538406
H           -1.83718315915702        0.84676239759493        2.28322127454962
H           -3.13349071713774        0.17330642479742        3.28501967851516
H           -2.68607429399591       -2.83342188716782        1.37225163653424
H           -2.65099026099903       -2.04659057651173        2.94269987476995
H           -1.27793238570905       -1.86928754419485        1.84541513144751
H           -4.45112157642016        0.60422291204258       -0.60480277021717
H           -4.05705409539187        2.95512651479842       -0.71929735770961
H           -2.73694273010117        2.40743352560581        0.32735833842495
H           -2.43025843920198        2.74499757276022       -1.36364480655925
H           -2.60117153884067        0.83846651298319       -3.02188669147507
H           -4.09247441813126       -0.12184126432002       -2.89302038356863
H           -4.17373780464546        1.63419261019265       -2.95285902611515
C            0.04997270601337        1.77564954045487       -1.07859383314061
O            0.06306499602215        2.85349575275800       -1.51998069370502
H            0.32046162919948        0.54665978155459        0.88115724100325
O            1.27093311545471       -2.12561299503601        2.06071972838804
C            1.34232186171970       -1.60772603926234        3.36795833242071
C            2.16982801278053       -2.50040509752008        4.25794344190952
C            2.03500083975378       -2.41541069603369        5.63886480196744
C            2.80639576715840       -3.20789087187228        6.46918082585588
C            3.71974715556668       -4.09928447677988        5.92940973633403
C            3.85625008122506       -4.19140033819204        4.55540831774564
C            3.08777754745429       -3.39398144865679        3.72486622736960
H            0.91983122079308       -1.43326334258571        1.46503253684175
H            1.79894747497289       -0.60487563076944        3.35879029643994
H            0.33227741348352       -1.50429647457558        3.79584950707365
H            1.32094107094852       -1.72285900033864        6.06282430363532
H            2.69312412071686       -3.13318280885433        7.54138574319001
H            4.32003044829096       -4.72054334978425        6.57851778200603
H            4.56509872790213       -4.88613998205047        4.12728802526552
H            3.18601555203071       -3.46886762810564        2.65252820562433
