54
Properties=species:S:1:pos:R:3:forces:R:3 energy:=T -69.965782643753=T gnorm:=T 0.000597884330=T xtb:=T 6.7.1=T (edcfbbe)=T energy=-1903.8659199950748 pbc="F F F"
Fe      -0.03448823      -0.15124834      -0.43186891      -0.00140903      -0.01628254      -0.00052697
C        2.23378956      -2.12025030      -0.88211831       0.00080573       0.00007794      -0.00041905
P        2.01466337      -0.38231455      -1.07946436       0.00089634       0.00248629      -0.00045208
C        2.50193676      -0.03779592      -2.87035221       0.00008151      -0.00012822      -0.00024891
C        2.34311191       1.43060257      -3.25024829       0.00001169       0.00106299       0.00166635
C        3.88264775      -0.56373182      -3.24747084      -0.00002930       0.00006487      -0.00267288
C        3.32306668       0.54593055      -0.10134327       0.00379542       0.00065519      -0.00092320
C        3.65829339      -0.23534967       1.16192942      -0.00035940       0.00323775      -0.00287158
C        2.76255289       1.92316398       0.25084335       0.00011113      -0.00449675      -0.00108602
C        1.07807463      -2.80540381      -0.57288272      -0.00053680      -0.00003232       0.00008430
C        0.98277913      -4.22287477      -0.41015910       0.00106768       0.00060893      -0.00039671
C       -0.21503001      -4.80745780      -0.13433955      -0.00123936      -0.00063972       0.00045219
C       -1.37441437      -4.01818432      -0.00844836      -0.00024527      -0.00026045       0.00015231
C       -1.24177780      -2.65704886      -0.16592203       0.00010170       0.00028970       0.00039378
C       -2.39064383      -1.67910221      -0.10064065       0.00011169      -0.00003780       0.00107749
N       -1.92397914      -0.44870530       0.57170870      -0.00046129       0.00107740      -0.00056956
C       -2.73181695       0.73731622       0.24235013      -0.00122858      -0.00119590      -0.00015772
C       -1.87534667       2.01094190       0.22093477      -0.00131200      -0.00194714      -0.00126065
C       -1.92165153      -0.74311784       2.01831270       0.00079460       0.00034355      -0.00111891
C       -1.40250163       0.36405398       2.92070729       0.00050124       0.00108193       0.00002076
N       -0.07101355      -2.07324664      -0.42368863      -0.00013509      -0.00211694       0.00174106
H        3.17944293      -2.62604116      -1.00916278       0.00028505      -0.00035316      -0.00013435
H        1.75386400      -0.62302721      -3.42415663      -0.00004442       0.00015425       0.00018093
H        3.14476188       2.03079392      -2.82314429       0.00028150      -0.00058237       0.00062813
H        2.37591779       1.54903261      -4.33375151       0.00071794       0.00044937      -0.00068019
H        1.38648569       1.81285672      -2.89216051      -0.00032114      -0.00054763      -0.00085578
H        3.98641626      -1.60716295      -2.95962021       0.00109137       0.00024132      -0.00012909
H        4.02617813      -0.49175484      -4.32612863       0.00010984       0.00060561       0.00262007
H        4.67261131       0.01029934      -2.76689384       0.00028385       0.00034471       0.00088110
H        4.22609116       0.65977190      -0.71344605      -0.00546321       0.00079809       0.00349481
H        2.73966096      -0.46650644       1.69689449      -0.00411356       0.00126549       0.00173252
H        4.31106236       0.34593831       1.81336572       0.00068766       0.00045872       0.00075065
H        4.15391126      -1.17214436       0.91776041       0.00208458      -0.00395883      -0.00098861
H        2.57889614       2.52033859      -0.64049386      -0.00019262      -0.00018103      -0.00182232
H        3.45183856       2.46937033       0.89511768       0.00208704       0.00021996       0.00191360
H        1.81655423       1.79441914       0.78045917       0.00000800      -0.00038586      -0.00004429
H        1.88262497      -4.81030334      -0.51830564       0.00028291      -0.00020012       0.00019667
H       -0.28776847      -5.87952819      -0.01121460      -0.00036996       0.00006893       0.00060386
H       -2.33311430      -4.46326388       0.20332338      -0.00113055      -0.00031646       0.00036295
H       -2.67542965      -1.43273604      -1.12851618      -0.00029801       0.00007901      -0.00094979
H       -3.26216856      -2.11245829       0.40829730      -0.00083899      -0.00003565       0.00046151
H       -3.56946055       0.84992960       0.94304523       0.00049664      -0.00016387       0.00035519
H       -3.14576737       0.59180804      -0.75896354      -0.00055011       0.00006543       0.00085101
H       -2.35555139       2.76745852      -0.39641101      -0.00121832       0.00147417      -0.00131847
H       -0.87626008       1.79989672      -0.21900812       0.00154967      -0.00014756      -0.00124736
H       -1.72659796       2.42268622       1.21434135       0.00008421       0.00107423       0.00185065
H       -2.94608865      -1.00673199       2.32476010       0.00008815      -0.00065760       0.00040656
H       -1.28531366      -1.62053520       2.14839933       0.00068322      -0.00050147       0.00006392
H       -0.44260100       0.71646136       2.55397532       0.00073064       0.00010413      -0.00040016
H       -1.25800020      -0.04207035       3.91955832       0.00023487       0.00010898       0.00024927
H       -2.10021973       1.19429674       2.99527244       0.00103063      -0.00032402      -0.00055196
C       -0.63335738      -0.11968601      -2.06373928       0.00044571       0.01893205       0.00088359
O       -0.97831610      -0.09713410      -3.16950893      -0.00008810      -0.00725809      -0.00147539
H        0.61249491      -0.19891774       0.87566987       0.00004292       0.00532053      -0.00077326
