54
Properties=species:S:1:pos:R:3 energy:=T -69.965782643753=T gnorm:=T 0.000597884330=T xtb:=T 6.7.1=T (edcfbbe)=T pbc="F F F"
Fe      -0.03448823      -0.15124834      -0.43186891
C        2.23378956      -2.12025030      -0.88211831
P        2.01466337      -0.38231455      -1.07946436
C        2.50193676      -0.03779592      -2.87035221
C        2.34311191       1.43060257      -3.25024829
C        3.88264775      -0.56373182      -3.24747084
C        3.32306668       0.54593055      -0.10134327
C        3.65829339      -0.23534967       1.16192942
C        2.76255289       1.92316398       0.25084335
C        1.07807463      -2.80540381      -0.57288272
C        0.98277913      -4.22287477      -0.41015910
C       -0.21503001      -4.80745780      -0.13433955
C       -1.37441437      -4.01818432      -0.00844836
C       -1.24177780      -2.65704886      -0.16592203
C       -2.39064383      -1.67910221      -0.10064065
N       -1.92397914      -0.44870530       0.57170870
C       -2.73181695       0.73731622       0.24235013
C       -1.87534667       2.01094190       0.22093477
C       -1.92165153      -0.74311784       2.01831270
C       -1.40250163       0.36405398       2.92070729
N       -0.07101355      -2.07324664      -0.42368863
H        3.17944293      -2.62604116      -1.00916278
H        1.75386400      -0.62302721      -3.42415663
H        3.14476188       2.03079392      -2.82314429
H        2.37591779       1.54903261      -4.33375151
H        1.38648569       1.81285672      -2.89216051
H        3.98641626      -1.60716295      -2.95962021
H        4.02617813      -0.49175484      -4.32612863
H        4.67261131       0.01029934      -2.76689384
H        4.22609116       0.65977190      -0.71344605
H        2.73966096      -0.46650644       1.69689449
H        4.31106236       0.34593831       1.81336572
H        4.15391126      -1.17214436       0.91776041
H        2.57889614       2.52033859      -0.64049386
H        3.45183856       2.46937033       0.89511768
H        1.81655423       1.79441914       0.78045917
H        1.88262497      -4.81030334      -0.51830564
H       -0.28776847      -5.87952819      -0.01121460
H       -2.33311430      -4.46326388       0.20332338
H       -2.67542965      -1.43273604      -1.12851618
H       -3.26216856      -2.11245829       0.40829730
H       -3.56946055       0.84992960       0.94304523
H       -3.14576737       0.59180804      -0.75896354
H       -2.35555139       2.76745852      -0.39641101
H       -0.87626008       1.79989672      -0.21900812
H       -1.72659796       2.42268622       1.21434135
H       -2.94608865      -1.00673199       2.32476010
H       -1.28531366      -1.62053520       2.14839933
H       -0.44260100       0.71646136       2.55397532
H       -1.25800020      -0.04207035       3.91955832
H       -2.10021973       1.19429674       2.99527244
C       -0.63335738      -0.11968601      -2.06373928
O       -0.97831610      -0.09713410      -3.16950893
H        0.61249491      -0.19891774       0.87566987
