80
Properties=species:S:1:pos:R:3:forces:R:3 charge=0 unpaired=0 uhf=0 energy=-3282.3453152463417 pbc="F F F"
Mn       0.05525792      -0.09282158      -0.25174826       0.00432955       0.03228888      -0.03170236
N        0.33945763      -2.35959833      -0.07421314       0.04666917      -0.00456131       0.12634697
C        1.71178012      -2.84634293       0.10060742      -0.03943289       0.02290061      -0.02032397
C        2.69372557      -1.98947785      -0.68539490      -0.01300738      -0.01880601      -0.03937402
P        2.28223455      -0.18948806      -0.46159907      -0.00907915       0.02342743       0.00743421
C        3.35478842       0.31296975       0.94063320       0.01614117       0.01500144      -0.02558073
C        3.17024627      -0.29455656       2.18020512      -0.02062437      -0.02443349       0.00538575
C        3.90688465       0.10099907       3.27963304       0.02460083       0.02447703      -0.00676540
C        4.83242353       1.12606779       3.16000273      -0.01548371      -0.02419121       0.02039891
C        5.01152926       1.74886526       1.93717276       0.01190545       0.01682844      -0.01707541
C        4.27782326       1.34983351       0.83345107      -0.01525680      -0.00608358      -0.01751588
C        3.22828643       0.55066581      -1.83909878       0.00788435      -0.01038783       0.00800921
C        2.78397712       1.77210868      -2.33867981      -0.00604867      -0.00019700       0.00463795
C        3.48801517       2.41876619      -3.33914308      -0.00886611      -0.00013029       0.00603318
C        4.63682868       1.84342469      -3.85933001      -0.00469714      -0.00527918       0.00164740
C        5.07886629       0.62368297      -3.37337283       0.00783718       0.01087933      -0.01067494
C        4.38664410      -0.01849479      -2.36214835      -0.01822818       0.01101041       0.00985036
C       -0.58901022      -3.10294321       0.79110478      -0.03239280       0.01140885      -0.08826407
C       -1.88922573      -2.33322197       1.06866608       0.03294318       0.03046546       0.07101575
P       -2.04458978      -0.81517507       0.00551055      -0.02497654       0.01178707      -0.01282323
C       -3.27200226       0.14603551       0.95831088       0.00324634      -0.05033692       0.00596426
C       -4.27061893      -0.44291462       1.72960335       0.01563569      -0.03655230      -0.01359007
C       -5.15756804       0.35007649       2.43484112      -0.02877215      -0.01481089       0.00674788
C       -5.07303387       1.73110774       2.36499160       0.00733104       0.01522752      -0.00800396
C       -4.09908826       2.32304601       1.57793475      -0.02054616      -0.00266847       0.00346026
C       -3.20364104       1.53279033       0.88070890       0.03765658       0.03991793      -0.02511680
C       -3.14114582      -1.44302405      -1.32622599       0.01674877      -0.00481019       0.01211479
C       -3.00838469      -2.73409384      -1.83031716       0.05304273      -0.01765121       0.03486116
C       -3.84643894      -3.18525645      -2.83362314      -0.03620022       0.01588987      -0.02277119
C       -4.82132409      -2.34895600      -3.35422632       0.01474344      -0.02703269      -0.00005178
C       -4.93718118      -1.05162669      -2.88206626      -0.00713123       0.02461846       0.01022298
C       -4.09764044      -0.59738899      -1.88050531      -0.01741208       0.03539238      -0.00670910
H        1.79021265      -3.89537748      -0.22521683       0.00537455       0.00149096      -0.00308161
H        1.95913074      -2.80891543       1.16702902       0.00007591      -0.00149901       0.01224922
H        2.57604949      -2.18508664      -1.75866584      -0.00148454       0.00924182       0.02004562
H        3.72016700      -2.20480648      -0.37862088       0.01716567      -0.00086668       0.00600549
H        2.42629122      -1.07184793       2.29285473       0.00658362       0.00380925      -0.00118421
H        3.75061406      -0.37986546       4.23480322       0.00308019      -0.00759289       0.00635863
H        5.40103888       1.44499320       4.02129372       0.00727649      -0.00231332       0.00255749
H        5.72265080       2.55746940       1.84055726      -0.00574648      -0.01040741       0.00271970
H        4.42062048       1.85252917      -0.11276150      -0.00024388      -0.00427628       0.01203055
H        1.87576933       2.20037330      -1.93144357      -0.00041183       0.00143689      -0.00593154
H        3.13873490       3.37073296      -3.71293681      -0.00260121       0.00408556      -0.00256385
H        5.18645126       2.34307970      -4.64371343       0.00476664       0.00990625      -0.00430255
H        5.97287330       0.17186602      -3.77935971      -0.00410206       0.01015007       0.00344536
H        4.75962560      -0.95710363      -1.98105110       0.00438042      -0.00271512       0.00249072
H       -0.81531021      -4.08214549       0.34433253       0.00573260      -0.00648311       0.00603801
H       -0.08101667      -3.29351641       1.74166922       0.00892002       0.01026776       0.04416051
H       -2.76533164      -2.97470266       0.94906678      -0.01744397      -0.02188803      -0.01295147
H       -1.88220466      -1.94770697       2.09601108       0.01056564      -0.00814870      -0.03182466
H       -4.36136518      -1.51885086       1.78412530      -0.00342320       0.02020051      -0.00545080
H       -5.92245991      -0.11297953       3.04218431      -0.00022349      -0.00211889      -0.00293618
H       -5.76659495       2.34452691       2.92082822      -0.01179628       0.00411368       0.00666157
H       -4.03285108       3.39891566       1.50804294       0.00101753       0.01289515       0.00969455
H       -2.43395136       1.98336590       0.26530663      -0.01886108      -0.00564379       0.02080476
H       -2.24804955      -3.39773424      -1.44067956      -0.01149383       0.01015785      -0.01020375
H       -3.74357385      -4.19521552      -3.20576623       0.00886912       0.00468480      -0.00704552
H       -5.48613765      -2.70791468      -4.12676658       0.01307950       0.01062766      -0.00314755
H       -5.69075572      -0.39344133      -3.29123140       0.01946284       0.00262748      -0.00021410
H       -4.18522740       0.41763151      -1.51454492      -0.00054633      -0.01177751      -0.00848832
C       -0.09118726       1.65923934      -0.32282103       0.01077854      -0.14124627      -0.01056717
O       -0.12322922       2.82773778      -0.26592099      -0.00499487       0.11454668       0.01362356
C        0.06830256       0.20259396       1.47331050       0.01700891      -0.03602028      -0.08567424
O        0.01023495       0.54810094       2.58156583      -0.00703325       0.03428582       0.10806982
O        0.29422126      -2.95563013      -3.03964148      -0.09194479       0.10538660      -0.13880109
C       -0.14462128      -2.29263531      -3.94886862       0.14816789      -0.07557252       0.08684960
C        0.65970439      -1.64792814      -5.01590339      -0.06316015      -0.06517525       0.03746919
C        1.30377110      -0.43914792      -4.78408312       0.01805192       0.03548903       0.00453670
C        2.02594392       0.16296385      -5.79945485       0.02699417      -0.02159256      -0.02413265
C        2.12768331      -0.44853726      -7.03840547       0.06406326       0.08844592      -0.00942581
C        1.49281484      -1.65604954      -7.27038239      -0.05347547      -0.07067013       0.06559760
C        0.74830249      -2.25244880      -6.26595027       0.01656612       0.00689889      -0.05270405
H        0.09201105      -2.55194449      -1.05023764      -0.02783140      -0.01264726      -0.08546024
H       -0.05202240      -0.24898674      -1.77966387      -0.00282711       0.00363291       0.01329993
H       -1.23760870      -2.13720695      -4.05646182      -0.01268628      -0.03130366       0.00941138
H        1.21868221       0.03268280      -3.81709224       0.01013767       0.00553422       0.02392888
H        2.51671521       1.10813109      -5.61676417      -0.02717257      -0.04085684       0.00793893
H        2.70406619       0.01892645      -7.82485104      -0.02713742      -0.01640282       0.01847625
H        1.57530057      -2.13569983      -8.23415118      -0.01748420      -0.01256746      -0.01059968
H        0.24708740      -3.19410297      -6.44140866       0.00344658       0.00628151      -0.01556108
