15
Properties=species:S:1:pos:R:3 energy:=T -17.738967903298=T gnorm:=T 0.000036745378=T xtb:=T 6.7.1=T (edcfbbe)=T pbc="F F F"
C        1.51265933      -0.15356225      -0.08776219
C       -0.01340638      -0.17091881      -0.18989806
C       -0.63197665      -0.63979664       1.13364764
C       -0.54044852       1.22438944      -0.55029005
O       -0.32792967      -1.09362782      -1.22871388
H        1.83351223       0.53356088       0.68976574
H        1.94002016       0.15475526      -1.03840160
H        1.87598547      -1.15170955       0.14262343
H       -1.71907668      -0.65154051       1.06476565
H       -0.28944081      -1.64571088       1.36658727
H       -0.34336461       0.02594117       1.94242215
H       -1.62747625       1.21612682      -0.62072721
H       -0.13422558       1.53704240      -1.50981347
H       -0.24796333       1.94629421       0.20727354
H       -1.28686871      -1.13124372      -1.32147897
