57
Properties=species:S:1:pos:R:3:forces:R:3 energy:=T -76.702072432699=T gnorm:=T 0.000229933158=T xtb:=T 6.7.1=T (edcfbbe)=T energy=-2087.1697018288637 pbc="F F F"
O       -0.12286994      -1.07703570      -1.67032215       0.00045421       0.00061516       0.00087560
C        0.20253556      -0.09679512      -0.66437946       0.00006831      -0.00079785      -0.00103375
N       -0.52141309      -0.24593753       0.55762448       0.00057428       0.00188606       0.00135416
C       -1.81169222       0.14769486       0.59947827       0.00038082      -0.00039558      -0.00070488
C       -2.61526550       0.49397455      -0.51666700       0.00050168      -0.00012136      -0.00007654
C       -3.94149547       0.83691045      -0.37163205       0.00021752       0.00073140      -0.00010179
C       -4.54838573       0.85500488       0.87527720      -0.00026381      -0.00000680      -0.00037710
C       -3.78232126       0.53091205       1.98877520       0.00109137      -0.00035888       0.00059761
C       -2.45710245       0.19073448       1.86154078      -0.00077969       0.00042126       0.00076518
C        1.69206586      -0.14678422      -0.36421966       0.00019108      -0.00017851      -0.00001476
C        2.34387702      -1.35660545      -0.15576763       0.00068239      -0.00027262       0.00011955
C        3.70388610      -1.38637282       0.10137142      -0.00051864       0.00014878       0.00046962
C        4.43159925      -0.20954341       0.15557564       0.00003717       0.00052955      -0.00036177
C        3.78672924       1.00046338      -0.04061548       0.00048871      -0.00007968      -0.00025104
C        2.42842380       1.02891791      -0.30036404       0.00004324       0.00040424       0.00044883
H       -0.17900381      -1.91221126      -1.17705366      -0.00017463      -0.00047120      -0.00008999
H       -0.00710168       0.87216136      -1.16501054       0.00023675      -0.00000519      -0.00013426
H        0.34350233       0.42797430       1.84099597      -0.00286675      -0.00217914      -0.00362133
H       -2.18353984       0.46840076      -1.50909053      -0.00023366      -0.00005725       0.00030698
H       -4.52214216       1.08879452      -1.25418006      -0.00010430      -0.00076032       0.00025814
H       -5.59302746       1.11921250       0.97927731       0.00010116      -0.00030564       0.00008779
H       -4.23510514       0.55097066       2.97497869       0.00032678       0.00052613       0.00030064
H       -1.86942669      -0.02936888       2.74262521       0.00083775       0.00055121       0.00003724
H        1.78487308      -2.27979453      -0.18652762      -0.00007779      -0.00005841      -0.00001890
H        4.19765029      -2.33552278       0.26354717       0.00074469       0.00022339       0.00007965
H        5.49429735      -0.23441261       0.35627421       0.00026904       0.00030096       0.00009075
H        4.34514392       1.92556306       0.00911086      -0.00004245       0.00038531       0.00017502
H        1.92686678       1.97552919      -0.44801199      -0.00025092      -0.00028984      -0.00001891
C       -1.26389873      -5.08091307       0.45065203      -0.00063657       0.00026862      -0.00001346
C       -1.60784307      -3.59119843       0.59788417      -0.00196367      -0.00064331       0.00024349
C       -2.58932480      -3.17339840      -0.50904924       0.00017611      -0.00039636       0.00004099
C       -2.25185226      -3.33868405       1.96775896       0.00086014      -0.00007659      -0.00020463
O       -0.39187360      -2.88544473       0.48431350       0.00022928       0.00498650      -0.00015361
H       -2.16194741      -5.68803645       0.52711909      -0.00045738      -0.00044208      -0.00036468
H       -0.56392320      -5.37165595       1.23045122      -0.00026295      -0.00003507      -0.00005737
H       -0.79422205      -5.25497316      -0.51490212      -0.00005491       0.00016851      -0.00012815
H       -2.81775332      -2.11285272      -0.42524808      -0.00046628      -0.00025608       0.00054590
H       -2.15118388      -3.35328486      -1.48954975      -0.00047313       0.00043258       0.00021191
H       -3.51599346      -3.73720791      -0.42712958      -0.00026308      -0.00032484      -0.00011350
H       -2.52318882      -2.28858652       2.05707677       0.00032942      -0.00011794       0.00007831
H       -1.54720555      -3.58919190       2.75861345      -0.00051583      -0.00045394      -0.00019912
H       -3.14797586      -3.94396276       2.08484756      -0.00033625       0.00022442      -0.00007001
H       -0.54341099      -1.88771467       0.65096492       0.00038203      -0.00568045      -0.00003933
C        0.70752699       0.50763767       4.90036974      -0.00074299       0.00046524      -0.00011443
C        1.32597781       0.09887159       3.54854360      -0.00062748       0.00165528      -0.00124007
C        2.85497616       0.26771604       3.61855760       0.00025647      -0.00028769       0.00029569
C        0.99316928      -1.36640823       3.26051718       0.00010838       0.00020061      -0.00076930
O        0.82335262       0.95873279       2.54720624       0.00290172       0.00107285       0.00249653
H       -0.37442646       0.40413385       4.85462833      -0.00010233      -0.00012953      -0.00041759
H        1.09237300      -0.11506101       5.70467361      -0.00022386       0.00008783       0.00009285
H        0.94018622       1.54934975       5.10840639      -0.00063587      -0.00013696      -0.00062985
H        3.09832111       1.31355931       3.79072616      -0.00026974       0.00025081       0.00006402
H        3.29456876      -0.03464508       2.67191301       0.00059068      -0.00027398      -0.00007005
H        3.27312585      -0.33575332       4.42091049       0.00005229      -0.00068300       0.00111057
H       -0.08375196      -1.50703678       3.23139052      -0.00020320       0.00029659      -0.00072568
H        1.39663458      -1.65616830       2.29464098       0.00073141      -0.00021625       0.00022174
H        1.41266121      -2.01090997       4.03122246      -0.00031673      -0.00034096       0.00074706
