50
Properties=species:S:1:pos:R:3 energy:=T -81.088811325505=T gnorm:=T 0.000063059567=T xtb:=T 6.7.1=T (edcfbbe)=T pbc="F F F"
Ru       0.27795393      -0.05737233      -0.47666010
C        2.52255668      -2.29056802      -0.27323359
P        2.48885842      -0.44839076      -0.07875413
C        4.13006785       0.17621201      -0.49833273
C        5.31173114      -0.49631751      -0.19605439
C        6.52205769       0.07640066      -0.54239998
C        6.55737797       1.30469663      -1.18603265
C        5.37980264       1.96988119      -1.49143620
C        4.16305409       1.40800914      -1.14983528
C        2.23057152      -0.32338196       1.72695722
C        3.09667148      -0.74396136       2.72782071
C        2.67819743      -0.71205581       4.04904479
C        1.40204143      -0.27830494       4.36975455
C        0.53178934       0.15508993       3.37672986
C        0.94770460       0.13605160       2.05821206
C        1.20901428      -2.79912063       0.23606988
C        1.09240479      -4.03861850       0.84671518
C       -0.14270821      -4.44054633       1.33118890
C       -1.23134626      -3.59878645       1.18832617
C       -1.06309171      -2.36856002       0.55742671
C       -2.15542050      -1.42324695       0.30494611
C       -3.48242790      -1.71191666       0.58074014
C       -4.46774473      -0.78788483       0.24759937
C       -4.10632590       0.38891330      -0.36288185
C       -2.74831560       0.63378578      -0.62093914
O       -2.42425552       1.76006987      -1.21833255
N       -1.79875957      -0.24364315      -0.27294855
N        0.14968368      -1.98683214       0.10715571
H        3.35848143      -2.76743899       0.24626018
H        2.61854877      -2.49006567      -1.34997703
H        5.29537360      -1.45761501       0.29657696
H        7.44313865      -0.43829307      -0.31212774
H        7.50780179       1.74149613      -1.45381110
H        5.41128144       2.92251003      -1.99821043
H        3.22781869       1.90213869      -1.38561768
H        4.09121053      -1.08136034       2.47459982
H        3.35006907      -1.03133975       4.83140544
H        1.07947256      -0.26512012       5.39965647
H       -0.45492513       0.51038543       3.63751587
H        0.27937972       0.59022364       1.25551120
H        1.95818889      -4.67493434       0.93924938
H       -0.25419965      -5.39763903       1.81611885
H       -2.19372775      -3.89504288       1.56939570
H       -3.76014200      -2.64536071       1.03903685
H       -5.50398502      -1.00068223       0.45805026
H       -4.82148187       1.13759485      -0.66044098
H       -1.45491583       1.85128262      -1.34087744
C        0.27840389      -0.38001785      -2.28870490
O        0.29798184      -0.56963905      -3.41710416
H        0.36226762       1.46655088      -0.73981265
