49
Properties=species:S:1:pos:R:3:forces:R:3 energy:=T -71.184862295080=T gnorm:=T 0.000120752917=T xtb:=T 6.7.1=T (edcfbbe)=T energy=-1937.0387670010507 pbc="F F F"
Ru       0.05002540      -0.11928067      -0.00852554       0.00081564      -0.00033268      -0.00030232
C        2.30938115      -2.31711582      -0.19008346       0.00050397       0.00076290       0.00025585
P        2.26315177      -0.47789583      -0.47388399      -0.00051926       0.00198426      -0.00224760
C        3.62854946       0.07032296       0.67753009      -0.00087069      -0.00094228       0.00093358
C        5.02963948      -0.41463780       0.31661214       0.00024289       0.00110103      -0.00039551
C        3.58657406       1.58260510       0.88299584       0.00021834      -0.00019627      -0.00022282
C        2.98398437      -0.36883331      -2.19645205       0.00089673      -0.00049962      -0.00106621
C        2.18083200      -1.22731857      -3.17038599      -0.00101531      -0.00071910       0.00025440
C        2.97863399       1.09056301      -2.64162620      -0.00014363       0.00021589       0.00073543
C        0.95079275      -2.88786042      -0.46327064      -0.00038282      -0.00033321      -0.00024624
C        0.78504231      -4.20035195      -0.86354827       0.00022264       0.00016074       0.00017532
C       -0.49914325      -4.71652517      -1.02016777      -0.00033297      -0.00030715       0.00007007
C       -1.57432748      -3.90771626      -0.71789764      -0.00022008       0.00037634      -0.00028293
C       -1.35166717      -2.58824543      -0.31790366      -0.00051236      -0.00035483      -0.00030122
C       -2.40171358      -1.66884839       0.09549849      -0.00005715      -0.00016422      -0.00030368
C       -3.74890673      -2.01372092       0.19309358      -0.00012987       0.00007266      -0.00012204
C       -4.65764618      -1.08449876       0.66678655      -0.00018427      -0.00085009      -0.00005895
C       -4.20436427       0.16294414       1.05302555       0.00042442       0.00072463       0.00014202
C       -2.84448111       0.45322088       0.92888556      -0.00034765      -0.00081768       0.00027018
O       -2.40521168       1.64841360       1.31160481       0.00023809       0.00043254       0.00017147
N       -1.96614271      -0.42957432       0.44002706       0.00082740       0.00017960       0.00009862
N       -0.09960724      -2.07404220      -0.24662050       0.00005295       0.00064320       0.00034482
H        2.51411563      -2.44427677       0.88178535       0.00013335      -0.00059822       0.00006601
H        3.08997020      -2.82893790      -0.75878748      -0.00005419      -0.00003279      -0.00011167
H        3.31717084      -0.39331715       1.62579099       0.00022403      -0.00005780       0.00020072
H        5.04569133      -1.48476160       0.11847254      -0.00007580       0.00074877       0.00037350
H        5.41241286       0.11248322      -0.55456986      -0.00016614      -0.00050469      -0.00006182
H        5.70364783      -0.21458353       1.14834496       0.00030024       0.00039039      -0.00037003
H        4.14723487       1.85674223       1.77506679       0.00001188      -0.00021060      -0.00037578
H        2.55099933       1.90210573       1.00568601       0.00090858      -0.00068053       0.00034250
H        4.01678675       2.11311922       0.03708745      -0.00079657       0.00004221       0.00061390
H        4.01151639      -0.74875259      -2.15820369       0.00012110      -0.00021417       0.00012781
H        2.22810188      -2.28532471      -2.91820212      -0.00036388       0.00094466       0.00002515
H        1.13510102      -0.92223628      -3.17720928       0.00037290       0.00002319       0.00002325
H        2.57029978      -1.10398274      -4.18037078      -0.00017008      -0.00032352       0.00068984
H        3.23651451       1.17252184      -3.69679952       0.00016552      -0.00073112       0.00067205
H        3.69064356       1.67966548      -2.06931406      -0.00024576      -0.00018937      -0.00041333
H        1.98509066       1.51814345      -2.49099784       0.00068143       0.00003233      -0.00052988
H        1.65041077      -4.81920744      -1.04600247      -0.00010964      -0.00010428       0.00045112
H       -0.64648263      -5.73288969      -1.34957033      -0.00004880       0.00007350       0.00007768
H       -2.57902894      -4.28888757      -0.79673940       0.00031741       0.00006245      -0.00032591
H       -4.08132663      -2.99677675      -0.09466188      -0.00004566      -0.00002063      -0.00001357
H       -5.70474284      -1.33213220       0.74354876       0.00014591       0.00001359       0.00039197
H       -4.85893014       0.92309591       1.44445491      -0.00010080      -0.00033409       0.00043568
H       -1.42842670       1.67805187       1.16421049       0.00010732      -0.00023370       0.00004930
C       -0.53891098       0.27519298      -1.71323069       0.00002192       0.00002334      -0.00146169
O       -1.09836178       0.50723465      -2.70026914      -0.00003992       0.00059437       0.00089978
H        0.39286831      -0.29899065       1.52708372      -0.00075933      -0.00013650      -0.00004133
H        0.16866053       1.44223711       0.22199300      -0.00026202       0.00028651       0.00036250
