      -----------------------------------------------------------      
     |                   =====================                   |     
     |                           x T B                           |     
     |                   =====================                   |     
     |                         S. Grimme                         |     
     |          Mulliken Center for Theoretical Chemistry        |     
     |                    University of Bonn                     |     
      -----------------------------------------------------------      

   * xtb version 6.7.1 (edcfbbe) compiled by 'VssAdministrator@runnervm171ch' on 2026-06-10

   xtb is free software: you can redistribute it and/or modify it under
   the terms of the GNU Lesser General Public License as published by
   the Free Software Foundation, either version 3 of the License, or
   (at your option) any later version.
   
   xtb is distributed in the hope that it will be useful,
   but WITHOUT ANY WARRANTY; without even the implied warranty of
   MERCHANTABILITY or FITNESS FOR A PARTICULAR PURPOSE.  See the
   GNU Lesser General Public License for more details.
   
   Cite this work as:
   * C. Bannwarth, E. Caldeweyher, S. Ehlert, A. Hansen, P. Pracht,
     J. Seibert, S. Spicher, S. Grimme, WIREs Comput. Mol. Sci., 2020, 11,
     e01493. DOI: 10.1002/wcms.1493
   
   for GFN2-xTB:
   * C. Bannwarth, S. Ehlert and S. Grimme., J. Chem. Theory Comput., 2019,
     15, 1652-1671. DOI: 10.1021/acs.jctc.8b01176
   for GFN1-xTB:
   * S. Grimme, C. Bannwarth, P. Shushkov, J. Chem. Theory Comput., 2017,
     13, 1989-2009. DOI: 10.1021/acs.jctc.7b00118
   for GFN0-xTB:
   * P. Pracht, E. Caldeweyher, S. Ehlert, S. Grimme, ChemRxiv, 2019, preprint.
     DOI: 10.26434/chemrxiv.8326202.v1
   for GFN-FF:
   * S. Spicher and S. Grimme, Angew. Chem. Int. Ed., 2020, 59, 15665-15673.
     DOI: 10.1002/anie.202004239
   
   for ALPB and GBSA implicit solvation:
   * S. Ehlert, M. Stahn, S. Spicher, S. Grimme, J. Chem. Theory Comput.,
     2021, 17, 4250-4261. DOI: 10.1021/acs.jctc.1c00471
   
   for ddCOSMO and CPCM-X implicit solvation:
   * M. Stahn, S. Ehlert, S. Grimme, J. Phys. Chem. A,
     2023, XX, XXXX-XXXX. DOI: 10.1021/acs.jpca.3c04382
   
   for DFT-D4:
   * E. Caldeweyher, C. Bannwarth and S. Grimme, J. Chem. Phys., 2017,
     147, 034112. DOI: 10.1063/1.4993215
   * E. Caldeweyher, S. Ehlert, A. Hansen, H. Neugebauer, S. Spicher,
     C. Bannwarth and S. Grimme, J. Chem. Phys., 2019, 150, 154122.
     DOI: 10.1063/1.5090222
   * E. Caldeweyher, J.-M. Mewes, S. Ehlert and S. Grimme, Phys. Chem. Chem. Phys.
     2020, 22, 8499-8512. DOI: 10.1039/D0CP00502A
   
   for sTDA-xTB:
   * S. Grimme and C. Bannwarth, J. Chem. Phys., 2016, 145, 054103.
     DOI: 10.1063/1.4959605
   
   in the mass-spec context:
   * V. Asgeirsson, C. Bauer and S. Grimme, Chem. Sci., 2017, 8, 4879.
     DOI: 10.1039/c7sc00601b
   * J. Koopman and S. Grimme, ACS Omega 2019, 4, 12, 15120-15133.
     DOI: 10.1021/acsomega.9b02011
   
   for metadynamics refer to:
   * S. Grimme, J. Chem. Theory Comput., 2019, 155, 2847-2862
     DOI: 10.1021/acs.jctc.9b00143
   
   for SPH calculations refer to:
   * S. Spicher and S. Grimme, J. Chem. Theory Comput., 2021, 17, 1701-1714
     DOI: 10.1021/acs.jctc.0c01306
   
   for ONIOM refer to:
   * C. Plett, A. Katbashev, S. Ehlert, S. Grimme, M. Bursch,
     Phys. Chem. Chem. Phys., 2023, 25, 17860-17868. DOI: 10.1039/D3CP02178E
   
   for DIPRO refer to:
   * J. Kohn, N. Gildemeister, S. Grimme, D. Fazzi, A. Hansen,
     J. Chem. Phys., 2023, just accepted.
   
   for PTB refer to:
   * S. Grimme, M. Mueller, A. Hansen, J. Chem. Phys., 2023, 158, 124111.
     DOI: 10.1063/5.0137838
   
   with help from (in alphabetical order)
   P. Atkinson, C. Bannwarth, F. Bohle, G. Brandenburg, E. Caldeweyher
   M. Checinski, S. Dohm, S. Ehlert, S. Ehrlich, I. Gerasimov, C. Hölzer
   A. Katbashev, J. Kohn, J. Koopman, C. Lavigne, S. Lehtola, F. März, M. Müller,
   F. Musil, H. Neugebauer, J. Pisarek, C. Plett, P. Pracht, F. Pultar,
   J. Seibert, P. Shushkov, S. Spicher, M. Stahn, M. Steiner, T. Strunk,
   J. Stückrath, T. Rose, and J. Unsleber
   
 * started run on 2026/09/13 at 01:36:56.619     
   ID    Z sym.   atoms
    1   25 Mn     1
    2    7 N      2
    3    6 C      3, 4, 6-13, 15-20, 57, 59, 62-68
    4   15 P      5, 14
    5    1 H      21-56, 69-76
    6    8 O      58, 60, 61

           -------------------------------------------------
          |                Calculation Setup                |
           -------------------------------------------------

          program call               : C:\Users\HUIWEI\miniconda3\envs\phase2ff\Library\bin\xtb.exe input.xyz --gfn 2 --chrg 0 --uhf 0 --etemp 300.0 --iterations 500 --acc 0.5 --opt tight --cycles 250 --grad --alpb toluene gsolv
          coordinate file            : input.xyz
          omp threads                :                     2

########################################################################
[WARNING] Please study the warnings concerning your input carefully
-1- prog_main_parseArguments: Unknown reference state 'gsolv'
########################################################################

           -------------------------------------------------
          |                 G F N 2 - x T B                 |
           -------------------------------------------------

        Reference                      10.1021/acs.jctc.8b01176
      * Hamiltonian:
        H0-scaling (s, p, d)           1.850000    2.230000    2.230000
        zeta-weighting                 0.500000
      * Dispersion:
        s8                             2.700000
        a1                             0.520000
        a2                             5.000000
        s9                             5.000000
      * Repulsion:
        kExp                           1.500000    1.000000
        rExp                           1.000000
      * Coulomb:
        alpha                          2.000000
        third order                    shell-resolved
        anisotropic                    true
        a3                             3.000000
        a5                             4.000000
        cn-shift                       1.200000
        cn-exp                         4.000000
        max-rad                        5.000000

      * Solvation model:               ALPB
        Solvent                        toluene
        Parameter file                 internal GFN2-xTB/ALPB
        Dielectric constant                7.0000E+00
        Reference state                gsolv [1 M gas/solution]
        Free energy shift                  2.2081E-03 Eh       1.3856E+00 kcal/mol
        Temperature                        2.9815E+02 K
        Density                            8.6700E-01 kg/L
        Solvent mass                       7.8110E+01 g/mol
        Interaction kernel             P16
        Born radius scaling (c1)           1.7172E+00
        Born radii integrator          GBOBC
        Born offset                        0.0000E+00 a0       0.0000E+00 AA
        H-bond correction              false
        Ion screening                  false
        Surface tension                    1.0000E-05 Eh       1.5569E+01 dyn/cm
        Grid points                               230 per atom

          ...................................................
          :                      SETUP                      :
          :.................................................:
          :  # basis functions                 190          :
          :  # atomic orbitals                 187          :
          :  # shells                          111          :
          :  # electrons                       184          :
          :  max. iterations                   500          :
          :  Hamiltonian                  GFN2-xTB          :
          :  restarted?                      false          :
          :  GBSA solvation                   true          :
          :  PC potential                    false          :
          :  electronic temp.          300.0000000     K    :
          :  accuracy                    0.5000000          :
          :  -> integral cutoff          0.2801030E+02      :
          :  -> integral neglect         0.5000000E-08      :
          :  -> SCF convergence          0.5000000E-06 Eh   :
          :  -> wf. convergence          0.5000000E-04 e    :
          :  Broyden damping             0.4000000          :
          :  net charge                          0          :
          :  unpaired electrons                  0          :
          ...................................................

 iter      E             dE          RMSdq      gap      omega  full diag
   1    -98.9722132 -0.989722E+02  0.590E+00    0.95       0.0  T
   2    -98.6803736  0.291840E+00  0.477E+00    0.77       1.0  T
   3    -99.3789049 -0.698531E+00  0.318E+00    0.58       1.0  T
   4    -99.5378204 -0.158916E+00  0.139E+00    1.01       1.0  T
   5    -99.5535281 -0.157076E-01  0.520E-01    0.99       1.0  T
   6    -99.5550811 -0.155299E-02  0.339E-01    0.98       1.0  T
   7    -99.5550078  0.733099E-04  0.271E-01    1.02       1.0  T
   8    -99.5571671 -0.215931E-02  0.147E-01    0.97       1.0  T
   9    -99.5573909 -0.223855E-03  0.872E-02    1.00       1.0  T
  10    -99.5574932 -0.102285E-03  0.486E-02    0.98       1.0  T
  11    -99.5575388 -0.455809E-04  0.217E-02    0.99       1.0  T
  12    -99.5575485 -0.970355E-05  0.125E-02    0.98       1.0  T
  13    -99.5575515 -0.301907E-05  0.770E-03    0.98       1.5  T
  14    -99.5575529 -0.144035E-05  0.441E-03    0.98       2.6  T
  15    -99.5575531 -0.186899E-06  0.209E-03    0.98       5.5  T
  16    -99.5575532 -0.747953E-07  0.946E-04    0.98      12.1  T
  17    -99.5575532  0.983803E-09  0.525E-04    0.98      21.9  T
  18    -99.5575532 -0.830389E-08  0.324E-04    0.98      35.4  T
  19    -99.5575532 -0.439158E-09  0.225E-04    0.98      50.9  T

   *** convergence criteria satisfied after 19 iterations ***

         #    Occupation            Energy/Eh            Energy/eV
      -------------------------------------------------------------
         1        2.0000           -0.8038716             -21.8745
       ...           ...                  ...                  ...
        86        2.0000           -0.3972914             -10.8108
        87        2.0000           -0.3878539             -10.5540
        88        2.0000           -0.3811147             -10.3707
        89        2.0000           -0.3762440             -10.2381
        90        2.0000           -0.3732224             -10.1559
        91        2.0000           -0.3625552              -9.8656
        92        2.0000           -0.3337692              -9.0823 (HOMO)
        93                         -0.2976039              -8.0982 (LUMO)
        94                         -0.2874502              -7.8219
        95                         -0.2595739              -7.0634
        96                         -0.2494341              -6.7874
        97                         -0.2453923              -6.6775
       ...                                ...                  ...
       187                          4.4985647             122.4122
      -------------------------------------------------------------
                  HL-Gap            0.0361653 Eh            0.9841 eV
             Fermi-level           -0.3156866 Eh           -8.5903 eV

 SCC (total)                   0 d,  0 h,  0 min,  0.457 sec
 SCC setup                      ...        0 min,  0.005 sec (  1.100%)
 Dispersion                     ...        0 min,  0.003 sec (  0.662%)
 classical contributions        ...        0 min,  0.001 sec (  0.189%)
 integral evaluation            ...        0 min,  0.024 sec (  5.323%)
 iterations                     ...        0 min,  0.333 sec ( 72.714%)
 molecular gradient             ...        0 min,  0.091 sec ( 19.824%)
 printout                       ...        0 min,  0.001 sec (  0.177%)

         :::::::::::::::::::::::::::::::::::::::::::::::::::::
         ::                     SUMMARY                     ::
         :::::::::::::::::::::::::::::::::::::::::::::::::::::
         :: total energy             -98.169486659057 Eh    ::
         :: total w/o Gsasa/hb       -98.136391189040 Eh    ::
         :: gradient norm              0.582671662350 Eh/a0 ::
         :: HOMO-LUMO gap              0.984108105810 eV    ::
         ::.................................................::
         :: SCC energy               -99.552024796541 Eh    ::
         :: -> isotropic ES            0.134675242953 Eh    ::
         :: -> anisotropic ES          0.013424096936 Eh    ::
         :: -> anisotropic XC          0.027344252610 Eh    ::
         :: -> dispersion             -0.116571087729 Eh    ::
         :: -> Gsolv                  -0.062907408523 Eh    ::
         ::    -> Gelec               -0.029811938506 Eh    ::
         ::    -> Gsasa               -0.035303613156 Eh    ::
         ::    -> Ghb                  0.000000000000 Eh    ::
         ::    -> Gshift               0.002208143139 Eh    ::
         :: repulsion energy           1.382538137484 Eh    ::
         :: add. restraining           0.000000000000 Eh    ::
         :: total charge              -0.000000000000 e     ::
         :::::::::::::::::::::::::::::::::::::::::::::::::::::

      ----------------------------------------------------------- 
     |                   =====================                   |
     |                        A N C O P T                        |
     |                   =====================                   |
     |               Approximate Normal Coordinate               |
     |                Rational Function Optimizer                |
      ----------------------------------------------------------- 
      ----------------------------------------------------------- 
     |                   =====================                   |
     |                        A N C O P T                        |
     |                   =====================                   |
     |               Approximate Normal Coordinate               |
     |                Rational Function Optimizer                |
      ----------------------------------------------------------- 

          ...................................................
          :                      SETUP                      :
          :.................................................:
          :   optimization level             tight          :
          :   max. optcycles                   250          :
          :   ANC micro-cycles                  20          :
          :   degrees of freedom               222          :
          :.................................................:
          :   RF solver                   davidson          :
          :   write xtbopt.log                true          :
          :   linear?                        false          :
          :   energy convergence         0.1000000E-05 Eh   :
          :   grad. convergence          0.8000000E-03 Eh/α :
          :   maxmium RF displ.          1.0000000          :
          :   Hlow (freq-cutoff)         0.1000000E-01      :
          :   Hmax (freq-cutoff)         5.0000000          :
          :   S6 in model hess.         20.0000000          :
          ...................................................

generating ANC from exact Hessian ...
Using Lindh-Hessian (1995)
 Shifting diagonal of input Hessian by    9.5666717709145775E-003
 Lowest  eigenvalues of input Hessian
    0.000000    0.000000    0.000000    0.000000    0.000000    0.000000
    0.010000    0.010188    0.010283    0.010582    0.010817    0.011044
    0.011416    0.011665    0.011756    0.012861    0.013221    0.013517
 Highest eigenvalues
    1.901938    1.962915    2.073202    2.186548    2.402523    2.612440


........................................................................
.............................. CYCLE    1 ..............................
........................................................................

 iter      E             dE          RMSdq      gap      omega  full diag
   1    -99.5575532 -0.995576E+02  0.104E-04    0.98       0.0  T
   2    -99.5575532 -0.499654E-10  0.797E-05    0.98     143.9  T
   3    -99.5575532  0.555218E-10  0.766E-05    0.98     149.8  T
     SCC iter.                  ...        0 min,  0.055 sec
     gradient                   ...        0 min,  0.075 sec
 * total energy  :   -98.1694867 Eh     change       -0.9922019E-09 Eh
   gradient norm :     0.5826719 Eh/α   predicted     0.0000000E+00 (-100.00%)
   displ. norm   :     0.6793940 α      lambda       -0.3541322E+00
   maximum displ.:     0.2008464 α      in ANC's #159, #143, #166, ...

........................................................................
.............................. CYCLE    2 ..............................
........................................................................

 iter      E             dE          RMSdq      gap      omega  full diag
   1    -99.7889305 -0.997889E+02  0.624E-01    1.66       0.0  T
   2    -99.7866140  0.231651E-02  0.698E-01    1.91       1.0  T
   3    -99.8067799 -0.201660E-01  0.264E-01    1.78       1.0  T
   4    -99.8067600  0.198994E-04  0.147E-01    1.77       1.0  T
   5    -99.8069668 -0.206727E-03  0.599E-02    1.78       1.0  T
   6    -99.8070235 -0.567782E-04  0.369E-02    1.79       1.0  T
   7    -99.8070448 -0.212887E-04  0.222E-02    1.79       1.0  T
   8    -99.8070480 -0.318183E-05  0.162E-02    1.79       1.0  T
   9    -99.8070554 -0.740833E-05  0.833E-03    1.79       1.4  T
  10    -99.8070559 -0.491159E-06  0.490E-03    1.79       2.3  T
  11    -99.8070565 -0.623582E-06  0.223E-03    1.80       5.2  T
  12    -99.8070566 -0.244255E-07  0.128E-03    1.80       9.0  T
  13    -99.8070566 -0.366741E-07  0.545E-04    1.80      21.0  T
  14    -99.8070566 -0.344104E-08  0.350E-04    1.80      32.8  T
  15    -99.8070566 -0.135036E-08  0.226E-04    1.80      50.8  T
     SCC iter.                  ...        0 min,  0.257 sec
     gradient                   ...        0 min,  0.079 sec
 * total energy  :   -98.4413316 Eh     change       -0.2718450E+00 Eh
   gradient norm :     0.3455399 Eh/α   predicted    -0.2588132E+00 (  -4.79%)
   displ. norm   :     0.6903533 α      lambda       -0.2224625E+00
   maximum displ.:     0.2148734 α      in ANC's #143, #159, #166, ...

........................................................................
.............................. CYCLE    3 ..............................
........................................................................

 iter      E             dE          RMSdq      gap      omega  full diag
   1    -99.9863880 -0.999864E+02  0.519E-01    1.86       0.0  T
   2    -99.9877529 -0.136486E-02  0.400E-01    1.93       1.0  T
   3    -99.9926627 -0.490983E-02  0.255E-01    1.85       1.0  T
   4    -99.9942383 -0.157563E-02  0.129E-01    1.89       1.0  T
   5    -99.9942836 -0.453164E-04  0.692E-02    1.87       1.0  T
   6    -99.9943693 -0.856682E-04  0.349E-02    1.89       1.0  T
   7    -99.9943903 -0.209812E-04  0.218E-02    1.89       1.0  T
   8    -99.9944010 -0.106728E-04  0.125E-02    1.89       1.0  T
   9    -99.9944022 -0.120980E-05  0.704E-03    1.89       1.6  T
  10    -99.9944028 -0.642520E-06  0.369E-03    1.89       3.1  T
  11    -99.9944032 -0.351982E-06  0.164E-03    1.89       7.0  T
  12    -99.9944032 -0.490075E-07  0.727E-04    1.89      15.8  T
  13    -99.9944032 -0.416652E-08  0.434E-04    1.89      26.4  T
  14    -99.9944032 -0.456626E-08  0.193E-04    1.89      59.6  T
     SCC iter.                  ...        0 min,  0.242 sec
     gradient                   ...        0 min,  0.088 sec
 * total energy  :   -98.6199132 Eh     change       -0.1785816E+00 Eh
   gradient norm :     0.2122296 Eh/α   predicted    -0.1642427E+00 (  -8.03%)
   displ. norm   :     0.7185667 α      lambda       -0.1406656E+00
   maximum displ.:     0.1937547 α      in ANC's #143, #159, #166, ...

........................................................................
.............................. CYCLE    4 ..............................
........................................................................

 iter      E             dE          RMSdq      gap      omega  full diag
   1   -100.1092657 -0.100109E+03  0.444E-01    1.93       0.0  T
   2   -100.1114474 -0.218168E-02  0.271E-01    1.93       1.0  T
   3   -100.1128465 -0.139909E-02  0.158E-01    1.93       1.0  T
   4   -100.1133955 -0.548987E-03  0.946E-02    1.93       1.0  T
   5   -100.1135389 -0.143459E-03  0.390E-02    1.93       1.0  T
   6   -100.1135662 -0.272775E-04  0.260E-02    1.93       1.0  T
   7   -100.1135746 -0.841101E-05  0.171E-02    1.93       1.0  T
   8   -100.1135814 -0.678671E-05  0.878E-03    1.93       1.3  T
   9   -100.1135818 -0.391378E-06  0.537E-03    1.93       2.1  T
  10   -100.1135820 -0.234752E-06  0.299E-03    1.94       3.8  T
  11   -100.1135822 -0.189121E-06  0.143E-03    1.94       8.0  T
  12   -100.1135822 -0.313804E-07  0.656E-04    1.94      17.5  T
  13   -100.1135822 -0.480169E-08  0.340E-04    1.94      33.7  T
  14   -100.1135822 -0.287778E-08  0.156E-04    1.94      73.6  T
     SCC iter.                  ...        0 min,  0.199 sec
     gradient                   ...        0 min,  0.070 sec
 * total energy  :   -98.7334714 Eh     change       -0.1135582E+00 Eh
   gradient norm :     0.1338519 Eh/α   predicted    -0.1066484E+00 (  -6.08%)
   displ. norm   :     0.7547772 α      lambda       -0.9185857E-01
   maximum displ.:     0.2078816 α      in ANC's #44, #80, #81, ...

........................................................................
.............................. CYCLE    5 ..............................
........................................................................

 iter      E             dE          RMSdq      gap      omega  full diag
   1   -100.1824310 -0.100182E+03  0.397E-01    1.92       0.0  T
   2   -100.1840177 -0.158675E-02  0.277E-01    1.93       1.0  T
   3   -100.1854002 -0.138244E-02  0.148E-01    1.94       1.0  T
   4   -100.1857216 -0.321434E-03  0.978E-02    1.93       1.0  T
   5   -100.1859218 -0.200149E-03  0.409E-02    1.94       1.0  T
   6   -100.1859414 -0.196285E-04  0.260E-02    1.94       1.0  T
   7   -100.1859542 -0.128488E-04  0.161E-02    1.94       1.0  T
   8   -100.1859583 -0.406842E-05  0.975E-03    1.94       1.2  T
   9   -100.1859589 -0.587828E-06  0.556E-03    1.94       2.1  T
  10   -100.1859592 -0.280425E-06  0.288E-03    1.94       4.0  T
  11   -100.1859593 -0.148031E-06  0.129E-03    1.94       8.9  T
  12   -100.1859593 -0.132298E-07  0.678E-04    1.94      16.9  T
  13   -100.1859593 -0.695337E-08  0.324E-04    1.94      35.4  T
  14   -100.1859593 -0.219796E-08  0.172E-04    1.94      66.5  T
     SCC iter.                  ...        0 min,  0.207 sec
     gradient                   ...        0 min,  0.074 sec
 * total energy  :   -98.8109206 Eh     change       -0.7744920E-01 Eh
   gradient norm :     0.0965752 Eh/α   predicted    -0.7209473E-01 (  -6.91%)
   displ. norm   :     0.7947192 α      lambda       -0.6864345E-01
   maximum displ.:     0.2387234 α      in ANC's #44, #80, #40, ...

........................................................................
.............................. CYCLE    6 ..............................
........................................................................

 iter      E             dE          RMSdq      gap      omega  full diag
   1   -100.2351722 -0.100235E+03  0.354E-01    1.91       0.0  T
   2   -100.2363902 -0.121799E-02  0.232E-01    1.93       1.0  T
   3   -100.2372036 -0.813496E-03  0.131E-01    1.93       1.0  T
   4   -100.2373876 -0.183932E-03  0.945E-02    1.93       1.0  T
   5   -100.2375789 -0.191288E-03  0.446E-02    1.94       1.0  T
   6   -100.2376040 -0.251200E-04  0.301E-02    1.93       1.0  T
   7   -100.2376181 -0.141484E-04  0.198E-02    1.93       1.0  T
   8   -100.2376230 -0.489370E-05  0.119E-02    1.94       1.0  T
   9   -100.2376241 -0.105465E-05  0.554E-03    1.94       2.1  T
  10   -100.2376244 -0.292785E-06  0.280E-03    1.94       4.1  T
  11   -100.2376245 -0.114704E-06  0.125E-03    1.94       9.2  T
  12   -100.2376245 -0.111090E-07  0.723E-04    1.94      15.9  T
  13   -100.2376245 -0.786146E-08  0.326E-04    1.94      35.1  T
  14   -100.2376245 -0.162919E-08  0.208E-04    1.94      55.1  T
     SCC iter.                  ...        0 min,  0.201 sec
     gradient                   ...        0 min,  0.080 sec
 * total energy  :   -98.8706062 Eh     change       -0.5968564E-01 Eh
   gradient norm :     0.0809958 Eh/α   predicted    -0.5599860E-01 (  -6.18%)
   displ. norm   :     0.8164587 α      lambda       -0.5397756E-01
   maximum displ.:     0.2448487 α      in ANC's #44, #80, #40, ...

........................................................................
.............................. CYCLE    7 ..............................
........................................................................

 iter      E             dE          RMSdq      gap      omega  full diag
   1   -100.2743293 -0.100274E+03  0.306E-01    1.90       0.0  T
   2   -100.2750275 -0.698217E-03  0.197E-01    1.94       1.0  T
   3   -100.2756352 -0.607682E-03  0.122E-01    1.92       1.0  T
   4   -100.2758871 -0.251959E-03  0.764E-02    1.93       1.0  T
   5   -100.2759719 -0.848239E-04  0.401E-02    1.93       1.0  T
   6   -100.2759810 -0.903419E-05  0.291E-02    1.93       1.0  T
   7   -100.2759879 -0.688537E-05  0.217E-02    1.93       1.0  T
   8   -100.2759967 -0.885609E-05  0.117E-02    1.93       1.0  T
   9   -100.2759977 -0.101948E-05  0.543E-03    1.93       2.1  T
  10   -100.2759982 -0.439447E-06  0.252E-03    1.93       4.6  T
  11   -100.2759983 -0.726801E-07  0.118E-03    1.93       9.7  T
  12   -100.2759983 -0.190498E-07  0.623E-04    1.93      18.4  T
  13   -100.2759983 -0.385059E-08  0.298E-04    1.93      38.5  T
  14   -100.2759983 -0.104070E-08  0.207E-04    1.93      55.5  T
     SCC iter.                  ...        0 min,  0.199 sec
     gradient                   ...        0 min,  0.071 sec
 * total energy  :   -98.9173937 Eh     change       -0.4678752E-01 Eh
   gradient norm :     0.0631491 Eh/α   predicted    -0.4497965E-01 (  -3.86%)
   displ. norm   :     0.8150870 α      lambda       -0.4089183E-01
   maximum displ.:     0.2347026 α      in ANC's #44, #80, #40, ...

........................................................................
.............................. CYCLE    8 ..............................
........................................................................

 iter      E             dE          RMSdq      gap      omega  full diag
   1   -100.3035497 -0.100304E+03  0.261E-01    1.90       0.0  T
   2   -100.3037735 -0.223734E-03  0.180E-01    1.94       1.0  T
   3   -100.3043211 -0.547612E-03  0.122E-01    1.92       1.0  T
   4   -100.3046049 -0.283774E-03  0.688E-02    1.93       1.0  T
   5   -100.3046480 -0.431476E-04  0.414E-02    1.93       1.0  T
   6   -100.3046790 -0.310192E-04  0.255E-02    1.93       1.0  T
   7   -100.3046867 -0.772793E-05  0.171E-02    1.93       1.0  T
   8   -100.3046900 -0.328879E-05  0.948E-03    1.93       1.2  T
   9   -100.3046905 -0.475042E-06  0.487E-03    1.93       2.4  T
  10   -100.3046909 -0.432250E-06  0.205E-03    1.93       5.6  T
  11   -100.3046910 -0.532027E-07  0.946E-04    1.93      12.1  T
  12   -100.3046910 -0.130498E-07  0.405E-04    1.93      28.3  T
  13   -100.3046910 -0.148935E-08  0.184E-04    1.93      62.5  T
     SCC iter.                  ...        0 min,  0.189 sec
     gradient                   ...        0 min,  0.074 sec
 * total energy  :   -98.9524336 Eh     change       -0.3503988E-01 Eh
   gradient norm :     0.0460373 Eh/α   predicted    -0.3402951E-01 (  -2.88%)
   displ. norm   :     0.8075067 α      lambda       -0.3014710E-01
   maximum displ.:     0.2187974 α      in ANC's #44, #40, #28, ...

........................................................................
.............................. CYCLE    9 ..............................
........................................................................

 iter      E             dE          RMSdq      gap      omega  full diag
   1   -100.3224057 -0.100322E+03  0.224E-01    1.91       0.0  T
   2   -100.3223598  0.459842E-04  0.157E-01    1.94       1.0  T
   3   -100.3226281 -0.268325E-03  0.124E-01    1.92       1.0  T
   4   -100.3230046 -0.376517E-03  0.523E-02    1.93       1.0  T
   5   -100.3230211 -0.165502E-04  0.328E-02    1.93       1.0  T
   6   -100.3230470 -0.258686E-04  0.192E-02    1.93       1.0  T
   7   -100.3230504 -0.341269E-05  0.132E-02    1.93       1.0  T
   8   -100.3230523 -0.189428E-05  0.786E-03    1.93       1.5  T
   9   -100.3230526 -0.306689E-06  0.398E-03    1.93       2.9  T
  10   -100.3230530 -0.335803E-06  0.159E-03    1.93       7.2  T
  11   -100.3230530 -0.407507E-07  0.756E-04    1.93      15.2  T
  12   -100.3230530 -0.734002E-08  0.344E-04    1.93      33.3  T
  13   -100.3230530 -0.108004E-08  0.191E-04    1.93      60.0  T
     SCC iter.                  ...        0 min,  0.195 sec
     gradient                   ...        0 min,  0.090 sec
 * total energy  :   -98.9780264 Eh     change       -0.2559280E-01 Eh
   gradient norm :     0.0394083 Eh/α   predicted    -0.2490253E-01 (  -2.70%)
   displ. norm   :     0.8315434 α      lambda       -0.2408027E-01
   maximum displ.:     0.2033329 α      in ANC's #28, #40, #44, ...

........................................................................
.............................. CYCLE   10 ..............................
........................................................................

 iter      E             dE          RMSdq      gap      omega  full diag
   1   -100.3342214 -0.100334E+03  0.243E-01    1.92       0.0  T
   2   -100.3342802 -0.587022E-04  0.151E-01    1.94       1.0  T
   3   -100.3340562  0.223993E-03  0.136E-01    1.92       1.0  T
   4   -100.3346050 -0.548809E-03  0.535E-02    1.94       1.0  T
   5   -100.3346103 -0.532430E-05  0.372E-02    1.93       1.0  T
   6   -100.3346502 -0.399306E-04  0.212E-02    1.94       1.0  T
   7   -100.3346544 -0.416218E-05  0.132E-02    1.93       1.0  T
   8   -100.3346562 -0.180840E-05  0.800E-03    1.94       1.4  T
   9   -100.3346570 -0.821847E-06  0.370E-03    1.94       3.1  T
  10   -100.3346573 -0.255651E-06  0.173E-03    1.94       6.6  T
  11   -100.3346573 -0.238777E-07  0.856E-04    1.94      13.4  T
  12   -100.3346573 -0.754875E-08  0.524E-04    1.94      21.9  T
  13   -100.3346573 -0.288101E-08  0.335E-04    1.94      34.3  T
  14   -100.3346573 -0.119026E-08  0.243E-04    1.94      47.1  T
     SCC iter.                  ...        0 min,  0.208 sec
     gradient                   ...        0 min,  0.074 sec
 * total energy  :   -98.9966603 Eh     change       -0.1863385E-01 Eh
   gradient norm :     0.0388019 Eh/α   predicted    -0.2036547E-01 (   9.29%)
   displ. norm   :     0.8233528 α      lambda       -0.2061658E-01
   maximum displ.:     0.2455069 α      in ANC's #28, #40, #29, ...

........................................................................
.............................. CYCLE   11 ..............................
........................................................................

 iter      E             dE          RMSdq      gap      omega  full diag
   1   -100.3435037 -0.100344E+03  0.233E-01    1.93       0.0  T
   2   -100.3434503  0.534073E-04  0.154E-01    1.94       1.0  T
   3   -100.3430529  0.397349E-03  0.156E-01    1.92       1.0  T
   4   -100.3438227 -0.769745E-03  0.445E-02    1.94       1.0  T
   5   -100.3438208  0.189716E-05  0.275E-02    1.93       1.0  T
   6   -100.3438347 -0.138900E-04  0.165E-02    1.94       1.0  T
   7   -100.3438358 -0.109786E-05  0.126E-02    1.94       1.0  T
   8   -100.3438383 -0.250893E-05  0.772E-03    1.93       1.5  T
   9   -100.3438388 -0.553798E-06  0.312E-03    1.93       3.7  T
  10   -100.3438390 -0.145055E-06  0.169E-03    1.93       6.8  T
  11   -100.3438390 -0.795633E-07  0.667E-04    1.93      17.2  T
  12   -100.3438390 -0.306017E-08  0.372E-04    1.93      30.8  T
  13   -100.3438390 -0.724654E-09  0.241E-04    1.93      47.6  T
     SCC iter.                  ...        0 min,  0.191 sec
     gradient                   ...        0 min,  0.077 sec
 * total energy  :   -99.0117197 Eh     change       -0.1505942E-01 Eh
   gradient norm :     0.0311726 Eh/α   predicted    -0.1729638E-01 (  14.85%)
   displ. norm   :     0.7318294 α      lambda       -0.1215309E-01
   maximum displ.:     0.2123193 α      in ANC's #28, #30, #40, ...

........................................................................
.............................. CYCLE   12 ..............................
........................................................................

 iter      E             dE          RMSdq      gap      omega  full diag
   1   -100.3500845 -0.100350E+03  0.157E-01    1.94       0.0  T
   2   -100.3501368 -0.523347E-04  0.110E-01    1.94       1.0  T
   3   -100.3501656 -0.288292E-04  0.836E-02    1.94       1.0  T
   4   -100.3502864 -0.120736E-03  0.376E-02    1.95       1.0  T
   5   -100.3502796  0.679926E-05  0.284E-02    1.94       1.0  T
   6   -100.3503091 -0.295583E-04  0.880E-03    1.94       1.3  T
   7   -100.3503099 -0.726041E-06  0.634E-03    1.94       1.8  T
   8   -100.3503105 -0.596876E-06  0.367E-03    1.94       3.1  T
   9   -100.3503104  0.179404E-07  0.290E-03    1.94       4.0  T
  10   -100.3503106 -0.205252E-06  0.878E-04    1.94      13.1  T
  11   -100.3503107 -0.104211E-07  0.422E-04    1.94      27.2  T
  12   -100.3503107 -0.113596E-08  0.209E-04    1.94      54.8  T
     SCC iter.                  ...        0 min,  0.173 sec
     gradient                   ...        0 min,  0.079 sec
 * total energy  :   -99.0219679 Eh     change       -0.1024821E-01 Eh
   gradient norm :     0.0293464 Eh/α   predicted    -0.9330990E-02 (  -8.95%)
   displ. norm   :     0.7407597 α      lambda       -0.9705663E-02
   maximum displ.:     0.2088430 α      in ANC's #28, #30, #38, ...

........................................................................
.............................. CYCLE   13 ..............................
........................................................................

 iter      E             dE          RMSdq      gap      omega  full diag
   1   -100.3559207 -0.100356E+03  0.168E-01    1.96       0.0  T
   2   -100.3557427  0.178020E-03  0.173E-01    1.96       1.0  T
   3   -100.3564146 -0.671881E-03  0.696E-02    1.95       1.0  T
   4   -100.3564270 -0.124302E-04  0.464E-02    1.96       1.0  T
   5   -100.3564384 -0.114208E-04  0.290E-02    1.95       1.0  T
   6   -100.3564674 -0.289798E-04  0.570E-03    1.95       2.0  T
   7   -100.3564678 -0.329662E-06  0.352E-03    1.95       3.3  T
   8   -100.3564680 -0.262517E-06  0.203E-03    1.95       5.6  T
   9   -100.3564680 -0.136588E-07  0.179E-03    1.95       6.4  T
  10   -100.3564681 -0.481001E-07  0.904E-04    1.95      12.7  T
  11   -100.3564681 -0.124333E-07  0.388E-04    1.95      29.5  T
  12   -100.3564681 -0.105830E-08  0.165E-04    1.95      69.7  T
     SCC iter.                  ...        0 min,  0.177 sec
     gradient                   ...        0 min,  0.075 sec
 * total energy  :   -99.0301822 Eh     change       -0.8214257E-02 Eh
   gradient norm :     0.0255045 Eh/α   predicted    -0.7515706E-02 (  -8.50%)
   displ. norm   :     0.7372326 α      lambda       -0.7797748E-02
   maximum displ.:     0.2007571 α      in ANC's #28, #30, #38, ...

........................................................................
.............................. CYCLE   14 ..............................
........................................................................

 iter      E             dE          RMSdq      gap      omega  full diag
   1   -100.3630942 -0.100363E+03  0.171E-01    1.99       0.0  T
   2   -100.3631132 -0.190288E-04  0.171E-01    1.97       1.0  T
   3   -100.3636442 -0.530958E-03  0.673E-02    1.97       1.0  T
   4   -100.3636305  0.136904E-04  0.488E-02    1.98       1.0  T
   5   -100.3636538 -0.232932E-04  0.322E-02    1.97       1.0  T
   6   -100.3636900 -0.361873E-04  0.554E-03    1.98       2.1  T
   7   -100.3636904 -0.457924E-06  0.318E-03    1.98       3.6  T
   8   -100.3636906 -0.154892E-06  0.179E-03    1.98       6.4  T
   9   -100.3636906 -0.175604E-07  0.124E-03    1.98       9.2  T
  10   -100.3636906 -0.506779E-08  0.816E-04    1.98      14.1  T
  11   -100.3636906 -0.179782E-07  0.377E-04    1.98      30.4  T
  12   -100.3636906 -0.138132E-08  0.181E-04    1.98      63.3  T
     SCC iter.                  ...        0 min,  0.163 sec
     gradient                   ...        0 min,  0.074 sec
 * total energy  :   -99.0367877 Eh     change       -0.6605572E-02 Eh
   gradient norm :     0.0228014 Eh/α   predicted    -0.6017961E-02 (  -8.90%)
   displ. norm   :     0.7239729 α      lambda       -0.6276121E-02
   maximum displ.:     0.1863890 α      in ANC's #30, #28, #32, ...

........................................................................
.............................. CYCLE   15 ..............................
........................................................................

 iter      E             dE          RMSdq      gap      omega  full diag
   1   -100.3708935 -0.100371E+03  0.170E-01    2.02       0.0  T
   2   -100.3709943 -0.100707E-03  0.168E-01    2.00       1.0  T
   3   -100.3714691 -0.474810E-03  0.651E-02    2.00       1.0  T
   4   -100.3714497  0.193272E-04  0.484E-02    2.01       1.0  T
   5   -100.3714730 -0.232388E-04  0.328E-02    2.01       1.0  T
   6   -100.3715099 -0.368797E-04  0.645E-03    2.01       1.8  T
   7   -100.3715105 -0.600527E-06  0.441E-03    2.01       2.6  T
   8   -100.3715107 -0.205083E-06  0.254E-03    2.01       4.5  T
   9   -100.3715107 -0.438332E-07  0.197E-03    2.01       5.8  T
  10   -100.3715108 -0.566726E-07  0.122E-03    2.01       9.4  T
  11   -100.3715108 -0.192164E-07  0.434E-04    2.01      26.5  T
  12   -100.3715108 -0.147676E-08  0.213E-04    2.01      53.9  T
     SCC iter.                  ...        0 min,  0.175 sec
     gradient                   ...        0 min,  0.076 sec
 * total energy  :   -99.0419765 Eh     change       -0.5188796E-02 Eh
   gradient norm :     0.0197764 Eh/α   predicted    -0.4782835E-02 (  -7.82%)
   displ. norm   :     0.6816082 α      lambda       -0.4573933E-02
   maximum displ.:     0.1924447 α      in ANC's #32, #30, #28, ...

........................................................................
.............................. CYCLE   16 ..............................
........................................................................

 iter      E             dE          RMSdq      gap      omega  full diag
   1   -100.3773170 -0.100377E+03  0.147E-01    2.05       0.0  T
   2   -100.3774653 -0.148275E-03  0.130E-01    2.02       1.0  T
   3   -100.3776849 -0.219603E-03  0.558E-02    2.03       1.0  T
   4   -100.3776744  0.105058E-04  0.404E-02    2.04       1.0  T
   5   -100.3776843 -0.992920E-05  0.294E-02    2.03       1.0  T
   6   -100.3777149 -0.306069E-04  0.576E-03    2.03       2.0  T
   7   -100.3777152 -0.315096E-06  0.429E-03    2.03       2.7  T
   8   -100.3777155 -0.226451E-06  0.226E-03    2.03       5.1  T
   9   -100.3777155 -0.167657E-07  0.178E-03    2.03       6.5  T
  10   -100.3777155 -0.475559E-07  0.109E-03    2.03      10.5  T
  11   -100.3777155 -0.183649E-07  0.356E-04    2.03      32.3  T
  12   -100.3777155 -0.946500E-09  0.187E-04    2.03      61.2  T
     SCC iter.                  ...        0 min,  0.158 sec
     gradient                   ...        0 min,  0.078 sec
 * total energy  :   -99.0456350 Eh     change       -0.3658490E-02 Eh
   gradient norm :     0.0184064 Eh/α   predicted    -0.3349468E-02 (  -8.45%)
   displ. norm   :     0.6195472 α      lambda       -0.3267392E-02
   maximum displ.:     0.1892992 α      in ANC's #32, #16, #34, ...

........................................................................
.............................. CYCLE   17 ..............................
........................................................................

 iter      E             dE          RMSdq      gap      omega  full diag
   1   -100.3832159 -0.100383E+03  0.110E-01    2.03       0.0  T
   2   -100.3832799 -0.640191E-04  0.874E-02    2.02       1.0  T
   3   -100.3833524 -0.725205E-04  0.458E-02    2.02       1.0  T
   4   -100.3833529 -0.502501E-06  0.297E-02    2.03       1.0  T
   5   -100.3833584 -0.550114E-05  0.209E-02    2.02       1.0  T
   6   -100.3833736 -0.151634E-04  0.554E-03    2.02       2.1  T
   7   -100.3833738 -0.184503E-06  0.444E-03    2.02       2.6  T
   8   -100.3833740 -0.243577E-06  0.233E-03    2.02       4.9  T
   9   -100.3833741 -0.731948E-07  0.162E-03    2.02       7.1  T
  10   -100.3833741 -0.362559E-07  0.805E-04    2.02      14.2  T
  11   -100.3833741 -0.574370E-08  0.271E-04    2.02      42.4  T
  12   -100.3833741 -0.613014E-09  0.149E-04    2.02      76.9  T
     SCC iter.                  ...        0 min,  0.171 sec
     gradient                   ...        0 min,  0.079 sec
 * total energy  :   -99.0482977 Eh     change       -0.2662647E-02 Eh
   gradient norm :     0.0201521 Eh/α   predicted    -0.2260772E-02 ( -15.09%)
   displ. norm   :     0.6157909 α      lambda       -0.3045043E-02
   maximum displ.:     0.2082305 α      in ANC's #32, #16, #4, ...

........................................................................
.............................. CYCLE   18 ..............................
........................................................................

 iter      E             dE          RMSdq      gap      omega  full diag
   1   -100.3870448 -0.100387E+03  0.916E-02    1.97       0.0  T
   2   -100.3870671 -0.222615E-04  0.546E-02    1.96       1.0  T
   3   -100.3870688 -0.171270E-05  0.335E-02    1.97       1.0  T
   4   -100.3870674  0.140405E-05  0.215E-02    1.97       1.0  T
   5   -100.3870822 -0.148589E-04  0.901E-03    1.97       1.3  T
   6   -100.3870832 -0.939623E-06  0.544E-03    1.97       2.1  T
   7   -100.3870831  0.722105E-07  0.446E-03    1.97       2.6  T
   8   -100.3870835 -0.358335E-06  0.214E-03    1.97       5.4  T
   9   -100.3870834  0.239177E-07  0.158E-03    1.97       7.3  T
  10   -100.3870835 -0.956197E-07  0.480E-04    1.97      23.9  T
  11   -100.3870835 -0.153911E-08  0.231E-04    1.97      49.7  T
     SCC iter.                  ...        0 min,  0.165 sec
     gradient                   ...        0 min,  0.079 sec
 * total energy  :   -99.0508416 Eh     change       -0.2543938E-02 Eh
   gradient norm :     0.0197021 Eh/α   predicted    -0.2099863E-02 ( -17.46%)
   displ. norm   :     0.6329414 α      lambda       -0.3110795E-02
   maximum displ.:     0.1993982 α      in ANC's #32, #16, #33, ...

........................................................................
.............................. CYCLE   19 ..............................
........................................................................

 iter      E             dE          RMSdq      gap      omega  full diag
   1   -100.3911494 -0.100391E+03  0.104E-01    1.87       0.0  T
   2   -100.3911606 -0.111700E-04  0.579E-02    1.88       1.0  T
   3   -100.3911438  0.167566E-04  0.435E-02    1.87       1.0  T
   4   -100.3911796 -0.357289E-04  0.260E-02    1.87       1.0  T
   5   -100.3911931 -0.134915E-04  0.120E-02    1.88       1.0  T
   6   -100.3911961 -0.308281E-05  0.748E-03    1.87       1.5  T
   7   -100.3911962 -0.924914E-07  0.598E-03    1.88       1.9  T
   8   -100.3911969 -0.654012E-06  0.209E-03    1.88       5.5  T
   9   -100.3911970 -0.768128E-07  0.927E-04    1.88      12.4  T
  10   -100.3911970 -0.897479E-08  0.443E-04    1.88      25.9  T
  11   -100.3911970 -0.586670E-08  0.195E-04    1.88      58.9  T
     SCC iter.                  ...        0 min,  0.175 sec
     gradient                   ...        0 min,  0.072 sec
 * total energy  :   -99.0533424 Eh     change       -0.2500782E-02 Eh
   gradient norm :     0.0174721 Eh/α   predicted    -0.2178522E-02 ( -12.89%)
   displ. norm   :     0.6231291 α      lambda       -0.2507910E-02
   maximum displ.:     0.2044669 α      in ANC's #32, #16, #33, ...

........................................................................
.............................. CYCLE   20 ..............................
........................................................................

 iter      E             dE          RMSdq      gap      omega  full diag
   1   -100.3898705 -0.100390E+03  0.105E-01    1.77       0.0  T
   2   -100.3898876 -0.170900E-04  0.583E-02    1.77       1.0  T
   3   -100.3898584  0.292395E-04  0.499E-02    1.78       1.0  T
   4   -100.3899173 -0.588907E-04  0.241E-02    1.77       1.0  T
   5   -100.3899202 -0.291407E-05  0.135E-02    1.78       1.0  T
   6   -100.3899247 -0.456345E-05  0.642E-03    1.77       1.8  T
   7   -100.3899245  0.293076E-06  0.494E-03    1.78       2.3  T
   8   -100.3899250 -0.579416E-06  0.241E-03    1.78       4.8  T
   9   -100.3899251 -0.977961E-07  0.133E-03    1.78       8.6  T
  10   -100.3899252 -0.464458E-07  0.594E-04    1.78      19.3  T
  11   -100.3899252 -0.765891E-08  0.211E-04    1.78      54.3  T
  12   -100.3899252 -0.157058E-09  0.126E-04    1.78      91.3  T
     SCC iter.                  ...        0 min,  0.166 sec
     gradient                   ...        0 min,  0.079 sec
 * total energy  :   -99.0552706 Eh     change       -0.1928183E-02 Eh
   gradient norm :     0.0179924 Eh/α   predicted    -0.1740851E-02 (  -9.72%)
   displ. norm   :     0.5919675 α      lambda       -0.1923338E-02
   maximum displ.:     0.1554491 α      in ANC's #32, #3, #33, ...
 * RMSD in coord.:     1.3487586 α      energy gain  -0.8857839E+00 Eh

generating ANC from exact Hessian ...
Using Lindh-Hessian (1995)
 Shifting diagonal of input Hessian by    1.0157107444659067E-002
 Lowest  eigenvalues of input Hessian
    0.010000    0.000000    0.000000    0.000000    0.000000    0.000000
    0.000000    0.010242    0.010311    0.010342    0.010437    0.010670
    0.010705    0.010782    0.010903    0.011097    0.011101    0.011159
 Highest eigenvalues
    1.615572    1.903579    2.005917    2.030454    2.346930    2.428038


........................................................................
.............................. CYCLE   21 ..............................
........................................................................

 iter      E             dE          RMSdq      gap      omega  full diag
   1   -100.3921259 -0.100392E+03  0.957E-02    1.70       0.0  T
   2   -100.3921395 -0.136129E-04  0.485E-02    1.70       1.0  T
   3   -100.3921364  0.310065E-05  0.363E-02    1.70       1.0  T
   4   -100.3921603 -0.238517E-04  0.196E-02    1.70       1.0  T
   5   -100.3921653 -0.502647E-05  0.109E-02    1.70       1.1  T
   6   -100.3921683 -0.298409E-05  0.609E-03    1.70       1.9  T
   7   -100.3921681  0.244326E-06  0.548E-03    1.70       2.1  T
   8   -100.3921687 -0.640655E-06  0.182E-03    1.70       6.3  T
   9   -100.3921688 -0.589227E-07  0.100E-03    1.70      11.5  T
  10   -100.3921688 -0.208198E-07  0.477E-04    1.70      24.0  T
  11   -100.3921688 -0.558039E-08  0.149E-04    1.70      77.0  T
     SCC iter.                  ...        0 min,  0.151 sec
     gradient                   ...        0 min,  0.073 sec
 * total energy  :   -99.0567263 Eh     change       -0.1455771E-02 Eh
   gradient norm :     0.0184889 Eh/α   predicted     0.0000000E+00 (-100.00%)
   displ. norm   :     0.2945754 α      lambda       -0.2095202E-02
   maximum displ.:     0.1214899 α      in ANC's #7, #12, #11, ...

........................................................................
.............................. CYCLE   22 ..............................
........................................................................

 iter      E             dE          RMSdq      gap      omega  full diag
   1   -100.3921867 -0.100392E+03  0.105E-01    1.73       0.0  T
   2   -100.3921234  0.632861E-04  0.853E-02    1.73       1.0  T
   3   -100.3921933 -0.698445E-04  0.587E-02    1.73       1.0  T
   4   -100.3922618 -0.685574E-04  0.163E-02    1.73       1.0  T
   5   -100.3922657 -0.381525E-05  0.104E-02    1.73       1.1  T
   6   -100.3922685 -0.287457E-05  0.528E-03    1.73       2.2  T
   7   -100.3922687 -0.138155E-06  0.425E-03    1.73       2.7  T
   8   -100.3922690 -0.332485E-06  0.190E-03    1.73       6.0  T
   9   -100.3922690 -0.375277E-07  0.828E-04    1.73      13.9  T
  10   -100.3922690 -0.813020E-08  0.492E-04    1.73      23.3  T
  11   -100.3922691 -0.426850E-08  0.198E-04    1.73      57.9  T
     SCC iter.                  ...        0 min,  0.153 sec
     gradient                   ...        0 min,  0.071 sec
 * total energy  :   -99.0584139 Eh     change       -0.1687539E-02 Eh
   gradient norm :     0.0133969 Eh/α   predicted    -0.1138524E-02 ( -32.53%)
   displ. norm   :     0.6786915 α      lambda       -0.3942256E-02
   maximum displ.:     0.2704747 α      in ANC's #7, #12, #11, ...

........................................................................
.............................. CYCLE   23 ..............................
........................................................................

 iter      E             dE          RMSdq      gap      omega  full diag
   1   -100.3883309 -0.100388E+03  0.241E-01    1.84       0.0  T
   2   -100.3881558  0.175185E-03  0.174E-01    1.85       1.0  T
   3   -100.3882200 -0.642079E-04  0.128E-01    1.83       1.0  T
   4   -100.3885292 -0.309244E-03  0.482E-02    1.85       1.0  T
   5   -100.3886015 -0.723122E-04  0.140E-02    1.84       1.0  T
   6   -100.3886031 -0.159505E-05  0.942E-03    1.84       1.2  T
   7   -100.3886028  0.368855E-06  0.789E-03    1.84       1.5  T
   8   -100.3886038 -0.107891E-05  0.481E-03    1.84       2.4  T
   9   -100.3886042 -0.330765E-06  0.190E-03    1.84       6.0  T
  10   -100.3886042 -0.607463E-07  0.996E-04    1.84      11.5  T
  11   -100.3886042 -0.186944E-07  0.449E-04    1.84      25.5  T
  12   -100.3886042 -0.416441E-08  0.183E-04    1.84      62.8  T
     SCC iter.                  ...        0 min,  0.163 sec
     gradient                   ...        0 min,  0.076 sec
 * total energy  :   -99.0598606 Eh     change       -0.1446705E-02 Eh
   gradient norm :     0.0349297 Eh/α   predicted    -0.2879077E-02 (  99.01%)
   displ. norm   :     0.4092643 α      lambda       -0.3391459E-02
   maximum displ.:     0.1680076 α      in ANC's #7, #12, #9, ...

........................................................................
.............................. CYCLE   24 ..............................
........................................................................

 iter      E             dE          RMSdq      gap      omega  full diag
   1   -100.3922709 -0.100392E+03  0.125E-01    1.84       0.0  T
   2   -100.3922838 -0.128361E-04  0.765E-02    1.84       1.0  T
   3   -100.3921853  0.984523E-04  0.639E-02    1.84       1.0  T
   4   -100.3922969 -0.111610E-03  0.305E-02    1.84       1.0  T
   5   -100.3923165 -0.195979E-04  0.168E-02    1.84       1.0  T
   6   -100.3923181 -0.161951E-05  0.120E-02    1.84       1.0  T
   7   -100.3923179  0.239500E-06  0.912E-03    1.84       1.3  T
   8   -100.3923197 -0.184850E-05  0.440E-03    1.84       2.6  T
   9   -100.3923200 -0.268933E-06  0.169E-03    1.84       6.8  T
  10   -100.3923201 -0.668733E-07  0.866E-04    1.84      13.3  T
  11   -100.3923201 -0.114679E-07  0.269E-04    1.84      42.7  T
  12   -100.3923201 -0.204517E-08  0.108E-04    1.84     106.1  T
     SCC iter.                  ...        0 min,  0.186 sec
     gradient                   ...        0 min,  0.086 sec
 * total energy  :   -99.0615003 Eh     change       -0.1639663E-02 Eh
   gradient norm :     0.0286041 Eh/α   predicted    -0.1979763E-02 (  20.74%)
   displ. norm   :     0.3560631 α      lambda       -0.2231549E-02
   maximum displ.:     0.1426487 α      in ANC's #7, #12, #9, ...

........................................................................
.............................. CYCLE   25 ..............................
........................................................................

 iter      E             dE          RMSdq      gap      omega  full diag
   1   -100.3966459 -0.100397E+03  0.147E-01    1.84       0.0  T
   2   -100.3966483 -0.237690E-05  0.125E-01    1.80       1.0  T
   3   -100.3971382 -0.489934E-03  0.625E-02    1.82       1.0  T
   4   -100.3971961 -0.579322E-04  0.270E-02    1.81       1.0  T
   5   -100.3971985 -0.236629E-05  0.132E-02    1.81       1.0  T
   6   -100.3972012 -0.268569E-05  0.900E-03    1.81       1.3  T
   7   -100.3972016 -0.386937E-06  0.760E-03    1.81       1.5  T
   8   -100.3972023 -0.722404E-06  0.318E-03    1.81       3.6  T
   9   -100.3972024 -0.155274E-06  0.144E-03    1.81       8.0  T
  10   -100.3972025 -0.341358E-07  0.831E-04    1.81      13.8  T
  11   -100.3972025 -0.192858E-07  0.314E-04    1.81      36.5  T
  12   -100.3972025 -0.468575E-09  0.162E-04    1.81      70.7  T
     SCC iter.                  ...        0 min,  0.179 sec
     gradient                   ...        0 min,  0.072 sec
 * total energy  :   -99.0623352 Eh     change       -0.8349634E-03 Eh
   gradient norm :     0.0275697 Eh/α   predicted    -0.1257235E-02 (  50.57%)
   displ. norm   :     0.4105675 α      lambda       -0.2055392E-02
   maximum displ.:     0.1850157 α      in ANC's #7, #9, #12, ...

........................................................................
.............................. CYCLE   26 ..............................
........................................................................

 iter      E             dE          RMSdq      gap      omega  full diag
   1   -100.4034690 -0.100403E+03  0.110E-01    1.82       0.0  T
   2   -100.4032564  0.212640E-03  0.115E-01    1.81       1.0  T
   3   -100.4037392 -0.482823E-03  0.440E-02    1.82       1.0  T
   4   -100.4037530 -0.138219E-04  0.195E-02    1.82       1.0  T
   5   -100.4037532 -0.210717E-06  0.128E-02    1.82       1.0  T
   6   -100.4037591 -0.589938E-05  0.526E-03    1.82       2.2  T
   7   -100.4037592 -0.100233E-06  0.410E-03    1.82       2.8  T
   8   -100.4037594 -0.163616E-06  0.235E-03    1.82       4.9  T
   9   -100.4037594 -0.566897E-07  0.982E-04    1.82      11.7  T
  10   -100.4037595 -0.290444E-07  0.374E-04    1.82      30.7  T
  11   -100.4037595 -0.172604E-08  0.204E-04    1.82      56.3  T
     SCC iter.                  ...        0 min,  0.144 sec
     gradient                   ...        0 min,  0.074 sec
 * total energy  :   -99.0638392 Eh     change       -0.1503991E-02 Eh
   gradient norm :     0.0125345 Eh/α   predicted    -0.1200932E-02 ( -20.15%)
   displ. norm   :     0.7179517 α      lambda       -0.1948993E-02
   maximum displ.:     0.3017362 α      in ANC's #7, #9, #12, ...

........................................................................
.............................. CYCLE   27 ..............................
........................................................................

 iter      E             dE          RMSdq      gap      omega  full diag
   1   -100.3991188 -0.100399E+03  0.174E-01    1.81       0.0  T
   2   -100.3989929  0.125892E-03  0.134E-01    1.83       1.0  T
   3   -100.3992594 -0.266525E-03  0.792E-02    1.81       1.0  T
   4   -100.3993376 -0.781452E-04  0.379E-02    1.82       1.0  T
   5   -100.3993745 -0.369296E-04  0.138E-02    1.82       1.0  T
   6   -100.3993815 -0.694315E-05  0.765E-03    1.82       1.5  T
   7   -100.3993820 -0.504986E-06  0.563E-03    1.82       2.0  T
   8   -100.3993822 -0.191657E-06  0.247E-03    1.82       4.6  T
   9   -100.3993822 -0.575561E-07  0.932E-04    1.82      12.3  T
  10   -100.3993822 -0.288431E-07  0.538E-04    1.82      21.3  T
  11   -100.3993822 -0.466818E-08  0.217E-04    1.82      52.9  T
  12   -100.3993822 -0.355300E-09  0.108E-04    1.82     106.7  T
     SCC iter.                  ...        0 min,  0.158 sec
     gradient                   ...        0 min,  0.076 sec
 * total energy  :   -99.0652943 Eh     change       -0.1455140E-02 Eh
   gradient norm :     0.0219619 Eh/α   predicted    -0.1476807E-02 (   1.49%)
   displ. norm   :     0.6871220 α      lambda       -0.1733755E-02
   maximum displ.:     0.3124059 α      in ANC's #7, #9, #12, ...

........................................................................
.............................. CYCLE   28 ..............................
........................................................................

 iter      E             dE          RMSdq      gap      omega  full diag
   1   -100.4029061 -0.100403E+03  0.102E-01    1.78       0.0  T
   2   -100.4028477  0.584330E-04  0.776E-02    1.76       1.0  T
   3   -100.4029333 -0.855541E-04  0.547E-02    1.78       1.0  T
   4   -100.4030055 -0.722329E-04  0.188E-02    1.77       1.0  T
   5   -100.4030043  0.118134E-05  0.951E-03    1.77       1.2  T
   6   -100.4030073 -0.300903E-05  0.460E-03    1.77       2.5  T
   7   -100.4030072  0.916599E-07  0.371E-03    1.77       3.1  T
   8   -100.4030076 -0.380556E-06  0.181E-03    1.77       6.3  T
   9   -100.4030077 -0.703067E-07  0.733E-04    1.77      15.6  T
  10   -100.4030077 -0.755924E-08  0.331E-04    1.77      34.6  T
  11   -100.4030077 -0.112129E-08  0.171E-04    1.77      67.1  T
     SCC iter.                  ...        0 min,  0.151 sec
     gradient                   ...        0 min,  0.074 sec
 * total energy  :   -99.0668074 Eh     change       -0.1513035E-02 Eh
   gradient norm :     0.0165309 Eh/α   predicted    -0.1276169E-02 ( -15.66%)
   displ. norm   :     0.7507406 α      lambda       -0.1812148E-02
   maximum displ.:     0.3466562 α      in ANC's #7, #9, #3, ...

........................................................................
.............................. CYCLE   29 ..............................
........................................................................

 iter      E             dE          RMSdq      gap      omega  full diag
   1   -100.4062508 -0.100406E+03  0.108E-01    1.72       0.0  T
   2   -100.4062534 -0.261216E-05  0.679E-02    1.70       1.0  T
   3   -100.4061877  0.657243E-04  0.611E-02    1.71       1.0  T
   4   -100.4063430 -0.155354E-03  0.202E-02    1.70       1.0  T
   5   -100.4063419  0.117526E-05  0.882E-03    1.70       1.3  T
   6   -100.4063438 -0.197364E-05  0.490E-03    1.70       2.3  T
   7   -100.4063440 -0.162315E-06  0.334E-03    1.70       3.4  T
   8   -100.4063443 -0.288385E-06  0.175E-03    1.70       6.6  T
   9   -100.4063444 -0.671497E-07  0.741E-04    1.70      15.5  T
  10   -100.4063444 -0.389468E-08  0.370E-04    1.70      31.0  T
  11   -100.4063444 -0.230467E-08  0.167E-04    1.70      68.9  T
     SCC iter.                  ...        0 min,  0.132 sec
     gradient                   ...        0 min,  0.078 sec
 * total energy  :   -99.0683725 Eh     change       -0.1565149E-02 Eh
   gradient norm :     0.0122673 Eh/α   predicted    -0.1416746E-02 (  -9.48%)
   displ. norm   :     0.7988473 α      lambda       -0.1559630E-02
   maximum displ.:     0.3703101 α      in ANC's #7, #9, #3, ...

........................................................................
.............................. CYCLE   30 ..............................
........................................................................

 iter      E             dE          RMSdq      gap      omega  full diag
   1   -100.4050078 -0.100405E+03  0.123E-01    1.65       0.0  T
   2   -100.4049908  0.170876E-04  0.791E-02    1.65       1.0  T
   3   -100.4049555  0.353044E-04  0.622E-02    1.65       1.0  T
   4   -100.4050468 -0.913497E-04  0.235E-02    1.65       1.0  T
   5   -100.4050585 -0.117058E-04  0.950E-03    1.65       1.2  T
   6   -100.4050605 -0.201234E-05  0.482E-03    1.65       2.4  T
   7   -100.4050603  0.208501E-06  0.409E-03    1.65       2.8  T
   8   -100.4050609 -0.557899E-06  0.180E-03    1.65       6.4  T
   9   -100.4050610 -0.773817E-07  0.796E-04    1.65      14.4  T
  10   -100.4050610 -0.129530E-07  0.437E-04    1.65      26.2  T
  11   -100.4050610 -0.205787E-08  0.161E-04    1.65      71.0  T
     SCC iter.                  ...        0 min,  0.156 sec
     gradient                   ...        0 min,  0.072 sec
 * total energy  :   -99.0696913 Eh     change       -0.1318766E-02 Eh
   gradient norm :     0.0097707 Eh/α   predicted    -0.1277461E-02 (  -3.13%)
   displ. norm   :     0.7112008 α      lambda       -0.1264538E-02
   maximum displ.:     0.3413824 α      in ANC's #7, #3, #9, ...

........................................................................
.............................. CYCLE   31 ..............................
........................................................................

 iter      E             dE          RMSdq      gap      omega  full diag
   1   -100.4105554 -0.100411E+03  0.949E-02    1.61       0.0  T
   2   -100.4105585 -0.312216E-05  0.555E-02    1.60       1.0  T
   3   -100.4104800  0.784877E-04  0.468E-02    1.61       1.0  T
   4   -100.4105871 -0.107010E-03  0.178E-02    1.60       1.0  T
   5   -100.4105898 -0.272726E-05  0.560E-03    1.60       2.0  T
   6   -100.4105907 -0.958735E-06  0.341E-03    1.60       3.4  T
   7   -100.4105908 -0.550835E-07  0.279E-03    1.60       4.1  T
   8   -100.4105909 -0.147852E-06  0.129E-03    1.60       8.9  T
   9   -100.4105910 -0.288762E-07  0.663E-04    1.60      17.3  T
  10   -100.4105910 -0.835733E-08  0.351E-04    1.60      32.7  T
  11   -100.4105910 -0.171779E-08  0.135E-04    1.60      85.2  T
     SCC iter.                  ...        0 min,  0.160 sec
     gradient                   ...        0 min,  0.075 sec
 * total energy  :   -99.0706905 Eh     change       -0.9991901E-03 Eh
   gradient norm :     0.0117374 Eh/α   predicted    -0.9520754E-03 (  -4.72%)
   displ. norm   :     0.7527379 α      lambda       -0.1063859E-02
   maximum displ.:     0.3567930 α      in ANC's #7, #3, #9, ...

........................................................................
.............................. CYCLE   32 ..............................
........................................................................

 iter      E             dE          RMSdq      gap      omega  full diag
   1   -100.4037427 -0.100404E+03  0.115E-01    1.58       0.0  T
   2   -100.4037383  0.438502E-05  0.773E-02    1.59       1.0  T
   3   -100.4037487 -0.103921E-04  0.577E-02    1.58       1.0  T
   4   -100.4038192 -0.704630E-04  0.212E-02    1.59       1.0  T
   5   -100.4038307 -0.115558E-04  0.838E-03    1.59       1.4  T
   6   -100.4038319 -0.118309E-05  0.558E-03    1.59       2.1  T
   7   -100.4038320 -0.113521E-06  0.457E-03    1.59       2.5  T
   8   -100.4038323 -0.208224E-06  0.228E-03    1.59       5.0  T
   9   -100.4038324 -0.994221E-07  0.980E-04    1.59      11.7  T
  10   -100.4038324 -0.340824E-07  0.541E-04    1.59      21.2  T
  11   -100.4038324 -0.283282E-08  0.239E-04    1.59      48.1  T
  12   -100.4038324 -0.481364E-09  0.150E-04    1.59      76.7  T
     SCC iter.                  ...        0 min,  0.170 sec
     gradient                   ...        0 min,  0.085 sec
 * total energy  :   -99.0714123 Eh     change       -0.7218089E-03 Eh
   gradient norm :     0.0136476 Eh/α   predicted    -0.8333294E-03 (  15.45%)
   displ. norm   :     0.5233745 α      lambda       -0.8296751E-03
   maximum displ.:     0.2444174 α      in ANC's #3, #7, #2, ...

........................................................................
.............................. CYCLE   33 ..............................
........................................................................

 iter      E             dE          RMSdq      gap      omega  full diag
   1   -100.4102792 -0.100410E+03  0.658E-02    1.59       0.0  T
   2   -100.4102804 -0.126234E-05  0.370E-02    1.58       1.0  T
   3   -100.4102638  0.166429E-04  0.292E-02    1.59       1.0  T
   4   -100.4102827 -0.189028E-04  0.143E-02    1.58       1.0  T
   5   -100.4102887 -0.600707E-05  0.397E-03    1.58       2.9  T
   6   -100.4102889 -0.218423E-06  0.261E-03    1.58       4.4  T
   7   -100.4102889  0.176084E-07  0.199E-03    1.59       5.8  T
   8   -100.4102890 -0.774247E-07  0.111E-03    1.59      10.4  T
   9   -100.4102890 -0.998045E-08  0.666E-04    1.59      17.2  T
  10   -100.4102890 -0.156342E-07  0.331E-04    1.59      34.6  T
  11   -100.4102890 -0.158845E-08  0.146E-04    1.59      78.7  T
     SCC iter.                  ...        0 min,  0.156 sec
     gradient                   ...        0 min,  0.078 sec
 * total energy  :   -99.0720165 Eh     change       -0.6042286E-03 Eh
   gradient norm :     0.0096440 Eh/α   predicted    -0.5284749E-03 ( -12.54%)
   displ. norm   :     0.5820553 α      lambda       -0.6292795E-03
   maximum displ.:     0.2763472 α      in ANC's #3, #7, #2, ...

........................................................................
.............................. CYCLE   34 ..............................
........................................................................

 iter      E             dE          RMSdq      gap      omega  full diag
   1   -100.4122797 -0.100412E+03  0.742E-02    1.59       0.0  T
   2   -100.4122699  0.975909E-05  0.512E-02    1.57       1.0  T
   3   -100.4122623  0.761156E-05  0.431E-02    1.59       1.0  T
   4   -100.4123186 -0.563295E-04  0.108E-02    1.58       1.1  T
   5   -100.4123185  0.110363E-06  0.485E-03    1.58       2.4  T
   6   -100.4123194 -0.911823E-06  0.228E-03    1.58       5.0  T
   7   -100.4123195 -0.151503E-07  0.171E-03    1.58       6.7  T
   8   -100.4123195 -0.524923E-07  0.106E-03    1.58      10.8  T
   9   -100.4123195 -0.146503E-07  0.592E-04    1.58      19.4  T
  10   -100.4123195 -0.486006E-08  0.300E-04    1.58      38.2  T
  11   -100.4123195 -0.168366E-08  0.131E-04    1.58      87.3  T
     SCC iter.                  ...        0 min,  0.147 sec
     gradient                   ...        0 min,  0.072 sec
 * total energy  :   -99.0724351 Eh     change       -0.4185315E-03 Eh
   gradient norm :     0.0100065 Eh/α   predicted    -0.4212363E-03 (   0.65%)
   displ. norm   :     0.5099467 α      lambda       -0.5823711E-03
   maximum displ.:     0.2551342 α      in ANC's #3, #2, #7, ...

........................................................................
.............................. CYCLE   35 ..............................
........................................................................

 iter      E             dE          RMSdq      gap      omega  full diag
   1   -100.4111388 -0.100411E+03  0.727E-02    1.58       0.0  T
   2   -100.4111350  0.384463E-05  0.482E-02    1.59       1.0  T
   3   -100.4111170  0.179585E-04  0.395E-02    1.58       1.0  T
   4   -100.4111519 -0.348425E-04  0.106E-02    1.59       1.1  T
   5   -100.4111551 -0.319207E-05  0.394E-03    1.59       2.9  T
   6   -100.4111553 -0.243886E-06  0.245E-03    1.59       4.7  T
   7   -100.4111553  0.808777E-08  0.191E-03    1.59       6.0  T
   8   -100.4111554 -0.548243E-07  0.107E-03    1.59      10.7  T
   9   -100.4111554 -0.457950E-08  0.710E-04    1.59      16.2  T
  10   -100.4111554 -0.164983E-07  0.374E-04    1.59      30.7  T
  11   -100.4111554 -0.175851E-08  0.140E-04    1.59      82.1  T
     SCC iter.                  ...        0 min,  0.146 sec
     gradient                   ...        0 min,  0.079 sec
 * total energy  :   -99.0728740 Eh     change       -0.4389856E-03 Eh
   gradient norm :     0.0072380 Eh/α   predicted    -0.3669077E-03 ( -16.42%)
   displ. norm   :     0.4553046 α      lambda       -0.5264939E-03
   maximum displ.:     0.2302011 α      in ANC's #3, #2, #4, ...

........................................................................
.............................. CYCLE   36 ..............................
........................................................................

 iter      E             dE          RMSdq      gap      omega  full diag
   1   -100.4140678 -0.100414E+03  0.648E-02    1.60       0.0  T
   2   -100.4140701 -0.223743E-05  0.389E-02    1.60       1.0  T
   3   -100.4140538  0.162244E-04  0.285E-02    1.60       1.0  T
   4   -100.4140730 -0.191713E-04  0.874E-03    1.60       1.3  T
   5   -100.4140751 -0.209120E-05  0.466E-03    1.60       2.5  T
   6   -100.4140759 -0.755490E-06  0.203E-03    1.60       5.7  T
   7   -100.4140758  0.248724E-07  0.166E-03    1.60       6.9  T
   8   -100.4140759 -0.541518E-07  0.104E-03    1.60      11.1  T
   9   -100.4140759 -0.719409E-08  0.698E-04    1.60      16.4  T
  10   -100.4140759 -0.123880E-07  0.350E-04    1.60      32.8  T
  11   -100.4140759 -0.148997E-08  0.135E-04    1.60      85.1  T
     SCC iter.                  ...        0 min,  0.149 sec
     gradient                   ...        0 min,  0.069 sec
 * total energy  :   -99.0732376 Eh     change       -0.3635540E-03 Eh
   gradient norm :     0.0088004 Eh/α   predicted    -0.3178198E-03 ( -12.58%)
   displ. norm   :     0.5419930 α      lambda       -0.5811037E-03
   maximum displ.:     0.2616417 α      in ANC's #3, #2, #13, ...

........................................................................
.............................. CYCLE   37 ..............................
........................................................................

 iter      E             dE          RMSdq      gap      omega  full diag
   1   -100.4089928 -0.100409E+03  0.856E-02    1.60       0.0  T
   2   -100.4089945 -0.167504E-05  0.518E-02    1.60       1.0  T
   3   -100.4089548  0.397155E-04  0.374E-02    1.61       1.0  T
   4   -100.4089998 -0.449989E-04  0.969E-03    1.60       1.2  T
   5   -100.4090051 -0.534361E-05  0.405E-03    1.60       2.8  T
   6   -100.4090057 -0.624096E-06  0.131E-03    1.60       8.8  T
   7   -100.4090057  0.816128E-08  0.118E-03    1.60       9.7  T
   8   -100.4090057 -0.244290E-07  0.613E-04    1.60      18.7  T
   9   -100.4090057 -0.279293E-08  0.436E-04    1.60      26.3  T
  10   -100.4090057 -0.274301E-08  0.247E-04    1.60      46.3  T
     SCC iter.                  ...        0 min,  0.133 sec
     gradient                   ...        0 min,  0.077 sec
 * total energy  :   -99.0735655 Eh     change       -0.3278668E-03 Eh
   gradient norm :     0.0099422 Eh/α   predicted    -0.3759094E-03 (  14.65%)
   displ. norm   :     0.2893769 α      lambda       -0.3738732E-03
   maximum displ.:     0.1518811 α      in ANC's #2, #3, #13, ...

........................................................................
.............................. CYCLE   38 ..............................
........................................................................

 iter      E             dE          RMSdq      gap      omega  full diag
   1   -100.4105460 -0.100411E+03  0.388E-02    1.61       0.0  T
   2   -100.4105472 -0.124086E-05  0.226E-02    1.61       1.0  T
   3   -100.4105408  0.638622E-05  0.151E-02    1.61       1.0  T
   4   -100.4105472 -0.636775E-05  0.554E-03    1.61       2.1  T
   5   -100.4105489 -0.171534E-05  0.159E-03    1.61       7.2  T
   6   -100.4105490 -0.490838E-07  0.717E-04    1.61      16.0  T
   7   -100.4105490 -0.101998E-08  0.464E-04    1.61      24.7  T
   8   -100.4105490 -0.220604E-08  0.322E-04    1.61      35.7  T
     SCC iter.                  ...        0 min,  0.109 sec
     gradient                   ...        0 min,  0.071 sec
 * total energy  :   -99.0738344 Eh     change       -0.2689103E-03 Eh
   gradient norm :     0.0075834 Eh/α   predicted    -0.2025910E-03 ( -24.66%)
   displ. norm   :     0.4185095 α      lambda       -0.3730491E-03
   maximum displ.:     0.2048249 α      in ANC's #2, #3, #13, ...

........................................................................
.............................. CYCLE   39 ..............................
........................................................................

 iter      E             dE          RMSdq      gap      omega  full diag
   1   -100.4123590 -0.100412E+03  0.555E-02    1.61       0.0  T
   2   -100.4123578  0.113986E-05  0.340E-02    1.61       1.0  T
   3   -100.4123228  0.349893E-04  0.323E-02    1.61       1.0  T
   4   -100.4123661 -0.432371E-04  0.409E-03    1.61       2.8  T
   5   -100.4123663 -0.209501E-06  0.250E-03    1.61       4.6  T
   6   -100.4123664 -0.109815E-06  0.160E-03    1.61       7.2  T
   7   -100.4123664 -0.273902E-07  0.107E-03    1.61      10.7  T
   8   -100.4123664 -0.740873E-08  0.678E-04    1.61      16.9  T
   9   -100.4123664 -0.791957E-08  0.306E-04    1.61      37.5  T
  10   -100.4123664 -0.139858E-08  0.157E-04    1.61      73.1  T
     SCC iter.                  ...        0 min,  0.138 sec
     gradient                   ...        0 min,  0.070 sec
 * total energy  :   -99.0740979 Eh     change       -0.2635613E-03 Eh
   gradient norm :     0.0073741 Eh/α   predicted    -0.2191956E-03 ( -16.83%)
   displ. norm   :     0.3980041 α      lambda       -0.3218454E-03
   maximum displ.:     0.1800106 α      in ANC's #2, #13, #9, ...

........................................................................
.............................. CYCLE   40 ..............................
........................................................................

 iter      E             dE          RMSdq      gap      omega  full diag
   1   -100.4141406 -0.100414E+03  0.522E-02    1.60       0.0  T
   2   -100.4141432 -0.251675E-05  0.298E-02    1.60       1.0  T
   3   -100.4141327  0.105038E-04  0.243E-02    1.60       1.0  T
   4   -100.4141461 -0.134900E-04  0.861E-03    1.60       1.3  T
   5   -100.4141471 -0.981557E-06  0.381E-03    1.60       3.0  T
   6   -100.4141476 -0.488757E-06  0.157E-03    1.60       7.3  T
   7   -100.4141476 -0.607407E-08  0.961E-04    1.60      11.9  T
   8   -100.4141476 -0.875852E-08  0.671E-04    1.60      17.1  T
   9   -100.4141476 -0.461988E-08  0.418E-04    1.60      27.4  T
  10   -100.4141476 -0.286319E-08  0.270E-04    1.60      42.5  T
     SCC iter.                  ...        0 min,  0.138 sec
     gradient                   ...        0 min,  0.069 sec
 * total energy  :   -99.0743144 Eh     change       -0.2164292E-03 Eh
   gradient norm :     0.0072332 Eh/α   predicted    -0.1864147E-03 ( -13.87%)
   displ. norm   :     0.4174681 α      lambda       -0.2445208E-03
   maximum displ.:     0.2134105 α      in ANC's #2, #3, #13, ...

........................................................................
.............................. CYCLE   41 ..............................
........................................................................

 iter      E             dE          RMSdq      gap      omega  full diag
   1   -100.4097872 -0.100410E+03  0.694E-02    1.59       0.0  T
   2   -100.4097820  0.521953E-05  0.441E-02    1.60       1.0  T
   3   -100.4097773  0.467606E-05  0.341E-02    1.59       1.0  T
   4   -100.4098001 -0.227917E-04  0.132E-02    1.59       1.0  T
   5   -100.4098062 -0.604161E-05  0.471E-03    1.59       2.4  T
   6   -100.4098065 -0.334636E-06  0.311E-03    1.59       3.7  T
   7   -100.4098065 -0.110365E-07  0.223E-03    1.59       5.1  T
   8   -100.4098066 -0.733508E-07  0.115E-03    1.59      10.0  T
   9   -100.4098066 -0.435481E-07  0.484E-04    1.59      23.7  T
  10   -100.4098066 -0.122229E-08  0.275E-04    1.59      41.6  T
     SCC iter.                  ...        0 min,  0.134 sec
     gradient                   ...        0 min,  0.064 sec
 * total energy  :   -99.0744354 Eh     change       -0.1210559E-03 Eh
   gradient norm :     0.0060005 Eh/α   predicted    -0.1435728E-03 (  18.60%)
   displ. norm   :     0.2294440 α      lambda       -0.2089534E-03
   maximum displ.:     0.0914703 α      in ANC's #7, #14, #12, ...

........................................................................
.............................. CYCLE   42 ..............................
........................................................................

 iter      E             dE          RMSdq      gap      omega  full diag
   1   -100.4161445 -0.100416E+03  0.409E-02    1.58       0.0  T
   2   -100.4161465 -0.194071E-05  0.248E-02    1.59       1.0  T
   3   -100.4161466 -0.185626E-06  0.181E-02    1.58       1.0  T
   4   -100.4161523 -0.566444E-05  0.798E-03    1.58       1.4  T
   5   -100.4161538 -0.145178E-05  0.403E-03    1.58       2.8  T
   6   -100.4161543 -0.519021E-06  0.152E-03    1.58       7.5  T
   7   -100.4161543  0.237444E-07  0.129E-03    1.58       8.9  T
   8   -100.4161543 -0.393040E-07  0.694E-04    1.58      16.5  T
   9   -100.4161543 -0.712292E-08  0.439E-04    1.58      26.1  T
  10   -100.4161543 -0.354608E-08  0.237E-04    1.58      48.3  T
     SCC iter.                  ...        0 min,  0.139 sec
     gradient                   ...        0 min,  0.076 sec
 * total energy  :   -99.0745272 Eh     change       -0.9179104E-04 Eh
   gradient norm :     0.0068825 Eh/α   predicted    -0.1099779E-03 (  19.81%)
   displ. norm   :     0.1559766 α      lambda       -0.1513908E-03
   maximum displ.:     0.0594627 α      in ANC's #13, #2, #8, ...
 * RMSD in coord.:     0.9734874 α      energy gain  -0.1925663E-01 Eh

generating ANC from exact Hessian ...
Using Lindh-Hessian (1995)
 Shifting diagonal of input Hessian by    9.9187619156688549E-003
 Lowest  eigenvalues of input Hessian
    0.000000    0.000000    0.000000    0.000000    0.000000    0.000000
    0.010000    0.010069    0.010111    0.010231    0.010238    0.010300
    0.010554    0.010617    0.010668    0.010910    0.010968    0.011003
 Highest eigenvalues
    1.617540    1.899096    2.002333    2.025609    2.391211    2.411662


........................................................................
.............................. CYCLE   43 ..............................
........................................................................

 iter      E             dE          RMSdq      gap      omega  full diag
   1   -100.4150007 -0.100415E+03  0.280E-02    1.59       0.0  T
   2   -100.4149988  0.191704E-05  0.219E-02    1.58       1.0  T
   3   -100.4150038 -0.498876E-05  0.146E-02    1.58       1.0  T
   4   -100.4150081 -0.424762E-05  0.364E-03    1.58       3.2  T
   5   -100.4150081 -0.487102E-07  0.161E-03    1.58       7.1  T
   6   -100.4150082 -0.712861E-07  0.695E-04    1.58      16.5  T
   7   -100.4150082 -0.247003E-08  0.495E-04    1.58      23.2  T
   8   -100.4150082 -0.910919E-08  0.188E-04    1.58      61.0  T
     SCC iter.                  ...        0 min,  0.105 sec
     gradient                   ...        0 min,  0.079 sec
 * total energy  :   -99.0746087 Eh     change       -0.8146944E-04 Eh
   gradient norm :     0.0081636 Eh/α   predicted     0.0000000E+00 (-100.00%)
   displ. norm   :     0.0820121 α      lambda       -0.1715686E-03
   maximum displ.:     0.0298905 α      in ANC's #6, #23, #25, ...

........................................................................
.............................. CYCLE   44 ..............................
........................................................................

 iter      E             dE          RMSdq      gap      omega  full diag
   1   -100.4144354 -0.100414E+03  0.258E-02    1.59       0.0  T
   2   -100.4144337  0.163246E-05  0.185E-02    1.59       1.0  T
   3   -100.4144378 -0.403864E-05  0.140E-02    1.59       1.0  T
   4   -100.4144428 -0.505054E-05  0.510E-03    1.59       2.2  T
   5   -100.4144427  0.873052E-07  0.235E-03    1.59       4.9  T
   6   -100.4144429 -0.164119E-06  0.931E-04    1.59      12.3  T
   7   -100.4144429 -0.658972E-09  0.794E-04    1.59      14.4  T
   8   -100.4144429 -0.172566E-07  0.414E-04    1.59      27.7  T
   9   -100.4144429 -0.134871E-08  0.264E-04    1.59      43.4  T
     SCC iter.                  ...        0 min,  0.121 sec
     gradient                   ...        0 min,  0.074 sec
 * total energy  :   -99.0747492 Eh     change       -0.1404799E-03 Eh
   gradient norm :     0.0032672 Eh/α   predicted    -0.8852872E-04 ( -36.98%)
   displ. norm   :     0.2317542 α      lambda       -0.2822207E-03
   maximum displ.:     0.0874349 α      in ANC's #6, #23, #25, ...

........................................................................
.............................. CYCLE   45 ..............................
........................................................................

 iter      E             dE          RMSdq      gap      omega  full diag
   1   -100.4132044 -0.100413E+03  0.596E-02    1.59       0.0  T
   2   -100.4132038  0.620765E-06  0.365E-02    1.60       1.0  T
   3   -100.4131792  0.245762E-04  0.360E-02    1.59       1.0  T
   4   -100.4132200 -0.407729E-04  0.109E-02    1.59       1.1  T
   5   -100.4132197  0.307636E-06  0.553E-03    1.59       2.1  T
   6   -100.4132206 -0.935487E-06  0.240E-03    1.59       4.8  T
   7   -100.4132205  0.543053E-07  0.207E-03    1.59       5.6  T
   8   -100.4132207 -0.118690E-06  0.104E-03    1.59      11.1  T
   9   -100.4132207 -0.113642E-07  0.674E-04    1.59      17.0  T
  10   -100.4132207 -0.964505E-08  0.315E-04    1.59      36.4  T
  11   -100.4132207 -0.118095E-08  0.148E-04    1.59      77.6  T
     SCC iter.                  ...        0 min,  0.146 sec
     gradient                   ...        0 min,  0.074 sec
 * total energy  :   -99.0749275 Eh     change       -0.1783573E-03 Eh
   gradient norm :     0.0061086 Eh/α   predicted    -0.1486924E-03 ( -16.63%)
   displ. norm   :     0.3725927 α      lambda       -0.3702294E-03
   maximum displ.:     0.1399466 α      in ANC's #23, #6, #25, ...

........................................................................
.............................. CYCLE   46 ..............................
........................................................................

 iter      E             dE          RMSdq      gap      omega  full diag
   1   -100.4102019 -0.100410E+03  0.105E-01    1.61       0.0  T
   2   -100.4102179 -0.159953E-04  0.547E-02    1.62       1.0  T
   3   -100.4102070  0.108659E-04  0.375E-02    1.62       1.0  T
   4   -100.4102205 -0.134674E-04  0.246E-02    1.62       1.0  T
   5   -100.4102292 -0.870156E-05  0.102E-02    1.61       1.1  T
   6   -100.4102318 -0.265826E-05  0.581E-03    1.61       2.0  T
   7   -100.4102321 -0.238784E-06  0.342E-03    1.61       3.4  T
   8   -100.4102321 -0.252739E-07  0.255E-03    1.61       4.5  T
   9   -100.4102322 -0.126834E-06  0.125E-03    1.61       9.2  T
  10   -100.4102322 -0.178345E-07  0.768E-04    1.61      14.9  T
  11   -100.4102323 -0.224312E-07  0.313E-04    1.61      36.6  T
  12   -100.4102323 -0.240343E-08  0.150E-04    1.61      76.4  T
     SCC iter.                  ...        0 min,  0.175 sec
     gradient                   ...        0 min,  0.077 sec
 * total energy  :   -99.0747771 Eh     change        0.1503719E-03 Eh
   gradient norm :     0.0152407 Eh/α   predicted    -0.2108216E-03 (-240.20%)
   displ. norm   :     0.0754392 α      lambda       -0.6260455E-03
   maximum displ.:     0.0304060 α      in ANC's #31, #26, #32, ...

........................................................................
.............................. CYCLE   47 ..............................
........................................................................

 iter      E             dE          RMSdq      gap      omega  full diag
   1   -100.4125485 -0.100413E+03  0.527E-02    1.61       0.0  T
   2   -100.4125517 -0.321418E-05  0.278E-02    1.60       1.0  T
   3   -100.4125441  0.753661E-05  0.216E-02    1.61       1.0  T
   4   -100.4125536 -0.943527E-05  0.126E-02    1.61       1.0  T
   5   -100.4125564 -0.277920E-05  0.401E-03    1.61       2.9  T
   6   -100.4125564 -0.840253E-07  0.289E-03    1.61       4.0  T
   7   -100.4125565 -0.631075E-07  0.180E-03    1.61       6.4  T
   8   -100.4125565  0.321321E-07  0.153E-03    1.61       7.5  T
   9   -100.4125566 -0.821626E-07  0.639E-04    1.61      18.0  T
  10   -100.4125566 -0.254242E-08  0.362E-04    1.61      31.7  T
  11   -100.4125566 -0.259666E-08  0.174E-04    1.61      65.9  T
     SCC iter.                  ...        0 min,  0.151 sec
     gradient                   ...        0 min,  0.082 sec
 * total energy  :   -99.0751412 Eh     change       -0.3640867E-03 Eh
   gradient norm :     0.0070527 Eh/α   predicted    -0.3148049E-03 ( -13.54%)
   displ. norm   :     0.1256107 α      lambda       -0.1411276E-03
   maximum displ.:     0.0536117 α      in ANC's #6, #23, #1, ...

........................................................................
.............................. CYCLE   48 ..............................
........................................................................

 iter      E             dE          RMSdq      gap      omega  full diag
   1   -100.4135097 -0.100414E+03  0.319E-02    1.60       0.0  T
   2   -100.4135106 -0.940825E-06  0.173E-02    1.60       1.0  T
   3   -100.4135101  0.504836E-06  0.897E-03    1.60       1.3  T
   4   -100.4135101  0.280545E-07  0.535E-03    1.60       2.1  T
   5   -100.4135109 -0.794584E-06  0.254E-03    1.60       4.5  T
   6   -100.4135110 -0.131338E-06  0.168E-03    1.60       6.8  T
   7   -100.4135110 -0.182385E-07  0.107E-03    1.60      10.7  T
   8   -100.4135110 -0.161516E-07  0.450E-04    1.60      25.5  T
   9   -100.4135110 -0.899831E-09  0.321E-04    1.60      35.7  T
     SCC iter.                  ...        0 min,  0.138 sec
     gradient                   ...        0 min,  0.067 sec
 * total energy  :   -99.0752465 Eh     change       -0.1052384E-03 Eh
   gradient norm :     0.0045886 Eh/α   predicted    -0.7167761E-04 ( -31.89%)
   displ. norm   :     0.4179600 α      lambda       -0.3532096E-03
   maximum displ.:     0.1755720 α      in ANC's #6, #23, #1, ...

........................................................................
.............................. CYCLE   49 ..............................
........................................................................

 iter      E             dE          RMSdq      gap      omega  full diag
   1   -100.4150244 -0.100415E+03  0.864E-02    1.62       0.0  T
   2   -100.4150222  0.217861E-05  0.539E-02    1.61       1.0  T
   3   -100.4149474  0.748175E-04  0.518E-02    1.62       1.0  T
   4   -100.4150441 -0.966528E-04  0.846E-03    1.61       1.4  T
   5   -100.4150445 -0.409672E-06  0.483E-03    1.61       2.4  T
   6   -100.4150448 -0.311003E-06  0.375E-03    1.61       3.1  T
   7   -100.4150449 -0.151371E-06  0.253E-03    1.61       4.5  T
   8   -100.4150450 -0.922518E-07  0.159E-03    1.61       7.2  T
   9   -100.4150451 -0.472670E-07  0.772E-04    1.61      14.9  T
  10   -100.4150451 -0.823135E-08  0.395E-04    1.61      29.1  T
  11   -100.4150451 -0.196852E-08  0.166E-04    1.61      69.2  T
     SCC iter.                  ...        0 min,  0.158 sec
     gradient                   ...        0 min,  0.075 sec
 * total energy  :   -99.0754065 Eh     change       -0.1600230E-03 Eh
   gradient norm :     0.0087983 Eh/α   predicted    -0.2074570E-03 (  29.64%)
   displ. norm   :     0.2735158 α      lambda       -0.2319331E-03
   maximum displ.:     0.1127643 α      in ANC's #6, #1, #23, ...

........................................................................
.............................. CYCLE   50 ..............................
........................................................................

 iter      E             dE          RMSdq      gap      omega  full diag
   1   -100.4141027 -0.100414E+03  0.544E-02    1.60       0.0  T
   2   -100.4141039 -0.122619E-05  0.313E-02    1.61       1.0  T
   3   -100.4140792  0.247200E-04  0.268E-02    1.60       1.0  T
   4   -100.4141102 -0.310303E-04  0.779E-03    1.61       1.5  T
   5   -100.4141105 -0.311982E-06  0.335E-03    1.60       3.4  T
   6   -100.4141108 -0.259960E-06  0.209E-03    1.60       5.5  T
   7   -100.4141108 -0.306258E-07  0.153E-03    1.60       7.5  T
   8   -100.4141108 -0.274241E-08  0.110E-03    1.60      10.5  T
   9   -100.4141108 -0.283432E-07  0.558E-04    1.60      20.5  T
  10   -100.4141108 -0.510644E-08  0.298E-04    1.60      38.5  T
  11   -100.4141109 -0.180182E-08  0.105E-04    1.60     108.8  T
     SCC iter.                  ...        0 min,  0.172 sec
     gradient                   ...        0 min,  0.081 sec
 * total energy  :   -99.0755794 Eh     change       -0.1728725E-03 Eh
   gradient norm :     0.0075668 Eh/α   predicted    -0.1246428E-03 ( -27.90%)
   displ. norm   :     0.3219630 α      lambda       -0.3350978E-03
   maximum displ.:     0.1212654 α      in ANC's #1, #6, #4, ...

........................................................................
.............................. CYCLE   51 ..............................
........................................................................

 iter      E             dE          RMSdq      gap      omega  full diag
   1   -100.4165204 -0.100417E+03  0.586E-02    1.59       0.0  T
   2   -100.4165203  0.212109E-07  0.355E-02    1.60       1.0  T
   3   -100.4164931  0.272276E-04  0.313E-02    1.59       1.0  T
   4   -100.4165297 -0.366232E-04  0.759E-03    1.59       1.5  T
   5   -100.4165306 -0.823301E-06  0.240E-03    1.59       4.8  T
   6   -100.4165306 -0.407811E-07  0.199E-03    1.59       5.8  T
   7   -100.4165307 -0.994719E-07  0.115E-03    1.59       9.9  T
   8   -100.4165307 -0.554792E-08  0.826E-04    1.59      13.9  T
   9   -100.4165307 -0.873106E-08  0.495E-04    1.59      23.2  T
  10   -100.4165307 -0.388275E-08  0.268E-04    1.59      42.8  T
     SCC iter.                  ...        0 min,  0.151 sec
     gradient                   ...        0 min,  0.077 sec
 * total energy  :   -99.0757355 Eh     change       -0.1561307E-03 Eh
   gradient norm :     0.0070719 Eh/α   predicted    -0.1849198E-03 (  18.44%)
   displ. norm   :     0.5025681 α      lambda       -0.3063026E-03
   maximum displ.:     0.2075947 α      in ANC's #6, #1, #4, ...

........................................................................
.............................. CYCLE   52 ..............................
........................................................................

 iter      E             dE          RMSdq      gap      omega  full diag
   1   -100.4104661 -0.100410E+03  0.882E-02    1.60       0.0  T
   2   -100.4104666 -0.474891E-06  0.539E-02    1.60       1.0  T
   3   -100.4103762  0.903725E-04  0.503E-02    1.59       1.0  T
   4   -100.4104808 -0.104556E-03  0.900E-03    1.60       1.3  T
   5   -100.4104814 -0.604229E-06  0.500E-03    1.60       2.3  T
   6   -100.4104823 -0.906040E-06  0.192E-03    1.60       6.0  T
   7   -100.4104823  0.197248E-07  0.143E-03    1.60       8.0  T
   8   -100.4104823 -0.586410E-07  0.757E-04    1.60      15.1  T
   9   -100.4104823 -0.106525E-07  0.513E-04    1.60      22.3  T
  10   -100.4104824 -0.375655E-08  0.303E-04    1.60      37.9  T
  11   -100.4104824 -0.177938E-08  0.120E-04    1.60      95.3  T
     SCC iter.                  ...        0 min,  0.177 sec
     gradient                   ...        0 min,  0.078 sec
 * total energy  :   -99.0758665 Eh     change       -0.1309780E-03 Eh
   gradient norm :     0.0094475 Eh/α   predicted    -0.1918373E-03 (  46.47%)
   displ. norm   :     0.1008368 α      lambda       -0.2357101E-03
   maximum displ.:     0.0356366 α      in ANC's #8, #41, #4, ...

........................................................................
.............................. CYCLE   53 ..............................
........................................................................

 iter      E             dE          RMSdq      gap      omega  full diag
   1   -100.4137819 -0.100414E+03  0.279E-02    1.60       0.0  T
   2   -100.4137839 -0.195562E-05  0.151E-02    1.60       1.0  T
   3   -100.4137822  0.165561E-05  0.980E-03    1.60       1.2  T
   4   -100.4137840 -0.180443E-05  0.472E-03    1.60       2.4  T
   5   -100.4137844 -0.343843E-06  0.204E-03    1.60       5.6  T
   6   -100.4137845 -0.118029E-06  0.913E-04    1.60      12.6  T
   7   -100.4137845 -0.476339E-08  0.595E-04    1.60      19.3  T
   8   -100.4137845 -0.158177E-08  0.449E-04    1.60      25.5  T
   9   -100.4137845 -0.345497E-08  0.290E-04    1.60      39.5  T
     SCC iter.                  ...        0 min,  0.151 sec
     gradient                   ...        0 min,  0.090 sec
 * total energy  :   -99.0760240 Eh     change       -0.1575612E-03 Eh
   gradient norm :     0.0054931 Eh/α   predicted    -0.1190535E-03 ( -24.44%)
   displ. norm   :     0.3543650 α      lambda       -0.2049825E-03
   maximum displ.:     0.1371447 α      in ANC's #1, #4, #6, ...

........................................................................
.............................. CYCLE   54 ..............................
........................................................................

 iter      E             dE          RMSdq      gap      omega  full diag
   1   -100.4143942 -0.100414E+03  0.577E-02    1.60       0.0  T
   2   -100.4143954 -0.120704E-05  0.337E-02    1.60       1.0  T
   3   -100.4143924  0.304831E-05  0.101E-02    1.61       1.1  T
   4   -100.4143943 -0.192490E-05  0.674E-03    1.60       1.7  T
   5   -100.4143959 -0.163249E-05  0.150E-03    1.60       7.6  T
   6   -100.4143960 -0.376022E-07  0.902E-04    1.60      12.7  T
   7   -100.4143960 -0.943898E-08  0.565E-04    1.60      20.3  T
   8   -100.4143960 -0.132282E-08  0.385E-04    1.60      29.8  T
   9   -100.4143960 -0.172358E-08  0.270E-04    1.60      42.5  T
     SCC iter.                  ...        0 min,  0.164 sec
     gradient                   ...        0 min,  0.081 sec
 * total energy  :   -99.0761725 Eh     change       -0.1484594E-03 Eh
   gradient norm :     0.0027949 Eh/α   predicted    -0.1153623E-03 ( -22.29%)
   displ. norm   :     0.4529322 α      lambda       -0.1597964E-03
   maximum displ.:     0.1766529 α      in ANC's #1, #4, #6, ...

........................................................................
.............................. CYCLE   55 ..............................
........................................................................

 iter      E             dE          RMSdq      gap      omega  full diag
   1   -100.4130186 -0.100413E+03  0.693E-02    1.61       0.0  T
   2   -100.4130200 -0.136466E-05  0.413E-02    1.60       1.0  T
   3   -100.4130003  0.197409E-04  0.210E-02    1.61       1.0  T
   4   -100.4130217 -0.214383E-04  0.520E-03    1.60       2.2  T
   5   -100.4130224 -0.742812E-06  0.246E-03    1.60       4.7  T
   6   -100.4130226 -0.187772E-06  0.157E-03    1.60       7.3  T
   7   -100.4130227 -0.294795E-07  0.844E-04    1.60      13.6  T
   8   -100.4130227 -0.297506E-08  0.688E-04    1.60      16.7  T
   9   -100.4130227 -0.741785E-08  0.417E-04    1.60      27.5  T
  10   -100.4130227 -0.204234E-08  0.183E-04    1.60      62.6  T
     SCC iter.                  ...        0 min,  0.186 sec
     gradient                   ...        0 min,  0.096 sec
 * total energy  :   -99.0762896 Eh     change       -0.1171175E-03 Eh
   gradient norm :     0.0040585 Eh/α   predicted    -0.9629428E-04 ( -17.78%)
   displ. norm   :     0.3599454 α      lambda       -0.1392725E-03
   maximum displ.:     0.1420131 α      in ANC's #1, #4, #6, ...

........................................................................
.............................. CYCLE   56 ..............................
........................................................................

 iter      E             dE          RMSdq      gap      omega  full diag
   1   -100.4144049 -0.100414E+03  0.536E-02    1.61       0.0  T
   2   -100.4144059 -0.954053E-06  0.319E-02    1.61       1.0  T
   3   -100.4143918  0.140808E-04  0.188E-02    1.61       1.0  T
   4   -100.4144069 -0.150718E-04  0.491E-03    1.61       2.3  T
   5   -100.4144076 -0.743027E-06  0.232E-03    1.61       4.9  T
   6   -100.4144078 -0.135582E-06  0.116E-03    1.61       9.9  T
   7   -100.4144078 -0.292052E-08  0.765E-04    1.61      15.0  T
   8   -100.4144078 -0.330469E-08  0.586E-04    1.61      19.6  T
   9   -100.4144078 -0.570964E-08  0.361E-04    1.61      31.8  T
  10   -100.4144078 -0.147216E-08  0.203E-04    1.61      56.4  T
     SCC iter.                  ...        0 min,  0.179 sec
     gradient                   ...        0 min,  0.077 sec
 * total energy  :   -99.0763781 Eh     change       -0.8849177E-04 Eh
   gradient norm :     0.0042418 Eh/α   predicted    -0.7866256E-04 ( -11.11%)
   displ. norm   :     0.3986912 α      lambda       -0.1162128E-03
   maximum displ.:     0.1607166 α      in ANC's #1, #6, #4, ...

........................................................................
.............................. CYCLE   57 ..............................
........................................................................

 iter      E             dE          RMSdq      gap      omega  full diag
   1   -100.4128632 -0.100413E+03  0.642E-02    1.62       0.0  T
   2   -100.4128649 -0.173884E-05  0.383E-02    1.62       1.0  T
   3   -100.4128226  0.423527E-04  0.319E-02    1.62       1.0  T
   4   -100.4128705 -0.479437E-04  0.673E-03    1.62       1.7  T
   5   -100.4128707 -0.180890E-06  0.379E-03    1.62       3.0  T
   6   -100.4128715 -0.792204E-06  0.117E-03    1.62       9.8  T
   7   -100.4128715 -0.419853E-08  0.815E-04    1.62      14.1  T
   8   -100.4128715 -0.109229E-07  0.452E-04    1.62      25.4  T
   9   -100.4128715 -0.174107E-08  0.331E-04    1.62      34.7  T
     SCC iter.                  ...        0 min,  0.135 sec
     gradient                   ...        0 min,  0.087 sec
 * total energy  :   -99.0764385 Eh     change       -0.6035847E-04 Eh
   gradient norm :     0.0041650 Eh/α   predicted    -0.6734520E-04 (  11.58%)
   displ. norm   :     0.1795844 α      lambda       -0.1185060E-03
   maximum displ.:     0.0547491 α      in ANC's #9, #1, #2, ...

........................................................................
.............................. CYCLE   58 ..............................
........................................................................

 iter      E             dE          RMSdq      gap      omega  full diag
   1   -100.4165765 -0.100417E+03  0.388E-02    1.63       0.0  T
   2   -100.4165775 -0.100066E-05  0.224E-02    1.63       1.0  T
   3   -100.4165636  0.139538E-04  0.228E-02    1.63       1.0  T
   4   -100.4165819 -0.183259E-04  0.621E-03    1.63       1.8  T
   5   -100.4165819 -0.182601E-07  0.314E-03    1.63       3.7  T
   6   -100.4165822 -0.259156E-06  0.131E-03    1.63       8.7  T
   7   -100.4165822  0.271126E-07  0.116E-03    1.63       9.9  T
   8   -100.4165822 -0.436469E-07  0.551E-04    1.63      20.8  T
   9   -100.4165822 -0.154134E-08  0.368E-04    1.63      31.2  T
  10   -100.4165822 -0.132930E-08  0.213E-04    1.63      54.0  T
     SCC iter.                  ...        0 min,  0.175 sec
     gradient                   ...        0 min,  0.083 sec
 * total energy  :   -99.0765136 Eh     change       -0.7510854E-04 Eh
   gradient norm :     0.0032644 Eh/α   predicted    -0.6116765E-04 ( -18.56%)
   displ. norm   :     0.2493469 α      lambda       -0.8784787E-04
   maximum displ.:     0.0916029 α      in ANC's #1, #9, #6, ...

........................................................................
.............................. CYCLE   59 ..............................
........................................................................

 iter      E             dE          RMSdq      gap      omega  full diag
   1   -100.4158950 -0.100416E+03  0.469E-02    1.64       0.0  T
   2   -100.4158957 -0.672627E-06  0.276E-02    1.64       1.0  T
   3   -100.4158749  0.208032E-04  0.270E-02    1.64       1.0  T
   4   -100.4159000 -0.251074E-04  0.593E-03    1.64       1.9  T
   5   -100.4159001 -0.850626E-07  0.295E-03    1.64       3.9  T
   6   -100.4159003 -0.209837E-06  0.127E-03    1.64       9.1  T
   7   -100.4159003  0.328696E-07  0.114E-03    1.64      10.1  T
   8   -100.4159003 -0.469206E-07  0.468E-04    1.64      24.5  T
   9   -100.4159003 -0.130220E-08  0.291E-04    1.64      39.4  T
     SCC iter.                  ...        0 min,  0.172 sec
     gradient                   ...        0 min,  0.087 sec
 * total energy  :   -99.0765748 Eh     change       -0.6121399E-04 Eh
   gradient norm :     0.0034678 Eh/α   predicted    -0.4665638E-04 ( -23.78%)
   displ. norm   :     0.2355005 α      lambda       -0.8158292E-04
   maximum displ.:     0.0988696 α      in ANC's #9, #2, #10, ...

........................................................................
.............................. CYCLE   60 ..............................
........................................................................

 iter      E             dE          RMSdq      gap      omega  full diag
   1   -100.4161130 -0.100416E+03  0.442E-02    1.65       0.0  T
   2   -100.4161136 -0.620432E-06  0.256E-02    1.65       1.0  T
   3   -100.4161007  0.129295E-04  0.202E-02    1.65       1.0  T
   4   -100.4161150 -0.143278E-04  0.431E-03    1.65       2.7  T
   5   -100.4161152 -0.206576E-06  0.187E-03    1.65       6.1  T
   6   -100.4161153 -0.558022E-07  0.968E-04    1.65      11.9  T
   7   -100.4161153  0.131922E-07  0.727E-04    1.65      15.8  T
   8   -100.4161153 -0.194072E-07  0.382E-04    1.65      30.0  T
   9   -100.4161153 -0.182416E-08  0.210E-04    1.65      54.6  T
     SCC iter.                  ...        0 min,  0.147 sec
     gradient                   ...        0 min,  0.070 sec
 * total energy  :   -99.0766367 Eh     change       -0.6190586E-04 Eh
   gradient norm :     0.0040252 Eh/α   predicted    -0.4305489E-04 ( -30.45%)
   displ. norm   :     0.2903694 α      lambda       -0.9195383E-04
   maximum displ.:     0.1287189 α      in ANC's #9, #10, #2, ...

........................................................................
.............................. CYCLE   61 ..............................
........................................................................

 iter      E             dE          RMSdq      gap      omega  full diag
   1   -100.4148081 -0.100415E+03  0.520E-02    1.65       0.0  T
   2   -100.4148088 -0.732390E-06  0.303E-02    1.65       1.0  T
   3   -100.4148038  0.498568E-05  0.116E-02    1.65       1.0  T
   4   -100.4148085 -0.466324E-05  0.509E-03    1.65       2.3  T
   5   -100.4148093 -0.869449E-06  0.114E-03    1.65      10.1  T
   6   -100.4148093 -0.133542E-07  0.834E-04    1.65      13.8  T
   7   -100.4148093 -0.497455E-08  0.478E-04    1.65      24.0  T
   8   -100.4148094 -0.340953E-08  0.333E-04    1.65      34.4  T
     SCC iter.                  ...        0 min,  0.131 sec
     gradient                   ...        0 min,  0.079 sec
 * total energy  :   -99.0767020 Eh     change       -0.6535427E-04 Eh
   gradient norm :     0.0034449 Eh/α   predicted    -0.4985834E-04 ( -23.71%)
   displ. norm   :     0.2343566 α      lambda       -0.8291564E-04
   maximum displ.:     0.1048411 α      in ANC's #9, #10, #2, ...

........................................................................
.............................. CYCLE   62 ..............................
........................................................................

 iter      E             dE          RMSdq      gap      omega  full diag
   1   -100.4158860 -0.100416E+03  0.400E-02    1.65       0.0  T
   2   -100.4158869 -0.868640E-06  0.243E-02    1.65       1.0  T
   3   -100.4158767  0.101247E-04  0.199E-02    1.65       1.0  T
   4   -100.4158886 -0.118616E-04  0.435E-03    1.65       2.6  T
   5   -100.4158887 -0.135881E-06  0.266E-03    1.65       4.3  T
   6   -100.4158890 -0.277984E-06  0.883E-04    1.65      13.0  T
   7   -100.4158890 -0.367554E-08  0.581E-04    1.65      19.7  T
   8   -100.4158890 -0.200724E-08  0.380E-04    1.65      30.1  T
   9   -100.4158890 -0.263644E-08  0.276E-04    1.65      41.6  T
     SCC iter.                  ...        0 min,  0.135 sec
     gradient                   ...        0 min,  0.068 sec
 * total energy  :   -99.0767502 Eh     change       -0.4818148E-04 Eh
   gradient norm :     0.0047356 Eh/α   predicted    -0.4373808E-04 (  -9.22%)
   displ. norm   :     0.2665311 α      lambda       -0.6204195E-04
   maximum displ.:     0.1170932 α      in ANC's #9, #1, #6, ...

........................................................................
.............................. CYCLE   63 ..............................
........................................................................

 iter      E             dE          RMSdq      gap      omega  full diag
   1   -100.4133035 -0.100413E+03  0.472E-02    1.64       0.0  T
   2   -100.4133039 -0.462322E-06  0.279E-02    1.64       1.0  T
   3   -100.4132961  0.787496E-05  0.156E-02    1.64       1.0  T
   4   -100.4133045 -0.849699E-05  0.242E-03    1.64       4.7  T
   5   -100.4133046 -0.405559E-08  0.163E-03    1.64       7.0  T
   6   -100.4133046 -0.972004E-07  0.742E-04    1.64      15.5  T
   7   -100.4133046  0.632414E-08  0.568E-04    1.64      20.2  T
   8   -100.4133047 -0.117982E-07  0.310E-04    1.64      37.0  T
   9   -100.4133047 -0.552134E-09  0.228E-04    1.64      50.2  T
     SCC iter.                  ...        0 min,  0.140 sec
     gradient                   ...        0 min,  0.082 sec
 * total energy  :   -99.0767893 Eh     change       -0.3906394E-04 Eh
   gradient norm :     0.0034640 Eh/α   predicted    -0.3322516E-04 ( -14.95%)
   displ. norm   :     0.1309816 α      lambda       -0.5952433E-04
   maximum displ.:     0.0546438 α      in ANC's #9, #10, #2, ...

........................................................................
.............................. CYCLE   64 ..............................
........................................................................

 iter      E             dE          RMSdq      gap      omega  full diag
   1   -100.4151808 -0.100415E+03  0.258E-02    1.63       0.0  T
   2   -100.4151812 -0.377681E-06  0.156E-02    1.63       1.0  T
   3   -100.4151757  0.549182E-05  0.151E-02    1.63       1.0  T
   4   -100.4151824 -0.673977E-05  0.344E-03    1.63       3.3  T
   5   -100.4151824  0.229571E-07  0.212E-03    1.63       5.4  T
   6   -100.4151826 -0.174536E-06  0.464E-04    1.63      24.7  T
   7   -100.4151826  0.164903E-09  0.321E-04    1.63      35.8  T
     SCC iter.                  ...        0 min,  0.108 sec
     gradient                   ...        0 min,  0.075 sec
 * total energy  :   -99.0768283 Eh     change       -0.3904486E-04 Eh
   gradient norm :     0.0029876 Eh/α   predicted    -0.3027365E-04 ( -22.46%)
   displ. norm   :     0.2742693 α      lambda       -0.6478139E-04
   maximum displ.:     0.1159962 α      in ANC's #9, #1, #6, ...

........................................................................
.............................. CYCLE   65 ..............................
........................................................................

 iter      E             dE          RMSdq      gap      omega  full diag
   1   -100.4144497 -0.100414E+03  0.517E-02    1.63       0.0  T
   2   -100.4144502 -0.479298E-06  0.304E-02    1.63       1.0  T
   3   -100.4144422  0.805094E-05  0.136E-02    1.63       1.0  T
   4   -100.4144507 -0.852971E-05  0.219E-03    1.63       5.2  T
   5   -100.4144509 -0.165490E-06  0.114E-03    1.63      10.1  T
   6   -100.4144509 -0.403974E-07  0.502E-04    1.63      22.9  T
   7   -100.4144509  0.179364E-08  0.419E-04    1.63      27.4  T
   8   -100.4144509 -0.422934E-08  0.207E-04    1.63      55.4  T
     SCC iter.                  ...        0 min,  0.118 sec
     gradient                   ...        0 min,  0.087 sec
 * total energy  :   -99.0768734 Eh     change       -0.4504574E-04 Eh
   gradient norm :     0.0036842 Eh/α   predicted    -0.3482846E-04 ( -22.68%)
   displ. norm   :     0.2354462 α      lambda       -0.6207736E-04
   maximum displ.:     0.1011289 α      in ANC's #9, #1, #6, ...

........................................................................
.............................. CYCLE   66 ..............................
........................................................................

 iter      E             dE          RMSdq      gap      omega  full diag
   1   -100.4153321 -0.100415E+03  0.465E-02    1.63       0.0  T
   2   -100.4153326 -0.520018E-06  0.275E-02    1.63       1.0  T
   3   -100.4153259  0.668560E-05  0.130E-02    1.63       1.0  T
   4   -100.4153330 -0.704558E-05  0.303E-03    1.63       3.8  T
   5   -100.4153332 -0.246358E-06  0.115E-03    1.63      10.0  T
   6   -100.4153332 -0.158697E-07  0.757E-04    1.63      15.2  T
   7   -100.4153332 -0.288168E-08  0.517E-04    1.63      22.2  T
   8   -100.4153332 -0.357193E-08  0.323E-04    1.63      35.5  T
   9   -100.4153332 -0.135590E-08  0.203E-04    1.63      56.6  T
     SCC iter.                  ...        0 min,  0.131 sec
     gradient                   ...        0 min,  0.069 sec
 * total energy  :   -99.0769205 Eh     change       -0.4714267E-04 Eh
   gradient norm :     0.0033680 Eh/α   predicted    -0.3276093E-04 ( -30.51%)
   displ. norm   :     0.3254958 α      lambda       -0.7377091E-04
   maximum displ.:     0.1494139 α      in ANC's #9, #6, #1, ...
 * RMSD in coord.:     0.6003134 α      energy gain  -0.2393314E-02 Eh

generating ANC from exact Hessian ...
Using Lindh-Hessian (1995)
 Shifting diagonal of input Hessian by    9.9290351722136662E-003
 Lowest  eigenvalues of input Hessian
    0.000000    0.000000    0.000000    0.000000    0.000000    0.000000
    0.010000    0.010078    0.010132    0.010219    0.010286    0.010408
    0.010486    0.010673    0.010754    0.010918    0.010956    0.011094
 Highest eigenvalues
    1.615855    1.895588    1.998229    2.021690    2.369477    2.410674


........................................................................
.............................. CYCLE   67 ..............................
........................................................................

 iter      E             dE          RMSdq      gap      omega  full diag
   1   -100.4154449 -0.100415E+03  0.659E-02    1.64       0.0  T
   2   -100.4154465 -0.159073E-05  0.387E-02    1.64       1.0  T
   3   -100.4154389  0.762139E-05  0.187E-02    1.64       1.0  T
   4   -100.4154471 -0.820779E-05  0.507E-03    1.64       2.3  T
   5   -100.4154475 -0.466911E-06  0.261E-03    1.64       4.4  T
   6   -100.4154477 -0.174543E-06  0.149E-03    1.64       7.7  T
   7   -100.4154477 -0.898696E-08  0.898E-04    1.64      12.8  T
   8   -100.4154477 -0.143922E-07  0.436E-04    1.64      26.3  T
   9   -100.4154477 -0.315822E-09  0.253E-04    1.64      45.3  T
     SCC iter.                  ...        0 min,  0.145 sec
     gradient                   ...        0 min,  0.087 sec
 * total energy  :   -99.0769752 Eh     change       -0.5468260E-04 Eh
   gradient norm :     0.0035611 Eh/α   predicted     0.0000000E+00 (-100.00%)
   displ. norm   :     0.0417501 α      lambda       -0.4216177E-04
   maximum displ.:     0.0155494 α      in ANC's #24, #6, #3, ...

........................................................................
.............................. CYCLE   68 ..............................
........................................................................

 iter      E             dE          RMSdq      gap      omega  full diag
   1   -100.4161003 -0.100416E+03  0.190E-02    1.64       0.0  T
   2   -100.4161004 -0.120764E-06  0.101E-02    1.64       1.1  T
   3   -100.4160999  0.540321E-06  0.706E-03    1.64       1.6  T
   4   -100.4161001 -0.231319E-06  0.439E-03    1.64       2.6  T
   5   -100.4161011 -0.954206E-06  0.124E-03    1.64       9.3  T
   6   -100.4161011 -0.171478E-07  0.882E-04    1.64      13.0  T
   7   -100.4161011  0.391722E-09  0.575E-04    1.64      20.0  T
   8   -100.4161011 -0.499233E-08  0.346E-04    1.64      33.2  T
   9   -100.4161011 -0.323818E-08  0.151E-04    1.64      76.1  T
     SCC iter.                  ...        0 min,  0.138 sec
     gradient                   ...        0 min,  0.086 sec
 * total energy  :   -99.0770015 Eh     change       -0.2630864E-04 Eh
   gradient norm :     0.0016459 Eh/α   predicted    -0.2147599E-04 ( -18.37%)
   displ. norm   :     0.1547597 α      lambda       -0.6896826E-04
   maximum displ.:     0.0547625 α      in ANC's #6, #24, #3, ...

........................................................................
.............................. CYCLE   69 ..............................
........................................................................

 iter      E             dE          RMSdq      gap      omega  full diag
   1   -100.4175820 -0.100418E+03  0.446E-02    1.66       0.0  T
   2   -100.4175802  0.174336E-05  0.281E-02    1.66       1.0  T
   3   -100.4175622  0.180103E-04  0.280E-02    1.66       1.0  T
   4   -100.4175877 -0.254530E-04  0.404E-03    1.66       2.8  T
   5   -100.4175877 -0.560588E-07  0.211E-03    1.66       5.4  T
   6   -100.4175878 -0.981396E-07  0.141E-03    1.66       8.1  T
   7   -100.4175879 -0.298311E-07  0.820E-04    1.66      14.0  T
   8   -100.4175879 -0.389424E-08  0.523E-04    1.66      21.9  T
   9   -100.4175879 -0.578002E-08  0.368E-04    1.66      31.2  T
  10   -100.4175879 -0.234682E-08  0.164E-04    1.66      69.9  T
     SCC iter.                  ...        0 min,  0.153 sec
     gradient                   ...        0 min,  0.074 sec
 * total energy  :   -99.0769998 Eh     change        0.1679783E-05 Eh
   gradient norm :     0.0063917 Eh/α   predicted    -0.3485389E-04 (*******%)
   displ. norm   :     0.0261321 α      lambda       -0.6126455E-04
   maximum displ.:     0.0093224 α      in ANC's #6, #17, #24, ...

........................................................................
.............................. CYCLE   70 ..............................
........................................................................

 iter      E             dE          RMSdq      gap      omega  full diag
   1   -100.4169352 -0.100417E+03  0.141E-02    1.66       0.0  T
   2   -100.4169349  0.281515E-06  0.924E-03    1.66       1.2  T
   3   -100.4169343  0.591819E-06  0.847E-03    1.66       1.4  T
   4   -100.4169365 -0.215630E-05  0.236E-03    1.66       4.9  T
   5   -100.4169365 -0.772786E-09  0.928E-04    1.66      12.4  T
   6   -100.4169365 -0.189310E-07  0.440E-04    1.66      26.0  T
   7   -100.4169365 -0.318963E-09  0.331E-04    1.66      34.6  T
     SCC iter.                  ...        0 min,  0.103 sec
     gradient                   ...        0 min,  0.081 sec
 * total energy  :   -99.0770450 Eh     change       -0.4519584E-04 Eh
   gradient norm :     0.0035024 Eh/α   predicted    -0.3066978E-04 ( -32.14%)
   displ. norm   :     0.0723097 α      lambda       -0.6006248E-04
   maximum displ.:     0.0325151 α      in ANC's #6, #3, #24, ...

........................................................................
.............................. CYCLE   71 ..............................
........................................................................

 iter      E             dE          RMSdq      gap      omega  full diag
   1   -100.4159485 -0.100416E+03  0.288E-02    1.65       0.0  T
   2   -100.4159466  0.186717E-05  0.194E-02    1.65       1.0  T
   3   -100.4159438  0.286930E-05  0.180E-02    1.65       1.0  T
   4   -100.4159529 -0.911107E-05  0.447E-03    1.65       2.6  T
   5   -100.4159530 -0.102357E-06  0.269E-03    1.65       4.3  T
   6   -100.4159530 -0.464994E-07  0.221E-03    1.65       5.2  T
   7   -100.4159531 -0.439860E-07  0.156E-03    1.65       7.4  T
   8   -100.4159531 -0.377721E-07  0.729E-04    1.65      15.7  T
   9   -100.4159531 -0.109544E-07  0.266E-04    1.65      43.1  T
  10   -100.4159531 -0.180277E-08  0.133E-04    1.65      86.4  T
     SCC iter.                  ...        0 min,  0.163 sec
     gradient                   ...        0 min,  0.079 sec
 * total energy  :   -99.0770606 Eh     change       -0.1552286E-04 Eh
   gradient norm :     0.0025818 Eh/α   predicted    -0.3018857E-04 (  94.48%)
   displ. norm   :     0.0956913 α      lambda       -0.7024930E-04
   maximum displ.:     0.0434341 α      in ANC's #6, #24, #3, ...

........................................................................
.............................. CYCLE   72 ..............................
........................................................................

 iter      E             dE          RMSdq      gap      omega  full diag
   1   -100.4155281 -0.100416E+03  0.320E-02    1.66       0.0  T
   2   -100.4155292 -0.106536E-05  0.172E-02    1.66       1.0  T
   3   -100.4155290  0.148130E-06  0.952E-03    1.66       1.2  T
   4   -100.4155280  0.104049E-05  0.785E-03    1.66       1.5  T
   5   -100.4155297 -0.173586E-05  0.324E-03    1.66       3.5  T
   6   -100.4155297 -0.216903E-07  0.251E-03    1.66       4.6  T
   7   -100.4155298 -0.632322E-07  0.134E-03    1.66       8.5  T
   8   -100.4155298 -0.155477E-07  0.632E-04    1.66      18.1  T
   9   -100.4155298 -0.437282E-08  0.440E-04    1.66      26.1  T
  10   -100.4155298 -0.853240E-08  0.175E-04    1.66      65.4  T
     SCC iter.                  ...        0 min,  0.139 sec
     gradient                   ...        0 min,  0.084 sec
 * total energy  :   -99.0770839 Eh     change       -0.2330412E-04 Eh
   gradient norm :     0.0034775 Eh/α   predicted    -0.3544672E-04 (  52.10%)
   displ. norm   :     0.0460858 α      lambda       -0.3383468E-04
   maximum displ.:     0.0202021 α      in ANC's #6, #3, #24, ...

........................................................................
.............................. CYCLE   73 ..............................
........................................................................

 iter      E             dE          RMSdq      gap      omega  full diag
   1   -100.4160529 -0.100416E+03  0.143E-02    1.66       0.0  T
   2   -100.4160527  0.218800E-06  0.922E-03    1.66       1.2  T
   3   -100.4160506  0.206221E-05  0.916E-03    1.66       1.3  T
   4   -100.4160534 -0.278572E-05  0.137E-03    1.66       8.4  T
   5   -100.4160534 -0.142457E-07  0.756E-04    1.66      15.2  T
   6   -100.4160534 -0.900253E-08  0.516E-04    1.66      22.3  T
   7   -100.4160534 -0.108814E-08  0.315E-04    1.66      36.4  T
   8   -100.4160534 -0.759286E-09  0.210E-04    1.66      54.5  T
     SCC iter.                  ...        0 min,  0.129 sec
     gradient                   ...        0 min,  0.096 sec
 * total energy  :   -99.0771104 Eh     change       -0.2653265E-04 Eh
   gradient norm :     0.0014975 Eh/α   predicted    -0.1695349E-04 ( -36.10%)
   displ. norm   :     0.2763127 α      lambda       -0.5691604E-04
   maximum displ.:     0.1304821 α      in ANC's #6, #3, #24, ...

........................................................................
.............................. CYCLE   74 ..............................
........................................................................

 iter      E             dE          RMSdq      gap      omega  full diag
   1   -100.4161945 -0.100416E+03  0.683E-02    1.66       0.0  T
   2   -100.4161951 -0.618880E-06  0.403E-02    1.67       1.0  T
   3   -100.4161765  0.185574E-04  0.216E-02    1.67       1.0  T
   4   -100.4161963 -0.198070E-04  0.305E-03    1.67       3.8  T
   5   -100.4161965 -0.150766E-06  0.191E-03    1.67       6.0  T
   6   -100.4161966 -0.104244E-06  0.108E-03    1.67      10.6  T
   7   -100.4161966 -0.612744E-09  0.704E-04    1.67      16.3  T
   8   -100.4161966 -0.103523E-07  0.449E-04    1.67      25.6  T
   9   -100.4161966 -0.249730E-08  0.330E-04    1.67      34.8  T
     SCC iter.                  ...        0 min,  0.152 sec
     gradient                   ...        0 min,  0.081 sec
 * total energy  :   -99.0771646 Eh     change       -0.5415892E-04 Eh
   gradient norm :     0.0022059 Eh/α   predicted    -0.2942412E-04 ( -45.67%)
   displ. norm   :     0.1977161 α      lambda       -0.3997756E-04
   maximum displ.:     0.0981500 α      in ANC's #6, #3, #24, ...

........................................................................
.............................. CYCLE   75 ..............................
........................................................................

 iter      E             dE          RMSdq      gap      omega  full diag
   1   -100.4158821 -0.100416E+03  0.472E-02    1.67       0.0  T
   2   -100.4158825 -0.416230E-06  0.275E-02    1.67       1.0  T
   3   -100.4158785  0.404942E-05  0.809E-03    1.67       1.4  T
   4   -100.4158820 -0.353814E-05  0.408E-03    1.67       2.8  T
   5   -100.4158829 -0.910810E-06  0.914E-04    1.67      12.6  T
   6   -100.4158829 -0.151864E-07  0.641E-04    1.67      17.9  T
   7   -100.4158829 -0.438499E-08  0.336E-04    1.67      34.1  T
   8   -100.4158829 -0.791502E-09  0.238E-04    1.67      48.2  T
     SCC iter.                  ...        0 min,  0.128 sec
     gradient                   ...        0 min,  0.079 sec
 * total energy  :   -99.0771986 Eh     change       -0.3409220E-04 Eh
   gradient norm :     0.0019442 Eh/α   predicted    -0.2077286E-04 ( -39.07%)
   displ. norm   :     0.4959902 α      lambda       -0.6595581E-04
   maximum displ.:     0.2521340 α      in ANC's #6, #3, #26, ...

........................................................................
.............................. CYCLE   76 ..............................
........................................................................

 iter      E             dE          RMSdq      gap      omega  full diag
   1   -100.4148292 -0.100415E+03  0.119E-01    1.67       0.0  T
   2   -100.4148318 -0.253627E-05  0.694E-02    1.67       1.0  T
   3   -100.4148160  0.158257E-04  0.170E-02    1.67       1.0  T
   4   -100.4148276 -0.116837E-04  0.106E-02    1.67       1.1  T
   5   -100.4148337 -0.609523E-05  0.266E-03    1.67       4.3  T
   6   -100.4148338 -0.664991E-07  0.209E-03    1.67       5.5  T
   7   -100.4148338 -0.313864E-07  0.115E-03    1.67      10.0  T
   8   -100.4148338 -0.119970E-07  0.919E-04    1.67      12.5  T
   9   -100.4148339 -0.202783E-07  0.463E-04    1.67      24.8  T
  10   -100.4148339 -0.126768E-08  0.258E-04    1.67      44.4  T
     SCC iter.                  ...        0 min,  0.149 sec
     gradient                   ...        0 min,  0.073 sec
 * total energy  :   -99.0772563 Eh     change       -0.5762924E-04 Eh
   gradient norm :     0.0029432 Eh/α   predicted    -0.3658440E-04 ( -36.52%)
   displ. norm   :     0.1098596 α      lambda       -0.3583691E-04
   maximum displ.:     0.0592802 α      in ANC's #6, #3, #13, ...

........................................................................
.............................. CYCLE   77 ..............................
........................................................................

 iter      E             dE          RMSdq      gap      omega  full diag
   1   -100.4163238 -0.100416E+03  0.262E-02    1.67       0.0  T
   2   -100.4163240 -0.166600E-06  0.153E-02    1.67       1.0  T
   3   -100.4163238  0.158013E-06  0.235E-03    1.67       4.9  T
   4   -100.4163240 -0.169079E-06  0.102E-03    1.67      11.2  T
   5   -100.4163240 -0.378687E-07  0.566E-04    1.67      20.3  T
   6   -100.4163241 -0.914132E-08  0.322E-04    1.67      35.6  T
   7   -100.4163241 -0.722807E-09  0.202E-04    1.67      56.7  T
     SCC iter.                  ...        0 min,  0.111 sec
     gradient                   ...        0 min,  0.070 sec
 * total energy  :   -99.0772849 Eh     change       -0.2861627E-04 Eh
   gradient norm :     0.0019712 Eh/α   predicted    -0.1813900E-04 ( -36.61%)
   displ. norm   :     0.4625183 α      lambda       -0.5835789E-04
   maximum displ.:     0.2569793 α      in ANC's #6, #3, #26, ...

........................................................................
.............................. CYCLE   78 ..............................
........................................................................

 iter      E             dE          RMSdq      gap      omega  full diag
   1   -100.4167055 -0.100417E+03  0.111E-01    1.67       0.0  T
   2   -100.4167072 -0.173708E-05  0.649E-02    1.67       1.0  T
   3   -100.4166993  0.793817E-05  0.125E-02    1.67       1.0  T
   4   -100.4167071 -0.779846E-05  0.520E-03    1.67       2.2  T
   5   -100.4167083 -0.122934E-05  0.163E-03    1.67       7.0  T
   6   -100.4167084 -0.436950E-07  0.113E-03    1.67      10.1  T
   7   -100.4167084 -0.200954E-08  0.650E-04    1.67      17.7  T
   8   -100.4167084 -0.762748E-08  0.502E-04    1.67      22.9  T
   9   -100.4167084 -0.426401E-08  0.293E-04    1.67      39.1  T
  10   -100.4167084 -0.677829E-09  0.145E-04    1.67      79.3  T
     SCC iter.                  ...        0 min,  0.148 sec
     gradient                   ...        0 min,  0.067 sec
 * total energy  :   -99.0773391 Eh     change       -0.5422784E-04 Eh
   gradient norm :     0.0018605 Eh/α   predicted    -0.3195660E-04 ( -41.07%)
   displ. norm   :     0.1940258 α      lambda       -0.2316112E-04
   maximum displ.:     0.1176739 α      in ANC's #6, #13, #3, ...

........................................................................
.............................. CYCLE   79 ..............................
........................................................................

 iter      E             dE          RMSdq      gap      omega  full diag
   1   -100.4174498 -0.100417E+03  0.473E-02    1.67       0.0  T
   2   -100.4174502 -0.413113E-06  0.276E-02    1.67       1.0  T
   3   -100.4174491  0.111261E-05  0.613E-03    1.67       1.9  T
   4   -100.4174499 -0.856715E-06  0.302E-03    1.67       3.8  T
   5   -100.4174504 -0.439914E-06  0.850E-04    1.67      13.5  T
   6   -100.4174504 -0.236431E-07  0.456E-04    1.67      25.1  T
   7   -100.4174504 -0.331539E-08  0.301E-04    1.67      38.1  T
     SCC iter.                  ...        0 min,  0.093 sec
     gradient                   ...        0 min,  0.081 sec
 * total energy  :   -99.0773633 Eh     change       -0.2418840E-04 Eh
   gradient norm :     0.0014824 Eh/α   predicted    -0.1177592E-04 ( -51.32%)
   displ. norm   :     0.2795477 α      lambda       -0.2365771E-04
   maximum displ.:     0.1765986 α      in ANC's #6, #3, #13, ...

........................................................................
.............................. CYCLE   80 ..............................
........................................................................

 iter      E             dE          RMSdq      gap      omega  full diag
   1   -100.4155434 -0.100416E+03  0.713E-02    1.67       0.0  T
   2   -100.4155442 -0.813803E-06  0.418E-02    1.67       1.0  T
   3   -100.4155402  0.406890E-05  0.122E-02    1.67       1.0  T
   4   -100.4155446 -0.440923E-05  0.271E-03    1.67       4.2  T
   5   -100.4155448 -0.211497E-06  0.153E-03    1.67       7.5  T
   6   -100.4155448 -0.491548E-07  0.875E-04    1.67      13.1  T
   7   -100.4155448 -0.278330E-08  0.638E-04    1.67      18.0  T
   8   -100.4155449 -0.614222E-08  0.388E-04    1.67      29.5  T
   9   -100.4155449 -0.240348E-09  0.267E-04    1.67      43.0  T
     SCC iter.                  ...        0 min,  0.133 sec
     gradient                   ...        0 min,  0.075 sec
 * total energy  :   -99.0773848 Eh     change       -0.2154099E-04 Eh
   gradient norm :     0.0018914 Eh/α   predicted    -0.1224015E-04 ( -43.18%)
   displ. norm   :     0.2202768 α      lambda       -0.3298851E-04
   maximum displ.:     0.1470287 α      in ANC's #6, #13, #4, ...

........................................................................
.............................. CYCLE   81 ..............................
........................................................................

 iter      E             dE          RMSdq      gap      omega  full diag
   1   -100.4166433 -0.100417E+03  0.565E-02    1.68       0.0  T
   2   -100.4166440 -0.708740E-06  0.341E-02    1.67       1.0  T
   3   -100.4166306  0.134118E-04  0.241E-02    1.68       1.0  T
   4   -100.4166456 -0.149915E-04  0.452E-03    1.68       2.5  T
   5   -100.4166462 -0.572194E-06  0.245E-03    1.67       4.7  T
   6   -100.4166464 -0.162563E-06  0.135E-03    1.68       8.5  T
   7   -100.4166463  0.133322E-07  0.106E-03    1.67      10.8  T
   8   -100.4166464 -0.280574E-07  0.593E-04    1.68      19.4  T
   9   -100.4166464 -0.222444E-08  0.369E-04    1.67      31.1  T
  10   -100.4166464 -0.300518E-08  0.186E-04    1.67      61.6  T
     SCC iter.                  ...        0 min,  0.126 sec
     gradient                   ...        0 min,  0.078 sec
 * total energy  :   -99.0774112 Eh     change       -0.2635292E-04 Eh
   gradient norm :     0.0022217 Eh/α   predicted    -0.1685112E-04 ( -36.06%)
   displ. norm   :     0.1814242 α      lambda       -0.2746997E-04
   maximum displ.:     0.1261734 α      in ANC's #6, #3, #4, ...

........................................................................
.............................. CYCLE   82 ..............................
........................................................................

 iter      E             dE          RMSdq      gap      omega  full diag
   1   -100.4157772 -0.100416E+03  0.499E-02    1.68       0.0  T
   2   -100.4157775 -0.293522E-06  0.297E-02    1.68       1.0  T
   3   -100.4157681  0.944831E-05  0.182E-02    1.68       1.0  T
   4   -100.4157781 -0.100740E-04  0.324E-03    1.68       3.5  T
   5   -100.4157785 -0.353122E-06  0.166E-03    1.68       6.9  T
   6   -100.4157786 -0.639818E-07  0.945E-04    1.68      12.1  T
   7   -100.4157786  0.772177E-08  0.701E-04    1.68      16.4  T
   8   -100.4157786 -0.135355E-07  0.361E-04    1.68      31.7  T
   9   -100.4157786 -0.905629E-09  0.236E-04    1.68      48.5  T
     SCC iter.                  ...        0 min,  0.124 sec
     gradient                   ...        0 min,  0.074 sec
 * total energy  :   -99.0774298 Eh     change       -0.1860482E-04 Eh
   gradient norm :     0.0018451 Eh/α   predicted    -0.1419117E-04 ( -23.72%)
   displ. norm   :     0.1759419 α      lambda       -0.3498249E-04
   maximum displ.:     0.0958203 α      in ANC's #6, #5, #4, ...

........................................................................
.............................. CYCLE   83 ..............................
........................................................................

 iter      E             dE          RMSdq      gap      omega  full diag
   1   -100.4167115 -0.100417E+03  0.447E-02    1.69       0.0  T
   2   -100.4167120 -0.434224E-06  0.265E-02    1.68       1.0  T
   3   -100.4167034  0.861659E-05  0.195E-02    1.69       1.0  T
   4   -100.4167128 -0.944078E-05  0.561E-03    1.69       2.0  T
   5   -100.4167137 -0.930690E-06  0.273E-03    1.68       4.2  T
   6   -100.4167139 -0.156056E-06  0.154E-03    1.68       7.4  T
   7   -100.4167139  0.154667E-07  0.105E-03    1.68      11.0  T
   8   -100.4167139 -0.285909E-07  0.543E-04    1.68      21.1  T
   9   -100.4167139 -0.600971E-08  0.329E-04    1.68      34.9  T
  10   -100.4167139 -0.298877E-08  0.189E-04    1.68      60.9  T
     SCC iter.                  ...        0 min,  0.145 sec
     gradient                   ...        0 min,  0.079 sec
 * total energy  :   -99.0774601 Eh     change       -0.3032166E-04 Eh
   gradient norm :     0.0026495 Eh/α   predicted    -0.1773351E-04 ( -41.52%)
   displ. norm   :     0.0842532 α      lambda       -0.2101587E-04
   maximum displ.:     0.0417049 α      in ANC's #6, #5, #10, ...

........................................................................
.............................. CYCLE   84 ..............................
........................................................................

 iter      E             dE          RMSdq      gap      omega  full diag
   1   -100.4167049 -0.100417E+03  0.214E-02    1.69       0.0  T
   2   -100.4167051 -0.132909E-06  0.124E-02    1.69       1.0  T
   3   -100.4167034  0.169089E-05  0.548E-03    1.69       2.1  T
   4   -100.4167048 -0.144823E-05  0.319E-03    1.69       3.6  T
   5   -100.4167052 -0.417635E-06  0.764E-04    1.69      15.0  T
   6   -100.4167052 -0.273776E-08  0.574E-04    1.69      20.0  T
   7   -100.4167052 -0.434014E-09  0.382E-04    1.69      30.0  T
   8   -100.4167052 -0.283711E-08  0.222E-04    1.69      51.7  T
     SCC iter.                  ...        0 min,  0.110 sec
     gradient                   ...        0 min,  0.073 sec
 * total energy  :   -99.0774771 Eh     change       -0.1701550E-04 Eh
   gradient norm :     0.0020888 Eh/α   predicted    -0.1058697E-04 ( -37.78%)
   displ. norm   :     0.1822330 α      lambda       -0.3899379E-04
   maximum displ.:     0.0887035 α      in ANC's #5, #6, #10, ...

........................................................................
.............................. CYCLE   85 ..............................
........................................................................

 iter      E             dE          RMSdq      gap      omega  full diag
   1   -100.4164891 -0.100416E+03  0.460E-02    1.69       0.0  T
   2   -100.4164895 -0.390653E-06  0.268E-02    1.69       1.0  T
   3   -100.4164795  0.991574E-05  0.128E-02    1.69       1.0  T
   4   -100.4164899 -0.103707E-04  0.384E-03    1.69       3.0  T
   5   -100.4164903 -0.365947E-06  0.126E-03    1.69       9.1  T
   6   -100.4164903 -0.770952E-08  0.105E-03    1.69      10.9  T
   7   -100.4164903 -0.355604E-08  0.746E-04    1.69      15.4  T
   8   -100.4164903 -0.140923E-07  0.396E-04    1.69      29.0  T
   9   -100.4164903 -0.201466E-08  0.203E-04    1.69      56.6  T
     SCC iter.                  ...        0 min,  0.124 sec
     gradient                   ...        0 min,  0.078 sec
 * total energy  :   -99.0775024 Eh     change       -0.2524737E-04 Eh
   gradient norm :     0.0014700 Eh/α   predicted    -0.2014841E-04 ( -20.20%)
   displ. norm   :     0.2346368 α      lambda       -0.2353963E-04
   maximum displ.:     0.1188243 α      in ANC's #5, #6, #4, ...

........................................................................
.............................. CYCLE   86 ..............................
........................................................................

 iter      E             dE          RMSdq      gap      omega  full diag
   1   -100.4157567 -0.100416E+03  0.651E-02    1.69       0.0  T
   2   -100.4157571 -0.442015E-06  0.382E-02    1.69       1.0  T
   3   -100.4157527  0.445150E-05  0.990E-03    1.69       1.2  T
   4   -100.4157573 -0.464499E-05  0.279E-03    1.69       4.1  T
   5   -100.4157576 -0.232656E-06  0.103E-03    1.69      11.1  T
   6   -100.4157576 -0.163629E-07  0.792E-04    1.69      14.5  T
   7   -100.4157576 -0.221557E-08  0.464E-04    1.69      24.7  T
   8   -100.4157576 -0.332248E-08  0.299E-04    1.69      38.3  T
     SCC iter.                  ...        0 min,  0.130 sec
     gradient                   ...        0 min,  0.076 sec
 * total energy  :   -99.0775230 Eh     change       -0.2060719E-04 Eh
   gradient norm :     0.0030228 Eh/α   predicted    -0.1205901E-04 ( -41.48%)
   displ. norm   :     0.1274434 α      lambda       -0.3390854E-04
   maximum displ.:     0.0767051 α      in ANC's #5, #10, #1, ...

........................................................................
.............................. CYCLE   87 ..............................
........................................................................

 iter      E             dE          RMSdq      gap      omega  full diag
   1   -100.4166505 -0.100417E+03  0.277E-02    1.69       0.0  T
   2   -100.4166507 -0.238137E-06  0.165E-02    1.69       1.0  T
   3   -100.4166488  0.189781E-05  0.929E-03    1.69       1.2  T
   4   -100.4166509 -0.213540E-05  0.166E-03    1.69       6.9  T
   5   -100.4166510 -0.401401E-07  0.116E-03    1.69       9.9  T
   6   -100.4166510 -0.485476E-07  0.427E-04    1.69      26.9  T
   7   -100.4166510 -0.399652E-09  0.298E-04    1.69      38.4  T
     SCC iter.                  ...        0 min,  0.101 sec
     gradient                   ...        0 min,  0.075 sec
 * total energy  :   -99.0775473 Eh     change       -0.2427196E-04 Eh
   gradient norm :     0.0020043 Eh/α   predicted    -0.1723053E-04 ( -29.01%)
   displ. norm   :     0.3477661 α      lambda       -0.5945390E-04
   maximum displ.:     0.1755503 α      in ANC's #5, #6, #4, ...

........................................................................
.............................. CYCLE   88 ..............................
........................................................................

 iter      E             dE          RMSdq      gap      omega  full diag
   1   -100.4147915 -0.100415E+03  0.101E-01    1.68       0.0  T
   2   -100.4147925 -0.104402E-05  0.592E-02    1.68       1.0  T
   3   -100.4147833  0.921965E-05  0.120E-02    1.68       1.0  T
   4   -100.4147924 -0.905298E-05  0.478E-03    1.68       2.4  T
   5   -100.4147935 -0.110048E-05  0.165E-03    1.68       6.9  T
   6   -100.4147935 -0.267935E-07  0.121E-03    1.68       9.5  T
   7   -100.4147935 -0.229691E-07  0.692E-04    1.68      16.6  T
   8   -100.4147935 -0.291706E-08  0.487E-04    1.68      23.5  T
   9   -100.4147935 -0.288163E-08  0.308E-04    1.68      37.2  T
     SCC iter.                  ...        0 min,  0.127 sec
     gradient                   ...        0 min,  0.082 sec
 * total energy  :   -99.0775721 Eh     change       -0.2484401E-04 Eh
   gradient norm :     0.0035091 Eh/α   predicted    -0.3332951E-04 (  34.16%)
   displ. norm   :     0.0967995 α      lambda       -0.4840188E-04
   maximum displ.:     0.0381953 α      in ANC's #8, #3, #6, ...

........................................................................
.............................. CYCLE   89 ..............................
........................................................................

 iter      E             dE          RMSdq      gap      omega  full diag
   1   -100.4168360 -0.100417E+03  0.162E-02    1.68       0.0  T
   2   -100.4168362 -0.218632E-06  0.918E-03    1.68       1.2  T
   3   -100.4168344  0.185963E-05  0.683E-03    1.68       1.7  T
   4   -100.4168364 -0.205993E-05  0.350E-03    1.68       3.3  T
   5   -100.4168367 -0.248405E-06  0.127E-03    1.68       9.0  T
   6   -100.4168367 -0.101791E-07  0.981E-04    1.68      11.7  T
   7   -100.4168367 -0.688189E-09  0.668E-04    1.68      17.2  T
   8   -100.4168367 -0.938437E-08  0.368E-04    1.68      31.2  T
   9   -100.4168367 -0.349965E-08  0.146E-04    1.68      78.4  T
     SCC iter.                  ...        0 min,  0.129 sec
     gradient                   ...        0 min,  0.079 sec
 * total energy  :   -99.0775955 Eh     change       -0.2334248E-04 Eh
   gradient norm :     0.0016191 Eh/α   predicted    -0.2442858E-04 (   4.65%)
   displ. norm   :     0.1627515 α      lambda       -0.1783219E-04
   maximum displ.:     0.0877477 α      in ANC's #5, #6, #7, ...

........................................................................
.............................. CYCLE   90 ..............................
........................................................................

 iter      E             dE          RMSdq      gap      omega  full diag
   1   -100.4160388 -0.100416E+03  0.454E-02    1.68       0.0  T
   2   -100.4160388 -0.502948E-07  0.270E-02    1.68       1.0  T
   3   -100.4160291  0.971897E-05  0.181E-02    1.68       1.0  T
   4   -100.4160395 -0.104208E-04  0.259E-03    1.68       4.4  T
   5   -100.4160397 -0.182787E-06  0.129E-03    1.68       8.9  T
   6   -100.4160398 -0.490526E-07  0.640E-04    1.68      17.9  T
   7   -100.4160398  0.633753E-08  0.532E-04    1.68      21.6  T
   8   -100.4160398 -0.959612E-08  0.278E-04    1.68      41.3  T
   9   -100.4160398  0.114596E-09  0.200E-04    1.68      57.4  T
     SCC iter.                  ...        0 min,  0.132 sec
     gradient                   ...        0 min,  0.078 sec
 * total energy  :   -99.0776163 Eh     change       -0.2084926E-04 Eh
   gradient norm :     0.0017760 Eh/α   predicted    -0.9024789E-05 ( -56.71%)
   displ. norm   :     0.5217502 α      lambda       -0.6042228E-04
   maximum displ.:     0.2845619 α      in ANC's #5, #7, #6, ...

........................................................................
.............................. CYCLE   91 ..............................
........................................................................

 iter      E             dE          RMSdq      gap      omega  full diag
   1   -100.4126369 -0.100413E+03  0.143E-01    1.69       0.0  T
   2   -100.4126378 -0.857345E-06  0.851E-02    1.69       1.0  T
   3   -100.4125364  0.101382E-03  0.602E-02    1.69       1.0  T
   4   -100.4126455 -0.109139E-03  0.990E-03    1.69       1.2  T
   5   -100.4126486 -0.301873E-05  0.481E-03    1.69       2.4  T
   6   -100.4126493 -0.709482E-06  0.222E-03    1.69       5.2  T
   7   -100.4126492  0.704412E-07  0.182E-03    1.69       6.3  T
   8   -100.4126493 -0.105985E-06  0.935E-04    1.69      12.3  T
   9   -100.4126493  0.173941E-10  0.675E-04    1.69      17.0  T
  10   -100.4126493 -0.163083E-07  0.276E-04    1.69      41.6  T
  11   -100.4126493 -0.930967E-09  0.900E-05    1.69     127.5  T
     SCC iter.                  ...        0 min,  0.160 sec
     gradient                   ...        0 min,  0.075 sec
 * total energy  :   -99.0776355 Eh     change       -0.1915171E-04 Eh
   gradient norm :     0.0057438 Eh/α   predicted    -0.3387001E-04 (  76.85%)
   displ. norm   :     0.1118671 α      lambda       -0.6858782E-04
   maximum displ.:     0.0764339 α      in ANC's #6, #5, #4, ...

........................................................................
.............................. CYCLE   92 ..............................
........................................................................

 iter      E             dE          RMSdq      gap      omega  full diag
   1   -100.4156881 -0.100416E+03  0.307E-02    1.69       0.0  T
   2   -100.4156883 -0.216494E-06  0.180E-02    1.69       1.0  T
   3   -100.4156876  0.710992E-06  0.517E-03    1.69       2.2  T
   4   -100.4156883 -0.692923E-06  0.173E-03    1.69       6.6  T
   5   -100.4156884 -0.123973E-06  0.630E-04    1.69      18.2  T
   6   -100.4156884 -0.161325E-07  0.286E-04    1.69      40.2  T
   7   -100.4156884 -0.258268E-09  0.186E-04    1.69      61.6  T
     SCC iter.                  ...        0 min,  0.104 sec
     gradient                   ...        0 min,  0.073 sec
 * total energy  :   -99.0776719 Eh     change       -0.3644791E-04 Eh
   gradient norm :     0.0031443 Eh/α   predicted    -0.3472613E-04 (  -4.72%)
   displ. norm   :     0.1700517 α      lambda       -0.4975853E-04
   maximum displ.:     0.0981092 α      in ANC's #5, #7, #4, ...
 * RMSD in coord.:     0.4195440 α      energy gain  -0.7513776E-03 Eh

generating ANC from exact Hessian ...
Using Lindh-Hessian (1995)
 Shifting diagonal of input Hessian by    9.9416570197740865E-003
 Lowest  eigenvalues of input Hessian
    0.000000    0.000000    0.000000    0.000000    0.000000    0.000000
    0.010000    0.010085    0.010142    0.010202    0.010287    0.010389
    0.010525    0.010677    0.010798    0.010919    0.010955    0.011084
 Highest eigenvalues
    1.610915    1.892803    1.996750    2.018528    2.372541    2.409862


........................................................................
.............................. CYCLE   93 ..............................
........................................................................

 iter      E             dE          RMSdq      gap      omega  full diag
   1   -100.4158118 -0.100416E+03  0.428E-02    1.69       0.0  T
   2   -100.4158121 -0.311419E-06  0.256E-02    1.69       1.0  T
   3   -100.4158006  0.114993E-04  0.186E-02    1.69       1.0  T
   4   -100.4158132 -0.125812E-04  0.327E-03    1.69       3.5  T
   5   -100.4158133 -0.121922E-06  0.186E-03    1.69       6.2  T
   6   -100.4158135 -0.141249E-06  0.472E-04    1.69      24.3  T
   7   -100.4158135  0.719481E-09  0.353E-04    1.69      32.5  T
     SCC iter.                  ...        0 min,  0.098 sec
     gradient                   ...        0 min,  0.066 sec
 * total energy  :   -99.0776954 Eh     change       -0.2353179E-04 Eh
   gradient norm :     0.0037169 Eh/α   predicted     0.0000000E+00 (-100.00%)
   displ. norm   :     0.0347306 α      lambda       -0.3794953E-04
   maximum displ.:     0.0135210 α      in ANC's #6, #23, #5, ...

........................................................................
.............................. CYCLE   94 ..............................
........................................................................

 iter      E             dE          RMSdq      gap      omega  full diag
   1   -100.4168114 -0.100417E+03  0.188E-02    1.69       0.0  T
   2   -100.4168116 -0.202368E-06  0.109E-02    1.69       1.0  T
   3   -100.4168100  0.157461E-05  0.857E-03    1.69       1.3  T
   4   -100.4168119 -0.194137E-05  0.325E-03    1.69       3.5  T
   5   -100.4168120 -0.107327E-06  0.193E-03    1.69       5.9  T
   6   -100.4168121 -0.826492E-07  0.121E-03    1.69       9.5  T
   7   -100.4168121  0.980208E-09  0.831E-04    1.69      13.8  T
   8   -100.4168121 -0.951974E-08  0.591E-04    1.69      19.4  T
   9   -100.4168121 -0.729514E-08  0.253E-04    1.69      45.3  T
  10   -100.4168121 -0.811795E-09  0.156E-04    1.69      73.5  T
     SCC iter.                  ...        0 min,  0.142 sec
     gradient                   ...        0 min,  0.076 sec
 * total energy  :   -99.0777041 Eh     change       -0.8668134E-05 Eh
   gradient norm :     0.0025715 Eh/α   predicted    -0.1902983E-04 ( 119.54%)
   displ. norm   :     0.0551304 α      lambda       -0.5718996E-04
   maximum displ.:     0.0252677 α      in ANC's #6, #5, #12, ...

........................................................................
.............................. CYCLE   95 ..............................
........................................................................

 iter      E             dE          RMSdq      gap      omega  full diag
   1   -100.4183601 -0.100418E+03  0.222E-02    1.69       0.0  T
   2   -100.4183604 -0.341746E-06  0.128E-02    1.69       1.0  T
   3   -100.4183593  0.117580E-05  0.721E-03    1.69       1.6  T
   4   -100.4183602 -0.890989E-06  0.414E-03    1.69       2.8  T
   5   -100.4183608 -0.605688E-06  0.190E-03    1.69       6.1  T
   6   -100.4183608 -0.152889E-07  0.144E-03    1.69       8.0  T
   7   -100.4183608 -0.140859E-07  0.991E-04    1.69      11.6  T
   8   -100.4183608 -0.506979E-08  0.645E-04    1.69      17.8  T
   9   -100.4183608 -0.131106E-07  0.249E-04    1.69      46.0  T
  10   -100.4183608 -0.113468E-08  0.111E-04    1.69     103.3  T
     SCC iter.                  ...        0 min,  0.153 sec
     gradient                   ...        0 min,  0.078 sec
 * total energy  :   -99.0777149 Eh     change       -0.1079128E-04 Eh
   gradient norm :     0.0033325 Eh/α   predicted    -0.2870004E-04 ( 165.96%)
   displ. norm   :     0.0173784 α      lambda       -0.2627505E-04
   maximum displ.:     0.0065711 α      in ANC's #58, #44, #6, ...

........................................................................
.............................. CYCLE   96 ..............................
........................................................................

 iter      E             dE          RMSdq      gap      omega  full diag
   1   -100.4174383 -0.100417E+03  0.108E-02    1.69       0.0  T
   2   -100.4174384 -0.639716E-07  0.632E-03    1.69       1.8  T
   3   -100.4174380  0.355509E-06  0.412E-03    1.69       2.8  T
   4   -100.4174383 -0.290984E-06  0.241E-03    1.69       4.8  T
   5   -100.4174385 -0.171804E-06  0.103E-03    1.69      11.1  T
   6   -100.4174385  0.384631E-09  0.746E-04    1.69      15.4  T
   7   -100.4174385 -0.575653E-08  0.498E-04    1.69      23.0  T
   8   -100.4174385 -0.534462E-08  0.235E-04    1.69      48.9  T
     SCC iter.                  ...        0 min,  0.123 sec
     gradient                   ...        0 min,  0.077 sec
 * total energy  :   -99.0777297 Eh     change       -0.1476260E-04 Eh
   gradient norm :     0.0011081 Eh/α   predicted    -0.1314161E-04 ( -10.98%)
   displ. norm   :     0.0603246 α      lambda       -0.2154879E-04
   maximum displ.:     0.0281242 α      in ANC's #6, #5, #11, ...

........................................................................
.............................. CYCLE   97 ..............................
........................................................................

 iter      E             dE          RMSdq      gap      omega  full diag
   1   -100.4159532 -0.100416E+03  0.278E-02    1.69       0.0  T
   2   -100.4159538 -0.651259E-06  0.148E-02    1.69       1.0  T
   3   -100.4159537  0.659045E-07  0.772E-03    1.69       1.5  T
   4   -100.4159536  0.165130E-06  0.418E-03    1.69       2.7  T
   5   -100.4159540 -0.458572E-06  0.210E-03    1.69       5.5  T
   6   -100.4159541 -0.412678E-07  0.167E-03    1.69       6.9  T
   7   -100.4159541 -0.303117E-07  0.911E-04    1.69      12.6  T
   8   -100.4159541 -0.234591E-08  0.554E-04    1.69      20.7  T
   9   -100.4159541 -0.867912E-08  0.244E-04    1.69      47.0  T
  10   -100.4159541 -0.419575E-09  0.163E-04    1.69      70.3  T
     SCC iter.                  ...        0 min,  0.149 sec
     gradient                   ...        0 min,  0.064 sec
 * total energy  :   -99.0777134 Eh     change        0.1626001E-04 Eh
   gradient norm :     0.0032395 Eh/α   predicted    -0.1079210E-04 (-166.37%)
   displ. norm   :     0.0349398 α      lambda       -0.4122186E-04
   maximum displ.:     0.0163969 α      in ANC's #6, #5, #11, ...

........................................................................
.............................. CYCLE   98 ..............................
........................................................................

 iter      E             dE          RMSdq      gap      omega  full diag
   1   -100.4165338 -0.100417E+03  0.137E-02    1.69       0.0  T
   2   -100.4165339 -0.130752E-06  0.756E-03    1.69       1.5  T
   3   -100.4165337  0.216772E-06  0.411E-03    1.69       2.8  T
   4   -100.4165336  0.803634E-07  0.307E-03    1.69       3.7  T
   5   -100.4165340 -0.395130E-06  0.107E-03    1.69      10.7  T
   6   -100.4165340 -0.380827E-08  0.806E-04    1.69      14.2  T
   7   -100.4165340 -0.311023E-08  0.567E-04    1.69      20.2  T
   8   -100.4165340 -0.367872E-08  0.341E-04    1.69      33.7  T
   9   -100.4165341 -0.471620E-08  0.115E-04    1.69      99.4  T
     SCC iter.                  ...        0 min,  0.134 sec
     gradient                   ...        0 min,  0.066 sec
 * total energy  :   -99.0777436 Eh     change       -0.3018538E-04 Eh
   gradient norm :     0.0014822 Eh/α   predicted    -0.2063631E-04 ( -31.63%)
   displ. norm   :     0.1051187 α      lambda       -0.2498893E-04
   maximum displ.:     0.0545862 α      in ANC's #6, #5, #11, ...

........................................................................
.............................. CYCLE   99 ..............................
........................................................................

 iter      E             dE          RMSdq      gap      omega  full diag
   1   -100.4173227 -0.100417E+03  0.269E-02    1.69       0.0  T
   2   -100.4173229 -0.224084E-06  0.154E-02    1.69       1.0  T
   3   -100.4173214  0.149341E-05  0.606E-03    1.69       1.9  T
   4   -100.4173224 -0.942686E-06  0.398E-03    1.69       2.9  T
   5   -100.4173231 -0.745649E-06  0.108E-03    1.69      10.6  T
   6   -100.4173231 -0.283309E-08  0.874E-04    1.69      13.1  T
   7   -100.4173231 -0.719415E-08  0.577E-04    1.69      19.9  T
   8   -100.4173231  0.595890E-09  0.421E-04    1.69      27.3  T
   9   -100.4173232 -0.676251E-08  0.176E-04    1.69      65.1  T
     SCC iter.                  ...        0 min,  0.141 sec
     gradient                   ...        0 min,  0.083 sec
 * total energy  :   -99.0777617 Eh     change       -0.1811445E-04 Eh
   gradient norm :     0.0013014 Eh/α   predicted    -0.1255610E-04 ( -30.68%)
   displ. norm   :     0.0734687 α      lambda       -0.9438750E-05
   maximum displ.:     0.0384533 α      in ANC's #6, #5, #11, ...

........................................................................
.............................. CYCLE  100 ..............................
........................................................................

 iter      E             dE          RMSdq      gap      omega  full diag
   1   -100.4173013 -0.100417E+03  0.169E-02    1.69       0.0  T
   2   -100.4173013 -0.199172E-07  0.992E-03    1.69       1.2  T
   3   -100.4173007  0.666721E-06  0.403E-03    1.69       2.8  T
   4   -100.4173013 -0.677816E-06  0.104E-03    1.69      11.0  T
   5   -100.4173014 -0.396999E-07  0.337E-04    1.69      34.0  T
   6   -100.4173014 -0.150349E-08  0.248E-04    1.69      46.2  T
     SCC iter.                  ...        0 min,  0.095 sec
     gradient                   ...        0 min,  0.082 sec
 * total energy  :   -99.0777748 Eh     change       -0.1312030E-04 Eh
   gradient norm :     0.0010260 Eh/α   predicted    -0.4731230E-05 ( -63.94%)
   displ. norm   :     0.2855487 α      lambda       -0.3380116E-04
   maximum displ.:     0.1447794 α      in ANC's #6, #5, #11, ...

........................................................................
.............................. CYCLE  101 ..............................
........................................................................

 iter      E             dE          RMSdq      gap      omega  full diag
   1   -100.4167700 -0.100417E+03  0.685E-02    1.69       0.0  T
   2   -100.4167705 -0.472480E-06  0.400E-02    1.69       1.0  T
   3   -100.4167677  0.278860E-05  0.100E-02    1.69       1.1  T
   4   -100.4167698 -0.213635E-05  0.517E-03    1.69       2.2  T
   5   -100.4167708 -0.101853E-05  0.130E-03    1.69       8.8  T
   6   -100.4167709 -0.773255E-08  0.104E-03    1.69      11.0  T
   7   -100.4167709 -0.107810E-07  0.547E-04    1.69      21.0  T
   8   -100.4167709 -0.106357E-08  0.340E-04    1.69      33.7  T
   9   -100.4167709 -0.117747E-08  0.188E-04    1.69      60.9  T
     SCC iter.                  ...        0 min,  0.147 sec
     gradient                   ...        0 min,  0.072 sec
 * total energy  :   -99.0778125 Eh     change       -0.3771420E-04 Eh
   gradient norm :     0.0008825 Eh/α   predicted    -0.1751352E-04 ( -53.56%)
   displ. norm   :     0.3022570 α      lambda       -0.2237355E-04
   maximum displ.:     0.1518061 α      in ANC's #6, #5, #11, ...

........................................................................
.............................. CYCLE  102 ..............................
........................................................................

 iter      E             dE          RMSdq      gap      omega  full diag
   1   -100.4163049 -0.100416E+03  0.743E-02    1.70       0.0  T
   2   -100.4163054 -0.537542E-06  0.435E-02    1.70       1.0  T
   3   -100.4163048  0.614684E-06  0.460E-03    1.70       2.5  T
   4   -100.4163052 -0.409192E-06  0.318E-03    1.70       3.6  T
   5   -100.4163057 -0.448888E-06  0.112E-03    1.70      10.3  T
   6   -100.4163057 -0.115311E-07  0.779E-04    1.70      14.7  T
   7   -100.4163057 -0.350602E-08  0.478E-04    1.70      24.0  T
   8   -100.4163057  0.159905E-08  0.391E-04    1.70      29.3  T
     SCC iter.                  ...        0 min,  0.119 sec
     gradient                   ...        0 min,  0.073 sec
 * total energy  :   -99.0778360 Eh     change       -0.2351389E-04 Eh
   gradient norm :     0.0017671 Eh/α   predicted    -0.1164172E-04 ( -50.49%)
   displ. norm   :     0.2959459 α      lambda       -0.2226724E-04
   maximum displ.:     0.1458900 α      in ANC's #6, #5, #3, ...

........................................................................
.............................. CYCLE  103 ..............................
........................................................................

 iter      E             dE          RMSdq      gap      omega  full diag
   1   -100.4165850 -0.100417E+03  0.752E-02    1.70       0.0  T
   2   -100.4165855 -0.465221E-06  0.440E-02    1.70       1.0  T
   3   -100.4165836  0.186919E-05  0.720E-03    1.70       1.6  T
   4   -100.4165854 -0.179141E-05  0.287E-03    1.70       4.0  T
   5   -100.4165858 -0.373338E-06  0.960E-04    1.70      12.0  T
   6   -100.4165858 -0.138858E-07  0.691E-04    1.70      16.6  T
   7   -100.4165858 -0.171741E-08  0.468E-04    1.70      24.5  T
   8   -100.4165858 -0.157918E-08  0.360E-04    1.70      31.8  T
     SCC iter.                  ...        0 min,  0.131 sec
     gradient                   ...        0 min,  0.076 sec
 * total energy  :   -99.0778631 Eh     change       -0.2706196E-04 Eh
   gradient norm :     0.0018719 Eh/α   predicted    -0.1157205E-04 ( -57.24%)
   displ. norm   :     0.4825990 α      lambda       -0.4207614E-04
   maximum displ.:     0.2285245 α      in ANC's #6, #5, #3, ...

........................................................................
.............................. CYCLE  104 ..............................
........................................................................

 iter      E             dE          RMSdq      gap      omega  full diag
   1   -100.4164104 -0.100416E+03  0.126E-01    1.70       0.0  T
   2   -100.4164117 -0.123960E-05  0.738E-02    1.70       1.0  T
   3   -100.4164062  0.547384E-05  0.120E-02    1.70       1.0  T
   4   -100.4164117 -0.554244E-05  0.426E-03    1.70       2.7  T
   5   -100.4164125 -0.774127E-06  0.177E-03    1.70       6.5  T
   6   -100.4164126 -0.418181E-07  0.128E-03    1.70       9.0  T
   7   -100.4164126 -0.550500E-08  0.869E-04    1.70      13.2  T
   8   -100.4164126 -0.105494E-07  0.617E-04    1.70      18.6  T
   9   -100.4164126 -0.602004E-08  0.316E-04    1.70      36.3  T
  10   -100.4164126 -0.107354E-08  0.160E-04    1.70      71.6  T
     SCC iter.                  ...        0 min,  0.141 sec
     gradient                   ...        0 min,  0.073 sec
 * total energy  :   -99.0779082 Eh     change       -0.4508299E-04 Eh
   gradient norm :     0.0025294 Eh/α   predicted    -0.2321948E-04 ( -48.50%)
   displ. norm   :     0.2324345 α      lambda       -0.5513602E-04
   maximum displ.:     0.1086811 α      in ANC's #5, #3, #6, ...

........................................................................
.............................. CYCLE  105 ..............................
........................................................................

 iter      E             dE          RMSdq      gap      omega  full diag
   1   -100.4184730 -0.100418E+03  0.601E-02    1.70       0.0  T
   2   -100.4184732 -0.261997E-06  0.353E-02    1.70       1.0  T
   3   -100.4184696  0.366952E-05  0.808E-03    1.70       1.4  T
   4   -100.4184735 -0.392875E-05  0.135E-03    1.70       8.5  T
   5   -100.4184735 -0.629518E-07  0.590E-04    1.70      19.4  T
   6   -100.4184735 -0.181078E-08  0.404E-04    1.70      28.4  T
   7   -100.4184735 -0.125053E-08  0.270E-04    1.70      42.4  T
     SCC iter.                  ...        0 min,  0.106 sec
     gradient                   ...        0 min,  0.075 sec
 * total energy  :   -99.0779485 Eh     change       -0.4033178E-04 Eh
   gradient norm :     0.0016613 Eh/α   predicted    -0.2905809E-04 ( -27.95%)
   displ. norm   :     0.7626533 α      lambda       -0.6741263E-04
   maximum displ.:     0.3624446 α      in ANC's #5, #6, #3, ...

........................................................................
.............................. CYCLE  106 ..............................
........................................................................

 iter      E             dE          RMSdq      gap      omega  full diag
   1   -100.4135348 -0.100414E+03  0.205E-01    1.70       0.0  T
   2   -100.4135381 -0.327778E-05  0.120E-01    1.70       1.0  T
   3   -100.4135232  0.149060E-04  0.168E-02    1.70       1.0  T
   4   -100.4135388 -0.156431E-04  0.551E-03    1.70       2.1  T
   5   -100.4135403 -0.152900E-05  0.196E-03    1.70       5.9  T
   6   -100.4135404 -0.504425E-07  0.115E-03    1.70      10.0  T
   7   -100.4135404 -0.902934E-08  0.620E-04    1.70      18.5  T
   8   -100.4135404 -0.210724E-08  0.507E-04    1.70      22.6  T
   9   -100.4135404 -0.426283E-08  0.319E-04    1.70      35.9  T
  10   -100.4135404 -0.126154E-08  0.199E-04    1.70      57.6  T
     SCC iter.                  ...        0 min,  0.142 sec
     gradient                   ...        0 min,  0.066 sec
 * total energy  :   -99.0779643 Eh     change       -0.1581700E-04 Eh
   gradient norm :     0.0060277 Eh/α   predicted    -0.4242476E-04 ( 168.22%)
   displ. norm   :     0.1187188 α      lambda       -0.1120295E-03
   maximum displ.:     0.0619640 α      in ANC's #6, #11, #5, ...

........................................................................
.............................. CYCLE  107 ..............................
........................................................................

 iter      E             dE          RMSdq      gap      omega  full diag
   1   -100.4170260 -0.100417E+03  0.294E-02    1.70       0.0  T
   2   -100.4170263 -0.303249E-06  0.172E-02    1.70       1.0  T
   3   -100.4170255  0.746727E-06  0.525E-03    1.70       2.2  T
   4   -100.4170263 -0.788748E-06  0.160E-03    1.70       7.2  T
   5   -100.4170264 -0.776052E-07  0.631E-04    1.70      18.2  T
   6   -100.4170264 -0.138332E-07  0.245E-04    1.70      46.8  T
   7   -100.4170264 -0.667470E-09  0.136E-04    1.70      84.3  T
     SCC iter.                  ...        0 min,  0.096 sec
     gradient                   ...        0 min,  0.075 sec
 * total energy  :   -99.0780337 Eh     change       -0.6939285E-04 Eh
   gradient norm :     0.0019439 Eh/α   predicted    -0.5680479E-04 ( -18.14%)
   displ. norm   :     0.2822699 α      lambda       -0.4812208E-04
   maximum displ.:     0.1499735 α      in ANC's #3, #7, #5, ...

........................................................................
.............................. CYCLE  108 ..............................
........................................................................

 iter      E             dE          RMSdq      gap      omega  full diag
   1   -100.4183621 -0.100418E+03  0.693E-02    1.69       0.0  T
   2   -100.4183626 -0.483017E-06  0.408E-02    1.69       1.0  T
   3   -100.4183523  0.102561E-04  0.184E-02    1.69       1.0  T
   4   -100.4183633 -0.109673E-04  0.262E-03    1.69       4.4  T
   5   -100.4183633 -0.409097E-07  0.183E-03    1.69       6.3  T
   6   -100.4183634 -0.845460E-07  0.963E-04    1.69      11.9  T
   7   -100.4183634 -0.571856E-08  0.604E-04    1.69      19.0  T
   8   -100.4183634 -0.363644E-08  0.414E-04    1.69      27.7  T
   9   -100.4183634 -0.262472E-08  0.218E-04    1.69      52.6  T
     SCC iter.                  ...        0 min,  0.128 sec
     gradient                   ...        0 min,  0.076 sec
 * total energy  :   -99.0780848 Eh     change       -0.5108824E-04 Eh
   gradient norm :     0.0019230 Eh/α   predicted    -0.2491323E-04 ( -51.23%)
   displ. norm   :     0.6640280 α      lambda       -0.7548874E-04
   maximum displ.:     0.3469634 α      in ANC's #3, #5, #7, ...

........................................................................
.............................. CYCLE  109 ..............................
........................................................................

 iter      E             dE          RMSdq      gap      omega  full diag
   1   -100.4147866 -0.100415E+03  0.172E-01    1.69       0.0  T
   2   -100.4147891 -0.248046E-05  0.101E-01    1.69       1.0  T
   3   -100.4147744  0.146627E-04  0.237E-02    1.69       1.0  T
   4   -100.4147906 -0.161948E-04  0.418E-03    1.69       2.7  T
   5   -100.4147908 -0.210992E-06  0.290E-03    1.69       4.0  T
   6   -100.4147911 -0.235582E-06  0.143E-03    1.69       8.0  T
   7   -100.4147911 -0.981474E-08  0.801E-04    1.69      14.3  T
   8   -100.4147911 -0.952606E-08  0.597E-04    1.69      19.2  T
   9   -100.4147911 -0.360751E-08  0.362E-04    1.69      31.7  T
  10   -100.4147911  0.211188E-09  0.211E-04    1.69      54.4  T
     SCC iter.                  ...        0 min,  0.146 sec
     gradient                   ...        0 min,  0.064 sec
 * total energy  :   -99.0781509 Eh     change       -0.6603914E-04 Eh
   gradient norm :     0.0042847 Eh/α   predicted    -0.4514163E-04 ( -31.64%)
   displ. norm   :     0.1074993 α      lambda       -0.5460772E-04
   maximum displ.:     0.0616873 α      in ANC's #3, #7, #11, ...

........................................................................
.............................. CYCLE  110 ..............................
........................................................................

 iter      E             dE          RMSdq      gap      omega  full diag
   1   -100.4157198 -0.100416E+03  0.216E-02    1.69       0.0  T
   2   -100.4157201 -0.237981E-06  0.125E-02    1.69       1.0  T
   3   -100.4157192  0.866387E-06  0.525E-03    1.69       2.2  T
   4   -100.4157198 -0.618838E-06  0.297E-03    1.69       3.9  T
   5   -100.4157202 -0.379969E-06  0.787E-04    1.69      14.6  T
   6   -100.4157202 -0.659998E-08  0.532E-04    1.69      21.6  T
   7   -100.4157202 -0.286558E-08  0.401E-04    1.69      28.6  T
   8   -100.4157202 -0.702713E-09  0.278E-04    1.69      41.3  T
     SCC iter.                  ...        0 min,  0.120 sec
     gradient                   ...        0 min,  0.062 sec
 * total energy  :   -99.0781917 Eh     change       -0.4081464E-04 Eh
   gradient norm :     0.0029037 Eh/α   predicted    -0.2762229E-04 ( -32.32%)
   displ. norm   :     0.2877439 α      lambda       -0.6692754E-04
   maximum displ.:     0.1718406 α      in ANC's #3, #7, #5, ...

........................................................................
.............................. CYCLE  111 ..............................
........................................................................

 iter      E             dE          RMSdq      gap      omega  full diag
   1   -100.4157906 -0.100416E+03  0.628E-02    1.70       0.0  T
   2   -100.4157908 -0.183227E-06  0.372E-02    1.70       1.0  T
   3   -100.4157771  0.137533E-04  0.204E-02    1.70       1.0  T
   4   -100.4157916 -0.144932E-04  0.309E-03    1.70       3.7  T
   5   -100.4157919 -0.359447E-06  0.139E-03    1.70       8.2  T
   6   -100.4157920 -0.441233E-07  0.658E-04    1.70      17.4  T
   7   -100.4157920  0.536997E-08  0.533E-04    1.70      21.5  T
   8   -100.4157920 -0.881404E-08  0.307E-04    1.70      37.4  T
   9   -100.4157920 -0.582659E-09  0.191E-04    1.70      59.9  T
     SCC iter.                  ...        0 min,  0.132 sec
     gradient                   ...        0 min,  0.074 sec
 * total energy  :   -99.0782382 Eh     change       -0.4652630E-04 Eh
   gradient norm :     0.0024214 Eh/α   predicted    -0.3623785E-04 ( -22.11%)
   displ. norm   :     0.2657635 α      lambda       -0.5041139E-04
   maximum displ.:     0.1620502 α      in ANC's #3, #5, #7, ...

........................................................................
.............................. CYCLE  112 ..............................
........................................................................

 iter      E             dE          RMSdq      gap      omega  full diag
   1   -100.4164355 -0.100416E+03  0.561E-02    1.70       0.0  T
   2   -100.4164359 -0.433791E-06  0.332E-02    1.70       1.0  T
   3   -100.4164271  0.884908E-05  0.192E-02    1.70       1.0  T
   4   -100.4164365 -0.942720E-05  0.324E-03    1.70       3.5  T
   5   -100.4164368 -0.334073E-06  0.178E-03    1.70       6.5  T
   6   -100.4164369 -0.104258E-06  0.818E-04    1.70      14.0  T
   7   -100.4164369  0.371088E-08  0.630E-04    1.70      18.2  T
   8   -100.4164369 -0.736125E-08  0.373E-04    1.70      30.8  T
   9   -100.4164369 -0.709932E-09  0.242E-04    1.70      47.4  T
     SCC iter.                  ...        0 min,  0.148 sec
     gradient                   ...        0 min,  0.068 sec
 * total energy  :   -99.0782721 Eh     change       -0.3386835E-04 Eh
   gradient norm :     0.0021561 Eh/α   predicted    -0.2699016E-04 ( -20.31%)
   displ. norm   :     0.2574323 α      lambda       -0.3893107E-04
   maximum displ.:     0.1502731 α      in ANC's #3, #5, #6, ...

........................................................................
.............................. CYCLE  113 ..............................
........................................................................

 iter      E             dE          RMSdq      gap      omega  full diag
   1   -100.4159489 -0.100416E+03  0.570E-02    1.71       0.0  T
   2   -100.4159495 -0.533962E-06  0.336E-02    1.71       1.0  T
   3   -100.4159416  0.785904E-05  0.184E-02    1.71       1.0  T
   4   -100.4159501 -0.849874E-05  0.274E-03    1.71       4.2  T
   5   -100.4159502 -0.121724E-06  0.202E-03    1.71       5.7  T
   6   -100.4159504 -0.166581E-06  0.800E-04    1.71      14.3  T
   7   -100.4159504  0.536095E-08  0.596E-04    1.71      19.3  T
   8   -100.4159504 -0.919306E-08  0.328E-04    1.71      35.0  T
   9   -100.4159504  0.219629E-09  0.243E-04    1.71      47.3  T
     SCC iter.                  ...        0 min,  0.130 sec
     gradient                   ...        0 min,  0.079 sec
 * total energy  :   -99.0782968 Eh     change       -0.2472301E-04 Eh
   gradient norm :     0.0025267 Eh/α   predicted    -0.2075861E-04 ( -16.04%)
   displ. norm   :     0.1701982 α      lambda       -0.6183482E-04
   maximum displ.:     0.0701508 α      in ANC's #3, #13, #6, ...

........................................................................
.............................. CYCLE  114 ..............................
........................................................................

 iter      E             dE          RMSdq      gap      omega  full diag
   1   -100.4201065 -0.100420E+03  0.292E-02    1.72       0.0  T
   2   -100.4201081 -0.158466E-05  0.177E-02    1.71       1.0  T
   3   -100.4201077  0.415284E-06  0.132E-02    1.72       1.0  T
   4   -100.4201098 -0.212294E-05  0.420E-03    1.72       2.7  T
   5   -100.4201096  0.157021E-06  0.320E-03    1.72       3.6  T
   6   -100.4201101 -0.454597E-06  0.112E-03    1.72      10.3  T
   7   -100.4201101  0.353504E-08  0.818E-04    1.72      14.0  T
   8   -100.4201101 -0.112177E-07  0.502E-04    1.72      22.8  T
   9   -100.4201101 -0.700553E-09  0.337E-04    1.72      34.1  T
  10   -100.4201101 -0.371249E-08  0.156E-04    1.72      73.5  T
     SCC iter.                  ...        0 min,  0.167 sec
     gradient                   ...        0 min,  0.074 sec
 * total energy  :   -99.0783057 Eh     change       -0.8885062E-05 Eh
   gradient norm :     0.0034881 Eh/α   predicted    -0.3181499E-04 ( 258.07%)
   displ. norm   :     0.2304623 α      lambda       -0.6664119E-04
   maximum displ.:     0.1167339 α      in ANC's #3, #5, #6, ...

........................................................................
.............................. CYCLE  115 ..............................
........................................................................

 iter      E             dE          RMSdq      gap      omega  full diag
   1   -100.4170570 -0.100417E+03  0.562E-02    1.72       0.0  T
   2   -100.4170574 -0.404312E-06  0.330E-02    1.72       1.0  T
   3   -100.4170561  0.127292E-05  0.620E-03    1.72       1.9  T
   4   -100.4170575 -0.132113E-05  0.212E-03    1.72       5.4  T
   5   -100.4170576 -0.163193E-06  0.583E-04    1.72      19.7  T
   6   -100.4170576 -0.485527E-08  0.332E-04    1.72      34.6  T
   7   -100.4170576 -0.759556E-09  0.163E-04    1.72      70.2  T
     SCC iter.                  ...        0 min,  0.108 sec
     gradient                   ...        0 min,  0.071 sec
 * total energy  :   -99.0783400 Eh     change       -0.3433852E-04 Eh
   gradient norm :     0.0034118 Eh/α   predicted    -0.3509062E-04 (   2.19%)
   displ. norm   :     0.0788242 α      lambda       -0.4111580E-04
   maximum displ.:     0.0335385 α      in ANC's #6, #11, #5, ...

........................................................................
.............................. CYCLE  116 ..............................
........................................................................

 iter      E             dE          RMSdq      gap      omega  full diag
   1   -100.4158648 -0.100416E+03  0.194E-02    1.71       0.0  T
   2   -100.4158653 -0.454232E-06  0.116E-02    1.71       1.0  T
   3   -100.4158648  0.454390E-06  0.797E-03    1.71       1.4  T
   4   -100.4158656 -0.816997E-06  0.210E-03    1.71       5.5  T
   5   -100.4158656 -0.932516E-08  0.137E-03    1.71       8.3  T
   6   -100.4158657 -0.821359E-07  0.553E-04    1.71      20.7  T
   7   -100.4158657 -0.345963E-09  0.432E-04    1.71      26.5  T
   8   -100.4158657 -0.193334E-08  0.276E-04    1.71      41.6  T
     SCC iter.                  ...        0 min,  0.122 sec
     gradient                   ...        0 min,  0.086 sec
 * total energy  :   -99.0783593 Eh     change       -0.1924563E-04 Eh
   gradient norm :     0.0038088 Eh/α   predicted    -0.2068859E-04 (   7.50%)
   displ. norm   :     0.0841314 α      lambda       -0.3188840E-04
   maximum displ.:     0.0385946 α      in ANC's #6, #7, #11, ...

........................................................................
.............................. CYCLE  117 ..............................
........................................................................

 iter      E             dE          RMSdq      gap      omega  full diag
   1   -100.4163948 -0.100416E+03  0.140E-02    1.71       0.0  T
   2   -100.4163950 -0.175084E-06  0.863E-03    1.71       1.3  T
   3   -100.4163945  0.526932E-06  0.652E-03    1.71       1.8  T
   4   -100.4163952 -0.783036E-06  0.235E-03    1.71       4.9  T
   5   -100.4163953 -0.541932E-07  0.133E-03    1.71       8.6  T
   6   -100.4163954 -0.610544E-07  0.524E-04    1.71      21.9  T
   7   -100.4163954  0.342894E-09  0.389E-04    1.71      29.5  T
   8   -100.4163954 -0.288790E-08  0.190E-04    1.71      60.5  T
     SCC iter.                  ...        0 min,  0.122 sec
     gradient                   ...        0 min,  0.070 sec
 * total energy  :   -99.0783830 Eh     change       -0.2378712E-04 Eh
   gradient norm :     0.0024215 Eh/α   predicted    -0.1606015E-04 ( -32.48%)
   displ. norm   :     0.3489556 α      lambda       -0.5113905E-04
   maximum displ.:     0.1718840 α      in ANC's #3, #6, #5, ...

........................................................................
.............................. CYCLE  118 ..............................
........................................................................

 iter      E             dE          RMSdq      gap      omega  full diag
   1   -100.4161440 -0.100416E+03  0.661E-02    1.71       0.0  T
   2   -100.4161447 -0.713998E-06  0.389E-02    1.71       1.0  T
   3   -100.4161356  0.909144E-05  0.170E-02    1.71       1.0  T
   4   -100.4161451 -0.951456E-05  0.405E-03    1.71       2.8  T
   5   -100.4161455 -0.396693E-06  0.181E-03    1.71       6.3  T
   6   -100.4161456 -0.105726E-06  0.748E-04    1.71      15.3  T
   7   -100.4161456  0.201491E-08  0.548E-04    1.71      20.9  T
   8   -100.4161456 -0.588894E-08  0.329E-04    1.71      34.8  T
   9   -100.4161456  0.276970E-10  0.241E-04    1.71      47.7  T
     SCC iter.                  ...        0 min,  0.142 sec
     gradient                   ...        0 min,  0.070 sec
 * total energy  :   -99.0784186 Eh     change       -0.3552984E-04 Eh
   gradient norm :     0.0024949 Eh/α   predicted    -0.2868326E-04 ( -19.27%)
   displ. norm   :     0.3575227 α      lambda       -0.4449028E-04
   maximum displ.:     0.1853094 α      in ANC's #3, #6, #5, ...

........................................................................
.............................. CYCLE  119 ..............................
........................................................................

 iter      E             dE          RMSdq      gap      omega  full diag
   1   -100.4162753 -0.100416E+03  0.672E-02    1.71       0.0  T
   2   -100.4162759 -0.597037E-06  0.397E-02    1.71       1.0  T
   3   -100.4162611  0.147768E-04  0.222E-02    1.71       1.0  T
   4   -100.4162769 -0.157822E-04  0.381E-03    1.71       3.0  T
   5   -100.4162771 -0.194117E-06  0.219E-03    1.71       5.2  T
   6   -100.4162773 -0.172141E-06  0.756E-04    1.71      15.2  T
   7   -100.4162773  0.158364E-08  0.567E-04    1.71      20.2  T
   8   -100.4162773 -0.565076E-08  0.340E-04    1.71      33.7  T
   9   -100.4162773  0.113403E-10  0.240E-04    1.71      47.9  T
     SCC iter.                  ...        0 min,  0.141 sec
     gradient                   ...        0 min,  0.078 sec
 * total energy  :   -99.0784517 Eh     change       -0.3316489E-04 Eh
   gradient norm :     0.0023870 Eh/α   predicted    -0.2509322E-04 ( -24.34%)
   displ. norm   :     0.3364696 α      lambda       -0.4997469E-04
   maximum displ.:     0.1803310 α      in ANC's #3, #5, #6, ...

........................................................................
.............................. CYCLE  120 ..............................
........................................................................

 iter      E             dE          RMSdq      gap      omega  full diag
   1   -100.4175378 -0.100418E+03  0.632E-02    1.70       0.0  T
   2   -100.4175384 -0.660482E-06  0.377E-02    1.70       1.0  T
   3   -100.4175184  0.200389E-04  0.278E-02    1.70       1.0  T
   4   -100.4175402 -0.218253E-04  0.457E-03    1.70       2.5  T
   5   -100.4175404 -0.155326E-06  0.283E-03    1.70       4.0  T
   6   -100.4175407 -0.344446E-06  0.606E-04    1.70      18.9  T
   7   -100.4175407  0.184144E-08  0.481E-04    1.70      23.8  T
   8   -100.4175407 -0.485673E-08  0.261E-04    1.70      44.0  T
     SCC iter.                  ...        0 min,  0.125 sec
     gradient                   ...        0 min,  0.070 sec
 * total energy  :   -99.0784877 Eh     change       -0.3594374E-04 Eh
   gradient norm :     0.0017936 Eh/α   predicted    -0.2782095E-04 ( -22.60%)
   displ. norm   :     0.4665810 α      lambda       -0.3695604E-04
   maximum displ.:     0.2506146 α      in ANC's #3, #5, #6, ...
 * RMSD in coord.:     0.6696682 α      energy gain  -0.8157831E-03 Eh

generating ANC from exact Hessian ...
Using Lindh-Hessian (1995)
 Shifting diagonal of input Hessian by    9.9543011937623244E-003
 Lowest  eigenvalues of input Hessian
    0.000000    0.000000    0.000000    0.000000    0.000000    0.000000
    0.010000    0.010097    0.010149    0.010216    0.010290    0.010380
    0.010640    0.010799    0.010896    0.010935    0.011044    0.011087
 Highest eigenvalues
    1.607487    1.889654    1.992246    2.013937    2.374758    2.409408


........................................................................
.............................. CYCLE  121 ..............................
........................................................................

 iter      E             dE          RMSdq      gap      omega  full diag
   1   -100.4162966 -0.100416E+03  0.941E-02    1.70       0.0  T
   2   -100.4162974 -0.833076E-06  0.555E-02    1.70       1.0  T
   3   -100.4162798  0.175887E-04  0.249E-02    1.70       1.0  T
   4   -100.4162986 -0.187506E-04  0.348E-03    1.70       3.3  T
   5   -100.4162988 -0.212820E-06  0.196E-03    1.70       5.8  T
   6   -100.4162990 -0.148112E-06  0.600E-04    1.70      19.1  T
   7   -100.4162990  0.327759E-08  0.403E-04    1.70      28.5  T
   8   -100.4162990 -0.603103E-08  0.169E-04    1.70      67.8  T
     SCC iter.                  ...        0 min,  0.127 sec
     gradient                   ...        0 min,  0.083 sec
 * total energy  :   -99.0785161 Eh     change       -0.2845933E-04 Eh
   gradient norm :     0.0039326 Eh/α   predicted     0.0000000E+00 (-100.00%)
   displ. norm   :     0.0354671 α      lambda       -0.4904676E-04
   maximum displ.:     0.0173808 α      in ANC's #8, #5, #11, ...

........................................................................
.............................. CYCLE  122 ..............................
........................................................................

 iter      E             dE          RMSdq      gap      omega  full diag
   1   -100.4178547 -0.100418E+03  0.124E-02    1.71       0.0  T
   2   -100.4178549 -0.141035E-06  0.737E-03    1.71       1.6  T
   3   -100.4178546  0.323092E-06  0.460E-03    1.71       2.5  T
   4   -100.4178549 -0.350185E-06  0.191E-03    1.71       6.0  T
   5   -100.4178550 -0.714088E-07  0.101E-03    1.71      11.3  T
   6   -100.4178550 -0.168905E-07  0.713E-04    1.71      16.1  T
   7   -100.4178550 -0.390700E-08  0.391E-04    1.71      29.4  T
   8   -100.4178550 -0.160084E-08  0.219E-04    1.71      52.4  T
     SCC iter.                  ...        0 min,  0.105 sec
     gradient                   ...        0 min,  0.086 sec
 * total energy  :   -99.0785476 Eh     change       -0.3141109E-04 Eh
   gradient norm :     0.0014068 Eh/α   predicted    -0.2458831E-04 ( -21.72%)
   displ. norm   :     0.1092630 α      lambda       -0.4631744E-04
   maximum displ.:     0.0549991 α      in ANC's #8, #5, #11, ...

........................................................................
.............................. CYCLE  123 ..............................
........................................................................

 iter      E             dE          RMSdq      gap      omega  full diag
   1   -100.4201508 -0.100420E+03  0.418E-02    1.70       0.0  T
   2   -100.4201515 -0.669071E-06  0.241E-02    1.70       1.0  T
   3   -100.4201440  0.750312E-05  0.216E-02    1.70       1.0  T
   4   -100.4201549 -0.109111E-04  0.807E-03    1.70       1.4  T
   5   -100.4201550 -0.107631E-06  0.496E-03    1.70       2.3  T
   6   -100.4201555 -0.527068E-06  0.300E-03    1.70       3.8  T
   7   -100.4201555 -0.385926E-07  0.180E-03    1.70       6.4  T
   8   -100.4201556 -0.448813E-07  0.969E-04    1.70      11.8  T
   9   -100.4201556 -0.164083E-07  0.406E-04    1.70      28.3  T
  10   -100.4201556 -0.666574E-09  0.309E-04    1.70      37.1  T
     SCC iter.                  ...        0 min,  0.145 sec
     gradient                   ...        0 min,  0.075 sec
 * total energy  :   -99.0785121 Eh     change        0.3545081E-04 Eh
   gradient norm :     0.0053027 Eh/α   predicted    -0.2328176E-04 (-165.67%)
   displ. norm   :     0.0334201 α      lambda       -0.8760376E-04
   maximum displ.:     0.0125646 α      in ANC's #8, #31, #25, ...

........................................................................
.............................. CYCLE  124 ..............................
........................................................................

 iter      E             dE          RMSdq      gap      omega  full diag
   1   -100.4196000 -0.100420E+03  0.210E-02    1.71       0.0  T
   2   -100.4196001 -0.902129E-07  0.119E-02    1.71       1.0  T
   3   -100.4195982  0.181864E-05  0.104E-02    1.71       1.1  T
   4   -100.4196007 -0.242633E-05  0.459E-03    1.71       2.5  T
   5   -100.4196010 -0.323689E-06  0.233E-03    1.71       4.9  T
   6   -100.4196010  0.114762E-07  0.179E-03    1.71       6.4  T
   7   -100.4196010 -0.444052E-07  0.117E-03    1.71       9.8  T
   8   -100.4196011 -0.303222E-07  0.485E-04    1.71      23.7  T
   9   -100.4196011 -0.457895E-08  0.215E-04    1.71      53.4  T
     SCC iter.                  ...        0 min,  0.126 sec
     gradient                   ...        0 min,  0.090 sec
 * total energy  :   -99.0785722 Eh     change       -0.6011554E-04 Eh
   gradient norm :     0.0030119 Eh/α   predicted    -0.4385097E-04 ( -27.06%)
   displ. norm   :     0.0601266 α      lambda       -0.6200885E-04
   maximum displ.:     0.0248010 α      in ANC's #8, #25, #5, ...

........................................................................
.............................. CYCLE  125 ..............................
........................................................................

 iter      E             dE          RMSdq      gap      omega  full diag
   1   -100.4180609 -0.100418E+03  0.319E-02    1.71       0.0  T
   2   -100.4180616 -0.775876E-06  0.173E-02    1.71       1.0  T
   3   -100.4180605  0.109017E-05  0.918E-03    1.71       1.2  T
   4   -100.4180606 -0.460354E-07  0.652E-03    1.71       1.8  T
   5   -100.4180620 -0.137713E-05  0.160E-03    1.71       7.2  T
   6   -100.4180620 -0.470151E-07  0.943E-04    1.71      12.2  T
   7   -100.4180620 -0.102828E-07  0.521E-04    1.71      22.0  T
   8   -100.4180620 -0.897984E-10  0.425E-04    1.71      27.0  T
   9   -100.4180620 -0.350768E-08  0.264E-04    1.71      43.4  T
     SCC iter.                  ...        0 min,  0.114 sec
     gradient                   ...        0 min,  0.077 sec
 * total energy  :   -99.0785593 Eh     change        0.1296225E-04 Eh
   gradient norm :     0.0036253 Eh/α   predicted    -0.3111934E-04 (-340.08%)
   displ. norm   :     0.0554973 α      lambda       -0.9645170E-04
   maximum displ.:     0.0240087 α      in ANC's #8, #31, #5, ...

........................................................................
.............................. CYCLE  126 ..............................
........................................................................

 iter      E             dE          RMSdq      gap      omega  full diag
   1   -100.4176780 -0.100418E+03  0.278E-02    1.72       0.0  T
   2   -100.4176787 -0.728980E-06  0.154E-02    1.72       1.0  T
   3   -100.4176784  0.377191E-06  0.762E-03    1.72       1.5  T
   4   -100.4176784 -0.433100E-08  0.529E-03    1.72       2.2  T
   5   -100.4176790 -0.649074E-06  0.214E-03    1.72       5.4  T
   6   -100.4176791 -0.386082E-07  0.164E-03    1.72       7.0  T
   7   -100.4176791 -0.327933E-07  0.968E-04    1.72      11.8  T
   8   -100.4176791  0.658858E-09  0.632E-04    1.72      18.1  T
   9   -100.4176791 -0.952038E-08  0.301E-04    1.72      38.1  T
  10   -100.4176791 -0.963595E-09  0.209E-04    1.72      54.9  T
     SCC iter.                  ...        0 min,  0.142 sec
     gradient                   ...        0 min,  0.080 sec
 * total energy  :   -99.0786022 Eh     change       -0.4297858E-04 Eh
   gradient norm :     0.0017521 Eh/α   predicted    -0.4837764E-04 (  12.56%)
   displ. norm   :     0.0516571 α      lambda       -0.1927088E-04
   maximum displ.:     0.0250455 α      in ANC's #8, #5, #6, ...

........................................................................
.............................. CYCLE  127 ..............................
........................................................................

 iter      E             dE          RMSdq      gap      omega  full diag
   1   -100.4187917 -0.100419E+03  0.162E-02    1.71       0.0  T
   2   -100.4187919 -0.165524E-06  0.916E-03    1.71       1.3  T
   3   -100.4187914  0.426048E-06  0.483E-03    1.71       2.4  T
   4   -100.4187916 -0.169310E-06  0.314E-03    1.71       3.7  T
   5   -100.4187920 -0.394987E-06  0.123E-03    1.71       9.3  T
   6   -100.4187920 -0.142650E-07  0.996E-04    1.71      11.5  T
   7   -100.4187920 -0.570684E-08  0.561E-04    1.71      20.4  T
   8   -100.4187920 -0.212708E-09  0.404E-04    1.71      28.4  T
   9   -100.4187920 -0.629331E-08  0.154E-04    1.71      74.6  T
     SCC iter.                  ...        0 min,  0.127 sec
     gradient                   ...        0 min,  0.077 sec
 * total energy  :   -99.0786177 Eh     change       -0.1543629E-04 Eh
   gradient norm :     0.0012571 Eh/α   predicted    -0.9650892E-05 ( -37.48%)
   displ. norm   :     0.1130369 α      lambda       -0.1602001E-04
   maximum displ.:     0.0572552 α      in ANC's #8, #5, #6, ...

........................................................................
.............................. CYCLE  128 ..............................
........................................................................

 iter      E             dE          RMSdq      gap      omega  full diag
   1   -100.4184108 -0.100418E+03  0.289E-02    1.71       0.0  T
   2   -100.4184109 -0.975539E-07  0.169E-02    1.71       1.0  T
   3   -100.4184108  0.154937E-06  0.215E-03    1.71       5.3  T
   4   -100.4184109 -0.172486E-06  0.936E-04    1.71      12.3  T
   5   -100.4184110 -0.261269E-07  0.356E-04    1.71      32.3  T
   6   -100.4184110 -0.245986E-08  0.188E-04    1.71      61.0  T
     SCC iter.                  ...        0 min,  0.089 sec
     gradient                   ...        0 min,  0.071 sec
 * total energy  :   -99.0786379 Eh     change       -0.2023925E-04 Eh
   gradient norm :     0.0008690 Eh/α   predicted    -0.8056848E-05 ( -60.19%)
   displ. norm   :     0.2328067 α      lambda       -0.2485077E-04
   maximum displ.:     0.1146488 α      in ANC's #8, #5, #6, ...

........................................................................
.............................. CYCLE  129 ..............................
........................................................................

 iter      E             dE          RMSdq      gap      omega  full diag
   1   -100.4176105 -0.100418E+03  0.593E-02    1.71       0.0  T
   2   -100.4176109 -0.364134E-06  0.348E-02    1.71       1.0  T
   3   -100.4176100  0.889207E-06  0.545E-03    1.71       2.1  T
   4   -100.4176110 -0.103293E-05  0.140E-03    1.71       8.2  T
   5   -100.4176111 -0.572922E-07  0.851E-04    1.71      13.5  T
   6   -100.4176111 -0.128600E-07  0.576E-04    1.71      19.9  T
   7   -100.4176111 -0.619012E-08  0.357E-04    1.71      32.2  T
   8   -100.4176111 -0.142150E-08  0.247E-04    1.71      46.4  T
     SCC iter.                  ...        0 min,  0.122 sec
     gradient                   ...        0 min,  0.080 sec
 * total energy  :   -99.0786625 Eh     change       -0.2462295E-04 Eh
   gradient norm :     0.0011897 Eh/α   predicted    -0.1272691E-04 ( -48.31%)
   displ. norm   :     0.1319308 α      lambda       -0.1015637E-04
   maximum displ.:     0.0654657 α      in ANC's #5, #6, #8, ...

........................................................................
.............................. CYCLE  130 ..............................
........................................................................

 iter      E             dE          RMSdq      gap      omega  full diag
   1   -100.4177353 -0.100418E+03  0.332E-02    1.71       0.0  T
   2   -100.4177353 -0.755107E-07  0.197E-02    1.71       1.0  T
   3   -100.4177312  0.415390E-05  0.118E-02    1.71       1.0  T
   4   -100.4177356 -0.444496E-05  0.157E-03    1.71       7.3  T
   5   -100.4177357 -0.354942E-07  0.890E-04    1.71      12.9  T
   6   -100.4177357 -0.298772E-07  0.361E-04    1.71      31.8  T
   7   -100.4177357  0.144435E-08  0.293E-04    1.71      39.2  T
     SCC iter.                  ...        0 min,  0.098 sec
     gradient                   ...        0 min,  0.081 sec
 * total energy  :   -99.0786746 Eh     change       -0.1204011E-04 Eh
   gradient norm :     0.0011199 Eh/α   predicted    -0.5121803E-05 ( -57.46%)
   displ. norm   :     0.1432127 α      lambda       -0.1387529E-04
   maximum displ.:     0.0766904 α      in ANC's #5, #6, #25, ...

........................................................................
.............................. CYCLE  131 ..............................
........................................................................

 iter      E             dE          RMSdq      gap      omega  full diag
   1   -100.4182553 -0.100418E+03  0.345E-02    1.71       0.0  T
   2   -100.4182553 -0.812866E-07  0.207E-02    1.71       1.0  T
   3   -100.4182473  0.807584E-05  0.170E-02    1.71       1.0  T
   4   -100.4182561 -0.882144E-05  0.266E-03    1.71       4.3  T
   5   -100.4182561 -0.441307E-07  0.155E-03    1.71       7.4  T
   6   -100.4182562 -0.106291E-06  0.335E-04    1.71      34.3  T
   7   -100.4182562  0.962828E-09  0.267E-04    1.71      42.9  T
     SCC iter.                  ...        0 min,  0.110 sec
     gradient                   ...        0 min,  0.082 sec
 * total energy  :   -99.0786923 Eh     change       -0.1773640E-04 Eh
   gradient norm :     0.0006822 Eh/α   predicted    -0.7002006E-05 ( -60.52%)
   displ. norm   :     0.2651569 α      lambda       -0.2479696E-04
   maximum displ.:     0.1457984 α      in ANC's #6, #5, #25, ...

........................................................................
.............................. CYCLE  132 ..............................
........................................................................

 iter      E             dE          RMSdq      gap      omega  full diag
   1   -100.4183440 -0.100418E+03  0.618E-02    1.70       0.0  T
   2   -100.4183442 -0.150285E-06  0.370E-02    1.70       1.0  T
   3   -100.4183199  0.242238E-04  0.296E-02    1.70       1.0  T
   4   -100.4183464 -0.264409E-04  0.440E-03    1.70       2.6  T
   5   -100.4183465 -0.166849E-06  0.239E-03    1.70       4.8  T
   6   -100.4183468 -0.252210E-06  0.532E-04    1.70      21.6  T
   7   -100.4183468  0.180387E-08  0.402E-04    1.70      28.6  T
   8   -100.4183468 -0.416391E-08  0.232E-04    1.70      49.4  T
     SCC iter.                  ...        0 min,  0.103 sec
     gradient                   ...        0 min,  0.078 sec
 * total energy  :   -99.0787248 Eh     change       -0.3244967E-04 Eh
   gradient norm :     0.0012065 Eh/α   predicted    -0.1278750E-04 ( -60.59%)
   displ. norm   :     0.4724783 α      lambda       -0.4376769E-04
   maximum displ.:     0.2628948 α      in ANC's #6, #5, #25, ...

........................................................................
.............................. CYCLE  133 ..............................
........................................................................

 iter      E             dE          RMSdq      gap      omega  full diag
   1   -100.4173611 -0.100417E+03  0.106E-01    1.70       0.0  T
   2   -100.4173615 -0.412478E-06  0.630E-02    1.70       1.0  T
   3   -100.4172916  0.699634E-04  0.473E-02    1.70       1.0  T
   4   -100.4173670 -0.754396E-04  0.650E-03    1.70       1.8  T
   5   -100.4173673 -0.304657E-06  0.389E-03    1.70       2.9  T
   6   -100.4173680 -0.647157E-06  0.925E-04    1.70      12.4  T
   7   -100.4173680  0.114088E-07  0.738E-04    1.70      15.5  T
   8   -100.4173680 -0.184011E-07  0.412E-04    1.70      27.9  T
   9   -100.4173680 -0.584521E-09  0.300E-04    1.70      38.3  T
     SCC iter.                  ...        0 min,  0.138 sec
     gradient                   ...        0 min,  0.087 sec
 * total energy  :   -99.0787801 Eh     change       -0.5536108E-04 Eh
   gradient norm :     0.0025289 Eh/α   predicted    -0.2405619E-04 ( -56.55%)
   displ. norm   :     0.4233943 α      lambda       -0.6899813E-04
   maximum displ.:     0.2406720 α      in ANC's #6, #5, #25, ...

........................................................................
.............................. CYCLE  134 ..............................
........................................................................

 iter      E             dE          RMSdq      gap      omega  full diag
   1   -100.4169352 -0.100417E+03  0.855E-02    1.70       0.0  T
   2   -100.4169355 -0.276342E-06  0.507E-02    1.70       1.0  T
   3   -100.4168951  0.403771E-04  0.359E-02    1.70       1.0  T
   4   -100.4169386 -0.435051E-04  0.459E-03    1.69       2.5  T
   5   -100.4169388 -0.204695E-06  0.272E-03    1.70       4.2  T
   6   -100.4169391 -0.292590E-06  0.781E-04    1.70      14.7  T
   7   -100.4169391  0.672502E-08  0.593E-04    1.70      19.3  T
   8   -100.4169391 -0.112253E-07  0.331E-04    1.70      34.6  T
   9   -100.4169391 -0.424322E-09  0.250E-04    1.70      45.9  T
     SCC iter.                  ...        0 min,  0.133 sec
     gradient                   ...        0 min,  0.082 sec
 * total energy  :   -99.0788386 Eh     change       -0.5844704E-04 Eh
   gradient norm :     0.0033704 Eh/α   predicted    -0.4068661E-04 ( -30.39%)
   displ. norm   :     0.4935969 α      lambda       -0.1040377E-03
   maximum displ.:     0.2816822 α      in ANC's #6, #5, #3, ...

........................................................................
.............................. CYCLE  135 ..............................
........................................................................

 iter      E             dE          RMSdq      gap      omega  full diag
   1   -100.4175498 -0.100418E+03  0.870E-02    1.70       0.0  T
   2   -100.4175501 -0.324023E-06  0.514E-02    1.70       1.0  T
   3   -100.4175099  0.401907E-04  0.344E-02    1.70       1.0  T
   4   -100.4175531 -0.431754E-04  0.412E-03    1.70       2.8  T
   5   -100.4175533 -0.264904E-06  0.235E-03    1.70       4.9  T
   6   -100.4175535 -0.188317E-06  0.862E-04    1.70      13.3  T
   7   -100.4175535  0.700409E-08  0.615E-04    1.70      18.7  T
   8   -100.4175535 -0.122794E-07  0.337E-04    1.70      34.1  T
   9   -100.4175535 -0.275733E-09  0.250E-04    1.70      45.8  T
     SCC iter.                  ...        0 min,  0.155 sec
     gradient                   ...        0 min,  0.075 sec
 * total energy  :   -99.0789224 Eh     change       -0.8387008E-04 Eh
   gradient norm :     0.0031083 Eh/α   predicted    -0.6469858E-04 ( -22.86%)
   displ. norm   :     0.5345025 α      lambda       -0.1069605E-03
   maximum displ.:     0.3091487 α      in ANC's #6, #5, #3, ...

........................................................................
.............................. CYCLE  136 ..............................
........................................................................

 iter      E             dE          RMSdq      gap      omega  full diag
   1   -100.4166760 -0.100417E+03  0.976E-02    1.70       0.0  T
   2   -100.4166768 -0.711438E-06  0.574E-02    1.70       1.0  T
   3   -100.4166450  0.317547E-04  0.287E-02    1.71       1.0  T
   4   -100.4166788 -0.337915E-04  0.323E-03    1.70       3.5  T
   5   -100.4166791 -0.325088E-06  0.137E-03    1.70       8.3  T
   6   -100.4166792 -0.365643E-07  0.860E-04    1.70      13.3  T
   7   -100.4166792 -0.619200E-08  0.478E-04    1.70      24.0  T
   8   -100.4166792 -0.245143E-08  0.326E-04    1.70      35.2  T
     SCC iter.                  ...        0 min,  0.128 sec
     gradient                   ...        0 min,  0.074 sec
 * total energy  :   -99.0790086 Eh     change       -0.8612202E-04 Eh
   gradient norm :     0.0039319 Eh/α   predicted    -0.6876267E-04 ( -20.16%)
   displ. norm   :     0.4832544 α      lambda       -0.2106056E-03
   maximum displ.:     0.2562264 α      in ANC's #6, #3, #5, ...

........................................................................
.............................. CYCLE  137 ..............................
........................................................................

 iter      E             dE          RMSdq      gap      omega  full diag
   1   -100.4226111 -0.100423E+03  0.692E-02    1.72       0.0  T
   2   -100.4226137 -0.257075E-05  0.409E-02    1.72       1.0  T
   3   -100.4225970  0.166110E-04  0.273E-02    1.72       1.0  T
   4   -100.4226162 -0.191565E-04  0.454E-03    1.72       2.5  T
   5   -100.4226162  0.673937E-08  0.365E-03    1.72       3.1  T
   6   -100.4226169 -0.693281E-06  0.136E-03    1.72       8.5  T
   7   -100.4226169  0.552453E-08  0.952E-04    1.72      12.1  T
   8   -100.4226169 -0.158561E-07  0.591E-04    1.72      19.4  T
   9   -100.4226169 -0.196550E-08  0.430E-04    1.72      26.7  T
  10   -100.4226169 -0.475100E-08  0.176E-04    1.72      65.2  T
     SCC iter.                  ...        0 min,  0.156 sec
     gradient                   ...        0 min,  0.082 sec
 * total energy  :   -99.0790699 Eh     change       -0.6132797E-04 Eh
   gradient norm :     0.0046503 Eh/α   predicted    -0.1298966E-03 ( 111.81%)
   displ. norm   :     0.4898675 α      lambda       -0.2019504E-03
   maximum displ.:     0.2843708 α      in ANC's #6, #5, #3, ...

........................................................................
.............................. CYCLE  138 ..............................
........................................................................

 iter      E             dE          RMSdq      gap      omega  full diag
   1   -100.4174316 -0.100417E+03  0.100E-01    1.72       0.0  T
   2   -100.4174331 -0.155510E-05  0.590E-02    1.72       1.0  T
   3   -100.4174247  0.844773E-05  0.144E-02    1.72       1.0  T
   4   -100.4174336 -0.885582E-05  0.440E-03    1.72       2.6  T
   5   -100.4174343 -0.714217E-06  0.140E-03    1.72       8.2  T
   6   -100.4174343 -0.288283E-07  0.944E-04    1.72      12.1  T
   7   -100.4174343 -0.431395E-08  0.439E-04    1.72      26.1  T
   8   -100.4174343 -0.996792E-09  0.366E-04    1.72      31.3  T
     SCC iter.                  ...        0 min,  0.141 sec
     gradient                   ...        0 min,  0.071 sec
 * total energy  :   -99.0791901 Eh     change       -0.1202255E-03 Eh
   gradient norm :     0.0043985 Eh/α   predicted    -0.1252066E-03 (   4.14%)
   displ. norm   :     0.1563216 α      lambda       -0.5875403E-04
   maximum displ.:     0.0862806 α      in ANC's #6, #3, #5, ...

........................................................................
.............................. CYCLE  139 ..............................
........................................................................

 iter      E             dE          RMSdq      gap      omega  full diag
   1   -100.4172872 -0.100417E+03  0.297E-02    1.73       0.0  T
   2   -100.4172874 -0.176962E-06  0.173E-02    1.73       1.0  T
   3   -100.4172851  0.226267E-05  0.601E-03    1.72       1.9  T
   4   -100.4172875 -0.241623E-05  0.134E-03    1.73       8.5  T
   5   -100.4172876 -0.460701E-07  0.607E-04    1.73      18.9  T
   6   -100.4172876 -0.456561E-08  0.437E-04    1.73      26.2  T
   7   -100.4172876 -0.774847E-09  0.269E-04    1.73      42.7  T
     SCC iter.                  ...        0 min,  0.115 sec
     gradient                   ...        0 min,  0.081 sec
 * total energy  :   -99.0792416 Eh     change       -0.5150124E-04 Eh
   gradient norm :     0.0047618 Eh/α   predicted    -0.3009799E-04 ( -41.56%)
   displ. norm   :     0.3603805 α      lambda       -0.2655179E-03
   maximum displ.:     0.1442229 α      in ANC's #3, #12, #7, ...

........................................................................
.............................. CYCLE  140 ..............................
........................................................................

 iter      E             dE          RMSdq      gap      omega  full diag
   1   -100.4197031 -0.100420E+03  0.602E-02    1.73       0.0  T
   2   -100.4197040 -0.953196E-06  0.352E-02    1.73       1.0  T
   3   -100.4196688  0.352240E-04  0.281E-02    1.73       1.0  T
   4   -100.4197078 -0.390458E-04  0.480E-03    1.73       2.4  T
   5   -100.4197080 -0.182876E-06  0.191E-03    1.73       6.0  T
   6   -100.4197081 -0.411045E-07  0.135E-03    1.73       8.5  T
   7   -100.4197081 -0.234110E-07  0.875E-04    1.73      13.1  T
   8   -100.4197081 -0.145684E-07  0.555E-04    1.73      20.7  T
   9   -100.4197081 -0.337299E-08  0.276E-04    1.73      41.6  T
  10   -100.4197081 -0.566260E-09  0.179E-04    1.73      64.2  T
     SCC iter.                  ...        0 min,  0.152 sec
     gradient                   ...        0 min,  0.065 sec
 * total energy  :   -99.0793710 Eh     change       -0.1293352E-03 Eh
   gradient norm :     0.0048783 Eh/α   predicted    -0.1500027E-03 (  15.98%)
   displ. norm   :     0.5046688 α      lambda       -0.1276878E-03
   maximum displ.:     0.2920507 α      in ANC's #6, #3, #5, ...

........................................................................
.............................. CYCLE  141 ..............................
........................................................................

 iter      E             dE          RMSdq      gap      omega  full diag
   1   -100.4155183 -0.100416E+03  0.927E-02    1.73       0.0  T
   2   -100.4155196 -0.124053E-05  0.544E-02    1.73       1.0  T
   3   -100.4155128  0.675889E-05  0.163E-02    1.73       1.0  T
   4   -100.4155198 -0.700530E-05  0.444E-03    1.73       2.6  T
   5   -100.4155205 -0.701198E-06  0.149E-03    1.73       7.7  T
   6   -100.4155205 -0.339893E-07  0.848E-04    1.73      13.5  T
   7   -100.4155205 -0.129344E-08  0.558E-04    1.73      20.5  T
   8   -100.4155205 -0.545155E-08  0.311E-04    1.73      36.9  T
   9   -100.4155205  0.480327E-09  0.217E-04    1.73      53.0  T
     SCC iter.                  ...        0 min,  0.133 sec
     gradient                   ...        0 min,  0.081 sec
 * total energy  :   -99.0794379 Eh     change       -0.6697156E-04 Eh
   gradient norm :     0.0063847 Eh/α   predicted    -0.8010550E-04 (  19.61%)
   displ. norm   :     0.0815107 α      lambda       -0.8426847E-04
   maximum displ.:     0.0465252 α      in ANC's #3, #6, #4, ...

........................................................................
.............................. CYCLE  142 ..............................
........................................................................

 iter      E             dE          RMSdq      gap      omega  full diag
   1   -100.4172346 -0.100417E+03  0.161E-02    1.73       0.0  T
   2   -100.4172352 -0.598275E-06  0.104E-02    1.73       1.1  T
   3   -100.4172350  0.279579E-06  0.790E-03    1.73       1.5  T
   4   -100.4172359 -0.981557E-06  0.288E-03    1.73       4.0  T
   5   -100.4172360 -0.633083E-07  0.159E-03    1.73       7.2  T
   6   -100.4172361 -0.106243E-06  0.317E-04    1.73      36.1  T
   7   -100.4172361  0.445752E-09  0.222E-04    1.73      51.7  T
     SCC iter.                  ...        0 min,  0.113 sec
     gradient                   ...        0 min,  0.086 sec
 * total energy  :   -99.0794955 Eh     change       -0.5756668E-04 Eh
   gradient norm :     0.0049793 Eh/α   predicted    -0.4241605E-04 ( -26.32%)
   displ. norm   :     0.3117115 α      lambda       -0.1253821E-03
   maximum displ.:     0.1597413 α      in ANC's #3, #6, #5, ...

........................................................................
.............................. CYCLE  143 ..............................
........................................................................

 iter      E             dE          RMSdq      gap      omega  full diag
   1   -100.4179177 -0.100418E+03  0.547E-02    1.72       0.0  T
   2   -100.4179190 -0.123022E-05  0.338E-02    1.72       1.0  T
   3   -100.4179051  0.138598E-04  0.275E-02    1.72       1.0  T
   4   -100.4179217 -0.165618E-04  0.623E-03    1.72       1.8  T
   5   -100.4179226 -0.929732E-06  0.263E-03    1.72       4.4  T
   6   -100.4179229 -0.285166E-06  0.566E-04    1.72      20.3  T
   7   -100.4179229  0.178761E-08  0.467E-04    1.72      24.6  T
   8   -100.4179229 -0.566864E-08  0.196E-04    1.72      58.5  T
     SCC iter.                  ...        0 min,  0.113 sec
     gradient                   ...        0 min,  0.075 sec
 * total energy  :   -99.0795795 Eh     change       -0.8402321E-04 Eh
   gradient norm :     0.0037160 Eh/α   predicted    -0.6878192E-04 ( -18.14%)
   displ. norm   :     0.3893565 α      lambda       -0.1179569E-03
   maximum displ.:     0.1960907 α      in ANC's #3, #6, #5, ...

........................................................................
.............................. CYCLE  144 ..............................
........................................................................

 iter      E             dE          RMSdq      gap      omega  full diag
   1   -100.4176711 -0.100418E+03  0.707E-02    1.71       0.0  T
   2   -100.4176719 -0.821238E-06  0.435E-02    1.71       1.0  T
   3   -100.4176441  0.278030E-04  0.360E-02    1.71       1.0  T
   4   -100.4176768 -0.326173E-04  0.709E-03    1.71       1.6  T
   5   -100.4176779 -0.118295E-05  0.304E-03    1.71       3.8  T
   6   -100.4176783 -0.393748E-06  0.747E-04    1.71      15.3  T
   7   -100.4176783  0.909921E-10  0.657E-04    1.71      17.5  T
   8   -100.4176783 -0.101147E-07  0.379E-04    1.71      30.3  T
   9   -100.4176783 -0.137921E-08  0.240E-04    1.71      47.8  T
     SCC iter.                  ...        0 min,  0.143 sec
     gradient                   ...        0 min,  0.078 sec
 * total energy  :   -99.0796601 Eh     change       -0.8057083E-04 Eh
   gradient norm :     0.0043855 Eh/α   predicted    -0.6792341E-04 ( -15.70%)
   displ. norm   :     0.3667522 α      lambda       -0.1249119E-03
   maximum displ.:     0.1733131 α      in ANC's #3, #6, #25, ...

........................................................................
.............................. CYCLE  145 ..............................
........................................................................

 iter      E             dE          RMSdq      gap      omega  full diag
   1   -100.4174079 -0.100417E+03  0.697E-02    1.71       0.0  T
   2   -100.4174080 -0.149610E-06  0.426E-02    1.71       1.0  T
   3   -100.4173702  0.378605E-04  0.367E-02    1.71       1.0  T
   4   -100.4174133 -0.430803E-04  0.596E-03    1.71       1.9  T
   5   -100.4174138 -0.514534E-06  0.290E-03    1.71       3.9  T
   6   -100.4174141 -0.378497E-06  0.768E-04    1.71      14.9  T
   7   -100.4174142 -0.519962E-08  0.603E-04    1.71      19.0  T
   8   -100.4174142 -0.624020E-08  0.352E-04    1.71      32.6  T
   9   -100.4174142 -0.145563E-08  0.226E-04    1.71      50.7  T
     SCC iter.                  ...        0 min,  0.127 sec
     gradient                   ...        0 min,  0.075 sec
 * total energy  :   -99.0797401 Eh     change       -0.8000030E-04 Eh
   gradient norm :     0.0059971 Eh/α   predicted    -0.7086078E-04 ( -11.42%)
   displ. norm   :     0.3127105 α      lambda       -0.2010418E-03
   maximum displ.:     0.1192450 α      in ANC's #25, #3, #8, ...

........................................................................
.............................. CYCLE  146 ..............................
........................................................................

 iter      E             dE          RMSdq      gap      omega  full diag
   1   -100.4214564 -0.100421E+03  0.640E-02    1.70       0.0  T
   2   -100.4214569 -0.481488E-06  0.386E-02    1.71       1.0  T
   3   -100.4214181  0.387525E-04  0.338E-02    1.70       1.0  T
   4   -100.4214610 -0.428438E-04  0.492E-03    1.70       2.3  T
   5   -100.4214612 -0.239932E-06  0.293E-03    1.71       3.9  T
   6   -100.4214616 -0.327012E-06  0.114E-03    1.70      10.1  T
   7   -100.4214616  0.880799E-08  0.974E-04    1.70      11.8  T
   8   -100.4214616 -0.230667E-07  0.542E-04    1.70      21.2  T
   9   -100.4214616 -0.120752E-08  0.377E-04    1.70      30.4  T
  10   -100.4214616 -0.293460E-08  0.197E-04    1.70      58.4  T
     SCC iter.                  ...        0 min,  0.152 sec
     gradient                   ...        0 min,  0.078 sec
 * total energy  :   -99.0798244 Eh     change       -0.8430978E-04 Eh
   gradient norm :     0.0066629 Eh/α   predicted    -0.1103519E-03 (  30.89%)
   displ. norm   :     0.4919685 α      lambda       -0.2066255E-03
   maximum displ.:     0.2449784 α      in ANC's #6, #3, #5, ...

........................................................................
.............................. CYCLE  147 ..............................
........................................................................

 iter      E             dE          RMSdq      gap      omega  full diag
   1   -100.4155348 -0.100416E+03  0.948E-02    1.71       0.0  T
   2   -100.4155362 -0.144089E-05  0.557E-02    1.71       1.0  T
   3   -100.4155275  0.877515E-05  0.148E-02    1.71       1.0  T
   4   -100.4155367 -0.926032E-05  0.410E-03    1.71       2.8  T
   5   -100.4155373 -0.591286E-06  0.158E-03    1.71       7.3  T
   6   -100.4155374 -0.244971E-07  0.110E-03    1.71      10.4  T
   7   -100.4155373  0.259369E-08  0.629E-04    1.71      18.2  T
   8   -100.4155374 -0.110377E-07  0.417E-04    1.71      27.5  T
   9   -100.4155374 -0.214881E-08  0.252E-04    1.71      45.4  T
     SCC iter.                  ...        0 min,  0.130 sec
     gradient                   ...        0 min,  0.079 sec
 * total energy  :   -99.0799068 Eh     change       -0.8241875E-04 Eh
   gradient norm :     0.0084739 Eh/α   predicted    -0.1283203E-03 (  55.69%)
   displ. norm   :     0.1551745 α      lambda       -0.2778983E-03
   maximum displ.:     0.0550252 α      in ANC's #18, #12, #6, ...

........................................................................
.............................. CYCLE  148 ..............................
........................................................................

 iter      E             dE          RMSdq      gap      omega  full diag
   1   -100.4195176 -0.100420E+03  0.425E-02    1.73       0.0  T
   2   -100.4195209 -0.334158E-05  0.313E-02    1.73       1.0  T
   3   -100.4195314 -0.104595E-04  0.186E-02    1.73       1.0  T
   4   -100.4195349 -0.357210E-05  0.858E-03    1.73       1.3  T
   5   -100.4195353 -0.370163E-06  0.544E-03    1.73       2.1  T
   6   -100.4195366 -0.131615E-05  0.132E-03    1.73       8.7  T
   7   -100.4195366 -0.175415E-07  0.105E-03    1.73      11.0  T
   8   -100.4195366 -0.142028E-07  0.651E-04    1.73      17.6  T
   9   -100.4195366 -0.411336E-08  0.436E-04    1.73      26.3  T
  10   -100.4195367 -0.375482E-08  0.221E-04    1.73      51.8  T
     SCC iter.                  ...        0 min,  0.149 sec
     gradient                   ...        0 min,  0.070 sec
 * total energy  :   -99.0799659 Eh     change       -0.5910422E-04 Eh
   gradient norm :     0.0100020 Eh/α   predicted    -0.1422983E-03 ( 140.76%)
   displ. norm   :     0.1617369 α      lambda       -0.2150619E-03
   maximum displ.:     0.0603655 α      in ANC's #8, #11, #7, ...

........................................................................
.............................. CYCLE  149 ..............................
........................................................................

 iter      E             dE          RMSdq      gap      omega  full diag
   1   -100.4188209 -0.100419E+03  0.373E-02    1.73       0.0  T
   2   -100.4188226 -0.166953E-05  0.217E-02    1.73       1.0  T
   3   -100.4188210  0.156993E-05  0.740E-03    1.73       1.5  T
   4   -100.4188225 -0.147510E-05  0.360E-03    1.73       3.2  T
   5   -100.4188230 -0.545854E-06  0.132E-03    1.73       8.7  T
   6   -100.4188231 -0.570601E-07  0.574E-04    1.73      20.0  T
   7   -100.4188231 -0.791530E-09  0.331E-04    1.73      34.6  T
   8   -100.4188231 -0.114257E-08  0.253E-04    1.73      45.4  T
     SCC iter.                  ...        0 min,  0.115 sec
     gradient                   ...        0 min,  0.083 sec
 * total energy  :   -99.0800775 Eh     change       -0.1115506E-03 Eh
   gradient norm :     0.0050159 Eh/α   predicted    -0.1103468E-03 (  -1.08%)
   displ. norm   :     0.2780588 α      lambda       -0.1120042E-03
   maximum displ.:     0.1259526 α      in ANC's #3, #6, #25, ...

........................................................................
.............................. CYCLE  150 ..............................
........................................................................

 iter      E             dE          RMSdq      gap      omega  full diag
   1   -100.4176078 -0.100418E+03  0.575E-02    1.72       0.0  T
   2   -100.4176077  0.734489E-07  0.346E-02    1.72       1.0  T
   3   -100.4175783  0.293840E-04  0.290E-02    1.72       1.0  T
   4   -100.4176104 -0.321003E-04  0.309E-03    1.72       3.7  T
   5   -100.4176106 -0.181460E-06  0.138E-03    1.72       8.3  T
   6   -100.4176107 -0.577746E-07  0.712E-04    1.72      16.1  T
   7   -100.4176107  0.221736E-08  0.576E-04    1.72      19.9  T
   8   -100.4176107 -0.969526E-08  0.281E-04    1.72      40.8  T
   9   -100.4176107 -0.351619E-09  0.196E-04    1.72      58.5  T
     SCC iter.                  ...        0 min,  0.129 sec
     gradient                   ...        0 min,  0.088 sec
 * total energy  :   -99.0801504 Eh     change       -0.7289300E-04 Eh
   gradient norm :     0.0046110 Eh/α   predicted    -0.6033593E-04 ( -17.23%)
   displ. norm   :     0.2507241 α      lambda       -0.9691688E-04
   maximum displ.:     0.1124090 α      in ANC's #3, #8, #9, ...
 * RMSD in coord.:     0.7445016 α      energy gain  -0.1662675E-02 Eh

generating ANC from exact Hessian ...
Using Lindh-Hessian (1995)
 Shifting diagonal of input Hessian by    9.9241841014497054E-003
 Lowest  eigenvalues of input Hessian
    0.000000    0.000000    0.000000    0.000000    0.000000    0.000000
    0.010000    0.010077    0.010113    0.010173    0.010308    0.010568
    0.010659    0.010843    0.010861    0.010938    0.010978    0.011055
 Highest eigenvalues
    1.613610    1.892780    1.994432    2.016360    2.374672    2.413742


........................................................................
.............................. CYCLE  151 ..............................
........................................................................

 iter      E             dE          RMSdq      gap      omega  full diag
   1   -100.4182899 -0.100418E+03  0.537E-02    1.72       0.0  T
   2   -100.4182903 -0.441777E-06  0.316E-02    1.72       1.0  T
   3   -100.4182825  0.786368E-05  0.125E-02    1.72       1.0  T
   4   -100.4182908 -0.829700E-05  0.267E-03    1.72       4.3  T
   5   -100.4182910 -0.246481E-06  0.102E-03    1.72      11.2  T
   6   -100.4182910 -0.167309E-07  0.629E-04    1.72      18.2  T
   7   -100.4182910  0.192156E-08  0.423E-04    1.72      27.1  T
   8   -100.4182910 -0.455762E-08  0.256E-04    1.72      44.7  T
     SCC iter.                  ...        0 min,  0.116 sec
     gradient                   ...        0 min,  0.090 sec
 * total energy  :   -99.0802260 Eh     change       -0.7561755E-04 Eh
   gradient norm :     0.0042583 Eh/α   predicted     0.0000000E+00 (-100.00%)
   displ. norm   :     0.0491301 α      lambda       -0.6543735E-04
   maximum displ.:     0.0362307 α      in ANC's #9, #2, #41, ...

........................................................................
.............................. CYCLE  152 ..............................
........................................................................

 iter      E             dE          RMSdq      gap      omega  full diag
   1   -100.4201651 -0.100420E+03  0.139E-02    1.72       0.0  T
   2   -100.4201652 -0.795295E-07  0.824E-03    1.72       1.4  T
   3   -100.4201641  0.109816E-05  0.538E-03    1.72       2.1  T
   4   -100.4201652 -0.114969E-05  0.142E-03    1.72       8.1  T
   5   -100.4201653 -0.736375E-07  0.347E-04    1.72      33.1  T
   6   -100.4201653 -0.216414E-08  0.220E-04    1.72      52.2  T
     SCC iter.                  ...        0 min,  0.103 sec
     gradient                   ...        0 min,  0.085 sec
 * total energy  :   -99.0802746 Eh     change       -0.4865169E-04 Eh
   gradient norm :     0.0013195 Eh/α   predicted    -0.3280996E-04 ( -32.56%)
   displ. norm   :     0.1485565 α      lambda       -0.6141783E-04
   maximum displ.:     0.1058735 α      in ANC's #9, #2, #8, ...

........................................................................
.............................. CYCLE  153 ..............................
........................................................................

 iter      E             dE          RMSdq      gap      omega  full diag
   1   -100.4222781 -0.100422E+03  0.376E-02    1.72       0.0  T
   2   -100.4222785 -0.353050E-06  0.221E-02    1.72       1.0  T
   3   -100.4222706  0.784542E-05  0.149E-02    1.72       1.0  T
   4   -100.4222789 -0.831387E-05  0.382E-03    1.72       3.0  T
   5   -100.4222793 -0.399702E-06  0.130E-03    1.72       8.8  T
   6   -100.4222794 -0.159880E-07  0.902E-04    1.72      12.7  T
   7   -100.4222794 -0.699899E-08  0.621E-04    1.72      18.5  T
   8   -100.4222794 -0.236743E-08  0.384E-04    1.72      29.9  T
   9   -100.4222794 -0.151536E-08  0.202E-04    1.72      56.8  T
     SCC iter.                  ...        0 min,  0.147 sec
     gradient                   ...        0 min,  0.084 sec
 * total energy  :   -99.0803033 Eh     change       -0.2871435E-04 Eh
   gradient norm :     0.0046422 Eh/α   predicted    -0.3102224E-04 (   8.04%)
   displ. norm   :     0.1519876 α      lambda       -0.1175367E-03
   maximum displ.:     0.0996967 α      in ANC's #9, #2, #8, ...

........................................................................
.............................. CYCLE  154 ..............................
........................................................................

 iter      E             dE          RMSdq      gap      omega  full diag
   1   -100.4230846 -0.100423E+03  0.409E-02    1.72       0.0  T
   2   -100.4230855 -0.908814E-06  0.235E-02    1.72       1.0  T
   3   -100.4230823  0.321146E-05  0.117E-02    1.72       1.0  T
   4   -100.4230847 -0.234931E-05  0.579E-03    1.72       2.0  T
   5   -100.4230862 -0.154340E-05  0.266E-03    1.72       4.3  T
   6   -100.4230864 -0.135827E-06  0.188E-03    1.72       6.1  T
   7   -100.4230864 -0.271161E-07  0.113E-03    1.72      10.1  T
   8   -100.4230864  0.799645E-10  0.713E-04    1.72      16.1  T
   9   -100.4230864 -0.120313E-07  0.354E-04    1.72      32.4  T
  10   -100.4230864 -0.122610E-08  0.199E-04    1.72      57.7  T
     SCC iter.                  ...        0 min,  0.160 sec
     gradient                   ...        0 min,  0.084 sec
 * total energy  :   -99.0803391 Eh     change       -0.3579181E-04 Eh
   gradient norm :     0.0064341 Eh/α   predicted    -0.6012683E-04 (  67.99%)
   displ. norm   :     0.0477866 α      lambda       -0.7665480E-04
   maximum displ.:     0.0282064 α      in ANC's #9, #25, #2, ...

........................................................................
.............................. CYCLE  155 ..............................
........................................................................

 iter      E             dE          RMSdq      gap      omega  full diag
   1   -100.4218214 -0.100422E+03  0.176E-02    1.72       0.0  T
   2   -100.4218216 -0.200123E-06  0.102E-02    1.72       1.1  T
   3   -100.4218206  0.960058E-06  0.721E-03    1.73       1.6  T
   4   -100.4218216 -0.940879E-06  0.384E-03    1.72       3.0  T
   5   -100.4218219 -0.340195E-06  0.191E-03    1.72       6.0  T
   6   -100.4218219 -0.143197E-07  0.136E-03    1.72       8.4  T
   7   -100.4218220 -0.228431E-07  0.691E-04    1.72      16.6  T
   8   -100.4218220 -0.525571E-08  0.315E-04    1.72      36.5  T
   9   -100.4218220 -0.295846E-08  0.120E-04    1.72      95.3  T
     SCC iter.                  ...        0 min,  0.131 sec
     gradient                   ...        0 min,  0.079 sec
 * total energy  :   -99.0803907 Eh     change       -0.5153013E-04 Eh
   gradient norm :     0.0034825 Eh/α   predicted    -0.3841630E-04 ( -25.45%)
   displ. norm   :     0.1491288 α      lambda       -0.1568777E-03
   maximum displ.:     0.0860981 α      in ANC's #9, #2, #25, ...

........................................................................
.............................. CYCLE  156 ..............................
........................................................................

 iter      E             dE          RMSdq      gap      omega  full diag
   1   -100.4183223 -0.100418E+03  0.467E-02    1.72       0.0  T
   2   -100.4183238 -0.147976E-05  0.261E-02    1.72       1.0  T
   3   -100.4183234  0.363587E-06  0.101E-02    1.72       1.1  T
   4   -100.4183233  0.164179E-06  0.566E-03    1.72       2.0  T
   5   -100.4183242 -0.889027E-06  0.254E-03    1.72       4.5  T
   6   -100.4183243 -0.883141E-07  0.173E-03    1.72       6.6  T
   7   -100.4183243 -0.332340E-07  0.107E-03    1.72      10.8  T
   8   -100.4183243 -0.305275E-08  0.724E-04    1.72      15.9  T
   9   -100.4183243 -0.108723E-07  0.340E-04    1.72      33.7  T
  10   -100.4183243 -0.431399E-09  0.227E-04    1.72      50.5  T
     SCC iter.                  ...        0 min,  0.165 sec
     gradient                   ...        0 min,  0.081 sec
 * total energy  :   -99.0803964 Eh     change       -0.5772410E-05 Eh
   gradient norm :     0.0053361 Eh/α   predicted    -0.8018750E-04 (1289.15%)
   displ. norm   :     0.0786366 α      lambda       -0.1183952E-03
   maximum displ.:     0.0458612 α      in ANC's #9, #2, #8, ...

........................................................................
.............................. CYCLE  157 ..............................
........................................................................

 iter      E             dE          RMSdq      gap      omega  full diag
   1   -100.4193799 -0.100419E+03  0.272E-02    1.72       0.0  T
   2   -100.4193804 -0.486905E-06  0.151E-02    1.72       1.0  T
   3   -100.4193789  0.152474E-05  0.926E-03    1.73       1.2  T
   4   -100.4193800 -0.115218E-05  0.548E-03    1.72       2.1  T
   5   -100.4193808 -0.773404E-06  0.204E-03    1.73       5.6  T
   6   -100.4193808 -0.546678E-07  0.148E-03    1.72       7.8  T
   7   -100.4193809 -0.166710E-07  0.925E-04    1.73      12.4  T
   8   -100.4193809 -0.334281E-08  0.551E-04    1.72      20.8  T
   9   -100.4193809 -0.870483E-08  0.269E-04    1.73      42.6  T
  10   -100.4193809 -0.590404E-09  0.165E-04    1.73      69.4  T
     SCC iter.                  ...        0 min,  0.154 sec
     gradient                   ...        0 min,  0.074 sec
 * total energy  :   -99.0804695 Eh     change       -0.7303734E-04 Eh
   gradient norm :     0.0022093 Eh/α   predicted    -0.5956522E-04 ( -18.45%)
   displ. norm   :     0.1221825 α      lambda       -0.3909771E-04
   maximum displ.:     0.0749940 α      in ANC's #9, #2, #25, ...

........................................................................
.............................. CYCLE  158 ..............................
........................................................................

 iter      E             dE          RMSdq      gap      omega  full diag
   1   -100.4197076 -0.100420E+03  0.274E-02    1.73       0.0  T
   2   -100.4197077 -0.137957E-06  0.160E-02    1.73       1.0  T
   3   -100.4197073  0.356673E-06  0.309E-03    1.73       3.7  T
   4   -100.4197077 -0.319102E-06  0.157E-03    1.73       7.3  T
   5   -100.4197078 -0.103244E-06  0.639E-04    1.73      18.0  T
   6   -100.4197078 -0.924612E-08  0.394E-04    1.73      29.1  T
   7   -100.4197078 -0.582446E-09  0.273E-04    1.73      42.0  T
     SCC iter.                  ...        0 min,  0.115 sec
     gradient                   ...        0 min,  0.076 sec
 * total energy  :   -99.0805027 Eh     change       -0.3318103E-04 Eh
   gradient norm :     0.0015801 Eh/α   predicted    -0.1984195E-04 ( -40.20%)
   displ. norm   :     0.4484649 α      lambda       -0.8260460E-04
   maximum displ.:     0.2677224 α      in ANC's #9, #2, #25, ...

........................................................................
.............................. CYCLE  159 ..............................
........................................................................

 iter      E             dE          RMSdq      gap      omega  full diag
   1   -100.4196095 -0.100420E+03  0.100E-01    1.73       0.0  T
   2   -100.4196110 -0.152287E-05  0.588E-02    1.73       1.0  T
   3   -100.4196061  0.489233E-05  0.111E-02    1.74       1.0  T
   4   -100.4196112 -0.503089E-05  0.399E-03    1.73       2.9  T
   5   -100.4196119 -0.683437E-06  0.168E-03    1.73       6.8  T
   6   -100.4196119 -0.704342E-07  0.882E-04    1.73      13.0  T
   7   -100.4196119  0.254238E-08  0.660E-04    1.73      17.4  T
   8   -100.4196119 -0.895591E-08  0.406E-04    1.73      28.3  T
   9   -100.4196119 -0.171022E-08  0.256E-04    1.73      44.8  T
     SCC iter.                  ...        0 min,  0.135 sec
     gradient                   ...        0 min,  0.085 sec
 * total energy  :   -99.0805900 Eh     change       -0.8731489E-04 Eh
   gradient norm :     0.0022426 Eh/α   predicted    -0.4499632E-04 ( -48.47%)
   displ. norm   :     0.2363072 α      lambda       -0.5772074E-04
   maximum displ.:     0.1344716 α      in ANC's #9, #2, #25, ...

........................................................................
.............................. CYCLE  160 ..............................
........................................................................

 iter      E             dE          RMSdq      gap      omega  full diag
   1   -100.4203550 -0.100420E+03  0.548E-02    1.74       0.0  T
   2   -100.4203554 -0.398784E-06  0.321E-02    1.74       1.0  T
   3   -100.4203523  0.313949E-05  0.955E-03    1.74       1.2  T
   4   -100.4203552 -0.287455E-05  0.376E-03    1.74       3.1  T
   5   -100.4203558 -0.624888E-06  0.884E-04    1.74      13.0  T
   6   -100.4203558 -0.639761E-08  0.556E-04    1.74      20.6  T
   7   -100.4203558  0.655234E-09  0.406E-04    1.74      28.3  T
   8   -100.4203558 -0.511527E-08  0.234E-04    1.74      49.1  T
     SCC iter.                  ...        0 min,  0.124 sec
     gradient                   ...        0 min,  0.085 sec
 * total energy  :   -99.0806358 Eh     change       -0.4586036E-04 Eh
   gradient norm :     0.0014121 Eh/α   predicted    -0.3047553E-04 ( -33.55%)
   displ. norm   :     0.4529640 α      lambda       -0.5851283E-04
   maximum displ.:     0.2467566 α      in ANC's #9, #2, #25, ...

........................................................................
.............................. CYCLE  161 ..............................
........................................................................

 iter      E             dE          RMSdq      gap      omega  full diag
   1   -100.4206807 -0.100421E+03  0.106E-01    1.74       0.0  T
   2   -100.4206823 -0.155041E-05  0.618E-02    1.74       1.0  T
   3   -100.4206730  0.925751E-05  0.167E-02    1.74       1.0  T
   4   -100.4206812 -0.812300E-05  0.711E-03    1.74       1.6  T
   5   -100.4206835 -0.236505E-05  0.191E-03    1.74       6.0  T
   6   -100.4206836 -0.390242E-07  0.116E-03    1.74       9.9  T
   7   -100.4206836  0.511895E-08  0.850E-04    1.74      13.5  T
   8   -100.4206836 -0.210025E-07  0.495E-04    1.74      23.2  T
   9   -100.4206836 -0.112536E-08  0.315E-04    1.74      36.4  T
     SCC iter.                  ...        0 min,  0.132 sec
     gradient                   ...        0 min,  0.063 sec
 * total energy  :   -99.0806823 Eh     change       -0.4646942E-04 Eh
   gradient norm :     0.0017100 Eh/α   predicted    -0.3192944E-04 ( -31.29%)
   displ. norm   :     0.0793271 α      lambda       -0.2322847E-04
   maximum displ.:     0.0284509 α      in ANC's #41, #12, #3, ...

........................................................................
.............................. CYCLE  162 ..............................
........................................................................

 iter      E             dE          RMSdq      gap      omega  full diag
   1   -100.4237682 -0.100424E+03  0.165E-02    1.74       0.0  T
   2   -100.4237684 -0.150438E-06  0.983E-03    1.74       1.2  T
   3   -100.4237676  0.759569E-06  0.496E-03    1.74       2.3  T
   4   -100.4237683 -0.681184E-06  0.211E-03    1.74       5.4  T
   5   -100.4237685 -0.191799E-06  0.471E-04    1.74      24.4  T
   6   -100.4237685 -0.207081E-08  0.357E-04    1.74      32.2  T
     SCC iter.                  ...        0 min,  0.095 sec
     gradient                   ...        0 min,  0.074 sec
 * total energy  :   -99.0806894 Eh     change       -0.7123248E-05 Eh
   gradient norm :     0.0029601 Eh/α   predicted    -0.1165068E-04 (  63.56%)
   displ. norm   :     0.1017528 α      lambda       -0.2682254E-04
   maximum displ.:     0.0517896 α      in ANC's #9, #2, #25, ...

........................................................................
.............................. CYCLE  163 ..............................
........................................................................

 iter      E             dE          RMSdq      gap      omega  full diag
   1   -100.4225185 -0.100423E+03  0.231E-02    1.74       0.0  T
   2   -100.4225185 -0.587223E-07  0.136E-02    1.74       1.0  T
   3   -100.4225169  0.163939E-05  0.711E-03    1.74       1.6  T
   4   -100.4225186 -0.173426E-05  0.113E-03    1.74      10.2  T
   5   -100.4225187 -0.309801E-07  0.583E-04    1.74      19.7  T
   6   -100.4225187 -0.892730E-08  0.278E-04    1.74      41.3  T
   7   -100.4225187  0.139082E-09  0.195E-04    1.74      58.8  T
     SCC iter.                  ...        0 min,  0.120 sec
     gradient                   ...        0 min,  0.069 sec
 * total energy  :   -99.0807104 Eh     change       -0.2101284E-04 Eh
   gradient norm :     0.0015527 Eh/α   predicted    -0.1355084E-04 ( -35.51%)
   displ. norm   :     0.2145814 α      lambda       -0.2842453E-04
   maximum displ.:     0.1010083 α      in ANC's #2, #9, #3, ...

........................................................................
.............................. CYCLE  164 ..............................
........................................................................

 iter      E             dE          RMSdq      gap      omega  full diag
   1   -100.4199403 -0.100420E+03  0.459E-02    1.74       0.0  T
   2   -100.4199407 -0.411564E-06  0.268E-02    1.74       1.0  T
   3   -100.4199392  0.144746E-05  0.651E-03    1.74       1.8  T
   4   -100.4199407 -0.149335E-05  0.200E-03    1.74       5.7  T
   5   -100.4199409 -0.142922E-06  0.102E-03    1.74      11.3  T
   6   -100.4199409 -0.387932E-07  0.528E-04    1.74      21.7  T
   7   -100.4199409 -0.176578E-08  0.372E-04    1.74      30.8  T
   8   -100.4199409 -0.278760E-08  0.213E-04    1.74      53.9  T
     SCC iter.                  ...        0 min,  0.124 sec
     gradient                   ...        0 min,  0.075 sec
 * total energy  :   -99.0807275 Eh     change       -0.1710714E-04 Eh
   gradient norm :     0.0020292 Eh/α   predicted    -0.1450582E-04 ( -15.21%)
   displ. norm   :     0.0479566 α      lambda       -0.1236317E-04
   maximum displ.:     0.0238934 α      in ANC's #9, #25, #13, ...

........................................................................
.............................. CYCLE  165 ..............................
........................................................................

 iter      E             dE          RMSdq      gap      omega  full diag
   1   -100.4204188 -0.100420E+03  0.964E-03    1.74       0.0  T
   2   -100.4204189 -0.248194E-07  0.568E-03    1.74       2.0  T
   3   -100.4204187  0.167244E-06  0.185E-03    1.74       6.2  T
   4   -100.4204189 -0.178201E-06  0.551E-04    1.74      20.8  T
   5   -100.4204189 -0.741294E-08  0.309E-04    1.74      37.2  T
   6   -100.4204189 -0.178842E-08  0.222E-04    1.74      51.6  T
     SCC iter.                  ...        0 min,  0.090 sec
     gradient                   ...        0 min,  0.068 sec
 * total energy  :   -99.0807376 Eh     change       -0.1006580E-04 Eh
   gradient norm :     0.0012697 Eh/α   predicted    -0.6197456E-05 ( -38.43%)
   displ. norm   :     0.1580751 α      lambda       -0.2079695E-04
   maximum displ.:     0.0596539 α      in ANC's #9, #13, #3, ...

........................................................................
.............................. CYCLE  166 ..............................
........................................................................

 iter      E             dE          RMSdq      gap      omega  full diag
   1   -100.4216699 -0.100422E+03  0.259E-02    1.74       0.0  T
   2   -100.4216702 -0.261218E-06  0.152E-02    1.74       1.0  T
   3   -100.4216679  0.229334E-05  0.738E-03    1.74       1.6  T
   4   -100.4216703 -0.245249E-05  0.273E-03    1.74       4.2  T
   5   -100.4216705 -0.139209E-06  0.143E-03    1.74       8.0  T
   6   -100.4216705 -0.375419E-07  0.103E-03    1.74      11.1  T
   7   -100.4216705 -0.783649E-08  0.611E-04    1.74      18.8  T
   8   -100.4216705 -0.232468E-08  0.442E-04    1.74      25.9  T
   9   -100.4216705 -0.543569E-08  0.179E-04    1.74      64.2  T
     SCC iter.                  ...        0 min,  0.125 sec
     gradient                   ...        0 min,  0.082 sec
 * total energy  :   -99.0807512 Eh     change       -0.1355753E-04 Eh
   gradient norm :     0.0010321 Eh/α   predicted    -0.1051599E-04 ( -22.43%)
   displ. norm   :     0.0610051 α      lambda       -0.4423715E-05
   maximum displ.:     0.0340324 α      in ANC's #2, #9, #3, ...

........................................................................
.............................. CYCLE  167 ..............................
........................................................................

 iter      E             dE          RMSdq      gap      omega  full diag
   1   -100.4212539 -0.100421E+03  0.131E-02    1.74       0.0  T
   2   -100.4212540 -0.569755E-07  0.754E-03    1.74       1.5  T
   3   -100.4212539  0.849540E-07  0.257E-03    1.74       4.5  T
   4   -100.4212540 -0.666948E-07  0.127E-03    1.74       9.0  T
   5   -100.4212540 -0.380135E-07  0.484E-04    1.74      23.7  T
   6   -100.4212540 -0.432368E-08  0.310E-04    1.74      37.1  T
     SCC iter.                  ...        0 min,  0.086 sec
     gradient                   ...        0 min,  0.080 sec
 * total energy  :   -99.0807562 Eh     change       -0.5072241E-05 Eh
   gradient norm :     0.0007289 Eh/α   predicted    -0.2215412E-05 ( -56.32%)
   displ. norm   :     0.0755354 α      lambda       -0.5673610E-05
   maximum displ.:     0.0449893 α      in ANC's #2, #3, #9, ...

........................................................................
.............................. CYCLE  168 ..............................
........................................................................

 iter      E             dE          RMSdq      gap      omega  full diag
   1   -100.4208757 -0.100421E+03  0.158E-02    1.75       0.0  T
   2   -100.4208759 -0.140204E-06  0.895E-03    1.75       1.3  T
   3   -100.4208757  0.206540E-06  0.427E-03    1.75       2.7  T
   4   -100.4208759 -0.240142E-06  0.168E-03    1.75       6.8  T
   5   -100.4208760 -0.410687E-07  0.660E-04    1.75      17.4  T
   6   -100.4208760 -0.589877E-08  0.495E-04    1.75      23.2  T
   7   -100.4208760 -0.225577E-08  0.270E-04    1.75      42.5  T
     SCC iter.                  ...        0 min,  0.102 sec
     gradient                   ...        0 min,  0.066 sec
 * total energy  :   -99.0807619 Eh     change       -0.5636862E-05 Eh
   gradient norm :     0.0007140 Eh/α   predicted    -0.2846510E-05 ( -49.50%)
   displ. norm   :     0.0618442 α      lambda       -0.3495710E-05
   maximum displ.:     0.0392598 α      in ANC's #2, #3, #7, ...

........................................................................
.............................. CYCLE  169 ..............................
........................................................................

 iter      E             dE          RMSdq      gap      omega  full diag
   1   -100.4207559 -0.100421E+03  0.108E-02    1.75       0.0  T
   2   -100.4207560 -0.880495E-07  0.599E-03    1.75       1.9  T
   3   -100.4207557  0.223814E-06  0.407E-03    1.75       2.8  T
   4   -100.4207560 -0.246551E-06  0.193E-03    1.75       5.9  T
   5   -100.4207560 -0.586429E-07  0.866E-04    1.75      13.3  T
   6   -100.4207561 -0.192898E-07  0.482E-04    1.75      23.8  T
   7   -100.4207561 -0.114322E-08  0.258E-04    1.75      44.4  T
     SCC iter.                  ...        0 min,  0.098 sec
     gradient                   ...        0 min,  0.073 sec
 * total energy  :   -99.0807661 Eh     change       -0.4198863E-05 Eh
   gradient norm :     0.0006188 Eh/α   predicted    -0.1751237E-05 ( -58.29%)
   displ. norm   :     0.0756507 α      lambda       -0.4095724E-05
   maximum displ.:     0.0493517 α      in ANC's #2, #3, #7, ...

........................................................................
.............................. CYCLE  170 ..............................
........................................................................

 iter      E             dE          RMSdq      gap      omega  full diag
   1   -100.4210171 -0.100421E+03  0.123E-02    1.75       0.0  T
   2   -100.4210172 -0.117877E-06  0.666E-03    1.75       1.7  T
   3   -100.4210171  0.109047E-06  0.363E-03    1.75       3.2  T
   4   -100.4210172 -0.802010E-07  0.220E-03    1.75       5.2  T
   5   -100.4210173 -0.926015E-07  0.814E-04    1.75      14.1  T
   6   -100.4210173 -0.107218E-07  0.585E-04    1.75      19.6  T
   7   -100.4210173 -0.298645E-08  0.280E-04    1.75      40.9  T
   8   -100.4210173 -0.882210E-09  0.138E-04    1.75      83.2  T
     SCC iter.                  ...        0 min,  0.125 sec
     gradient                   ...        0 min,  0.080 sec
 * total energy  :   -99.0807707 Eh     change       -0.4650497E-05 Eh
   gradient norm :     0.0005866 Eh/α   predicted    -0.2054108E-05 ( -55.83%)
   displ. norm   :     0.0880293 α      lambda       -0.4278435E-05
   maximum displ.:     0.0583243 α      in ANC's #2, #3, #5, ...

........................................................................
.............................. CYCLE  171 ..............................
........................................................................

 iter      E             dE          RMSdq      gap      omega  full diag
   1   -100.4213519 -0.100421E+03  0.134E-02    1.76       0.0  T
   2   -100.4213520 -0.106988E-06  0.736E-03    1.76       1.6  T
   3   -100.4213518  0.130744E-06  0.330E-03    1.76       3.5  T
   4   -100.4213518  0.922242E-07  0.248E-03    1.76       4.6  T
   5   -100.4213520 -0.276996E-06  0.743E-04    1.76      15.4  T
   6   -100.4213520 -0.632173E-08  0.545E-04    1.76      21.1  T
   7   -100.4213520 -0.891575E-09  0.296E-04    1.76      38.8  T
   8   -100.4213520 -0.914994E-09  0.181E-04    1.76      63.4  T
     SCC iter.                  ...        0 min,  0.108 sec
     gradient                   ...        0 min,  0.082 sec
 * total energy  :   -99.0807756 Eh     change       -0.4876186E-05 Eh
   gradient norm :     0.0006839 Eh/α   predicted    -0.2148791E-05 ( -55.93%)
   displ. norm   :     0.0971262 α      lambda       -0.4260984E-05
   maximum displ.:     0.0647767 α      in ANC's #2, #3, #5, ...

........................................................................
.............................. CYCLE  172 ..............................
........................................................................

 iter      E             dE          RMSdq      gap      omega  full diag
   1   -100.4214234 -0.100421E+03  0.146E-02    1.76       0.0  T
   2   -100.4214235 -0.865557E-07  0.826E-03    1.76       1.4  T
   3   -100.4214231  0.357160E-06  0.368E-03    1.76       3.1  T
   4   -100.4214232 -0.134029E-06  0.249E-03    1.76       4.6  T
   5   -100.4214235 -0.283858E-06  0.705E-04    1.76      16.3  T
   6   -100.4214235 -0.865077E-08  0.492E-04    1.76      23.3  T
   7   -100.4214235  0.277694E-08  0.383E-04    1.76      29.9  T
     SCC iter.                  ...        0 min,  0.099 sec
     gradient                   ...        0 min,  0.083 sec
 * total energy  :   -99.0807811 Eh     change       -0.5486896E-05 Eh
   gradient norm :     0.0007386 Eh/α   predicted    -0.2142087E-05 ( -60.96%)
   displ. norm   :     0.1316370 α      lambda       -0.5937341E-05
   maximum displ.:     0.0868602 α      in ANC's #2, #3, #25, ...

........................................................................
.............................. CYCLE  173 ..............................
........................................................................

 iter      E             dE          RMSdq      gap      omega  full diag
   1   -100.4213360 -0.100421E+03  0.198E-02    1.76       0.0  T
   2   -100.4213361 -0.873247E-07  0.116E-02    1.76       1.0  T
   3   -100.4213348  0.130387E-05  0.760E-03    1.76       1.5  T
   4   -100.4213361 -0.133255E-05  0.229E-03    1.76       5.0  T
   5   -100.4213363 -0.141859E-06  0.112E-03    1.76      10.2  T
   6   -100.4213363 -0.350435E-07  0.597E-04    1.76      19.2  T
   7   -100.4213363  0.449090E-08  0.428E-04    1.76      26.8  T
   8   -100.4213363 -0.666992E-08  0.179E-04    1.76      64.3  T
     SCC iter.                  ...        0 min,  0.111 sec
     gradient                   ...        0 min,  0.074 sec
 * total energy  :   -99.0807883 Eh     change       -0.7212580E-05 Eh
   gradient norm :     0.0006395 Eh/α   predicted    -0.2993149E-05 ( -58.50%)
   displ. norm   :     0.1571549 α      lambda       -0.6209181E-05
   maximum displ.:     0.1027113 α      in ANC's #2, #3, #5, ...

........................................................................
.............................. CYCLE  174 ..............................
........................................................................

 iter      E             dE          RMSdq      gap      omega  full diag
   1   -100.4211878 -0.100421E+03  0.224E-02    1.76       0.0  T
   2   -100.4211880 -0.150120E-06  0.133E-02    1.76       1.0  T
   3   -100.4211857  0.228715E-05  0.886E-03    1.76       1.3  T
   4   -100.4211881 -0.246349E-05  0.234E-03    1.76       4.9  T
   5   -100.4211882 -0.105014E-06  0.132E-03    1.76       8.7  T
   6   -100.4211883 -0.591838E-07  0.637E-04    1.76      18.0  T
   7   -100.4211883  0.597021E-08  0.524E-04    1.76      21.9  T
   8   -100.4211883 -0.919313E-08  0.224E-04    1.76      51.2  T
   9   -100.4211883 -0.112340E-08  0.134E-04    1.76      85.4  T
     SCC iter.                  ...        0 min,  0.124 sec
     gradient                   ...        0 min,  0.065 sec
 * total energy  :   -99.0807949 Eh     change       -0.6600731E-05 Eh
   gradient norm :     0.0006016 Eh/α   predicted    -0.3139931E-05 ( -52.43%)
   displ. norm   :     0.1251639 α      lambda       -0.3851633E-05
   maximum displ.:     0.0800146 α      in ANC's #2, #3, #5, ...

........................................................................
.............................. CYCLE  175 ..............................
........................................................................

 iter      E             dE          RMSdq      gap      omega  full diag
   1   -100.4209978 -0.100421E+03  0.172E-02    1.76       0.0  T
   2   -100.4209979 -0.932698E-07  0.100E-02    1.76       1.1  T
   3   -100.4209973  0.623577E-06  0.484E-03    1.76       2.4  T
   4   -100.4209978 -0.560423E-06  0.201E-03    1.76       5.7  T
   5   -100.4209980 -0.139010E-06  0.856E-04    1.76      13.4  T
   6   -100.4209980 -0.199827E-07  0.511E-04    1.76      22.4  T
   7   -100.4209980  0.231668E-08  0.377E-04    1.76      30.4  T
   8   -100.4209980 -0.447471E-08  0.174E-04    1.76      65.9  T
     SCC iter.                  ...        0 min,  0.102 sec
     gradient                   ...        0 min,  0.075 sec
 * total energy  :   -99.0807991 Eh     change       -0.4193395E-05 Eh
   gradient norm :     0.0004996 Eh/α   predicted    -0.1942418E-05 ( -53.68%)
   displ. norm   :     0.0963633 α      lambda       -0.2937464E-05
   maximum displ.:     0.0595929 α      in ANC's #2, #3, #5, ...

........................................................................
.............................. CYCLE  176 ..............................
........................................................................

 iter      E             dE          RMSdq      gap      omega  full diag
   1   -100.4209819 -0.100421E+03  0.134E-02    1.77       0.0  T
   2   -100.4209819 -0.369124E-07  0.776E-03    1.77       1.5  T
   3   -100.4209814  0.450521E-06  0.445E-03    1.77       2.6  T
   4   -100.4209818 -0.369143E-06  0.195E-03    1.77       5.9  T
   5   -100.4209820 -0.153878E-06  0.543E-04    1.77      21.1  T
   6   -100.4209820 -0.199360E-08  0.397E-04    1.77      28.9  T
   7   -100.4209820 -0.555133E-09  0.268E-04    1.77      42.8  T
     SCC iter.                  ...        0 min,  0.096 sec
     gradient                   ...        0 min,  0.084 sec
 * total energy  :   -99.0808025 Eh     change       -0.3394120E-05 Eh
   gradient norm :     0.0004238 Eh/α   predicted    -0.1477617E-05 ( -56.47%)
   displ. norm   :     0.0966359 α      lambda       -0.3179706E-05
   maximum displ.:     0.0548880 α      in ANC's #2, #3, #5, ...

........................................................................
.............................. CYCLE  177 ..............................
........................................................................

 iter      E             dE          RMSdq      gap      omega  full diag
   1   -100.4210684 -0.100421E+03  0.145E-02    1.77       0.0  T
   2   -100.4210685 -0.901155E-07  0.829E-03    1.77       1.4  T
   3   -100.4210685  0.386781E-07  0.246E-03    1.77       4.7  T
   4   -100.4210685 -0.538791E-07  0.118E-03    1.77       9.7  T
   5   -100.4210685 -0.165583E-07  0.560E-04    1.77      20.5  T
   6   -100.4210685  0.511250E-08  0.533E-04    1.77      21.5  T
   7   -100.4210685 -0.794516E-08  0.258E-04    1.77      44.5  T
   8   -100.4210685 -0.419902E-09  0.153E-04    1.77      75.2  T
     SCC iter.                  ...        0 min,  0.135 sec
     gradient                   ...        0 min,  0.086 sec
 * total energy  :   -99.0808060 Eh     change       -0.3556631E-05 Eh
   gradient norm :     0.0003036 Eh/α   predicted    -0.1601103E-05 ( -54.98%)
   displ. norm   :     0.0823615 α      lambda       -0.2474661E-05
   maximum displ.:     0.0456443 α      in ANC's #2, #3, #4, ...

........................................................................
.............................. CYCLE  178 ..............................
........................................................................

 iter      E             dE          RMSdq      gap      omega  full diag
   1   -100.4208966 -0.100421E+03  0.124E-02    1.77       0.0  T
   2   -100.4208967 -0.649207E-07  0.711E-03    1.77       1.6  T
   3   -100.4208964  0.244301E-06  0.326E-03    1.77       3.5  T
   4   -100.4208966 -0.210189E-06  0.170E-03    1.77       6.7  T
   5   -100.4208967 -0.718705E-07  0.613E-04    1.77      18.7  T
   6   -100.4208967 -0.616993E-08  0.415E-04    1.77      27.6  T
   7   -100.4208967 -0.138672E-08  0.203E-04    1.77      56.5  T
     SCC iter.                  ...        0 min,  0.126 sec
     gradient                   ...        0 min,  0.075 sec
 * total energy  :   -99.0808087 Eh     change       -0.2684501E-05 Eh
   gradient norm :     0.0003247 Eh/α   predicted    -0.1242615E-05 ( -53.71%)
   displ. norm   :     0.0583976 α      lambda       -0.1726288E-05
   maximum displ.:     0.0294263 α      in ANC's #2, #5, #4, ...

........................................................................
.............................. CYCLE  179 ..............................
........................................................................

 iter      E             dE          RMSdq      gap      omega  full diag
   1   -100.4209318 -0.100421E+03  0.869E-03    1.77       0.0  T
   2   -100.4209318 -0.298206E-07  0.497E-03    1.77       2.3  T
   3   -100.4209318  0.335290E-07  0.175E-03    1.77       6.6  T
   4   -100.4209318 -0.289313E-07  0.821E-04    1.77      14.0  T
   5   -100.4209318 -0.173228E-07  0.450E-04    1.77      25.5  T
   6   -100.4209318 -0.289810E-08  0.324E-04    1.77      35.4  T
     SCC iter.                  ...        0 min,  0.097 sec
     gradient                   ...        0 min,  0.084 sec
 * total energy  :   -99.0808107 Eh     change       -0.1990110E-05 Eh
   gradient norm :     0.0003105 Eh/α   predicted    -0.8673943E-06 ( -56.41%)
   displ. norm   :     0.0654590 α      lambda       -0.1838997E-05
   maximum displ.:     0.0300989 α      in ANC's #2, #5, #4, ...

........................................................................
.............................. CYCLE  180 ..............................
........................................................................

 iter      E             dE          RMSdq      gap      omega  full diag
   1   -100.4209613 -0.100421E+03  0.910E-03    1.77       0.0  T
   2   -100.4209614 -0.314754E-07  0.522E-03    1.78       2.2  T
   3   -100.4209611  0.209620E-06  0.210E-03    1.78       5.5  T
   4   -100.4209612 -0.908449E-07  0.167E-03    1.78       6.9  T
   5   -100.4209614 -0.149855E-06  0.434E-04    1.78      26.5  T
   6   -100.4209614  0.182510E-09  0.349E-04    1.78      32.9  T
     SCC iter.                  ...        0 min,  0.094 sec
     gradient                   ...        0 min,  0.083 sec
 * total energy  :   -99.0808128 Eh     change       -0.2055274E-05 Eh
   gradient norm :     0.0003439 Eh/α   predicted    -0.9255904E-06 ( -54.97%)
   displ. norm   :     0.0599675 α      lambda       -0.1680114E-05
   maximum displ.:     0.0262705 α      in ANC's #5, #2, #4, ...

........................................................................
.............................. CYCLE  181 ..............................
........................................................................

 iter      E             dE          RMSdq      gap      omega  full diag
   1   -100.4209542 -0.100421E+03  0.739E-03    1.78       0.0  T
   2   -100.4209542 -0.234795E-07  0.426E-03    1.78       2.7  T
   3   -100.4209541  0.150614E-06  0.258E-03    1.78       4.4  T
   4   -100.4209542 -0.136963E-06  0.115E-03    1.78       9.9  T
   5   -100.4209542 -0.392926E-07  0.468E-04    1.78      24.5  T
   6   -100.4209542 -0.410940E-08  0.304E-04    1.78      37.8  T
     SCC iter.                  ...        0 min,  0.099 sec
     gradient                   ...        0 min,  0.092 sec
 * total energy  :   -99.0808146 Eh     change       -0.1814847E-05 Eh
   gradient norm :     0.0003181 Eh/α   predicted    -0.8427906E-06 ( -53.56%)
   displ. norm   :     0.0553492 α      lambda       -0.1492287E-05
   maximum displ.:     0.0242365 α      in ANC's #5, #2, #6, ...

........................................................................
.............................. CYCLE  182 ..............................
........................................................................

 iter      E             dE          RMSdq      gap      omega  full diag
   1   -100.4210471 -0.100421E+03  0.642E-03    1.78       0.0  T
   2   -100.4210471 -0.112916E-07  0.383E-03    1.78       3.0  T
   3   -100.4210469  0.209563E-06  0.322E-03    1.78       3.6  T
   4   -100.4210472 -0.257258E-06  0.102E-03    1.78      11.2  T
   5   -100.4210472 -0.101403E-07  0.573E-04    1.78      20.0  T
   6   -100.4210472 -0.762935E-08  0.331E-04    1.78      34.7  T
   7   -100.4210472  0.107936E-08  0.223E-04    1.78      51.5  T
     SCC iter.                  ...        0 min,  0.107 sec
     gradient                   ...        0 min,  0.069 sec
 * total energy  :   -99.0808162 Eh     change       -0.1576819E-05 Eh
   gradient norm :     0.0003024 Eh/α   predicted    -0.7499859E-06 ( -52.44%)
   displ. norm   :     0.0488213 α      lambda       -0.1229554E-05
   maximum displ.:     0.0202735 α      in ANC's #2, #5, #1, ...

........................................................................
.............................. CYCLE  183 ..............................
........................................................................

 iter      E             dE          RMSdq      gap      omega  full diag
   1   -100.4210614 -0.100421E+03  0.599E-03    1.78       0.0  T
   2   -100.4210614 -0.428936E-08  0.359E-03    1.78       3.2  T
   3   -100.4210612  0.267436E-06  0.306E-03    1.78       3.7  T
   4   -100.4210615 -0.322643E-06  0.843E-04    1.78      13.6  T
   5   -100.4210615 -0.159969E-08  0.473E-04    1.78      24.3  T
   6   -100.4210615 -0.601801E-08  0.274E-04    1.78      41.9  T
     SCC iter.                  ...        0 min,  0.080 sec
     gradient                   ...        0 min,  0.081 sec
 * total energy  :   -99.0808175 Eh     change       -0.1281121E-05 Eh
   gradient norm :     0.0002560 Eh/α   predicted    -0.6179772E-06 ( -51.76%)
   displ. norm   :     0.0379011 α      lambda       -0.8471412E-06
   maximum displ.:     0.0177572 α      in ANC's #1, #2, #5, ...
 * RMSD in coord.:     0.3109604 α      energy gain  -0.6670892E-03 Eh

generating ANC from exact Hessian ...
Using Lindh-Hessian (1995)
 Shifting diagonal of input Hessian by    9.9210485760005216E-003
 Lowest  eigenvalues of input Hessian
    0.000000    0.000000    0.000000    0.000000    0.000000    0.000000
    0.010000    0.010077    0.010109    0.010162    0.010290    0.010537
    0.010701    0.010781    0.010843    0.010968    0.010992    0.011085
 Highest eigenvalues
    1.621999    1.898541    2.001897    2.023484    2.374175    2.413539


........................................................................
.............................. CYCLE  184 ..............................
........................................................................

 iter      E             dE          RMSdq      gap      omega  full diag
   1   -100.4210432 -0.100421E+03  0.543E-03    1.78       0.0  T
   2   -100.4210432 -0.114096E-07  0.312E-03    1.78       3.7  T
   3   -100.4210431  0.927571E-07  0.209E-03    1.78       5.5  T
   4   -100.4210432 -0.854535E-07  0.972E-04    1.78      11.8  T
   5   -100.4210432 -0.275263E-07  0.344E-04    1.78      33.3  T
   6   -100.4210432 -0.147391E-08  0.247E-04    1.78      46.5  T
     SCC iter.                  ...        0 min,  0.082 sec
     gradient                   ...        0 min,  0.079 sec
 * total energy  :   -99.0808184 Eh     change       -0.9124394E-06 Eh
   gradient norm :     0.0002286 Eh/α   predicted     0.0000000E+00 (-100.00%)
   displ. norm   :     0.0070259 α      lambda       -0.4695305E-07
   maximum displ.:     0.0037263 α      in ANC's #1, #17, #38, ...

   *** GEOMETRY OPTIMIZATION CONVERGED AFTER 184 ITERATIONS ***

------------------------------------------------------------------------
 total energy gain   :        -0.9113317 Eh     -571.8693 kcal/mol
 total RMSD          :         2.4061954 a0        1.2733 Å
 total power (kW/mol):       -13.0038101 (step)  -52.2349 (real)
------------------------------------------------------------------------

 ANCopt (total)                0 d,  0 h,  0 min, 45.807 sec
 optimizer setup                ...        0 min,  0.001 sec (  0.003%)
 model hessian                  ...        0 min,  0.925 sec (  2.019%)
 ANC generation                 ...        0 min,  0.127 sec (  0.278%)
 coordinate transformation      ...        0 min,  0.034 sec (  0.074%)
 single point calculation       ...        0 min, 44.447 sec ( 97.032%)
 optimization log               ...        0 min,  0.125 sec (  0.272%)
 hessian update                 ...        0 min,  0.029 sec (  0.064%)
 rational function              ...        0 min,  0.079 sec (  0.171%)

================
 final structure:
================
76
 xtb: 6.7.1 (edcfbbe)
Mn           0.42066160775057       -0.05229962954810        0.16355271606096
N            0.30812160654344       -1.86598635081080        0.46157101692589
C            1.39612223065870       -2.83583507524874        0.32553239868715
C            2.46007057095825       -2.39481959207144       -0.67967227286636
P            2.43557388302411       -0.55575088798371       -0.68702176052158
C            2.80827426610633       -0.12190913953856       -2.46964474112206
C            4.12068976982264       -0.69305381257192       -3.00346675492912
C            1.63758787241389       -0.54073909813872       -3.35992979592530
C            4.03328378065181       -0.11060289248579        0.16005661562557
C            3.97905921487090       -0.54677850073964        1.62111097557918
C            4.25746321115843        1.39632128509865        0.06252808097668
C           -0.82945214844602       -2.60979224408399        0.99744724110628
C           -2.01884189847747       -1.72098698665150        1.36426913841688
P           -1.78607719214894       -0.16057878150744        0.42725348379404
C           -2.86360655262445        1.06381030476381        1.32746688285441
C           -2.78733046929589        2.40238727591767        0.59544118604743
C           -2.40916895243583        1.23680642207416        2.77424929783278
C           -2.72800637734049       -0.40358354790278       -1.17622231442524
C           -4.24417538338127       -0.52946833589817       -1.03999771576827
C           -2.15596572906582       -1.61088109528486       -1.91960151951377
H            1.85246934499796       -3.00397506590119        1.31434528935295
H            0.98693506149673       -3.80802730416787       -0.00009970405266
H            3.44707055218774       -2.79200265872573       -0.43085765590879
H            2.18206637579589       -2.73862403516368       -1.68041974599585
H            2.85364598020231        0.97590403291501       -2.47736866580985
H            4.19326343741756       -0.48863358474127       -4.07128051231261
H            4.16536386186804       -1.77196291042315       -2.86388025270599
H            4.98365754681927       -0.24169448962853       -2.52090709697599
H            1.73033323050161       -0.08173015615392       -4.34328312475574
H            1.60751705508780       -1.62114792562114       -3.49650822848804
H            0.69174169924948       -0.21464167488875       -2.92279005352686
H            4.84406185419870       -0.65271666730101       -0.34286567320278
H            4.92438545878895       -0.32512110210960        2.11502537841919
H            3.78645791502257       -1.61325237123726        1.71835505251950
H            3.18814401688927       -0.00929280599547        2.14064568070023
H            3.36289481799966        1.92252091193186        0.40195226751596
H            5.09332169863869        1.69595913560327        0.69306073212955
H            4.47269959272269        1.70701033875514       -0.95756925644660
H           -0.50307439733760       -3.17352594054927        1.88893229390736
H           -1.14606418548805       -3.36441380852591        0.25605566243271
H           -1.97715928637407       -1.46324112424248        2.42586586430588
H           -2.97555950825719       -2.20602641808947        1.15656895332762
H           -3.89208649982333        0.68350909432849        1.32231723455705
H           -3.14808811327516        2.32662157335455       -0.42838708060125
H           -3.38373821220441        3.15279248062310        1.11243966812661
H           -1.75113767837235        2.74344447651488        0.56903729919738
H           -2.93550584877202        2.07446786295167        3.22922724928379
H           -2.61306797040144        0.35406735126346        3.37503905982989
H           -1.34146074512066        1.44725464916654        2.81435764073962
H           -2.49036768462085        0.49709879290117       -1.76163490569537
H           -4.51575759817273       -1.29584572788622       -0.31540517528821
H           -4.70366145800472        0.41006108320003       -0.74372498815227
H           -4.66554094883897       -0.81579844348741       -2.00348245140254
H           -1.06409416909215       -1.60455565703854       -1.87432367063787
H           -2.52042558421915       -2.53981419142010       -1.48342527318896
H           -2.45260674304104       -1.58924315195043       -2.96792937170700
C            0.26617705171091        1.34414580229483       -0.90197074349651
O            0.17546898546162        2.28452332223841       -1.58664193033179
C            0.86731458715000        1.04326268557646        1.47026452966156
O            1.16713525472473        1.77610735741560        2.33388193287860
O            1.34552781002219       -1.66179339132347        3.46263572737127
C            1.23172478675154       -0.82565709995416        4.58932423232641
C           -0.17901067954597       -0.70125318714037        5.11401652604595
C           -0.60061131341390        0.46465996798707        5.73948492491021
C           -1.88515430869124        0.56217173392839        6.24486435187125
C           -2.76520960193466       -0.50079972921340        6.12129511308365
C           -2.35345770875396       -1.66424049061541        5.49285619110105
C           -1.06505903395857       -1.76432458084162        4.99662004694705
H            0.91523812323007       -1.21862956809160        2.71088905775110
H            1.86146573515711       -1.28730106593625        5.36074014081012
H            1.63577124696383        0.17348603947761        4.37657276591919
H            0.08197873414682        1.29781088222406        5.82856651785582
H           -2.20291944333794        1.47243212580085        6.73223986886794
H           -3.76921610438948       -0.42216429812532        6.51273531547224
H           -3.03522794822545       -2.49740813281544        5.39325389004729
H           -0.73172282983405       -2.67371669899431        4.51582403742171

 Bond Distances (Angstroems)
 ---------------------------
Mn1-N2=1.8415        Mn1-P5=2.2443        Mn1-P14=2.2251       Mn1-C57=1.7633       Mn1-C59=1.7627       N2-Mn1=1.8415        
N2-C3=1.4639         N2-C12=1.4610        C3-N2=1.4639         C3-C4=1.5287         C3-H21=1.1019        C3-H22=1.1039        
C4-C3=1.5287         C4-P5=1.8392         C4-H23=1.0926        C4-H24=1.0941        P5-Mn1=2.2443        P5-C4=1.8392         
P5-C6=1.8721         P5-C9=1.8624         C6-P5=1.8721         C6-C7=1.5276         C6-C8=1.5292         C6-H25=1.0988        
C7-C6=1.5276         C7-H26=1.0896        C7-H27=1.0888        C7-H28=1.0869        C8-C6=1.5292         C8-H29=1.0892        
C8-H30=1.0894        C8-H31=1.0918        C9-P5=1.8624         C9-C10=1.5257        C9-C11=1.5266        C9-H32=1.0974        
C10-C9=1.5257        C10-H33=1.0894       C10-H34=1.0881       C10-H35=1.0883       C11-C9=1.5266        C11-H36=1.0919       
C11-H37=1.0890       C11-H38=1.0879       C12-N2=1.4610        C12-C13=1.5294       C12-H39=1.1041       C12-H40=1.1042       
C13-C12=1.5294       C13-P14=1.8350       C13-H41=1.0932       C13-H42=1.0926       P14-Mn1=2.2251       P14-C13=1.8350       
P14-C15=1.8630       P14-C18=1.8755       C15-P14=1.8630       C15-C16=1.5276       C15-C17=1.5263       C15-H43=1.0966       
C16-C15=1.5276       C16-H44=1.0882       C16-H45=1.0891       C16-H46=1.0912       C17-C15=1.5263       C17-H47=1.0889       
C17-H48=1.0871       C17-H49=1.0890       C18-P14=1.8755       C18-C19=1.5275       C18-C20=1.5289       C18-H50=1.1002       
C19-C18=1.5275       C19-H51=1.0891       C19-H52=1.0870       C19-H53=1.0899       C20-C18=1.5289       C20-H54=1.0928       
C20-H55=1.0890       C20-H56=1.0897       H21-C3=1.1019        H22-C3=1.1039        H23-C4=1.0926        H24-C4=1.0941        
H25-C6=1.0988        H26-C7=1.0896        H27-C7=1.0888        H28-C7=1.0869        H29-C8=1.0892        H30-C8=1.0894        
H31-C8=1.0918        H32-C9=1.0974        H33-C10=1.0894       H34-C10=1.0881       H35-C10=1.0883       H36-C11=1.0919       
H37-C11=1.0890       H38-C11=1.0879       H39-C12=1.1041       H40-C12=1.1042       H41-C13=1.0932       H42-C13=1.0926       
H43-C15=1.0966       H44-C16=1.0882       H45-C16=1.0891       H46-C16=1.0912       H47-C17=1.0889       H48-C17=1.0871       
H49-C17=1.0890       H50-C18=1.1002       H51-C19=1.0891       H52-C19=1.0870       H53-C19=1.0899       H54-C20=1.0928       
H55-C20=1.0890       H56-C20=1.0897       C57-Mn1=1.7633       C57-O58=1.1668       O58-C57=1.1668       C59-Mn1=1.7627       
C59-O60=1.1717       O60-C59=1.1717       O61-C62=1.4077       O61-H69=0.9730       C62-O61=1.4077       C62-C63=1.5103       
C62-H70=1.0976       C62-H71=1.0985       C63-C62=1.5103       C63-C64=1.3886       C63-C68=1.3889       C64-C63=1.3886       
C64-C65=1.3838       C64-H72=1.0807       C65-C64=1.3838       C65-C66=1.3855       C65-H73=1.0803       C66-C65=1.3855       
C66-C67=1.3849       C66-H74=1.0805       C67-C66=1.3849       C67-C68=1.3843       C67-H75=1.0812       C68-C63=1.3889       
C68-C67=1.3843       C68-H76=1.0813       H69-O61=0.9730       H70-C62=1.0976       H71-C62=1.0985       H72-C64=1.0807       
H73-C65=1.0803       H74-C66=1.0805       H75-C67=1.0812       H76-C68=1.0813       
 C  H  Rav=1.0912 sigma=0.0061  Rmin=1.0803  Rmax=1.1042    43
 C  C  Rav=1.4767 sigma=0.0671  Rmin=1.3838  Rmax=1.5294    17
 N  C  Rav=1.4624 sigma=0.0014  Rmin=1.4610  Rmax=1.4639     2
 O  H  Rav=0.9730 sigma=0.0000  Rmin=0.9730  Rmax=0.9730     1
 O  C  Rav=1.2487 sigma=0.1124  Rmin=1.1668  Rmax=1.4077     3
 P  C  Rav=1.8579 sigma=0.0154  Rmin=1.8350  Rmax=1.8755     6
 Mn C  Rav=1.7630 sigma=0.0003  Rmin=1.7627  Rmax=1.7633     2
 Mn N  Rav=1.8415 sigma=0.0000  Rmin=1.8415  Rmax=1.8415     1
 Mn P  Rav=2.2347 sigma=0.0096  Rmin=2.2251  Rmax=2.2443     2

 selected bond angles (degree)
 --------------------
P5-Mn1-N2= 83.99               P14-Mn1-N2= 82.66              P14-Mn1-P5=157.58              C57-Mn1-N2=150.74              
C57-Mn1-P5= 91.56              C57-Mn1-P14= 91.33             C59-Mn1-N2=120.51              C59-Mn1-P5=101.12              
C59-Mn1-P14=101.17             C59-Mn1-C57= 88.74             C3-N2-Mn1=126.30               C12-N2-Mn1=127.47              
C12-N2-C3=105.99               C4-C3-N2=112.78                H21-C3-N2=109.00               H21-C3-C4=110.23               
H22-C3-N2=109.60               H22-C3-C4=108.55               H22-C3-H21=106.49              P5-C4-C3=106.37                
H23-C4-C3=111.97               H23-C4-P5=112.11               H24-C4-C3=109.51               H24-C4-P5=107.89               
H24-C4-H23=108.88              C4-P5-Mn1=103.58               C6-P5-Mn1=119.18               C6-P5-C4=103.47                
C9-P5-Mn1=122.97               C9-P5-C4=103.05                C9-P5-C6=101.94                C7-C6-P5=114.65                
C8-C6-P5=109.78                C8-C6-C7=110.60                H25-C6-P5=104.27               H25-C6-C7=109.61               
H25-C6-C8=107.53               H26-C7-C6=109.24               H27-C7-C6=111.16               H27-C7-H26=107.99              
H28-C7-C6=111.82               H28-C7-H26=107.72              H28-C7-H27=108.78              H29-C8-C6=110.18               
H30-C8-C6=111.45               H30-C8-H29=107.89              H31-C8-C6=110.38               H31-C8-H29=108.02              
H31-C8-H30=108.81              C10-C9-P5=109.68               C11-C9-P5=109.44               C11-C9-C10=110.40              
H32-C9-P5=107.90               H32-C9-C10=108.90              H32-C9-C11=110.48              H33-C10-C9=110.19              
H34-C10-C9=111.84              H34-C10-H33=108.21             H35-C10-C9=109.99              H35-C10-H33=108.28             
H35-C10-H34=108.23             

 selected dihedral angles (degree)
 ---------------------------------
C3-N2-Mn1-P5= 10.06           C3-N2-Mn1-P14=172.01          C3-N2-Mn1-C57= 92.49          C3-N2-Mn1-C59=270.68          
C12-N2-Mn1-P5=183.76          C12-N2-Mn1-P14=345.70         C12-N2-Mn1-C57=266.18         C12-N2-Mn1-C59= 84.37         
C4-C3-N2-Mn1=333.06           C4-C3-N2-C12=158.27           H21-C3-N2-Mn1= 95.84          H21-C3-N2-C12=281.04          
H22-C3-N2-Mn1=212.01          H22-C3-N2-C12= 37.22          P5-C4-C3-N2= 27.99            P5-C4-C3-H21=265.91           
P5-C4-C3-H22=149.63           H23-C4-C3-N2=150.78           H23-C4-C3-H21= 28.70          H23-C4-C3-H22=272.42          
H24-C4-C3-N2=271.65           H24-C4-C3-H21=149.57          H24-C4-C3-H22= 33.29          C4-P5-Mn1-N2=  6.72           
C4-P5-Mn1-P14=313.01          C4-P5-Mn1-C57=215.71          C4-P5-Mn1-C59=126.69          C6-P5-Mn1-N2=120.88           
C6-P5-Mn1-P14= 67.17          C6-P5-Mn1-C57=329.86          C6-P5-Mn1-C59=240.85          C9-P5-Mn1-N2=251.03           
C9-P5-Mn1-P14=197.32          C9-P5-Mn1-C57=100.02          C9-P5-Mn1-C59= 11.00          Mn1-P5-C4-C3=339.84           
Mn1-P5-C4-H23=217.14          Mn1-P5-C4-H24= 97.26          C6-P5-C4-C3=214.83            C6-P5-C4-H23= 92.14           
C6-P5-C4-H24=332.26           C9-P5-C4-C3=108.94            C9-P5-C4-H23=346.24           C9-P5-C4-H24=226.36           
C7-C6-P5-Mn1=188.75           C7-C6-P5-C4=302.97            C7-C6-P5-C9= 49.71            C8-C6-P5-Mn1=313.96           
C8-C6-P5-C4= 68.18            C8-C6-P5-C9=174.91            H25-C6-P5-Mn1= 68.90          H25-C6-P5-C4=183.12           
H25-C6-P5-C9=289.85           H26-C7-C6-P5=173.41           H26-C7-C6-C8= 48.63           H26-C7-C6-H25=290.24          
H27-C7-C6-P5= 54.34           H27-C7-C6-C8=289.57           H27-C7-C6-H25=171.18          H28-C7-C6-P5=292.55           
H28-C7-C6-C8=167.77           H28-C7-C6-H25= 49.38          H29-C8-C6-P5=166.15           H29-C8-C6-C7=293.65           
H29-C8-C6-H25= 53.30          H30-C8-C6-P5=285.89           H30-C8-C6-C7= 53.39           H30-C8-C6-H25=173.04          
H31-C8-C6-P5= 46.93           H31-C8-C6-C7=174.43           H31-C8-C6-H25=294.08          C10-C9-P5-Mn1= 49.41          
C10-C9-P5-C4=293.46           C10-C9-P5-C6=186.41           C11-C9-P5-Mn1=288.16          C11-C9-P5-C4=172.21           
C11-C9-P5-C6= 65.15           H32-C9-P5-Mn1=167.90          H32-C9-P5-C4= 51.95           H32-C9-P5-C6=304.89           
H33-C10-C9-P5=177.82          H33-C10-C9-C11=298.49         H33-C10-C9-H32= 59.95         H34-C10-C9-P5= 57.41          
H34-C10-C9-C11=178.08         H34-C10-C9-H32=299.54         H35-C10-C9-P5=297.12          H35-C10-C9-C11= 57.80         
H35-C10-C9-H32=179.25         
           -------------------------------------------------
          |                Final Singlepoint                |
           -------------------------------------------------

          ...................................................
          :                      SETUP                      :
          :.................................................:
          :  # basis functions                 190          :
          :  # atomic orbitals                 187          :
          :  # shells                          111          :
          :  # electrons                       184          :
          :  max. iterations                   500          :
          :  Hamiltonian                  GFN2-xTB          :
          :  restarted?                      false          :
          :  GBSA solvation                   true          :
          :  PC potential                    false          :
          :  electronic temp.          300.0000000     K    :
          :  accuracy                    0.5000000          :
          :  -> integral cutoff          0.2801030E+02      :
          :  -> integral neglect         0.5000000E-08      :
          :  -> SCF convergence          0.5000000E-06 Eh   :
          :  -> wf. convergence          0.5000000E-04 e    :
          :  Broyden damping             0.4000000          :
          :  net charge                          0          :
          :  unpaired electrons                  0          :
          ...................................................

 iter      E             dE          RMSdq      gap      omega  full diag
   1   -100.4210432 -0.100421E+03  0.154E-04    1.78       0.0  T
   2   -100.4210432  0.446818E-09  0.162E-04    1.78      70.9  T
   3   -100.4210433 -0.129144E-08  0.803E-05    1.78     142.8  T

   *** convergence criteria satisfied after 3 iterations ***

         #    Occupation            Energy/Eh            Energy/eV
      -------------------------------------------------------------
         1        2.0000           -0.7232756             -19.6813
       ...           ...                  ...                  ...
        86        2.0000           -0.3994482             -10.8695
        87        2.0000           -0.3928865             -10.6910
        88        2.0000           -0.3783296             -10.2949
        89        2.0000           -0.3451577              -9.3922
        90        2.0000           -0.3252414              -8.8503
        91        2.0000           -0.3241760              -8.8213
        92        2.0000           -0.3183930              -8.6639 (HOMO)
        93                         -0.2530747              -6.8865 (LUMO)
        94                         -0.2207288              -6.0063
        95                         -0.2203044              -5.9948
        96                         -0.1987340              -5.4078
        97                         -0.1968569              -5.3567
       ...                                ...                  ...
       187                          3.2715694              89.0239
      -------------------------------------------------------------
                  HL-Gap            0.0653182 Eh            1.7774 eV
             Fermi-level           -0.2857338 Eh           -7.7752 eV

 SCC (total)                   0 d,  0 h,  0 min,  0.151 sec
 SCC setup                      ...        0 min,  0.003 sec (  2.081%)
 Dispersion                     ...        0 min,  0.002 sec (  1.162%)
 classical contributions        ...        0 min,  0.000 sec (  0.304%)
 integral evaluation            ...        0 min,  0.020 sec ( 12.974%)
 iterations                     ...        0 min,  0.047 sec ( 31.054%)
 molecular gradient             ...        0 min,  0.078 sec ( 51.510%)
 printout                       ...        0 min,  0.001 sec (  0.883%)

         :::::::::::::::::::::::::::::::::::::::::::::::::::::
         ::                     SUMMARY                     ::
         :::::::::::::::::::::::::::::::::::::::::::::::::::::
         :: total energy             -99.080818363504 Eh    ::
         :: total w/o Gsasa/hb       -99.041074899223 Eh    ::
         :: gradient norm              0.000231248495 Eh/a0 ::
         :: HOMO-LUMO gap              1.777399348668 eV    ::
         ::.................................................::
         :: SCC energy              -100.416103773350 Eh    ::
         :: -> isotropic ES            0.069148549502 Eh    ::
         :: -> anisotropic ES          0.017977825845 Eh    ::
         :: -> anisotropic XC          0.034147804700 Eh    ::
         :: -> dispersion             -0.095576266345 Eh    ::
         :: -> Gsolv                  -0.043898111012 Eh    ::
         ::    -> Gelec               -0.004154646731 Eh    ::
         ::    -> Gsasa               -0.041951607420 Eh    ::
         ::    -> Ghb                  0.000000000000 Eh    ::
         ::    -> Gshift               0.002208143139 Eh    ::
         :: repulsion energy           1.335285409845 Eh    ::
         :: add. restraining           0.000000000000 Eh    ::
         :: total charge               0.000000000000 e     ::
         :::::::::::::::::::::::::::::::::::::::::::::::::::::

           -------------------------------------------------
          |                Property Printout                |
           -------------------------------------------------

    * Orbital Energies and Occupations

         #    Occupation            Energy/Eh            Energy/eV
      -------------------------------------------------------------
         1        2.0000           -0.7232756             -19.6813
       ...           ...                  ...                  ...
        80        2.0000           -0.4177897             -11.3686
        81        2.0000           -0.4120413             -11.2122
        82        2.0000           -0.4113134             -11.1924
        83        2.0000           -0.4098550             -11.1527
        84        2.0000           -0.4035705             -10.9817
        85        2.0000           -0.4013426             -10.9211
        86        2.0000           -0.3994482             -10.8695
        87        2.0000           -0.3928865             -10.6910
        88        2.0000           -0.3783296             -10.2949
        89        2.0000           -0.3451577              -9.3922
        90        2.0000           -0.3252414              -8.8503
        91        2.0000           -0.3241760              -8.8213
        92        2.0000           -0.3183930              -8.6639 (HOMO)
        93                         -0.2530747              -6.8865 (LUMO)
        94                         -0.2207288              -6.0063
        95                         -0.2203044              -5.9948
        96                         -0.1987340              -5.4078
        97                         -0.1968569              -5.3567
        98                         -0.1947357              -5.2990
        99                         -0.1827601              -4.9732
       100                         -0.1637729              -4.4565
       101                         -0.1419374              -3.8623
       102                         -0.1375560              -3.7431
       103                         -0.1270972              -3.4585
       ...                                ...                  ...
       187                          3.2715694              89.0239
      -------------------------------------------------------------
                  HL-Gap            0.0653182 Eh            1.7774 eV
             Fermi-level           -0.2857338 Eh           -7.7752 eV

     #   Z          covCN         q      C6AA      α(0)
     1  25 Mn       4.233    -0.456    61.931    19.807
     2   7 N        2.735    -0.178    24.861     7.405
     3   6 C        3.917     0.045    19.769     6.319
     4   6 C        3.750    -0.036    21.274     6.578
     5  15 P        4.188    -0.026   161.358    22.818
     6   6 C        3.797     0.003    20.539     6.453
     7   6 C        3.791    -0.102    22.463     6.750
     8   6 C        3.828    -0.088    22.150     6.697
     9   6 C        3.798     0.005    20.505     6.448
    10   6 C        3.837    -0.098    22.341     6.724
    11   6 C        3.839    -0.101    22.394     6.732
    12   6 C        3.927     0.049    19.699     6.308
    13   6 C        3.750    -0.038    21.312     6.584
    14  15 P        4.231    -0.039   161.979    22.862
    15   6 C        3.798     0.003    20.528     6.451
    16   6 C        3.851    -0.099    22.343     6.723
    17   6 C        3.823    -0.101    22.401     6.735
    18   6 C        3.797     0.010    20.417     6.434
    19   6 C        3.785    -0.100    22.422     6.745
    20   6 C        3.832    -0.083    22.058     6.682
    21   1 H        0.923     0.026     2.645     2.544
    22   1 H        0.923     0.001     3.047     2.730
    23   1 H        0.925     0.048     2.341     2.393
    24   1 H        0.926     0.055     2.259     2.350
    25   1 H        0.926     0.056     2.240     2.341
    26   1 H        0.925     0.046     2.375     2.410
    27   1 H        0.925     0.044     2.391     2.418
    28   1 H        0.925     0.044     2.398     2.422
    29   1 H        0.925     0.038     2.480     2.463
    30   1 H        0.925     0.038     2.471     2.458
    31   1 H        0.924     0.059     2.213     2.326
    32   1 H        0.925     0.055     2.254     2.348
    33   1 H        0.925     0.040     2.449     2.447
    34   1 H        0.925     0.049     2.330     2.387
    35   1 H        0.925     0.061     2.186     2.312
    36   1 H        0.924     0.054     2.266     2.354
    37   1 H        0.925     0.046     2.370     2.407
    38   1 H        0.925     0.042     2.419     2.432
    39   1 H        0.923     0.011     2.873     2.651
    40   1 H        0.923     0.008     2.920     2.672
    41   1 H        0.927     0.063     2.166     2.302
    42   1 H        0.925     0.049     2.334     2.389
    43   1 H        0.925     0.058     2.221     2.330
    44   1 H        0.925     0.045     2.387     2.416
    45   1 H        0.925     0.044     2.393     2.419
    46   1 H        0.924     0.054     2.267     2.355
    47   1 H        0.925     0.045     2.389     2.417
    48   1 H        0.925     0.040     2.444     2.445
    49   1 H        0.925     0.057     2.236     2.338
    50   1 H        0.926     0.054     2.267     2.354
    51   1 H        0.925     0.042     2.427     2.436
    52   1 H        0.925     0.043     2.410     2.427
    53   1 H        0.925     0.045     2.384     2.414
    54   1 H        0.924     0.064     2.152     2.294
    55   1 H        0.925     0.037     2.493     2.469
    56   1 H        0.925     0.031     2.570     2.507
    57   6 C        1.771     0.191    26.689     8.352
    58   8 O        0.856    -0.269    19.224     5.879
    59   6 C        1.707     0.187    26.916     8.400
    60   8 O        0.856    -0.279    19.400     5.905
    61   8 O        1.654    -0.458    22.010     6.333
    62   6 C        3.679     0.083    19.412     6.311
    63   6 C        2.967     0.002    27.983     8.677
    64   6 C        2.923    -0.036    28.893     8.815
    65   6 C        2.919    -0.028    28.701     8.785
    66   6 C        2.920    -0.033    28.824     8.804
    67   6 C        2.919    -0.033    28.823     8.804
    68   6 C        2.924    -0.031    28.783     8.798
    69   1 H        0.804     0.319     0.668     1.283
    70   1 H        0.924     0.042     2.417     2.431
    71   1 H        0.923     0.026     2.644     2.543
    72   1 H        0.926     0.030     2.586     2.515
    73   1 H        0.926     0.032     2.562     2.503
    74   1 H        0.926     0.030     2.589     2.516
    75   1 H        0.926     0.028     2.621     2.532
    76   1 H        0.925     0.036     2.502     2.473

 Mol. C6AA /au·bohr⁶  :      56916.600967
 Mol. C8AA /au·bohr⁸  :    1496422.494462
 Mol. α(0) /au        :        378.094162


Wiberg/Mayer (AO) data.
largest (>0.10) Wiberg bond orders for each atom

 ---------------------------------------------------------------------------
     #   Z sym  total        # sym  WBO       # sym  WBO       # sym  WBO
 ---------------------------------------------------------------------------
     1  25 Mn   6.940 --    59 C    1.511    57 C    1.420     2 N    1.048
                            14 P    0.868     5 P    0.850    60 O    0.346
                            58 O    0.330
     2   7 N    3.377 --     1 Mn   1.048    12 C    1.000     3 C    0.996
     3   6 C    3.992 --     2 N    0.996     4 C    0.983    22 H    0.963
                            21 H    0.954
     4   6 C    3.997 --     5 P    1.011     3 C    0.983    23 H    0.942
                            24 H    0.937
     5  15 P    4.437 --     4 C    1.011     9 C    0.981     6 C    0.978
                             1 Mn   0.850
     6   6 C    3.992 --     7 C    0.995     8 C    0.994     5 P    0.978
                            25 H    0.930
     7   6 C    3.995 --     6 C    0.995    28 H    0.980    26 H    0.980
                            27 H    0.980
     8   6 C    3.995 --     6 C    0.994    29 H    0.983    30 H    0.979
                            31 H    0.950
     9   6 C    3.993 --    11 C    0.996    10 C    0.995     5 P    0.981
                            32 H    0.931
    10   6 C    3.993 --     9 C    0.995    33 H    0.981    34 H    0.973
                            35 H    0.963
    11   6 C    3.995 --     9 C    0.996    37 H    0.981    38 H    0.979
                            36 H    0.966
    12   6 C    3.992 --     2 N    1.000    13 C    0.981    39 H    0.959
                            40 H    0.957
    13   6 C    3.997 --    14 P    1.014    12 C    0.981    42 H    0.940
                            41 H    0.930
    14  15 P    4.478 --    13 C    1.014    15 C    0.983    18 C    0.971
                             1 Mn   0.868
    15   6 C    3.993 --    17 C    0.996    16 C    0.994    14 P    0.983
                            43 H    0.931
    16   6 C    3.994 --    15 C    0.994    45 H    0.982    44 H    0.975
                            46 H    0.969
    17   6 C    3.994 --    15 C    0.996    47 H    0.980    48 H    0.976
                            49 H    0.964
    18   6 C    3.992 --    19 C    0.994    20 C    0.993    14 P    0.971
                            50 H    0.928
    19   6 C    3.996 --    18 C    0.994    52 H    0.981    53 H    0.980
                            51 H    0.978
    20   6 C    3.995 --    18 C    0.993    56 H    0.984    55 H    0.981
                            54 H    0.947
    21   1 H    0.998 --     3 C    0.954
    22   1 H    0.999 --     3 C    0.963
    23   1 H    0.997 --     4 C    0.942
    24   1 H    0.997 --     4 C    0.937
    25   1 H    0.997 --     6 C    0.930
    26   1 H    0.996 --     7 C    0.980
    27   1 H    0.998 --     7 C    0.980
    28   1 H    0.998 --     7 C    0.980
    29   1 H    0.998 --     8 C    0.983
    30   1 H    0.998 --     8 C    0.979
    31   1 H    0.996 --     8 C    0.950
    32   1 H    0.997 --     9 C    0.931
    33   1 H    0.998 --    10 C    0.981
    34   1 H    0.997 --    10 C    0.973
    35   1 H    0.996 --    10 C    0.963
    36   1 H    0.997 --    11 C    0.966
    37   1 H    0.997 --    11 C    0.981
    38   1 H    0.998 --    11 C    0.979
    39   1 H    0.997 --    12 C    0.959
    40   1 H    0.998 --    12 C    0.957
    41   1 H    0.996 --    13 C    0.930
    42   1 H    0.997 --    13 C    0.940
    43   1 H    0.996 --    15 C    0.931
    44   1 H    0.998 --    16 C    0.975
    45   1 H    0.998 --    16 C    0.982
    46   1 H    0.997 --    16 C    0.969
    47   1 H    0.998 --    17 C    0.980
    48   1 H    0.998 --    17 C    0.976
    49   1 H    0.997 --    17 C    0.964
    50   1 H    0.997 --    18 C    0.928
    51   1 H    0.998 --    19 C    0.978
    52   1 H    0.998 --    19 C    0.981
    53   1 H    0.996 --    19 C    0.980
    54   1 H    0.996 --    20 C    0.947
    55   1 H    0.998 --    20 C    0.981
    56   1 H    0.999 --    20 C    0.984
    57   6 C    3.688 --    58 O    1.975     1 Mn   1.420
    58   8 O    2.394 --    57 C    1.975     1 Mn   0.330
    59   6 C    3.703 --    60 O    1.948     1 Mn   1.511
    60   8 O    2.381 --    59 C    1.948     1 Mn   0.346
    61   8 O    1.952 --    62 C    1.001    69 H    0.851
    62   6 C    3.959 --    61 O    1.001    63 C    0.996    71 H    0.964
                            70 H    0.957
    63   6 C    3.988 --    68 C    1.415    64 C    1.412    62 C    0.996
                            66 C    0.110
    64   6 C    3.992 --    65 C    1.447    63 C    1.412    72 H    0.969
                            67 C    0.112
    65   6 C    3.992 --    64 C    1.447    66 C    1.436    73 H    0.971
                            68 C    0.111
    66   6 C    3.992 --    67 C    1.439    65 C    1.436    74 H    0.972
                            63 C    0.110
    67   6 C    3.993 --    68 C    1.441    66 C    1.439    75 H    0.971
                            64 C    0.112
    68   6 C    3.992 --    67 C    1.441    63 C    1.415    76 H    0.967
                            65 C    0.111
    69   1 H    0.898 --    61 O    0.851
    70   1 H    0.998 --    62 C    0.957
    71   1 H    0.999 --    62 C    0.964
    72   1 H    0.999 --    64 C    0.969
    73   1 H    0.999 --    65 C    0.971
    74   1 H    0.999 --    66 C    0.972
    75   1 H    0.999 --    67 C    0.971
    76   1 H    0.999 --    68 C    0.967
 ---------------------------------------------------------------------------

Topologies differ in total number of bonds
Writing topology from bond orders to xtbtopo.mol

molecular dipole:
                 x           y           z       tot (Debye)
 q only:       -0.469      -1.095      -0.792
   full:       -0.722      -2.122      -1.078       6.321
molecular quadrupole (traceless):
                xx          xy          yy          xz          yz          zz
 q only:       22.610      -2.910     -15.428     -11.521       7.519      -7.182
  q+dip:       22.328      -1.832     -11.603     -12.982       9.508     -10.725
   full:       21.719      -2.603     -12.465     -12.602       8.578      -9.254

           -------------------------------------------------
          |                Geometry Summary                 |
           -------------------------------------------------

      molecular mass/u    :      523.5082764
   center of mass at/Å    :        0.1407561      -0.2987886       0.9913958
  moments of inertia/u·Å² :        0.2988748E+04   0.4951582E+04   0.6105199E+04
rotational constants/cm⁻¹ :        0.5640366E-02   0.3404494E-02   0.2761193E-02

 * 76 selected distances

     #   Z          #   Z                                           value/Å
     1  25 Mn       2   7 N                                       1.8414506
     2   7 N        3   6 C                                       1.4638507
     3   6 C        4   6 C                                       1.5286980
     1  25 Mn       5  15 P                                       2.2442844 (max)
     4   6 C        5  15 P                                       1.8392467
     5  15 P        6   6 C                                       1.8721297
     6   6 C        7   6 C                                       1.5276148
     6   6 C        8   6 C                                       1.5292263
     5  15 P        9   6 C                                       1.8623577
     9   6 C       10   6 C                                       1.5257358
     9   6 C       11   6 C                                       1.5266267
     2   7 N       12   6 C                                       1.4609877
    12   6 C       13   6 C                                       1.5294383
     1  25 Mn      14  15 P                                       2.2250752
    13   6 C       14  15 P                                       1.8349529
    14  15 P       15   6 C                                       1.8629501
    15   6 C       16   6 C                                       1.5275694
    15   6 C       17   6 C                                       1.5263096
    14  15 P       18   6 C                                       1.8754779
    18   6 C       19   6 C                                       1.5274728
    18   6 C       20   6 C                                       1.5288594
     3   6 C       21   1 H                                       1.1019414
     3   6 C       22   1 H                                       1.1039150
     4   6 C       23   1 H                                       1.0926263
     4   6 C       24   1 H                                       1.0940674
     6   6 C       25   1 H                                       1.0987776
     7   6 C       26   1 H                                       1.0896243
     7   6 C       27   1 H                                       1.0888183
     7   6 C       28   1 H                                       1.0868775
     8   6 C       29   1 H                                       1.0891625
     8   6 C       30   1 H                                       1.0894225
     8   6 C       31   1 H                                       1.0918131
     9   6 C       32   1 H                                       1.0973511
    10   6 C       33   1 H                                       1.0893693
    10   6 C       34   1 H                                       1.0880801
    10   6 C       35   1 H                                       1.0882804
    11   6 C       36   1 H                                       1.0919467
    11   6 C       37   1 H                                       1.0890427
    11   6 C       38   1 H                                       1.0878663
    12   6 C       39   1 H                                       1.1041123
    12   6 C       40   1 H                                       1.1042457
    13   6 C       41   1 H                                       1.0932329
    13   6 C       42   1 H                                       1.0925710
    15   6 C       43   1 H                                       1.0965522
    16   6 C       44   1 H                                       1.0881687
    16   6 C       45   1 H                                       1.0890812
    16   6 C       46   1 H                                       1.0911979
    17   6 C       47   1 H                                       1.0889042
    17   6 C       48   1 H                                       1.0870840
    17   6 C       49   1 H                                       1.0889895
    18   6 C       50   1 H                                       1.1001859
    19   6 C       51   1 H                                       1.0890940
    19   6 C       52   1 H                                       1.0870238
    19   6 C       53   1 H                                       1.0898793
    20   6 C       54   1 H                                       1.0928284
    20   6 C       55   1 H                                       1.0890352
    20   6 C       56   1 H                                       1.0897044
     1  25 Mn      57   6 C                                       1.7633111
    57   6 C       58   8 O                                       1.1667531
     1  25 Mn      59   6 C                                       1.7627399
    59   6 C       60   8 O                                       1.1716608
    61   8 O       62   6 C                                       1.4076585
    63   6 C       64   6 C                                       1.3886366
    64   6 C       65   6 C                                       1.3838237
    65   6 C       66   6 C                                       1.3855235
    66   6 C       67   6 C                                       1.3849440
    63   6 C       68   6 C                                       1.3888790
    67   6 C       68   6 C                                       1.3842827
    61   8 O       69   1 H                                       0.9729679 (min)
    62   6 C       70   1 H                                       1.0976209
    62   6 C       71   1 H                                       1.0985463
    64   6 C       72   1 H                                       1.0807430
    65   6 C       73   1 H                                       1.0803165
    66   6 C       74   1 H                                       1.0804806
    67   6 C       75   1 H                                       1.0811567
    68   6 C       76   1 H                                       1.0813288

 * 9 distinct bonds (by element types)

   Z      Z             #   av. dist./Å        max./Å        min./Å
   1 H    6 C          43     1.0911876     1.1042457     1.0803165
   6 C    6 C          16     1.4746025     1.5294383     1.3838237
   6 C    7 N           2     1.4624192     1.4638507     1.4609877
   1 H    8 O           1     0.9729679     0.9729679     0.9729679
   6 C    8 O           3     1.2486908     1.4076585     1.1667531
   6 C   15 P           6     1.8578525     1.8754779     1.8349529
   6 C   25 Mn          2     1.7630255     1.7633111     1.7627399
   7 N   25 Mn          1     1.8414506     1.8414506     1.8414506
  15 P   25 Mn          2     2.2346798     2.2442844     2.2250752


optimized geometry written to: xtbopt.xyz


           -------------------------------------------------
          | TOTAL ENERGY              -99.080818363504 Eh   |
          | GRADIENT NORM               0.000231248495 Eh/α |
          | HOMO-LUMO GAP               1.777399348668 eV   |
           -------------------------------------------------

------------------------------------------------------------------------
 * finished run on 2026/09/13 at 01:37:43.160     
------------------------------------------------------------------------
 total:
 * wall-time:     0 d,  0 h,  0 min, 46.536 sec
 *  cpu-time:     0 d,  0 h,  0 min,  9.922 sec
 * ratio c/w:     0.213 speedup
 SCF:
 * wall-time:     0 d,  0 h,  0 min,  0.459 sec
 *  cpu-time:     0 d,  0 h,  0 min,  0.281 sec
 * ratio c/w:     0.612 speedup
 ANC optimizer:
 * wall-time:     0 d,  0 h,  0 min, 45.968 sec
 *  cpu-time:     0 d,  0 h,  0 min,  9.641 sec
 * ratio c/w:     0.210 speedup


normal termination of xtb
Note: The following floating-point exceptions are signalling: IEEE_DIVIDE_BY_ZERO IEEE_UNDERFLOW_FLAG IEEE_DENORMAL
