76
 energy: -99.080818363504 gnorm: 0.000231248495 xtb: 6.7.1 (edcfbbe)
Mn           0.42066160775057       -0.05229962954810        0.16355271606096
N            0.30812160654344       -1.86598635081080        0.46157101692589
C            1.39612223065870       -2.83583507524874        0.32553239868715
C            2.46007057095825       -2.39481959207144       -0.67967227286636
P            2.43557388302411       -0.55575088798371       -0.68702176052158
C            2.80827426610633       -0.12190913953856       -2.46964474112206
C            4.12068976982264       -0.69305381257192       -3.00346675492912
C            1.63758787241389       -0.54073909813872       -3.35992979592530
C            4.03328378065181       -0.11060289248579        0.16005661562557
C            3.97905921487090       -0.54677850073964        1.62111097557918
C            4.25746321115843        1.39632128509865        0.06252808097668
C           -0.82945214844602       -2.60979224408399        0.99744724110628
C           -2.01884189847747       -1.72098698665150        1.36426913841688
P           -1.78607719214894       -0.16057878150744        0.42725348379404
C           -2.86360655262445        1.06381030476381        1.32746688285441
C           -2.78733046929589        2.40238727591767        0.59544118604743
C           -2.40916895243583        1.23680642207416        2.77424929783278
C           -2.72800637734049       -0.40358354790278       -1.17622231442524
C           -4.24417538338127       -0.52946833589817       -1.03999771576827
C           -2.15596572906582       -1.61088109528486       -1.91960151951377
H            1.85246934499796       -3.00397506590119        1.31434528935295
H            0.98693506149673       -3.80802730416787       -0.00009970405266
H            3.44707055218774       -2.79200265872573       -0.43085765590879
H            2.18206637579589       -2.73862403516368       -1.68041974599585
H            2.85364598020231        0.97590403291501       -2.47736866580985
H            4.19326343741756       -0.48863358474127       -4.07128051231261
H            4.16536386186804       -1.77196291042315       -2.86388025270599
H            4.98365754681927       -0.24169448962853       -2.52090709697599
H            1.73033323050161       -0.08173015615392       -4.34328312475574
H            1.60751705508780       -1.62114792562114       -3.49650822848804
H            0.69174169924948       -0.21464167488875       -2.92279005352686
H            4.84406185419870       -0.65271666730101       -0.34286567320278
H            4.92438545878895       -0.32512110210960        2.11502537841919
H            3.78645791502257       -1.61325237123726        1.71835505251950
H            3.18814401688927       -0.00929280599547        2.14064568070023
H            3.36289481799966        1.92252091193186        0.40195226751596
H            5.09332169863869        1.69595913560327        0.69306073212955
H            4.47269959272269        1.70701033875514       -0.95756925644660
H           -0.50307439733760       -3.17352594054927        1.88893229390736
H           -1.14606418548805       -3.36441380852591        0.25605566243271
H           -1.97715928637407       -1.46324112424248        2.42586586430588
H           -2.97555950825719       -2.20602641808947        1.15656895332762
H           -3.89208649982333        0.68350909432849        1.32231723455705
H           -3.14808811327516        2.32662157335455       -0.42838708060125
H           -3.38373821220441        3.15279248062310        1.11243966812661
H           -1.75113767837235        2.74344447651488        0.56903729919738
H           -2.93550584877202        2.07446786295167        3.22922724928379
H           -2.61306797040144        0.35406735126346        3.37503905982989
H           -1.34146074512066        1.44725464916654        2.81435764073962
H           -2.49036768462085        0.49709879290117       -1.76163490569537
H           -4.51575759817273       -1.29584572788622       -0.31540517528821
H           -4.70366145800472        0.41006108320003       -0.74372498815227
H           -4.66554094883897       -0.81579844348741       -2.00348245140254
H           -1.06409416909215       -1.60455565703854       -1.87432367063787
H           -2.52042558421915       -2.53981419142010       -1.48342527318896
H           -2.45260674304104       -1.58924315195043       -2.96792937170700
C            0.26617705171091        1.34414580229483       -0.90197074349651
O            0.17546898546162        2.28452332223841       -1.58664193033179
C            0.86731458715000        1.04326268557646        1.47026452966156
O            1.16713525472473        1.77610735741560        2.33388193287860
O            1.34552781002219       -1.66179339132347        3.46263572737127
C            1.23172478675154       -0.82565709995416        4.58932423232641
C           -0.17901067954597       -0.70125318714037        5.11401652604595
C           -0.60061131341390        0.46465996798707        5.73948492491021
C           -1.88515430869124        0.56217173392839        6.24486435187125
C           -2.76520960193466       -0.50079972921340        6.12129511308365
C           -2.35345770875396       -1.66424049061541        5.49285619110105
C           -1.06505903395857       -1.76432458084162        4.99662004694705
H            0.91523812323007       -1.21862956809160        2.71088905775110
H            1.86146573515711       -1.28730106593625        5.36074014081012
H            1.63577124696383        0.17348603947761        4.37657276591919
H            0.08197873414682        1.29781088222406        5.82856651785582
H           -2.20291944333794        1.47243212580085        6.73223986886794
H           -3.76921610438948       -0.42216429812532        6.51273531547224
H           -3.03522794822545       -2.49740813281544        5.39325389004729
H           -0.73172282983405       -2.67371669899431        4.51582403742171
