75

Ru      0.092081196032794      0.027543412367739     -0.366680781502036
N       0.027715905989450     -1.979501976886233     -0.738283001975768
C       1.142547982382435     -2.724259260335469     -1.309909393740763
C       2.477812675943008     -2.100348905993125     -0.920640303146748
P       2.298654631971628     -0.268088880555167     -1.092128582424480
C       2.698806750170740     -0.136848714801947     -2.932928010610278
C       4.140962971211862     -0.485780990238126     -3.300802895869794
C       2.335148926318095      1.204171728152422     -3.563911480565526
C       3.780429909436567      0.427763798573519     -0.207526295932059
C       3.617188211863839      1.946436841595781     -0.181731370877609
C       3.863311057699644     -0.111494246403050      1.216489375870363
C      -1.203193148800279     -2.701327403058285     -1.055145981777166
C      -2.511863392475568     -1.917024074438387     -0.853539543955386
P      -2.207972505901884     -0.235258597121382     -0.111485818628179
C      -3.046474949807414     -0.451807083103834      1.542260571799507
C      -3.005835440222560      0.850902490347190      2.334184133682653
C      -2.312381202164942     -1.530450221226693      2.324225632249433
C      -3.508217497250677      0.836522947293461     -0.959765493851665
C      -3.206610229184077      2.325163450977283     -0.754948961648429
C      -3.670120669410020      0.572654086974995     -2.457483640018729
H       1.051663074330465     -2.765926792599026     -2.410698410262929
H       1.103844547862965     -3.768571838739681     -0.952269605600873
H       2.680449862335579     -2.311333700655201      0.130230119485124
H       3.288853721166077     -2.506128095358903     -1.529153880251494
H       2.034000780115865     -0.894984431327421     -3.373859399668047
H       4.225192349798135     -0.525858633122114     -4.386513197054660
H       4.828665284787776      0.277912373850648     -2.945855841118463
H       4.455543209423411     -1.450134103462129     -2.909069164697194
H       1.292285725538999      1.444856579269489     -3.393978392812906
H       2.496655343743531      1.156883870987497     -4.640598762676637
H       2.946146597979763      2.011217621615084     -3.167817042391697
H       4.689780637571927      0.150400902597514     -0.752743717057855
H       4.410781430286619      2.406857101104347      0.404121297361464
H       3.640092555410999      2.368760259419378     -1.183974056403552
H       2.656251971902395      2.194567607841465      0.273153149384733
H       4.610175184950525      0.442348401639883      1.782367593230855
H       2.904181470270254      0.006542551661274      1.715159592501967
H       4.138414252467870     -1.164397547694634      1.240293698245910
H      -1.229108703736440     -3.636275992248116     -0.470759396993308
H      -1.156647619987296     -3.003653792261061     -2.117460426255482
H      -3.210339042847327     -2.475865749828438     -0.225168549826204
H      -2.990597596407739     -1.770683412751827     -1.822558386124645
H      -4.087142883236470     -0.754855900095697      1.354365178810653
H      -3.688318516109440      1.591987376703230      1.927051684118087
H      -1.988173077661168      1.246061811672627      2.318134606828669
H      -3.283804762321339      0.668005680209787      3.371217385040384
H      -2.348068714982044     -2.504651495634381      1.837023809680892
H      -2.733323475898601     -1.634711143536079      3.323738404187979
H      -1.279770651078437     -1.205719159513849      2.414136183528263
H      -4.454337048818111      0.593847698763551     -0.456334393041129
H      -4.123244430529962      2.907012231209722     -0.843143811586104
H      -2.752617508087771      2.524278107603759      0.212725856163612
H      -2.516282811859638      2.675980301222239     -1.515747583748038
H      -2.697714248237428      0.544092132974472     -2.949269189492865
H      -4.206186471864204     -0.351909591219291     -2.660811882642657
H      -4.248254709492327      1.383965264846469     -2.898221342393414
C      -0.179756444559899      1.432668792056249     -1.489020058639624
O      -0.361821167853601      2.377262640957077     -2.145142450857945
H       0.271455253961650      1.224263025710343      0.577703638775979
O       1.017054647863245     -3.059638516440160      1.480346175871630
C       0.970716279860418     -2.697742420817623      2.708589088541114
C       2.043611008132466     -2.861692053722944      3.649660569957928
C       1.853383249104115     -2.401780738153841      4.963352157485171
C       2.801828521535727     -2.636079888138040      5.935463329451705
C       3.948229557583744     -3.357082045699941      5.627337257825870
C       4.158494913524100     -3.804709338747300      4.330100818751576
C       3.229732330867499     -3.545001333416669      3.341595424600827
H       0.515682621484507     -2.380345691294389      0.761759114569356
H       0.864022782824128     -0.644141701562575      2.195564206437433
H       0.011790335869114     -2.456602589661125      3.160703284333923
H       0.956355106229278     -1.847059193687876      5.195727796360543
H       2.644405921998471     -2.273259794454536      6.941247637084007
H       4.671543397437184     -3.573850295812645      6.399814979248237
H       5.048620882796890     -4.372331361832695      4.099285424063116
H       3.382763267650502     -3.907331120890476      2.335213415394899
