27
Properties=species:S:1:pos:R:3 energy:=T -37.378759240724=T gnorm:=T 0.000041489190=T xtb:=T 6.7.1=T (edcfbbe)=T pbc="F F F"
C       -3.11457710       1.75247188       0.69493851
C       -3.28183724       1.32762676      -0.61289073
C       -2.54686030       0.25923880      -1.09366557
C       -1.63997790      -0.40368759      -0.27487931
C       -0.85882672      -1.58087008      -0.82494675
N        0.38587070      -1.86493555      -0.15560769
C        1.42155740      -0.96146244      -0.07681158
C        2.48177666      -1.22050041       0.79941958
C        3.56798442      -0.37324824       0.86723588
C        3.62665556       0.75778541       0.06794270
C        2.58047645       1.02573994      -0.79844898
C        1.48772439       0.18313808      -0.87513514
C       -1.48164271       0.02619774       1.03547949
C       -2.21230474       1.09939913       1.51627142
H       -3.68388322       2.59029493       1.07064971
H       -3.98298724       1.83364063      -1.26114498
H       -2.67651903      -0.06626166      -2.11695086
H       -0.65641052      -1.41031212      -1.88900939
H       -1.48008212      -2.48052715      -0.75571662
H        0.32945627      -2.50993775       0.61745070
H        2.44252451      -2.10072993       1.42778497
H        4.37499241      -0.59417641       1.55212602
H        4.47576547       1.42290923       0.12368011
H        2.61128300       1.90798260      -1.42291153
H        0.68247745       0.42462289      -1.55110733
H       -0.77783255      -0.47042095       1.68800067
H       -2.07480330       1.42602225       2.53718155
