80
Properties=species:S:1:pos:R:3 charge=0 unpaired=0 uhf=0 pbc="F F F"
Mn       0.22717265      -0.19500354      -0.55802698
N        0.47450194      -2.45434833      -0.50587320
C        1.63010295      -2.82112226       0.31623169
C        2.85932649      -2.10191612      -0.23241008
P        2.42812866      -0.30197096      -0.38819198
C        3.16377116       0.46996982       1.09487193
C        3.48879817      -0.20200099       2.26675976
C        3.96688998       0.50189216       3.35930701
C        4.11208865       1.87694751       3.29654361
C        3.76752433       2.55634588       2.13758456
C        3.29152741       1.85780555       1.04584988
C        3.65988725       0.28513186      -1.60289265
C        3.23700662       1.17537473      -2.58285419
C        4.14856865       1.69729549      -3.48510364
C        5.48078452       1.32292701      -3.41703742
C        5.90501058       0.43568350      -2.43914008
C        5.00188086      -0.07650390      -1.52578814
C       -0.74122834      -3.22955852      -0.20718685
C       -1.71555299      -2.40990054       0.63589225
P       -1.87502546      -0.80260477      -0.27137551
C       -2.94430905       0.22398192       0.78086196
C       -3.39086961      -0.10617387       2.05411630
C       -4.17632560       0.78987156       2.76075298
C       -4.51845491       2.01110231       2.20561808
C       -4.07236547       2.34628525       0.93554767
C       -3.28719564       1.45777602       0.22818100
C       -3.11201536      -1.28379872      -1.54049614
C       -2.77049998      -1.23092403      -2.88569381
C       -3.68924517      -1.60374333      -3.85213693
C       -4.95258561      -2.03025726      -3.47863058
C       -5.30148378      -2.07522648      -2.13675850
C       -4.38832613      -1.70045679      -1.16929340
H        1.79171913      -3.91065389       0.29225846
H        1.44234828      -2.52250751       1.35553094
H        3.07033514      -2.46419043      -1.24597924
H        3.74207115      -2.26516293       0.39002758
H        3.36598491      -1.27388585       2.34472653
H        4.22045091      -0.02751528       4.26738652
H        4.48272664       2.42091449       4.15341481
H        3.86366798       3.63179318       2.09075910
H        2.99959742       2.37846495       0.14037677
H        2.18516801       1.43986199      -2.61923312
H        3.82125505       2.40044529      -4.23829067
H        6.19291647       1.72614751      -4.12264270
H        6.94593371       0.15013406      -2.38454983
H        5.33810803      -0.75034380      -0.74935212
H       -1.23402680      -3.47698907      -1.15514932
H       -0.48230373      -4.17014934       0.29733839
H       -2.67682193      -2.92078557       0.74153016
H       -1.29571911      -2.21109065       1.62761928
H       -3.12895674      -1.05340467       2.50460963
H       -4.52011779       0.53231666       3.75292404
H       -5.12847350       2.70557160       2.76518577
H       -4.33245577       3.30213717       0.50389831
H       -2.91295837       1.70394212      -0.76062809
H       -1.78219756      -0.88339701      -3.15987704
H       -3.42072344      -1.55181534      -4.89770108
H       -5.67163173      -2.32082275      -4.23110758
H       -6.29104586      -2.39871414      -1.84628720
H       -4.66714282      -1.71806290      -0.12319519
C        0.04442933       1.55668195      -0.56493275
O       -0.07424985       2.71327661      -0.44288044
C        0.17018065       0.02952380       1.17411844
O        0.10626474       0.32870483       2.29690951
O        0.66087187      -3.71769835      -3.08936338
C        0.02344849      -3.35781364      -4.05812528
C        0.34992097      -2.23657285      -4.92661682
C        1.47263806      -1.44241030      -4.67445910
C        1.76826801      -0.37948071      -5.50389358
C        0.94732000      -0.09472575      -6.58497514
C       -0.17037177      -0.87686605      -6.84336427
C       -0.46894555      -1.94437421      -6.02114734
H        0.74108259      -2.69273692      -1.46877553
H        0.23962173      -0.28840930      -2.08144167
H       -0.89861672      -3.90195256      -4.34439162
H        2.09770896      -1.66528105      -3.82198356
H        2.63662943       0.22947679      -5.30376468
H        1.17733992       0.74069508      -7.23005400
H       -0.80528520      -0.64895545      -7.68703403
H       -1.33400299      -2.56281006      -6.21680084
