54
Properties=species:S:1:pos:R:3 energy:=T -70.105272373561=T gnorm:=T 0.000129308687=T xtb:=T 6.7.1=T (edcfbbe)=T pbc="F F F"
Ru       0.24973358      -0.11362784      -0.20649504
C        2.47775981      -2.33925522      -0.29608889
P        2.49001071      -0.59083825      -0.11764866
C        4.01964198       0.05986903      -0.94106325
C        5.29539546      -0.58049030      -0.40126069
C        3.85981723      -0.16885473      -2.44137490
C        2.69819526      -0.18178285       1.71615649
C        1.29125491      -0.44428467       2.27634243
C        3.09061394       1.27578543       1.93318881
C        1.23727180      -2.94196045      -0.16981216
C        1.03572336      -4.35605863      -0.16573100
C       -0.19597422      -4.87318199       0.09974870
C       -1.26450318      -4.01227396       0.40873077
C       -1.03413482      -2.65430896       0.35297586
C       -2.08024959      -1.65313853       0.79732256
N       -1.97255700      -0.35986638       0.09551435
C       -2.44322132       0.74698757       0.95690606
C       -3.87241475       0.64832022       1.50027713
C       -2.76868519      -0.38601748      -1.14965461
C       -2.45584214      -1.54835402      -2.08554228
N        0.14379327      -2.13417890       0.01482368
H        3.36880073      -2.92196062      -0.46626745
H        4.03497563       1.13959659      -0.74932481
H        6.16508987      -0.13441659      -0.88267668
H        5.38726855      -0.43760131       0.67353639
H        5.30587458      -1.64781476      -0.60924329
H        2.94553234       0.30794400      -2.79432121
H        3.79383895      -1.23463059      -2.65760811
H        4.70542650       0.24593197      -2.98809829
H        3.41975901      -0.85166212       2.20412466
H        1.09368278      -1.51883494       2.33554497
H        1.18068425      -0.02463443       3.28025998
H        0.54014158       0.07260656       1.60620799
H        2.99862241       1.54289813       2.98662260
H        4.11794375       1.45846353       1.62808188
H        2.43276658       1.92022423       1.34801718
H        1.88359960      -4.99422644      -0.36497976
H       -0.35642310      -5.94241577       0.10139838
H       -2.23301387      -4.40126602       0.68049882
H       -3.08592720      -2.08038455       0.68599128
H       -1.91247427      -1.47910288       1.87217877
H       -1.75850468       0.81859361       1.81351629
H       -2.34455013       1.66916026       0.37628215
H       -4.03950977       1.49029255       2.16808120
H       -4.02939646      -0.26630847       2.06760670
H       -4.61473580       0.70400570       0.70888971
H       -2.57464523       0.55658947      -1.67192691
H       -3.83710359      -0.43985696      -0.89965165
H       -1.38626750      -1.62352270      -2.27618650
H       -2.95788376      -1.37571815      -3.03489590
H       -2.80407429      -2.49774736      -1.68504045
C        0.25071363       0.03298856      -2.02067622
O        0.33638745       0.19691875      -3.16644636
H        0.24355245       1.45609382      -0.17531077
