      -----------------------------------------------------------      
     |                   =====================                   |     
     |                           x T B                           |     
     |                   =====================                   |     
     |                         S. Grimme                         |     
     |          Mulliken Center for Theoretical Chemistry        |     
     |                    University of Bonn                     |     
      -----------------------------------------------------------      

   * xtb version 6.7.1 (edcfbbe) compiled by 'VssAdministrator@runnervm171ch' on 2026-06-10

   xtb is free software: you can redistribute it and/or modify it under
   the terms of the GNU Lesser General Public License as published by
   the Free Software Foundation, either version 3 of the License, or
   (at your option) any later version.
   
   xtb is distributed in the hope that it will be useful,
   but WITHOUT ANY WARRANTY; without even the implied warranty of
   MERCHANTABILITY or FITNESS FOR A PARTICULAR PURPOSE.  See the
   GNU Lesser General Public License for more details.
   
   Cite this work as:
   * C. Bannwarth, E. Caldeweyher, S. Ehlert, A. Hansen, P. Pracht,
     J. Seibert, S. Spicher, S. Grimme, WIREs Comput. Mol. Sci., 2020, 11,
     e01493. DOI: 10.1002/wcms.1493
   
   for GFN2-xTB:
   * C. Bannwarth, S. Ehlert and S. Grimme., J. Chem. Theory Comput., 2019,
     15, 1652-1671. DOI: 10.1021/acs.jctc.8b01176
   for GFN1-xTB:
   * S. Grimme, C. Bannwarth, P. Shushkov, J. Chem. Theory Comput., 2017,
     13, 1989-2009. DOI: 10.1021/acs.jctc.7b00118
   for GFN0-xTB:
   * P. Pracht, E. Caldeweyher, S. Ehlert, S. Grimme, ChemRxiv, 2019, preprint.
     DOI: 10.26434/chemrxiv.8326202.v1
   for GFN-FF:
   * S. Spicher and S. Grimme, Angew. Chem. Int. Ed., 2020, 59, 15665-15673.
     DOI: 10.1002/anie.202004239
   
   for ALPB and GBSA implicit solvation:
   * S. Ehlert, M. Stahn, S. Spicher, S. Grimme, J. Chem. Theory Comput.,
     2021, 17, 4250-4261. DOI: 10.1021/acs.jctc.1c00471
   
   for ddCOSMO and CPCM-X implicit solvation:
   * M. Stahn, S. Ehlert, S. Grimme, J. Phys. Chem. A,
     2023, XX, XXXX-XXXX. DOI: 10.1021/acs.jpca.3c04382
   
   for DFT-D4:
   * E. Caldeweyher, C. Bannwarth and S. Grimme, J. Chem. Phys., 2017,
     147, 034112. DOI: 10.1063/1.4993215
   * E. Caldeweyher, S. Ehlert, A. Hansen, H. Neugebauer, S. Spicher,
     C. Bannwarth and S. Grimme, J. Chem. Phys., 2019, 150, 154122.
     DOI: 10.1063/1.5090222
   * E. Caldeweyher, J.-M. Mewes, S. Ehlert and S. Grimme, Phys. Chem. Chem. Phys.
     2020, 22, 8499-8512. DOI: 10.1039/D0CP00502A
   
   for sTDA-xTB:
   * S. Grimme and C. Bannwarth, J. Chem. Phys., 2016, 145, 054103.
     DOI: 10.1063/1.4959605
   
   in the mass-spec context:
   * V. Asgeirsson, C. Bauer and S. Grimme, Chem. Sci., 2017, 8, 4879.
     DOI: 10.1039/c7sc00601b
   * J. Koopman and S. Grimme, ACS Omega 2019, 4, 12, 15120-15133.
     DOI: 10.1021/acsomega.9b02011
   
   for metadynamics refer to:
   * S. Grimme, J. Chem. Theory Comput., 2019, 155, 2847-2862
     DOI: 10.1021/acs.jctc.9b00143
   
   for SPH calculations refer to:
   * S. Spicher and S. Grimme, J. Chem. Theory Comput., 2021, 17, 1701-1714
     DOI: 10.1021/acs.jctc.0c01306
   
   for ONIOM refer to:
   * C. Plett, A. Katbashev, S. Ehlert, S. Grimme, M. Bursch,
     Phys. Chem. Chem. Phys., 2023, 25, 17860-17868. DOI: 10.1039/D3CP02178E
   
   for DIPRO refer to:
   * J. Kohn, N. Gildemeister, S. Grimme, D. Fazzi, A. Hansen,
     J. Chem. Phys., 2023, just accepted.
   
   for PTB refer to:
   * S. Grimme, M. Mueller, A. Hansen, J. Chem. Phys., 2023, 158, 124111.
     DOI: 10.1063/5.0137838
   
   with help from (in alphabetical order)
   P. Atkinson, C. Bannwarth, F. Bohle, G. Brandenburg, E. Caldeweyher
   M. Checinski, S. Dohm, S. Ehlert, S. Ehrlich, I. Gerasimov, C. Hölzer
   A. Katbashev, J. Kohn, J. Koopman, C. Lavigne, S. Lehtola, F. März, M. Müller,
   F. Musil, H. Neugebauer, J. Pisarek, C. Plett, P. Pracht, F. Pultar,
   J. Seibert, P. Shushkov, S. Spicher, M. Stahn, M. Steiner, T. Strunk,
   J. Stückrath, T. Rose, and J. Unsleber
   
 * started run on 2026/09/13 at 01:39:13.653     
   ID    Z sym.   atoms
    1   27 Co     1
    2    7 N      2
    3    6 C      3, 4, 6-19, 21-32, 61, 64-70
    4   15 P      5, 20
    5    1 H      33-60, 71-78
    6    8 O      62, 63

           -------------------------------------------------
          |                Calculation Setup                |
           -------------------------------------------------

          program call               : C:\Users\HUIWEI\miniconda3\envs\phase2ff\Library\bin\xtb.exe input.xyz --gfn 2 --chrg 0 --uhf 0 --etemp 300.0 --iterations 500 --acc 0.5 --opt tight --cycles 250 --grad --alpb toluene gsolv
          coordinate file            : input.xyz
          omp threads                :                     2


molecular fragmentation (1/2 indicates fragments):
111111111111111111111111111111111111111111111111111111111111111111111111
211111
# atoms in fragment 1/2:    77     1
 fragment masses (1/2) :      634.55        1.01
CMA distance (Bohr)    :   1.934
constraining FC (au)   :  0.0500
########################################################################
[WARNING] Please study the warnings concerning your input carefully
-1- prog_main_parseArguments: Unknown reference state 'gsolv'
########################################################################

           -------------------------------------------------
          |                 G F N 2 - x T B                 |
           -------------------------------------------------

        Reference                      10.1021/acs.jctc.8b01176
      * Hamiltonian:
        H0-scaling (s, p, d)           1.850000    2.230000    2.230000
        zeta-weighting                 0.500000
      * Dispersion:
        s8                             2.700000
        a1                             0.520000
        a2                             5.000000
        s9                             5.000000
      * Repulsion:
        kExp                           1.500000    1.000000
        rExp                           1.000000
      * Coulomb:
        alpha                          2.000000
        third order                    shell-resolved
        anisotropic                    true
        a3                             3.000000
        a5                             4.000000
        cn-shift                       1.200000
        cn-exp                         4.000000
        max-rad                        5.000000

      * Solvation model:               ALPB
        Solvent                        toluene
        Parameter file                 internal GFN2-xTB/ALPB
        Dielectric constant                7.0000E+00
        Reference state                gsolv [1 M gas/solution]
        Free energy shift                  2.2081E-03 Eh       1.3856E+00 kcal/mol
        Temperature                        2.9815E+02 K
        Density                            8.6700E-01 kg/L
        Solvent mass                       7.8110E+01 g/mol
        Interaction kernel             P16
        Born radius scaling (c1)           1.7172E+00
        Born radii integrator          GBOBC
        Born offset                        0.0000E+00 a0       0.0000E+00 AA
        H-bond correction              false
        Ion screening                  false
        Surface tension                    1.0000E-05 Eh       1.5569E+01 dyn/cm
        Grid points                               230 per atom

          ...................................................
          :                      SETUP                      :
          :.................................................:
          :  # basis functions                 222          :
          :  # atomic orbitals                 219          :
          :  # shells                          123          :
          :  # electrons                       216          :
          :  max. iterations                   500          :
          :  Hamiltonian                  GFN2-xTB          :
          :  restarted?                      false          :
          :  GBSA solvation                   true          :
          :  PC potential                    false          :
          :  electronic temp.          300.0000000     K    :
          :  accuracy                    0.5000000          :
          :  -> integral cutoff          0.2801030E+02      :
          :  -> integral neglect         0.5000000E-08      :
          :  -> SCF convergence          0.5000000E-06 Eh   :
          :  -> wf. convergence          0.5000000E-04 e    :
          :  Broyden damping             0.4000000          :
          :  net charge                          0          :
          :  unpaired electrons                  0          :
          ...................................................

 iter      E             dE          RMSdq      gap      omega  full diag
   1   -116.2997082 -0.116300E+03  0.528E+00    0.53       0.0  T
   2   -115.5808909  0.718817E+00  0.369E+00    0.05       1.0  T
   3   -116.1139114 -0.533021E+00  0.342E+00    0.67       1.0  T
   4   -116.4790874 -0.365176E+00  0.179E+00    0.58       1.0  T
   5   -116.5852938 -0.106206E+00  0.106E+00    0.47       1.0  T
   6   -116.6543191 -0.690253E-01  0.599E-01    0.27       1.0  T
   7   -116.6642696 -0.995054E-02  0.313E-01    0.32       1.0  T
   8   -116.6486359  0.156337E-01  0.478E-01    0.24       1.0  T
   9   -116.6674968 -0.188609E-01  0.185E-01    0.33       1.0  T
  10   -116.6696085 -0.211170E-02  0.854E-02    0.27       1.0  T
  11   -116.6699393 -0.330824E-03  0.559E-02    0.28       1.0  T
  12   -116.6700022 -0.629215E-04  0.461E-02    0.28       1.0  T
  13   -116.6701173 -0.115102E-03  0.254E-02    0.28       1.0  T
  14   -116.6701727 -0.553621E-04  0.853E-03    0.29       1.3  T
  15   -116.6701778 -0.513005E-05  0.338E-03    0.29       3.4  T
  16   -116.6701780 -0.236069E-06  0.262E-03    0.29       4.3  T
  17   -116.6701782 -0.155045E-06  0.198E-03    0.29       5.7  T
  18   -116.6701785 -0.318923E-06  0.715E-04    0.29      15.8  T
  19   -116.6701786 -0.439054E-07  0.115E-04    0.29      98.4  T
  20   -116.6701786 -0.503462E-09  0.452E-05    0.29     250.6  T

   *** convergence criteria satisfied after 20 iterations ***

         #    Occupation            Energy/Eh            Energy/eV
      -------------------------------------------------------------
         1        2.0000           -0.7737473             -21.0547
       ...           ...                  ...                  ...
       102        2.0000           -0.3661791              -9.9642
       103        2.0000           -0.3606001              -9.8124
       104        2.0000           -0.3566339              -9.7045
       105        2.0000           -0.3508517              -9.5472
       106        2.0000           -0.3461854              -9.4202
       107        2.0000           -0.2840133              -7.7284
       108        1.9920           -0.2713740              -7.3845 (HOMO)
       109        0.0080           -0.2608902              -7.0992 (LUMO)
       110        0.0000           -0.2532512              -6.8913
       111                         -0.2487538              -6.7689
       112                         -0.2461167              -6.6972
       113                         -0.2401609              -6.5351
       ...                                ...                  ...
       219                          3.9599923             107.7569
      -------------------------------------------------------------
                  HL-Gap            0.0104838 Eh            0.2853 eV
             Fermi-level           -0.2661322 Eh           -7.2418 eV

 SCC (total)                   0 d,  0 h,  0 min,  0.490 sec
 SCC setup                      ...        0 min,  0.004 sec (  0.849%)
 Dispersion                     ...        0 min,  0.003 sec (  0.529%)
 classical contributions        ...        0 min,  0.001 sec (  0.107%)
 integral evaluation            ...        0 min,  0.023 sec (  4.741%)
 iterations                     ...        0 min,  0.373 sec ( 76.196%)
 molecular gradient             ...        0 min,  0.085 sec ( 17.294%)
 printout                       ...        0 min,  0.001 sec (  0.274%)

         :::::::::::::::::::::::::::::::::::::::::::::::::::::
         ::                     SUMMARY                     ::
         :::::::::::::::::::::::::::::::::::::::::::::::::::::
         :: total energy            -114.708946233622 Eh    ::
         :: total w/o Gsasa/hb      -114.664938946613 Eh    ::
         :: gradient norm              0.450151338347 Eh/a0 ::
         :: HOMO-LUMO gap              0.285279131676 eV    ::
         ::.................................................::
         :: SCC energy              -116.665632053472 Eh    ::
         :: -> isotropic ES            0.053475769365 Eh    ::
         :: -> anisotropic ES          0.018742262043 Eh    ::
         :: -> anisotropic XC          0.064649123696 Eh    ::
         :: -> dispersion             -0.126416261587 Eh    ::
         :: -> Gsolv                  -0.051501173234 Eh    ::
         ::    -> Gelec               -0.007493886225 Eh    ::
         ::    -> Gsasa               -0.046215430148 Eh    ::
         ::    -> Ghb                  0.000000000000 Eh    ::
         ::    -> Gshift               0.002208143139 Eh    ::
         :: repulsion energy           1.956685819850 Eh    ::
         :: add. restraining           0.000000000000 Eh    ::
         :: total charge              -0.000000000000 e     ::
         :::::::::::::::::::::::::::::::::::::::::::::::::::::

      ----------------------------------------------------------- 
     |                   =====================                   |
     |                        A N C O P T                        |
     |                   =====================                   |
     |               Approximate Normal Coordinate               |
     |                Rational Function Optimizer                |
      ----------------------------------------------------------- 
      ----------------------------------------------------------- 
     |                   =====================                   |
     |                        A N C O P T                        |
     |                   =====================                   |
     |               Approximate Normal Coordinate               |
     |                Rational Function Optimizer                |
      ----------------------------------------------------------- 

          ...................................................
          :                      SETUP                      :
          :.................................................:
          :   optimization level             tight          :
          :   max. optcycles                   250          :
          :   ANC micro-cycles                  20          :
          :   degrees of freedom               228          :
          :.................................................:
          :   RF solver                   davidson          :
          :   write xtbopt.log                true          :
          :   linear?                        false          :
          :   energy convergence         0.1000000E-05 Eh   :
          :   grad. convergence          0.8000000E-03 Eh/α :
          :   maxmium RF displ.          1.0000000          :
          :   Hlow (freq-cutoff)         0.1000000E-01      :
          :   Hmax (freq-cutoff)         5.0000000          :
          :   S6 in model hess.         20.0000000          :
          ...................................................

generating ANC from exact Hessian ...
Using Lindh-Hessian (1995)
 Shifting diagonal of input Hessian by    9.9220728225982800E-003
 Lowest  eigenvalues of input Hessian
    0.000000    0.000000    0.000000    0.000000    0.000000    0.000000
    0.010000    0.010113    0.010251    0.010394    0.010560    0.010677
    0.010777    0.010818    0.010896    0.011178    0.011382    0.011668
 Highest eigenvalues
    2.006353    2.045965    2.074524    2.299376    2.507769    2.973959


........................................................................
.............................. CYCLE    1 ..............................
........................................................................

 iter      E             dE          RMSdq      gap      omega  full diag
   1   -116.6701786 -0.116670E+03  0.287E-05    0.29       0.0  T
   2   -116.6701785  0.190974E-08  0.136E-04    0.29      83.5  T
   3   -116.6701786 -0.195816E-08  0.146E-05    0.29     776.7  T
     SCC iter.                  ...        0 min,  0.058 sec
     gradient                   ...        0 min,  0.093 sec
 * total energy  :  -114.7089462 Eh     change       -0.1250129E-09 Eh
   gradient norm :     0.4501494 Eh/α   predicted     0.0000000E+00 (-100.00%)
   displ. norm   :     0.5022527 α      lambda       -0.1595134E+00
   maximum displ.:     0.1474464 α      in ANC's #188, #53, #143, ...

........................................................................
.............................. CYCLE    2 ..............................
........................................................................

 iter      E             dE          RMSdq      gap      omega  full diag
   1   -116.6258132 -0.116626E+03  0.114E+00    0.06       0.0  T
   2   -116.4874058  0.138407E+00  0.155E+00    0.65       1.0  T
   3   -116.7044750 -0.217069E+00  0.639E-01    0.47       1.0  T
   4   -116.7304948 -0.260198E-01  0.329E-01    0.16       1.0  T
   5   -116.7369044 -0.640955E-02  0.146E-01    0.09       1.0  T
   6   -116.7309250  0.597937E-02  0.270E-01    0.13       1.0  T
   7   -116.7328114 -0.188641E-02  0.232E-01    0.08       1.0  T
   8   -116.7370464 -0.423492E-02  0.101E-01    0.12       1.0  T
   9   -116.7379468 -0.900460E-03  0.309E-02    0.09       1.0  T
  10   -116.7379429  0.397072E-05  0.292E-02    0.10       1.0  T
  11   -116.7379989 -0.560990E-04  0.148E-02    0.10       1.0  T
  12   -116.7380190 -0.200711E-04  0.452E-03    0.10       2.5  T
  13   -116.7380200 -0.932084E-06  0.315E-03    0.10       3.6  T
  14   -116.7380209 -0.929864E-06  0.487E-04    0.10      23.2  T
  15   -116.7380209 -0.815048E-08  0.269E-04    0.10      42.0  T
  16   -116.7380209  0.234000E-08  0.295E-04    0.10      38.4  T
     SCC iter.                  ...        0 min,  0.290 sec
     gradient                   ...        0 min,  0.087 sec
 * total energy  :  -114.8190122 Eh     change       -0.1100659E+00 Eh
   gradient norm :     0.1899076 Eh/α   predicted    -0.1000326E+00 (  -9.12%)
   displ. norm   :     0.5438776 α      lambda       -0.7386338E-01
   maximum displ.:     0.1440597 α      in ANC's #143, #73, #53, ...

........................................................................
.............................. CYCLE    3 ..............................
........................................................................

 iter      E             dE          RMSdq      gap      omega  full diag
   1   -116.6431425 -0.116643E+03  0.133E+00    0.14       0.0  T
   2   -116.5240920  0.119050E+00  0.161E+00    0.52       1.0  T
   3   -116.7358045 -0.211712E+00  0.789E-01    0.40       1.0  T
   4   -116.7546147 -0.188102E-01  0.593E-01    0.26       1.0  T
   5   -116.7856086 -0.309938E-01  0.231E-01    0.06       1.0  T
   6   -116.7874292 -0.182062E-02  0.155E-01    0.11       1.0  T
   7   -116.7879323 -0.503146E-03  0.839E-02    0.09       1.0  T
   8   -116.7882257 -0.293318E-03  0.492E-02    0.09       1.0  T
   9   -116.7881445  0.811771E-04  0.544E-02    0.08       1.0  T
  10   -116.7882119 -0.673878E-04  0.479E-02    0.09       1.0  T
  11   -116.7884260 -0.214125E-03  0.825E-03    0.09       1.4  T
  12   -116.7884291 -0.306945E-05  0.468E-03    0.09       2.4  T
  13   -116.7884311 -0.202848E-05  0.733E-04    0.09      15.5  T
  14   -116.7884309  0.162355E-06  0.138E-03    0.09       8.2  T
  15   -116.7884311 -0.183373E-06  0.179E-04    0.09      63.2  T
  16   -116.7884311 -0.613909E-11  0.141E-04    0.09      80.4  T
     SCC iter.                  ...        0 min,  0.315 sec
     gradient                   ...        0 min,  0.085 sec
 * total energy  :  -114.8726520 Eh     change       -0.5363981E-01 Eh
   gradient norm :     0.1655057 Eh/α   predicted    -0.4785638E-01 ( -10.78%)
   displ. norm   :     0.6754911 α      lambda       -0.6205453E-01
   maximum displ.:     0.2287691 α      in ANC's #73, #55, #100, ...

........................................................................
.............................. CYCLE    4 ..............................
........................................................................

 iter      E             dE          RMSdq      gap      omega  full diag
   1   -116.7189282 -0.116719E+03  0.114E+00    0.30       0.0  T
   2   -116.5472346  0.171694E+00  0.175E+00    0.57       1.0  T
   3   -116.7878671 -0.240633E+00  0.699E-01    0.35       1.0  T
   4   -116.8116085 -0.237414E-01  0.498E-01    0.13       1.0  T
   5   -116.8163918 -0.478325E-02  0.502E-01    0.25       1.0  T
   6   -116.8303995 -0.140077E-01  0.277E-01    0.21       1.0  T
   7   -116.8351260 -0.472651E-02  0.123E-01    0.18       1.0  T
   8   -116.8363697 -0.124370E-02  0.425E-02    0.17       1.0  T
   9   -116.8364541 -0.844380E-04  0.203E-02    0.16       1.0  T
  10   -116.8364557 -0.155245E-05  0.175E-02    0.16       1.0  T
  11   -116.8364845 -0.288512E-04  0.371E-03    0.16       3.0  T
  12   -116.8364828  0.170705E-05  0.529E-03    0.16       2.1  T
  13   -116.8364854 -0.256050E-05  0.142E-03    0.16       8.0  T
  14   -116.8364855 -0.153928E-06  0.681E-04    0.16      16.6  T
  15   -116.8364856 -0.372092E-07  0.277E-04    0.16      40.9  T
  16   -116.8364856 -0.557142E-08  0.133E-04    0.16      85.2  T
     SCC iter.                  ...        0 min,  0.284 sec
     gradient                   ...        0 min,  0.092 sec
 * total energy  :  -114.9221332 Eh     change       -0.4948125E-01 Eh
   gradient norm :     0.2154219 Eh/α   predicted    -0.4518465E-01 (  -8.68%)
   displ. norm   :     0.6514420 α      lambda       -0.5356479E-01
   maximum displ.:     0.2264055 α      in ANC's #55, #73, #18, ...

........................................................................
.............................. CYCLE    5 ..............................
........................................................................

 iter      E             dE          RMSdq      gap      omega  full diag
   1   -116.8163636 -0.116816E+03  0.842E-01    0.33       0.0  T
   2   -116.5040570  0.312307E+00  0.199E+00    0.74       1.0  T
   3   -116.8459325 -0.341876E+00  0.612E-01    0.26       1.0  T
   4   -116.8739625 -0.280300E-01  0.192E-01    0.10       1.0  T
   5   -116.8717269  0.223561E-02  0.194E-01    0.12       1.0  T
   6   -116.8698144  0.191253E-02  0.225E-01    0.07       1.0  T
   7   -116.8744698 -0.465543E-02  0.674E-02    0.10       1.0  T
   8   -116.8746593 -0.189521E-03  0.465E-02    0.09       1.0  T
   9   -116.8747699 -0.110595E-03  0.334E-02    0.10       1.0  T
  10   -116.8748739 -0.103940E-03  0.668E-03    0.09       1.7  T
  11   -116.8748765 -0.262791E-05  0.389E-03    0.09       2.9  T
  12   -116.8748778 -0.127355E-05  0.151E-03    0.09       7.5  T
  13   -116.8748780 -0.218490E-06  0.299E-04    0.09      37.8  T
  14   -116.8748780  0.271475E-07  0.548E-04    0.09      20.6  T
  15   -116.8748780 -0.282274E-07  0.128E-04    0.09      88.7  T
     SCC iter.                  ...        0 min,  0.297 sec
     gradient                   ...        0 min,  0.097 sec
 * total energy  :  -114.9689338 Eh     change       -0.4680053E-01 Eh
   gradient norm :     0.2363588 Eh/α   predicted    -0.3814837E-01 ( -18.49%)
   displ. norm   :     0.6594799 α      lambda       -0.7647788E-01
   maximum displ.:     0.2587579 α      in ANC's #228, #55, #73, ...

........................................................................
.............................. CYCLE    6 ..............................
........................................................................

 iter      E             dE          RMSdq      gap      omega  full diag
   1   -116.9154588 -0.116915E+03  0.651E-01    0.64       0.0  T
   2   -116.5146065  0.400852E+00  0.212E+00    0.50       1.0  T
   3   -116.9259189 -0.411312E+00  0.499E-01    0.51       1.0  T
   4   -116.9294750 -0.355614E-02  0.399E-01    0.40       1.0  T
   5   -116.9390004 -0.952536E-02  0.153E-01    0.18       1.0  T
   6   -116.9406069 -0.160653E-02  0.492E-02    0.14       1.0  T
   7   -116.9404439  0.163030E-03  0.596E-02    0.16       1.0  T
   8   -116.9407195 -0.275611E-03  0.152E-02    0.15       1.0  T
   9   -116.9407280 -0.846671E-05  0.901E-03    0.15       1.3  T
  10   -116.9407289 -0.932407E-06  0.828E-03    0.15       1.4  T
  11   -116.9407347 -0.581233E-05  0.177E-03    0.15       6.4  T
  12   -116.9407349 -0.197359E-06  0.520E-04    0.15      21.8  T
  13   -116.9407349  0.201376E-08  0.368E-04    0.15      30.8  T
  14   -116.9407349 -0.621473E-08  0.134E-04    0.15      84.4  T
     SCC iter.                  ...        0 min,  0.263 sec
     gradient                   ...        0 min,  0.103 sec
 * total energy  :  -115.0331022 Eh     change       -0.6416843E-01 Eh
   gradient norm :     0.2013011 Eh/α   predicted    -0.5486958E-01 ( -14.49%)
   displ. norm   :     0.5858183 α      lambda       -0.7250214E-01
   maximum displ.:     0.2917099 α      in ANC's #228, #55, #154, ...

........................................................................
.............................. CYCLE    7 ..............................
........................................................................

 iter      E             dE          RMSdq      gap      omega  full diag
   1   -116.9939184 -0.116994E+03  0.549E-01    0.75       0.0  T
   2   -116.9958878 -0.196938E-02  0.372E-01    0.26       1.0  T
   3   -117.0009573 -0.506953E-02  0.254E-01    0.63       1.0  T
   4   -117.0043348 -0.337744E-02  0.793E-02    0.35       1.0  T
   5   -117.0044145 -0.797315E-04  0.450E-02    0.34       1.0  T
   6   -117.0044644 -0.498695E-04  0.257E-02    0.38       1.0  T
   7   -117.0045116 -0.472104E-04  0.793E-03    0.36       1.4  T
   8   -117.0045129 -0.131849E-05  0.487E-03    0.36       2.3  T
   9   -117.0045141 -0.121773E-05  0.158E-03    0.36       7.1  T
  10   -117.0045142 -0.251984E-07  0.824E-04    0.36      13.7  T
  11   -117.0045142 -0.187360E-07  0.398E-04    0.36      28.4  T
  12   -117.0045142 -0.568906E-08  0.149E-04    0.36      76.2  T
     SCC iter.                  ...        0 min,  0.239 sec
     gradient                   ...        0 min,  0.099 sec
 * total energy  :  -115.0776344 Eh     change       -0.4453225E-01 Eh
   gradient norm :     0.1372165 Eh/α   predicted    -0.4869184E-01 (   9.34%)
   displ. norm   :     0.5804863 α      lambda       -0.3409848E-01
   maximum displ.:     0.2012473 α      in ANC's #30, #55, #38, ...

........................................................................
.............................. CYCLE    8 ..............................
........................................................................

 iter      E             dE          RMSdq      gap      omega  full diag
   1   -116.9885922 -0.116989E+03  0.378E-01    0.20       0.0  T
   2   -116.9856425  0.294969E-02  0.471E-01    0.82       1.0  T
   3   -116.9973832 -0.117407E-01  0.253E-01    0.54       1.0  T
   4   -116.9990629 -0.167975E-02  0.154E-01    0.40       1.0  T
   5   -116.9772970  0.217659E-01  0.494E-01    0.18       1.0  T
   6   -116.9998804 -0.225834E-01  0.201E-02    0.32       1.0  T
   7   -116.9998540  0.263390E-04  0.228E-02    0.33       1.0  T
   8   -116.9998903 -0.363125E-04  0.112E-02    0.32       1.0  T
   9   -116.9998940 -0.371845E-05  0.826E-03    0.32       1.4  T
  10   -116.9998965 -0.246611E-05  0.597E-03    0.32       1.9  T
  11   -116.9998982 -0.173383E-05  0.383E-03    0.32       3.0  T
  12   -116.9998993 -0.101497E-05  0.139E-03    0.32       8.1  T
  13   -116.9998994 -0.136456E-06  0.493E-04    0.32      23.0  T
  14   -116.9998994 -0.156703E-07  0.222E-04    0.32      51.0  T
     SCC iter.                  ...        0 min,  0.268 sec
     gradient                   ...        0 min,  0.092 sec
 * total energy  :  -115.0996171 Eh     change       -0.2198268E-01 Eh
   gradient norm :     0.0690582 Eh/α   predicted    -0.2279421E-01 (   3.69%)
   displ. norm   :     0.6209198 α      lambda       -0.1824068E-01
   maximum displ.:     0.2079062 α      in ANC's #18, #30, #55, ...

........................................................................
.............................. CYCLE    9 ..............................
........................................................................

 iter      E             dE          RMSdq      gap      omega  full diag
   1   -117.0104101 -0.117010E+03  0.305E-01    0.53       0.0  T
   2   -117.0036576  0.675244E-02  0.321E-01    0.22       1.0  T
   3   -117.0104444 -0.678678E-02  0.187E-01    0.53       1.0  T
   4   -117.0119613 -0.151687E-02  0.673E-02    0.41       1.0  T
   5   -117.0121884 -0.227147E-03  0.260E-02    0.37       1.0  T
   6   -117.0122338 -0.453535E-04  0.108E-02    0.34       1.0  T
   7   -117.0122372 -0.335766E-05  0.580E-03    0.34       2.0  T
   8   -117.0122382 -0.101129E-05  0.277E-03    0.34       4.1  T
   9   -117.0122385 -0.380738E-06  0.103E-03    0.34      11.0  T
  10   -117.0122386 -0.168618E-07  0.596E-04    0.34      19.0  T
  11   -117.0122386 -0.711067E-08  0.213E-04    0.34      53.2  T
  12   -117.0122386 -0.117893E-08  0.103E-04    0.34     110.1  T
     SCC iter.                  ...        0 min,  0.228 sec
     gradient                   ...        0 min,  0.095 sec
 * total energy  :  -115.1126961 Eh     change       -0.1307897E-01 Eh
   gradient norm :     0.0366200 Eh/α   predicted    -0.1263666E-01 (  -3.38%)
   displ. norm   :     0.6341622 α      lambda       -0.1047894E-01
   maximum displ.:     0.2504919 α      in ANC's #18, #20, #30, ...

........................................................................
.............................. CYCLE   10 ..............................
........................................................................

 iter      E             dE          RMSdq      gap      omega  full diag
   1   -117.0170911 -0.117017E+03  0.235E-01    0.34       0.0  T
   2   -117.0167965  0.294611E-03  0.152E-01    0.28       1.0  T
   3   -117.0159080  0.888482E-03  0.148E-01    0.45       1.0  T
   4   -117.0173624 -0.145441E-02  0.287E-02    0.34       1.0  T
   5   -117.0173989 -0.365037E-04  0.114E-02    0.32       1.0  T
   6   -117.0174016 -0.268597E-05  0.661E-03    0.32       1.7  T
   7   -117.0174034 -0.175489E-05  0.233E-03    0.32       4.9  T
   8   -117.0174037 -0.293682E-06  0.775E-04    0.32      14.6  T
   9   -117.0174037 -0.649460E-08  0.520E-04    0.32      21.8  T
  10   -117.0174037 -0.462661E-08  0.211E-04    0.32      53.6  T
  11   -117.0174037 -0.143891E-08  0.104E-04    0.32     108.9  T
     SCC iter.                  ...        0 min,  0.242 sec
     gradient                   ...        0 min,  0.096 sec
 * total energy  :  -115.1202691 Eh     change       -0.7573033E-02 Eh
   gradient norm :     0.0409892 Eh/α   predicted    -0.7346600E-02 (  -2.99%)
   displ. norm   :     0.7135217 α      lambda       -0.1042445E-01
   maximum displ.:     0.2752705 α      in ANC's #18, #20, #15, ...

........................................................................
.............................. CYCLE   11 ..............................
........................................................................

 iter      E             dE          RMSdq      gap      omega  full diag
   1   -117.0197961 -0.117020E+03  0.249E-01    0.38       0.0  T
   2   -117.0197681  0.280082E-04  0.151E-01    0.31       1.0  T
   3   -117.0188240  0.944053E-03  0.127E-01    0.47       1.0  T
   4   -117.0200280 -0.120404E-02  0.243E-02    0.36       1.0  T
   5   -117.0200363 -0.826953E-05  0.104E-02    0.35       1.1  T
   6   -117.0200386 -0.232173E-05  0.616E-03    0.35       1.8  T
   7   -117.0200400 -0.135989E-05  0.311E-03    0.35       3.6  T
   8   -117.0200402 -0.214747E-06  0.156E-03    0.35       7.3  T
   9   -117.0200403 -0.729634E-07  0.832E-04    0.35      13.6  T
  10   -117.0200403 -0.897457E-08  0.409E-04    0.35      27.7  T
  11   -117.0200403 -0.604129E-08  0.125E-04    0.35      90.6  T
     SCC iter.                  ...        0 min,  0.255 sec
     gradient                   ...        0 min,  0.093 sec
 * total energy  :  -115.1262659 Eh     change       -0.5996771E-02 Eh
   gradient norm :     0.0468213 Eh/α   predicted    -0.7865845E-02 (  31.17%)
   displ. norm   :     0.5977468 α      lambda       -0.6248183E-02
   maximum displ.:     0.2330122 α      in ANC's #18, #15, #20, ...

........................................................................
.............................. CYCLE   12 ..............................
........................................................................

 iter      E             dE          RMSdq      gap      omega  full diag
   1   -117.0179015 -0.117018E+03  0.210E-01    0.32       0.0  T
   2   -117.0180016 -0.100068E-03  0.115E-01    0.36       1.0  T
   3   -117.0175880  0.413585E-03  0.776E-02    0.29       1.0  T
   4   -117.0179754 -0.387385E-03  0.309E-02    0.37       1.0  T
   5   -117.0180385 -0.630786E-04  0.131E-02    0.34       1.0  T
   6   -117.0180458 -0.729272E-05  0.646E-03    0.34       1.8  T
   7   -117.0180469 -0.112046E-05  0.345E-03    0.34       3.3  T
   8   -117.0180475 -0.572261E-06  0.139E-03    0.34       8.1  T
   9   -117.0180475 -0.773905E-07  0.556E-04    0.34      20.4  T
  10   -117.0180475  0.600963E-09  0.379E-04    0.34      29.9  T
  11   -117.0180475 -0.791071E-08  0.131E-04    0.34      86.6  T
     SCC iter.                  ...        0 min,  0.250 sec
     gradient                   ...        0 min,  0.098 sec
 * total energy  :  -115.1314365 Eh     change       -0.5170623E-02 Eh
   gradient norm :     0.0366328 Eh/α   predicted    -0.4240334E-02 ( -17.99%)
   displ. norm   :     0.7240075 α      lambda       -0.7895526E-02
   maximum displ.:     0.3256549 α      in ANC's #18, #20, #15, ...

........................................................................
.............................. CYCLE   13 ..............................
........................................................................

 iter      E             dE          RMSdq      gap      omega  full diag
   1   -117.0305630 -0.117031E+03  0.271E-01    0.44       0.0  T
   2   -117.0306405 -0.774629E-04  0.135E-01    0.37       1.0  T
   3   -117.0303663  0.274170E-03  0.742E-02    0.45       1.0  T
   4   -117.0307311 -0.364774E-03  0.240E-02    0.38       1.0  T
   5   -117.0307372 -0.615944E-05  0.119E-02    0.39       1.0  T
   6   -117.0307400 -0.273731E-05  0.675E-03    0.39       1.7  T
   7   -117.0307421 -0.212226E-05  0.214E-03    0.39       5.3  T
   8   -117.0307423 -0.148271E-06  0.848E-04    0.39      13.4  T
   9   -117.0307423 -0.541425E-08  0.459E-04    0.39      24.7  T
  10   -117.0307423 -0.373340E-08  0.169E-04    0.39      67.0  T
     SCC iter.                  ...        0 min,  0.204 sec
     gradient                   ...        0 min,  0.103 sec
 * total energy  :  -115.1369316 Eh     change       -0.5495111E-02 Eh
   gradient norm :     0.0372957 Eh/α   predicted    -0.6017124E-02 (   9.50%)
   displ. norm   :     0.6531090 α      lambda       -0.5083861E-02
   maximum displ.:     0.2487230 α      in ANC's #18, #24, #15, ...

........................................................................
.............................. CYCLE   14 ..............................
........................................................................

 iter      E             dE          RMSdq      gap      omega  full diag
   1   -117.0324688 -0.117032E+03  0.238E-01    0.49       0.0  T
   2   -117.0325096 -0.408448E-04  0.123E-01    0.45       1.0  T
   3   -117.0321618  0.347810E-03  0.855E-02    0.46       1.0  T
   4   -117.0325933 -0.431521E-03  0.227E-02    0.46       1.0  T
   5   -117.0326004 -0.703968E-05  0.145E-02    0.45       1.0  T
   6   -117.0326097 -0.933232E-05  0.358E-03    0.46       3.2  T
   7   -117.0326098 -0.122054E-06  0.173E-03    0.46       6.5  T
   8   -117.0326099 -0.823118E-07  0.655E-04    0.46      17.3  T
   9   -117.0326099 -0.289724E-08  0.389E-04    0.46      29.1  T
  10   -117.0326099 -0.261137E-08  0.122E-04    0.46      93.2  T
     SCC iter.                  ...        0 min,  0.214 sec
     gradient                   ...        0 min,  0.089 sec
 * total energy  :  -115.1408079 Eh     change       -0.3876222E-02 Eh
   gradient norm :     0.0332173 Eh/α   predicted    -0.3626198E-02 (  -6.45%)
   displ. norm   :     0.6655533 α      lambda       -0.4951070E-02
   maximum displ.:     0.2826468 α      in ANC's #18, #34, #22, ...

........................................................................
.............................. CYCLE   15 ..............................
........................................................................

 iter      E             dE          RMSdq      gap      omega  full diag
   1   -117.0396372 -0.117040E+03  0.232E-01    0.55       0.0  T
   2   -117.0396983 -0.610445E-04  0.123E-01    0.51       1.0  T
   3   -117.0395416  0.156718E-03  0.584E-02    0.54       1.0  T
   4   -117.0397387 -0.197131E-03  0.189E-02    0.52       1.0  T
   5   -117.0397372  0.148067E-05  0.142E-02    0.51       1.0  T
   6   -117.0397469 -0.965866E-05  0.415E-03    0.52       2.7  T
   7   -117.0397470 -0.789353E-07  0.157E-03    0.52       7.2  T
   8   -117.0397470 -0.651789E-07  0.695E-04    0.52      16.3  T
   9   -117.0397470 -0.176352E-08  0.366E-04    0.52      30.9  T
  10   -117.0397470 -0.272914E-08  0.114E-04    0.52      99.7  T
     SCC iter.                  ...        0 min,  0.200 sec
     gradient                   ...        0 min,  0.101 sec
 * total energy  :  -115.1436693 Eh     change       -0.2861424E-02 Eh
   gradient norm :     0.0217880 Eh/α   predicted    -0.3572107E-02 (  24.84%)
   displ. norm   :     0.6168496 α      lambda       -0.3700439E-02
   maximum displ.:     0.2536153 α      in ANC's #24, #18, #15, ...

........................................................................
.............................. CYCLE   16 ..............................
........................................................................

 iter      E             dE          RMSdq      gap      omega  full diag
   1   -117.0442324 -0.117044E+03  0.215E-01    0.55       0.0  T
   2   -117.0442537 -0.213763E-04  0.117E-01    0.56       1.0  T
   3   -117.0438368  0.416895E-03  0.873E-02    0.54       1.0  T
   4   -117.0443377 -0.500865E-03  0.181E-02    0.56       1.0  T
   5   -117.0443440 -0.632552E-05  0.100E-02    0.55       1.1  T
   6   -117.0443469 -0.285190E-05  0.337E-03    0.55       3.4  T
   7   -117.0443470 -0.986691E-07  0.122E-03    0.55       9.3  T
   8   -117.0443470 -0.377902E-07  0.550E-04    0.55      20.6  T
   9   -117.0443470 -0.359491E-08  0.274E-04    0.55      41.3  T
  10   -117.0443470 -0.607244E-09  0.113E-04    0.55     100.3  T
     SCC iter.                  ...        0 min,  0.210 sec
     gradient                   ...        0 min,  0.098 sec
 * total energy  :  -115.1461874 Eh     change       -0.2518153E-02 Eh
   gradient norm :     0.0207519 Eh/α   predicted    -0.2554237E-02 (   1.43%)
   displ. norm   :     0.6368530 α      lambda       -0.3009087E-02
   maximum displ.:     0.2504098 α      in ANC's #18, #24, #22, ...

........................................................................
.............................. CYCLE   17 ..............................
........................................................................

 iter      E             dE          RMSdq      gap      omega  full diag
   1   -117.0406461 -0.117041E+03  0.202E-01    0.60       0.0  T
   2   -117.0406738 -0.276859E-04  0.108E-01    0.59       1.0  T
   3   -117.0405022  0.171549E-03  0.543E-02    0.60       1.0  T
   4   -117.0407004 -0.198205E-03  0.179E-02    0.60       1.0  T
   5   -117.0407020 -0.159856E-05  0.117E-02    0.60       1.0  T
   6   -117.0407059 -0.390199E-05  0.370E-03    0.60       3.1  T
   7   -117.0407060 -0.379177E-07  0.178E-03    0.60       6.4  T
   8   -117.0407060 -0.570405E-07  0.972E-04    0.60      11.7  T
   9   -117.0407060 -0.712298E-08  0.448E-04    0.60      25.2  T
  10   -117.0407060 -0.481836E-08  0.168E-04    0.60      67.2  T
     SCC iter.                  ...        0 min,  0.195 sec
     gradient                   ...        0 min,  0.083 sec
 * total energy  :  -115.1479551 Eh     change       -0.1767674E-02 Eh
   gradient norm :     0.0343782 Eh/α   predicted    -0.2114763E-02 (  19.64%)
   displ. norm   :     0.5263243 α      lambda       -0.3020906E-02
   maximum displ.:     0.1968011 α      in ANC's #18, #24, #21, ...

........................................................................
.............................. CYCLE   18 ..............................
........................................................................

 iter      E             dE          RMSdq      gap      omega  full diag
   1   -117.0433418 -0.117043E+03  0.130E-01    0.55       0.0  T
   2   -117.0433212  0.205793E-04  0.820E-02    0.58       1.0  T
   3   -117.0432505  0.707671E-04  0.668E-02    0.55       1.0  T
   4   -117.0434484 -0.197952E-03  0.135E-02    0.56       1.0  T
   5   -117.0434515 -0.304187E-05  0.926E-03    0.57       1.2  T
   6   -117.0434531 -0.167577E-05  0.380E-03    0.56       3.0  T
   7   -117.0434532 -0.932608E-07  0.193E-03    0.57       5.9  T
   8   -117.0434533 -0.275618E-07  0.107E-03    0.56      10.6  T
   9   -117.0434533 -0.224210E-07  0.303E-04    0.57      37.4  T
  10   -117.0434533 -0.227074E-08  0.104E-04    0.57     109.2  T
     SCC iter.                  ...        0 min,  0.199 sec
     gradient                   ...        0 min,  0.091 sec
 * total energy  :  -115.1499361 Eh     change       -0.1980990E-02 Eh
   gradient norm :     0.0197635 Eh/α   predicted    -0.1928878E-02 (  -2.63%)
   displ. norm   :     0.6010598 α      lambda       -0.2260475E-02
   maximum displ.:     0.2466856 α      in ANC's #18, #1, #24, ...

........................................................................
.............................. CYCLE   19 ..............................
........................................................................

 iter      E             dE          RMSdq      gap      omega  full diag
   1   -117.0483048 -0.117048E+03  0.137E-01    0.57       0.0  T
   2   -117.0483239 -0.191274E-04  0.766E-02    0.56       1.0  T
   3   -117.0482606  0.632520E-04  0.375E-02    0.58       1.0  T
   4   -117.0483338 -0.731688E-04  0.929E-03    0.57       1.2  T
   5   -117.0483344 -0.568169E-06  0.588E-03    0.57       1.9  T
   6   -117.0483361 -0.174976E-05  0.228E-03    0.57       5.0  T
   7   -117.0483362 -0.116703E-06  0.643E-04    0.57      17.6  T
   8   -117.0483363 -0.143275E-07  0.373E-04    0.57      30.3  T
   9   -117.0483363 -0.252705E-08  0.211E-04    0.57      53.8  T
     SCC iter.                  ...        0 min,  0.196 sec
     gradient                   ...        0 min,  0.095 sec
 * total energy  :  -115.1515579 Eh     change       -0.1621808E-02 Eh
   gradient norm :     0.0161577 Eh/α   predicted    -0.1538573E-02 (  -5.13%)
   displ. norm   :     0.6409225 α      lambda       -0.1631905E-02
   maximum displ.:     0.2418358 α      in ANC's #18, #24, #1, ...

........................................................................
.............................. CYCLE   20 ..............................
........................................................................

 iter      E             dE          RMSdq      gap      omega  full diag
   1   -117.0500651 -0.117050E+03  0.126E-01    0.60       0.0  T
   2   -117.0500763 -0.111770E-04  0.707E-02    0.59       1.0  T
   3   -117.0499861  0.901397E-04  0.376E-02    0.59       1.0  T
   4   -117.0500870 -0.100882E-03  0.875E-03    0.59       1.3  T
   5   -117.0500880 -0.957761E-06  0.558E-03    0.59       2.0  T
   6   -117.0500892 -0.120003E-05  0.166E-03    0.59       6.8  T
   7   -117.0500892 -0.141975E-07  0.690E-04    0.59      16.4  T
   8   -117.0500892 -0.173502E-07  0.386E-04    0.59      29.3  T
   9   -117.0500892 -0.322710E-08  0.208E-04    0.59      54.4  T
     SCC iter.                  ...        0 min,  0.183 sec
     gradient                   ...        0 min,  0.088 sec
 * total energy  :  -115.1528515 Eh     change       -0.1293638E-02 Eh
   gradient norm :     0.0144327 Eh/α   predicted    -0.1151133E-02 ( -11.02%)
   displ. norm   :     0.6620241 α      lambda       -0.1604294E-02
   maximum displ.:     0.2249172 α      in ANC's #18, #1, #5, ...
 * RMSD in coord.:     1.0914306 α      energy gain  -0.4439053E+00 Eh

generating ANC from exact Hessian ...
Using Lindh-Hessian (1995)
 Shifting diagonal of input Hessian by    1.0083744269561877E-002
 Lowest  eigenvalues of input Hessian
    0.010000    0.000000    0.000000    0.000000    0.000000    0.000000
    0.000000    0.010183    0.010211    0.010259    0.010372    0.010435
    0.010562    0.010617    0.010639    0.010744    0.010844    0.010928
 Highest eigenvalues
    2.002632    2.004826    2.005220    2.017169    2.242260    2.472453


........................................................................
.............................. CYCLE   21 ..............................
........................................................................

 iter      E             dE          RMSdq      gap      omega  full diag
   1   -117.0507072 -0.117051E+03  0.106E-01    0.61       0.0  T
   2   -117.0507180 -0.108179E-04  0.602E-02    0.60       1.0  T
   3   -117.0506935  0.244858E-04  0.219E-02    0.61       1.0  T
   4   -117.0507224 -0.288256E-04  0.550E-03    0.60       2.1  T
   5   -117.0507220  0.312703E-06  0.462E-03    0.60       2.5  T
   6   -117.0507231 -0.108593E-05  0.150E-03    0.60       7.6  T
   7   -117.0507231 -0.180972E-07  0.804E-04    0.60      14.1  T
   8   -117.0507232 -0.129531E-07  0.474E-04    0.60      23.9  T
   9   -117.0507232 -0.285192E-08  0.254E-04    0.60      44.6  T
     SCC iter.                  ...        0 min,  0.196 sec
     gradient                   ...        0 min,  0.087 sec
 * total energy  :  -115.1540888 Eh     change       -0.1237291E-02 Eh
   gradient norm :     0.0105149 Eh/α   predicted     0.0000000E+00 (-100.00%)
   displ. norm   :     0.2136035 α      lambda       -0.9221429E-03
   maximum displ.:     0.0768730 α      in ANC's #26, #20, #27, ...

........................................................................
.............................. CYCLE   22 ..............................
........................................................................

 iter      E             dE          RMSdq      gap      omega  full diag
   1   -117.0515022 -0.117052E+03  0.895E-02    0.60       0.0  T
   2   -117.0515054 -0.316092E-05  0.502E-02    0.60       1.0  T
   3   -117.0514827  0.226673E-04  0.195E-02    0.60       1.0  T
   4   -117.0515065 -0.238007E-04  0.609E-03    0.60       1.9  T
   5   -117.0515079 -0.135379E-05  0.280E-03    0.60       4.0  T
   6   -117.0515081 -0.245660E-06  0.105E-03    0.60      10.8  T
   7   -117.0515081 -0.188869E-07  0.524E-04    0.60      21.6  T
   8   -117.0515081 -0.483047E-08  0.296E-04    0.60      38.3  T
   9   -117.0515081 -0.679123E-09  0.161E-04    0.60      70.4  T
     SCC iter.                  ...        0 min,  0.181 sec
     gradient                   ...        0 min,  0.084 sec
 * total energy  :  -115.1547429 Eh     change       -0.6541155E-03 Eh
   gradient norm :     0.0069404 Eh/α   predicted    -0.4824182E-03 ( -26.25%)
   displ. norm   :     0.5467085 α      lambda       -0.1847320E-02
   maximum displ.:     0.1996238 α      in ANC's #20, #27, #11, ...

........................................................................
.............................. CYCLE   23 ..............................
........................................................................

 iter      E             dE          RMSdq      gap      omega  full diag
   1   -117.0504733 -0.117050E+03  0.187E-01    0.57       0.0  T
   2   -117.0505015 -0.282279E-04  0.109E-01    0.59       1.0  T
   3   -117.0504457  0.557865E-04  0.322E-02    0.58       1.0  T
   4   -117.0505047 -0.590085E-04  0.120E-02    0.60       1.0  T
   5   -117.0505108 -0.614172E-05  0.681E-03    0.59       1.7  T
   6   -117.0505125 -0.161723E-05  0.275E-03    0.59       4.1  T
   7   -117.0505126 -0.104011E-06  0.155E-03    0.59       7.3  T
   8   -117.0505126 -0.573688E-07  0.732E-04    0.59      15.5  T
   9   -117.0505126  0.157854E-09  0.429E-04    0.59      26.4  T
  10   -117.0505126 -0.454249E-08  0.150E-04    0.59      75.7  T
     SCC iter.                  ...        0 min,  0.206 sec
     gradient                   ...        0 min,  0.091 sec
 * total energy  :  -115.1552796 Eh     change       -0.5366969E-03 Eh
   gradient norm :     0.0162801 Eh/α   predicted    -0.1199733E-02 ( 123.54%)
   displ. norm   :     0.2342973 α      lambda       -0.1158509E-02
   maximum displ.:     0.0776811 α      in ANC's #11, #20, #14, ...

........................................................................
.............................. CYCLE   24 ..............................
........................................................................

 iter      E             dE          RMSdq      gap      omega  full diag
   1   -117.0516790 -0.117052E+03  0.923E-02    0.57       0.0  T
   2   -117.0516817 -0.272067E-05  0.528E-02    0.58       1.0  T
   3   -117.0516022  0.795105E-04  0.380E-02    0.57       1.0  T
   4   -117.0516945 -0.922720E-04  0.708E-03    0.58       1.6  T
   5   -117.0516955 -0.107644E-05  0.433E-03    0.58       2.6  T
   6   -117.0516960 -0.446120E-06  0.193E-03    0.58       5.9  T
   7   -117.0516960 -0.488921E-07  0.865E-04    0.58      13.1  T
   8   -117.0516961 -0.174588E-07  0.475E-04    0.58      23.8  T
   9   -117.0516961 -0.239945E-08  0.258E-04    0.58      43.8  T
     SCC iter.                  ...        0 min,  0.189 sec
     gradient                   ...        0 min,  0.084 sec
 * total energy  :  -115.1560012 Eh     change       -0.7215396E-03 Eh
   gradient norm :     0.0120825 Eh/α   predicted    -0.6110536E-03 ( -15.31%)
   displ. norm   :     0.3303464 α      lambda       -0.9164330E-03
   maximum displ.:     0.1394906 α      in ANC's #11, #20, #10, ...

........................................................................
.............................. CYCLE   25 ..............................
........................................................................

 iter      E             dE          RMSdq      gap      omega  full diag
   1   -117.0508887 -0.117051E+03  0.103E-01    0.61       0.0  T
   2   -117.0508962 -0.751739E-05  0.597E-02    0.59       1.0  T
   3   -117.0507772  0.118980E-03  0.457E-02    0.58       1.0  T
   4   -117.0509182 -0.141030E-03  0.901E-03    0.59       1.3  T
   5   -117.0509200 -0.178391E-05  0.464E-03    0.58       2.4  T
   6   -117.0509204 -0.423650E-06  0.203E-03    0.59       5.6  T
   7   -117.0509205 -0.690926E-07  0.726E-04    0.59      15.6  T
   8   -117.0509205 -0.140810E-07  0.329E-04    0.59      34.4  T
   9   -117.0509205 -0.262244E-08  0.189E-04    0.59      60.0  T
     SCC iter.                  ...        0 min,  0.162 sec
     gradient                   ...        0 min,  0.091 sec
 * total energy  :  -115.1563341 Eh     change       -0.3329294E-03 Eh
   gradient norm :     0.0260450 Eh/α   predicted    -0.5082216E-03 (  52.65%)
   displ. norm   :     0.4345584 α      lambda       -0.1176841E-02
   maximum displ.:     0.1969606 α      in ANC's #11, #20, #10, ...

........................................................................
.............................. CYCLE   26 ..............................
........................................................................

 iter      E             dE          RMSdq      gap      omega  full diag
   1   -117.0511970 -0.117051E+03  0.113E-01    0.59       0.0  T
   2   -117.0511997 -0.268501E-05  0.677E-02    0.58       1.0  T
   3   -117.0510352  0.164523E-03  0.542E-02    0.57       1.0  T
   4   -117.0512356 -0.200350E-03  0.106E-02    0.58       1.1  T
   5   -117.0512373 -0.170398E-05  0.676E-03    0.57       1.7  T
   6   -117.0512381 -0.838208E-06  0.287E-03    0.58       3.9  T
   7   -117.0512382 -0.575609E-07  0.156E-03    0.58       7.3  T
   8   -117.0512382 -0.224641E-07  0.933E-04    0.58      12.1  T
   9   -117.0512382 -0.163637E-07  0.385E-04    0.58      29.4  T
  10   -117.0512382 -0.238110E-08  0.138E-04    0.58      82.3  T
     SCC iter.                  ...        0 min,  0.181 sec
     gradient                   ...        0 min,  0.085 sec
 * total energy  :  -115.1571816 Eh     change       -0.8474351E-03 Eh
   gradient norm :     0.0149456 Eh/α   predicted    -0.6995386E-03 ( -17.45%)
   displ. norm   :     0.5854363 α      lambda       -0.1294196E-02
   maximum displ.:     0.2687784 α      in ANC's #11, #20, #10, ...

........................................................................
.............................. CYCLE   27 ..............................
........................................................................

 iter      E             dE          RMSdq      gap      omega  full diag
   1   -117.0501045 -0.117050E+03  0.146E-01    0.56       0.0  T
   2   -117.0501274 -0.229677E-04  0.855E-02    0.55       1.0  T
   3   -117.0500211  0.106322E-03  0.445E-02    0.56       1.0  T
   4   -117.0501418 -0.120683E-03  0.159E-02    0.55       1.0  T
   5   -117.0501486 -0.680126E-05  0.105E-02    0.55       1.1  T
   6   -117.0501511 -0.250053E-05  0.337E-03    0.55       3.4  T
   7   -117.0501511 -0.474555E-07  0.197E-03    0.55       5.8  T
   8   -117.0501512 -0.834223E-07  0.108E-03    0.55      10.5  T
   9   -117.0501512 -0.106727E-07  0.463E-04    0.55      24.4  T
  10   -117.0501512 -0.424571E-08  0.160E-04    0.55      70.9  T
     SCC iter.                  ...        0 min,  0.188 sec
     gradient                   ...        0 min,  0.102 sec
 * total energy  :  -115.1582228 Eh     change       -0.1041246E-02 Eh
   gradient norm :     0.0189842 Eh/α   predicted    -0.8688910E-03 ( -16.55%)
   displ. norm   :     0.7067403 α      lambda       -0.1577242E-02
   maximum displ.:     0.3247233 α      in ANC's #11, #20, #10, ...

........................................................................
.............................. CYCLE   28 ..............................
........................................................................

 iter      E             dE          RMSdq      gap      omega  full diag
   1   -117.0497220 -0.117050E+03  0.214E-01    0.55       0.0  T
   2   -117.0497766 -0.545850E-04  0.121E-01    0.50       1.0  T
   3   -117.0496729  0.103772E-03  0.624E-02    0.54       1.0  T
   4   -117.0498216 -0.148758E-03  0.166E-02    0.51       1.0  T
   5   -117.0498212  0.422609E-06  0.805E-03    0.51       1.4  T
   6   -117.0498221 -0.872518E-06  0.470E-03    0.51       2.4  T
   7   -117.0498228 -0.763109E-06  0.228E-03    0.51       5.0  T
   8   -117.0498229 -0.864719E-07  0.133E-03    0.51       8.5  T
   9   -117.0498230 -0.329318E-07  0.553E-04    0.51      20.5  T
  10   -117.0498230 -0.911777E-08  0.195E-04    0.51      58.0  T
  11   -117.0498230 -0.157590E-08  0.812E-05    0.51     139.4  T
     SCC iter.                  ...        0 min,  0.231 sec
     gradient                   ...        0 min,  0.083 sec
 * total energy  :  -115.1595723 Eh     change       -0.1349464E-02 Eh
   gradient norm :     0.0197754 Eh/α   predicted    -0.1182523E-02 ( -12.37%)
   displ. norm   :     0.7055647 α      lambda       -0.1816112E-02
   maximum displ.:     0.3287916 α      in ANC's #11, #20, #10, ...

........................................................................
.............................. CYCLE   29 ..............................
........................................................................

 iter      E             dE          RMSdq      gap      omega  full diag
   1   -117.0548994 -0.117055E+03  0.231E-01    0.58       0.0  T
   2   -117.0549657 -0.662280E-04  0.125E-01    0.47       1.0  T
   3   -117.0548018  0.163847E-03  0.984E-02    0.54       1.0  T
   4   -117.0550852 -0.283361E-03  0.258E-02    0.50       1.0  T
   5   -117.0551121 -0.269003E-04  0.157E-02    0.50       1.0  T
   6   -117.0551165 -0.446528E-05  0.523E-03    0.50       2.2  T
   7   -117.0551168 -0.286705E-06  0.241E-03    0.50       4.7  T
   8   -117.0551169 -0.122962E-06  0.115E-03    0.50       9.8  T
   9   -117.0551170 -0.199791E-07  0.501E-04    0.50      22.6  T
  10   -117.0551170 -0.446855E-08  0.188E-04    0.50      60.2  T
  11   -117.0551170 -0.152583E-08  0.808E-05    0.50     140.1  T
     SCC iter.                  ...        0 min,  0.222 sec
     gradient                   ...        0 min,  0.087 sec
 * total energy  :  -115.1608238 Eh     change       -0.1251519E-02 Eh
   gradient norm :     0.0182622 Eh/α   predicted    -0.1360107E-02 (   8.68%)
   displ. norm   :     0.5330494 α      lambda       -0.1297839E-02
   maximum displ.:     0.2450996 α      in ANC's #11, #20, #10, ...

........................................................................
.............................. CYCLE   30 ..............................
........................................................................

 iter      E             dE          RMSdq      gap      omega  full diag
   1   -117.0531627 -0.117053E+03  0.163E-01    0.51       0.0  T
   2   -117.0531781 -0.154053E-04  0.896E-02    0.45       1.0  T
   3   -117.0530718  0.106360E-03  0.757E-02    0.50       1.0  T
   4   -117.0532458 -0.174075E-03  0.186E-02    0.47       1.0  T
   5   -117.0532612 -0.153814E-04  0.107E-02    0.47       1.1  T
   6   -117.0532630 -0.175235E-05  0.295E-03    0.47       3.8  T
   7   -117.0532631 -0.126273E-06  0.151E-03    0.47       7.5  T
   8   -117.0532632 -0.641590E-07  0.701E-04    0.47      16.2  T
   9   -117.0532632 -0.756800E-08  0.321E-04    0.47      35.3  T
  10   -117.0532632 -0.207496E-08  0.117E-04    0.47      97.0  T
     SCC iter.                  ...        0 min,  0.183 sec
     gradient                   ...        0 min,  0.092 sec
 * total energy  :  -115.1617164 Eh     change       -0.8926439E-03 Eh
   gradient norm :     0.0210236 Eh/α   predicted    -0.8333054E-03 (  -6.65%)
   displ. norm   :     0.3570910 α      lambda       -0.1651858E-02
   maximum displ.:     0.1461173 α      in ANC's #9, #27, #11, ...

........................................................................
.............................. CYCLE   31 ..............................
........................................................................

 iter      E             dE          RMSdq      gap      omega  full diag
   1   -117.0654709 -0.117065E+03  0.123E-01    0.51       0.0  T
   2   -117.0654784 -0.746607E-05  0.704E-02    0.46       1.0  T
   3   -117.0653900  0.884136E-04  0.524E-02    0.49       1.0  T
   4   -117.0655065 -0.116519E-03  0.110E-02    0.47       1.0  T
   5   -117.0655110 -0.450615E-05  0.545E-03    0.47       2.1  T
   6   -117.0655120 -0.100874E-05  0.119E-03    0.47       9.5  T
   7   -117.0655120 -0.127881E-07  0.765E-04    0.47      14.8  T
   8   -117.0655120 -0.150852E-07  0.319E-04    0.47      35.5  T
   9   -117.0655120 -0.204552E-08  0.170E-04    0.47      66.6  T
     SCC iter.                  ...        0 min,  0.177 sec
     gradient                   ...        0 min,  0.090 sec
 * total energy  :  -115.1625709 Eh     change       -0.8544466E-03 Eh
   gradient norm :     0.0221416 Eh/α   predicted    -0.9312497E-03 (   8.99%)
   displ. norm   :     0.4600559 α      lambda       -0.1253998E-02
   maximum displ.:     0.2041501 α      in ANC's #11, #20, #10, ...

........................................................................
.............................. CYCLE   32 ..............................
........................................................................

 iter      E             dE          RMSdq      gap      omega  full diag
   1   -117.0547031 -0.117055E+03  0.130E-01    0.51       0.0  T
   2   -117.0546820  0.211111E-04  0.842E-02    0.52       1.0  T
   3   -117.0545957  0.863083E-04  0.678E-02    0.49       1.0  T
   4   -117.0548224 -0.226719E-03  0.130E-02    0.50       1.0  T
   5   -117.0548233 -0.878430E-06  0.527E-03    0.50       2.1  T
   6   -117.0548239 -0.621234E-06  0.304E-03    0.50       3.7  T
   7   -117.0548241 -0.175289E-06  0.115E-03    0.50       9.9  T
   8   -117.0548241 -0.196330E-07  0.576E-04    0.50      19.7  T
   9   -117.0548241 -0.713568E-08  0.227E-04    0.50      49.8  T
  10   -117.0548241 -0.924985E-09  0.119E-04    0.50      95.2  T
     SCC iter.                  ...        0 min,  0.202 sec
     gradient                   ...        0 min,  0.100 sec
 * total energy  :  -115.1631394 Eh     change       -0.5685738E-03 Eh
   gradient norm :     0.0165764 Eh/α   predicted    -0.7597055E-03 (  33.62%)
   displ. norm   :     0.1747668 α      lambda       -0.5665314E-03
   maximum displ.:     0.0701653 α      in ANC's #9, #5, #19, ...

........................................................................
.............................. CYCLE   33 ..............................
........................................................................

 iter      E             dE          RMSdq      gap      omega  full diag
   1   -117.0570959 -0.117057E+03  0.619E-02    0.50       0.0  T
   2   -117.0570957  0.132670E-06  0.349E-02    0.49       1.0  T
   3   -117.0570577  0.380629E-04  0.277E-02    0.51       1.0  T
   4   -117.0571033 -0.456644E-04  0.470E-03    0.50       2.4  T
   5   -117.0571036 -0.254443E-06  0.270E-03    0.50       4.2  T
   6   -117.0571038 -0.237631E-06  0.102E-03    0.50      11.2  T
   7   -117.0571038 -0.237084E-07  0.352E-04    0.50      32.2  T
   8   -117.0571038 -0.336257E-08  0.172E-04    0.50      65.8  T
     SCC iter.                  ...        0 min,  0.155 sec
     gradient                   ...        0 min,  0.098 sec
 * total energy  :  -115.1635725 Eh     change       -0.4330649E-03 Eh
   gradient norm :     0.0098932 Eh/α   predicted    -0.2919181E-03 ( -32.59%)
   displ. norm   :     0.3842074 α      lambda       -0.6934345E-03
   maximum displ.:     0.1637825 α      in ANC's #9, #5, #16, ...

........................................................................
.............................. CYCLE   34 ..............................
........................................................................

 iter      E             dE          RMSdq      gap      omega  full diag
   1   -117.0597865 -0.117060E+03  0.116E-01    0.52       0.0  T
   2   -117.0597863  0.236981E-06  0.662E-02    0.50       1.0  T
   3   -117.0596626  0.123683E-03  0.474E-02    0.53       1.0  T
   4   -117.0598026 -0.140042E-03  0.754E-03    0.51       1.5  T
   5   -117.0598028 -0.134962E-06  0.425E-03    0.51       2.7  T
   6   -117.0598035 -0.739084E-06  0.166E-03    0.51       6.8  T
   7   -117.0598035 -0.502704E-07  0.676E-04    0.51      16.7  T
   8   -117.0598036 -0.944317E-08  0.389E-04    0.51      29.1  T
   9   -117.0598036 -0.277454E-08  0.177E-04    0.51      63.9  T
     SCC iter.                  ...        0 min,  0.163 sec
     gradient                   ...        0 min,  0.089 sec
 * total energy  :  -115.1640238 Eh     change       -0.4512579E-03 Eh
   gradient norm :     0.0085100 Eh/α   predicted    -0.3979000E-03 ( -11.82%)
   displ. norm   :     0.3425090 α      lambda       -0.4033033E-03
   maximum displ.:     0.1448053 α      in ANC's #9, #5, #2, ...

........................................................................
.............................. CYCLE   35 ..............................
........................................................................

 iter      E             dE          RMSdq      gap      omega  full diag
   1   -117.0599936 -0.117060E+03  0.958E-02    0.51       0.0  T
   2   -117.0599959 -0.230899E-05  0.551E-02    0.51       1.0  T
   3   -117.0599643  0.316226E-04  0.227E-02    0.51       1.0  T
   4   -117.0599983 -0.339787E-04  0.611E-03    0.51       1.9  T
   5   -117.0599988 -0.542003E-06  0.294E-03    0.51       3.9  T
   6   -117.0599992 -0.382185E-06  0.113E-03    0.51      10.0  T
   7   -117.0599992 -0.411670E-07  0.368E-04    0.51      30.8  T
   8   -117.0599992 -0.179040E-08  0.220E-04    0.51      51.4  T
     SCC iter.                  ...        0 min,  0.154 sec
     gradient                   ...        0 min,  0.091 sec
 * total energy  :  -115.1643012 Eh     change       -0.2774000E-03 Eh
   gradient norm :     0.0101259 Eh/α   predicted    -0.2253089E-03 ( -18.78%)
   displ. norm   :     0.4114505 α      lambda       -0.4188475E-03
   maximum displ.:     0.1793251 α      in ANC's #9, #5, #2, ...

........................................................................
.............................. CYCLE   36 ..............................
........................................................................

 iter      E             dE          RMSdq      gap      omega  full diag
   1   -117.0589873 -0.117059E+03  0.105E-01    0.51       0.0  T
   2   -117.0589882 -0.909331E-06  0.618E-02    0.50       1.0  T
   3   -117.0589209  0.673637E-04  0.348E-02    0.52       1.0  T
   4   -117.0589940 -0.731578E-04  0.477E-03    0.50       2.4  T
   5   -117.0589943 -0.253136E-06  0.315E-03    0.50       3.6  T
   6   -117.0589945 -0.208443E-06  0.984E-04    0.50      11.5  T
   7   -117.0589945 -0.168566E-07  0.542E-04    0.50      20.9  T
   8   -117.0589945 -0.278493E-08  0.314E-04    0.50      36.1  T
   9   -117.0589945 -0.153578E-08  0.142E-04    0.50      79.6  T
     SCC iter.                  ...        0 min,  0.186 sec
     gradient                   ...        0 min,  0.085 sec
 * total energy  :  -115.1646249 Eh     change       -0.3237284E-03 Eh
   gradient norm :     0.0115914 Eh/α   predicted    -0.2448781E-03 ( -24.36%)
   displ. norm   :     0.4298529 α      lambda       -0.5256828E-03
   maximum displ.:     0.1809307 α      in ANC's #9, #5, #2, ...

........................................................................
.............................. CYCLE   37 ..............................
........................................................................

 iter      E             dE          RMSdq      gap      omega  full diag
   1   -117.0611426 -0.117061E+03  0.133E-01    0.50       0.0  T
   2   -117.0611526 -0.997007E-05  0.725E-02    0.52       1.0  T
   3   -117.0610938  0.587792E-04  0.437E-02    0.49       1.0  T
   4   -117.0611607 -0.668393E-04  0.925E-03    0.51       1.2  T
   5   -117.0611637 -0.303556E-05  0.518E-03    0.51       2.2  T
   6   -117.0611644 -0.687407E-06  0.160E-03    0.51       7.1  T
   7   -117.0611645 -0.532196E-07  0.548E-04    0.51      20.7  T
   8   -117.0611645 -0.974241E-08  0.256E-04    0.51      44.3  T
   9   -117.0611645 -0.960583E-09  0.146E-04    0.51      77.5  T
     SCC iter.                  ...        0 min,  0.183 sec
     gradient                   ...        0 min,  0.098 sec
 * total energy  :  -115.1649444 Eh     change       -0.3195298E-03 Eh
   gradient norm :     0.0139515 Eh/α   predicted    -0.3114080E-03 (  -2.54%)
   displ. norm   :     0.4281472 α      lambda       -0.4547255E-03
   maximum displ.:     0.1858562 α      in ANC's #5, #9, #11, ...

........................................................................
.............................. CYCLE   38 ..............................
........................................................................

 iter      E             dE          RMSdq      gap      omega  full diag
   1   -117.0602860 -0.117060E+03  0.109E-01    0.51       0.0  T
   2   -117.0602730  0.130135E-04  0.741E-02    0.47       1.0  T
   3   -117.0602295  0.434724E-04  0.568E-02    0.51       1.0  T
   4   -117.0603537 -0.124176E-03  0.956E-03    0.49       1.2  T
   5   -117.0603572 -0.355644E-05  0.489E-03    0.49       2.3  T
   6   -117.0603581 -0.839305E-06  0.211E-03    0.49       5.4  T
   7   -117.0603581  0.764732E-08  0.991E-04    0.49      11.4  T
   8   -117.0603581 -0.191549E-07  0.402E-04    0.49      28.1  T
   9   -117.0603581 -0.252129E-08  0.166E-04    0.49      68.2  T
     SCC iter.                  ...        0 min,  0.162 sec
     gradient                   ...        0 min,  0.084 sec
 * total energy  :  -115.1651905 Eh     change       -0.2461144E-03 Eh
   gradient norm :     0.0098102 Eh/α   predicted    -0.2690408E-03 (   9.32%)
   displ. norm   :     0.2171000 α      lambda       -0.2894451E-03
   maximum displ.:     0.1091406 α      in ANC's #5, #2, #13, ...

........................................................................
.............................. CYCLE   39 ..............................
........................................................................

 iter      E             dE          RMSdq      gap      omega  full diag
   1   -117.0620625 -0.117062E+03  0.574E-02    0.47       0.0  T
   2   -117.0620624  0.460766E-07  0.360E-02    0.48       1.0  T
   3   -117.0620136  0.488389E-04  0.279E-02    0.49       1.0  T
   4   -117.0620689 -0.552871E-04  0.342E-03    0.48       3.3  T
   5   -117.0620690 -0.133828E-06  0.179E-03    0.48       6.3  T
   6   -117.0620691 -0.659087E-07  0.842E-04    0.48      13.4  T
   7   -117.0620691 -0.105911E-07  0.319E-04    0.48      35.5  T
   8   -117.0620691 -0.311417E-09  0.203E-04    0.48      55.7  T
     SCC iter.                  ...        0 min,  0.156 sec
     gradient                   ...        0 min,  0.082 sec
 * total energy  :  -115.1654165 Eh     change       -0.2259573E-03 Eh
   gradient norm :     0.0072622 Eh/α   predicted    -0.1515489E-03 ( -32.93%)
   displ. norm   :     0.4641593 α      lambda       -0.4393928E-03
   maximum displ.:     0.2313619 α      in ANC's #5, #2, #13, ...

........................................................................
.............................. CYCLE   40 ..............................
........................................................................

 iter      E             dE          RMSdq      gap      omega  full diag
   1   -117.0600635 -0.117060E+03  0.137E-01    0.48       0.0  T
   2   -117.0600522  0.113516E-04  0.809E-02    0.51       1.0  T
   3   -117.0599139  0.138315E-03  0.781E-02    0.46       1.0  T
   4   -117.0601487 -0.234830E-03  0.110E-02    0.49       1.0  T
   5   -117.0601555 -0.676053E-05  0.381E-03    0.49       3.0  T
   6   -117.0601562 -0.724377E-06  0.145E-03    0.49       7.8  T
   7   -117.0601562 -0.815099E-08  0.725E-04    0.49      15.6  T
   8   -117.0601562 -0.104274E-07  0.395E-04    0.49      28.6  T
   9   -117.0601562 -0.193286E-08  0.227E-04    0.49      49.8  T
     SCC iter.                  ...        0 min,  0.167 sec
     gradient                   ...        0 min,  0.097 sec
 * total energy  :  -115.1656453 Eh     change       -0.2288183E-03 Eh
   gradient norm :     0.0155613 Eh/α   predicted    -0.2670294E-03 (  16.70%)
   displ. norm   :     0.2826763 α      lambda       -0.4356014E-03
   maximum displ.:     0.1180457 α      in ANC's #5, #6, #13, ...

........................................................................
.............................. CYCLE   41 ..............................
........................................................................

 iter      E             dE          RMSdq      gap      omega  full diag
   1   -117.0673337 -0.117067E+03  0.758E-02    0.50       0.0  T
   2   -117.0672789  0.548126E-04  0.748E-02    0.46       1.0  T
   3   -117.0675167 -0.237826E-03  0.284E-02    0.49       1.0  T
   4   -117.0675206 -0.391040E-05  0.957E-03    0.49       1.2  T
   5   -117.0675213 -0.750951E-06  0.457E-03    0.48       2.5  T
   6   -117.0675224 -0.105633E-05  0.136E-03    0.49       8.3  T
   7   -117.0675224  0.799417E-09  0.838E-04    0.49      13.5  T
   8   -117.0675224 -0.106199E-07  0.322E-04    0.49      35.2  T
   9   -117.0675224 -0.136041E-09  0.138E-04    0.49      82.0  T
     SCC iter.                  ...        0 min,  0.164 sec
     gradient                   ...        0 min,  0.095 sec
 * total energy  :  -115.1657719 Eh     change       -0.1266168E-03 Eh
   gradient norm :     0.0120916 Eh/α   predicted    -0.2352055E-03 (  85.76%)
   displ. norm   :     0.2893438 α      lambda       -0.2447630E-03
   maximum displ.:     0.1365950 α      in ANC's #5, #9, #2, ...

........................................................................
.............................. CYCLE   42 ..............................
........................................................................

 iter      E             dE          RMSdq      gap      omega  full diag
   1   -117.0625590 -0.117063E+03  0.767E-02    0.48       0.0  T
   2   -117.0625593 -0.321031E-06  0.449E-02    0.49       1.0  T
   3   -117.0624957  0.636478E-04  0.341E-02    0.47       1.0  T
   4   -117.0625661 -0.704691E-04  0.319E-03    0.48       3.5  T
   5   -117.0625662 -0.561102E-07  0.165E-03    0.48       6.9  T
   6   -117.0625662 -0.407220E-07  0.964E-04    0.48      11.7  T
   7   -117.0625663 -0.197668E-07  0.372E-04    0.48      30.5  T
   8   -117.0625663 -0.172935E-08  0.193E-04    0.48      58.8  T
     SCC iter.                  ...        0 min,  0.150 sec
     gradient                   ...        0 min,  0.076 sec
 * total energy  :  -115.1659383 Eh     change       -0.1663951E-03 Eh
   gradient norm :     0.0049368 Eh/α   predicted    -0.1326318E-03 ( -20.29%)
   displ. norm   :     0.2778896 α      lambda       -0.1455605E-03
   maximum displ.:     0.1340016 α      in ANC's #5, #2, #6, ...
 * RMSD in coord.:     0.7422999 α      energy gain  -0.1308678E-01 Eh

generating ANC from exact Hessian ...
Using Lindh-Hessian (1995)
 Shifting diagonal of input Hessian by    1.0081216598183533E-002
 Lowest  eigenvalues of input Hessian
    0.010000    0.000000    0.000000    0.000000    0.000000    0.000000
    0.000000    0.010168    0.010226    0.010252    0.010358    0.010431
    0.010477    0.010619    0.010687    0.010778    0.010929    0.010956
 Highest eigenvalues
    2.001754    2.005236    2.005862    2.016906    2.240927    2.406215


........................................................................
.............................. CYCLE   43 ..............................
........................................................................

 iter      E             dE          RMSdq      gap      omega  full diag
   1   -117.0625275 -0.117063E+03  0.713E-02    0.49       0.0  T
   2   -117.0625287 -0.119600E-05  0.413E-02    0.48       1.0  T
   3   -117.0625245  0.420638E-05  0.981E-03    0.49       1.2  T
   4   -117.0625289 -0.440769E-05  0.334E-03    0.48       3.4  T
   5   -117.0625293 -0.373174E-06  0.169E-03    0.48       6.7  T
   6   -117.0625294 -0.115208E-06  0.662E-04    0.48      17.1  T
   7   -117.0625294 -0.540970E-08  0.281E-04    0.48      40.3  T
   8   -117.0625294 -0.660975E-09  0.152E-04    0.48      74.7  T
     SCC iter.                  ...        0 min,  0.151 sec
     gradient                   ...        0 min,  0.084 sec
 * total energy  :  -115.1660354 Eh     change       -0.9703477E-04 Eh
   gradient norm :     0.0055777 Eh/α   predicted     0.0000000E+00 (-100.00%)
   displ. norm   :     0.0502778 α      lambda       -0.2868217E-04
   maximum displ.:     0.0199382 α      in ANC's #5, #6, #9, ...

........................................................................
.............................. CYCLE   44 ..............................
........................................................................

 iter      E             dE          RMSdq      gap      omega  full diag
   1   -117.0653849 -0.117065E+03  0.205E-02    0.48       0.0  T
   2   -117.0653830  0.188040E-05  0.160E-02    0.48       1.0  T
   3   -117.0653883 -0.527400E-05  0.921E-03    0.48       1.2  T
   4   -117.0653906 -0.236928E-05  0.172E-03    0.48       6.6  T
   5   -117.0653907 -0.441761E-07  0.115E-03    0.48       9.8  T
   6   -117.0653907 -0.500782E-07  0.458E-04    0.48      24.7  T
   7   -117.0653907  0.140687E-10  0.166E-04    0.48      68.1  T
     SCC iter.                  ...        0 min,  0.125 sec
     gradient                   ...        0 min,  0.090 sec
 * total energy  :  -115.1660789 Eh     change       -0.4356613E-04 Eh
   gradient norm :     0.0047999 Eh/α   predicted    -0.3318681E-04 ( -23.82%)
   displ. norm   :     0.1603976 α      lambda       -0.1423369E-03
   maximum displ.:     0.0664578 α      in ANC's #5, #6, #9, ...

........................................................................
.............................. CYCLE   45 ..............................
........................................................................

 iter      E             dE          RMSdq      gap      omega  full diag
   1   -117.0709789 -0.117071E+03  0.563E-02    0.49       0.0  T
   2   -117.0709679  0.109534E-04  0.430E-02    0.47       1.0  T
   3   -117.0709963 -0.283744E-04  0.261E-02    0.49       1.0  T
   4   -117.0710165 -0.202550E-04  0.429E-03    0.48       2.6  T
   5   -117.0710168 -0.279851E-06  0.258E-03    0.48       4.4  T
   6   -117.0710171 -0.288642E-06  0.976E-04    0.48      11.6  T
   7   -117.0710171  0.143227E-08  0.338E-04    0.48      33.5  T
   8   -117.0710171 -0.399059E-08  0.162E-04    0.48      69.9  T
     SCC iter.                  ...        0 min,  0.147 sec
     gradient                   ...        0 min,  0.081 sec
 * total energy  :  -115.1660702 Eh     change        0.8678106E-05 Eh
   gradient norm :     0.0143005 Eh/α   predicted    -0.7300655E-04 (-941.27%)
   displ. norm   :     0.0320514 α      lambda       -0.1252092E-03
   maximum displ.:     0.0142548 α      in ANC's #5, #6, #9, ...

........................................................................
.............................. CYCLE   46 ..............................
........................................................................

 iter      E             dE          RMSdq      gap      omega  full diag
   1   -117.0681682 -0.117068E+03  0.184E-02    0.47       0.0  T
   2   -117.0681635  0.469129E-05  0.212E-02    0.49       1.0  T
   3   -117.0681832 -0.196119E-04  0.664E-03    0.48       1.7  T
   4   -117.0681830  0.150992E-06  0.298E-03    0.48       3.8  T
   5   -117.0681831 -0.138547E-06  0.116E-03    0.48       9.8  T
   6   -117.0681832 -0.621702E-07  0.486E-04    0.48      23.3  T
   7   -117.0681832 -0.919343E-09  0.178E-04    0.48      63.7  T
     SCC iter.                  ...        0 min,  0.129 sec
     gradient                   ...        0 min,  0.092 sec
 * total energy  :  -115.1661591 Eh     change       -0.8881351E-04 Eh
   gradient norm :     0.0048579 Eh/α   predicted    -0.6266954E-04 ( -29.44%)
   displ. norm   :     0.1191411 α      lambda       -0.7105032E-04
   maximum displ.:     0.0583413 α      in ANC's #5, #6, #9, ...

........................................................................
.............................. CYCLE   47 ..............................
........................................................................

 iter      E             dE          RMSdq      gap      omega  full diag
   1   -117.0661036 -0.117066E+03  0.358E-02    0.47       0.0  T
   2   -117.0661015  0.209135E-05  0.248E-02    0.48       1.0  T
   3   -117.0660935  0.805896E-05  0.190E-02    0.47       1.0  T
   4   -117.0661106 -0.171403E-04  0.210E-03    0.47       5.4  T
   5   -117.0661107 -0.494407E-07  0.108E-03    0.47      10.5  T
   6   -117.0661107 -0.527179E-07  0.530E-04    0.47      21.4  T
   7   -117.0661107 -0.279742E-08  0.182E-04    0.47      62.2  T
   8   -117.0661107 -0.109691E-08  0.801E-05    0.47     141.4  T
     SCC iter.                  ...        0 min,  0.145 sec
     gradient                   ...        0 min,  0.099 sec
 * total energy  :  -115.1662094 Eh     change       -0.5032977E-04 Eh
   gradient norm :     0.0041382 Eh/α   predicted    -0.3603017E-04 ( -28.41%)
   displ. norm   :     0.2002634 α      lambda       -0.7809821E-04
   maximum displ.:     0.0985913 α      in ANC's #5, #6, #9, ...

........................................................................
.............................. CYCLE   48 ..............................
........................................................................

 iter      E             dE          RMSdq      gap      omega  full diag
   1   -117.0638682 -0.117064E+03  0.546E-02    0.46       0.0  T
   2   -117.0638673  0.908453E-06  0.336E-02    0.47       1.0  T
   3   -117.0638256  0.416782E-04  0.277E-02    0.46       1.0  T
   4   -117.0638730 -0.474263E-04  0.218E-03    0.47       5.2  T
   5   -117.0638732 -0.109639E-06  0.129E-03    0.47       8.8  T
   6   -117.0638732 -0.591606E-07  0.600E-04    0.47      18.9  T
   7   -117.0638732 -0.244323E-08  0.262E-04    0.47      43.2  T
   8   -117.0638732 -0.288156E-08  0.859E-05    0.47     131.8  T
     SCC iter.                  ...        0 min,  0.152 sec
     gradient                   ...        0 min,  0.097 sec
 * total energy  :  -115.1662676 Eh     change       -0.5823681E-04 Eh
   gradient norm :     0.0065025 Eh/α   predicted    -0.4062296E-04 ( -30.25%)
   displ. norm   :     0.3316381 α      lambda       -0.1215826E-03
   maximum displ.:     0.1634981 α      in ANC's #5, #6, #9, ...

........................................................................
.............................. CYCLE   49 ..............................
........................................................................

 iter      E             dE          RMSdq      gap      omega  full diag
   1   -117.0605285 -0.117061E+03  0.905E-02    0.46       0.0  T
   2   -117.0605281  0.304443E-06  0.546E-02    0.46       1.0  T
   3   -117.0604438  0.843171E-04  0.366E-02    0.44       1.0  T
   4   -117.0605350 -0.911697E-04  0.326E-03    0.45       3.5  T
   5   -117.0605352 -0.176755E-06  0.196E-03    0.45       5.8  T
   6   -117.0605353 -0.115273E-06  0.744E-04    0.45      15.2  T
   7   -117.0605353 -0.770180E-08  0.334E-04    0.45      33.9  T
   8   -117.0605353 -0.362309E-08  0.139E-04    0.45      81.5  T
     SCC iter.                  ...        0 min,  0.154 sec
     gradient                   ...        0 min,  0.099 sec
 * total energy  :  -115.1663288 Eh     change       -0.6112809E-04 Eh
   gradient norm :     0.0079275 Eh/α   predicted    -0.6748110E-04 (  10.39%)
   displ. norm   :     0.2131146 α      lambda       -0.9939332E-04
   maximum displ.:     0.1089486 α      in ANC's #5, #6, #9, ...

........................................................................
.............................. CYCLE   50 ..............................
........................................................................

 iter      E             dE          RMSdq      gap      omega  full diag
   1   -117.0614338 -0.117061E+03  0.529E-02    0.45       0.0  T
   2   -117.0614335  0.262095E-06  0.322E-02    0.45       1.0  T
   3   -117.0614014  0.321110E-04  0.258E-02    0.46       1.0  T
   4   -117.0614379 -0.365304E-04  0.238E-03    0.45       4.7  T
   5   -117.0614381 -0.153467E-06  0.162E-03    0.45       7.0  T
   6   -117.0614382 -0.120608E-06  0.551E-04    0.45      20.6  T
   7   -117.0614382  0.115651E-08  0.240E-04    0.45      47.1  T
   8   -117.0614382 -0.184232E-08  0.120E-04    0.45      94.1  T
     SCC iter.                  ...        0 min,  0.145 sec
     gradient                   ...        0 min,  0.085 sec
 * total energy  :  -115.1664013 Eh     change       -0.7256923E-04 Eh
   gradient norm :     0.0052745 Eh/α   predicted    -0.5195841E-04 ( -28.40%)
   displ. norm   :     0.2917715 α      lambda       -0.1286787E-03
   maximum displ.:     0.1537710 α      in ANC's #5, #6, #9, ...

........................................................................
.............................. CYCLE   51 ..............................
........................................................................

 iter      E             dE          RMSdq      gap      omega  full diag
   1   -117.0648284 -0.117065E+03  0.639E-02    0.45       0.0  T
   2   -117.0648252  0.315903E-05  0.413E-02    0.44       1.0  T
   3   -117.0647803  0.449347E-04  0.348E-02    0.46       1.0  T
   4   -117.0648414 -0.611275E-04  0.340E-03    0.45       3.3  T
   5   -117.0648417 -0.257389E-06  0.212E-03    0.44       5.3  T
   6   -117.0648419 -0.223718E-06  0.676E-04    0.44      16.8  T
   7   -117.0648419 -0.503917E-10  0.285E-04    0.44      39.8  T
   8   -117.0648419 -0.228204E-08  0.141E-04    0.44      80.3  T
     SCC iter.                  ...        0 min,  0.148 sec
     gradient                   ...        0 min,  0.091 sec
 * total energy  :  -115.1664808 Eh     change       -0.7944499E-04 Eh
   gradient norm :     0.0034786 Eh/α   predicted    -0.6982344E-04 ( -12.11%)
   displ. norm   :     0.3568445 α      lambda       -0.1151948E-03
   maximum displ.:     0.1913229 α      in ANC's #5, #6, #9, ...

........................................................................
.............................. CYCLE   52 ..............................
........................................................................

 iter      E             dE          RMSdq      gap      omega  full diag
   1   -117.0665149 -0.117067E+03  0.810E-02    0.45       0.0  T
   2   -117.0665141  0.816467E-06  0.493E-02    0.43       1.0  T
   3   -117.0664408  0.733057E-04  0.381E-02    0.45       1.0  T
   4   -117.0665224 -0.816008E-04  0.316E-03    0.44       3.6  T
   5   -117.0665226 -0.232622E-06  0.201E-03    0.44       5.6  T
   6   -117.0665228 -0.175429E-06  0.675E-04    0.44      16.8  T
   7   -117.0665228  0.908415E-09  0.308E-04    0.44      36.7  T
   8   -117.0665228 -0.257539E-08  0.154E-04    0.44      73.5  T
     SCC iter.                  ...        0 min,  0.147 sec
     gradient                   ...        0 min,  0.093 sec
 * total energy  :  -115.1665670 Eh     change       -0.8621056E-04 Eh
   gradient norm :     0.0056114 Eh/α   predicted    -0.6493958E-04 ( -24.67%)
   displ. norm   :     0.3972009 α      lambda       -0.1070566E-03
   maximum displ.:     0.2147181 α      in ANC's #5, #6, #9, ...

........................................................................
.............................. CYCLE   53 ..............................
........................................................................

 iter      E             dE          RMSdq      gap      omega  full diag
   1   -117.0657588 -0.117066E+03  0.873E-02    0.42       0.0  T
   2   -117.0657600 -0.119662E-05  0.513E-02    0.42       1.0  T
   3   -117.0657526  0.739469E-05  0.121E-02    0.43       1.0  T
   4   -117.0657608 -0.821606E-05  0.224E-03    0.42       5.1  T
   5   -117.0657608 -0.393338E-07  0.181E-03    0.42       6.3  T
   6   -117.0657610 -0.135730E-06  0.477E-04    0.42      23.8  T
   7   -117.0657610 -0.267946E-09  0.289E-04    0.42      39.1  T
     SCC iter.                  ...        0 min,  0.128 sec
     gradient                   ...        0 min,  0.099 sec
 * total energy  :  -115.1666565 Eh     change       -0.8948021E-04 Eh
   gradient norm :     0.0048586 Eh/α   predicted    -0.6197362E-04 ( -30.74%)
   displ. norm   :     0.4546215 α      lambda       -0.1429498E-03
   maximum displ.:     0.2503741 α      in ANC's #5, #6, #4, ...

........................................................................
.............................. CYCLE   54 ..............................
........................................................................

 iter      E             dE          RMSdq      gap      omega  full diag
   1   -117.0662319 -0.117066E+03  0.922E-02    0.42       0.0  T
   2   -117.0662335 -0.156201E-05  0.537E-02    0.42       1.0  T
   3   -117.0662164  0.171035E-04  0.167E-02    0.41       1.0  T
   4   -117.0662347 -0.182913E-04  0.314E-03    0.41       3.6  T
   5   -117.0662351 -0.409933E-06  0.128E-03    0.41       8.9  T
   6   -117.0662351 -0.518785E-07  0.579E-04    0.41      19.6  T
   7   -117.0662351 -0.491914E-08  0.264E-04    0.41      43.0  T
   8   -117.0662351 -0.282671E-08  0.118E-04    0.41      96.1  T
     SCC iter.                  ...        0 min,  0.144 sec
     gradient                   ...        0 min,  0.082 sec
 * total energy  :  -115.1667671 Eh     change       -0.1106857E-03 Eh
   gradient norm :     0.0027198 Eh/α   predicted    -0.8625217E-04 ( -22.07%)
   displ. norm   :     0.4519679 α      lambda       -0.1124605E-03
   maximum displ.:     0.2524490 α      in ANC's #5, #6, #4, ...

........................................................................
.............................. CYCLE   55 ..............................
........................................................................

 iter      E             dE          RMSdq      gap      omega  full diag
   1   -117.0649563 -0.117065E+03  0.918E-02    0.41       0.0  T
   2   -117.0649578 -0.155276E-05  0.535E-02    0.41       1.0  T
   3   -117.0649411  0.167450E-04  0.169E-02    0.40       1.0  T
   4   -117.0649591 -0.179978E-04  0.280E-03    0.41       4.0  T
   5   -117.0649594 -0.335313E-06  0.121E-03    0.41       9.3  T
   6   -117.0649595 -0.554383E-07  0.535E-04    0.41      21.2  T
   7   -117.0649595 -0.323460E-08  0.239E-04    0.41      47.3  T
   8   -117.0649595 -0.243787E-08  0.103E-04    0.41     109.7  T
     SCC iter.                  ...        0 min,  0.145 sec
     gradient                   ...        0 min,  0.093 sec
 * total energy  :  -115.1668499 Eh     change       -0.8277325E-04 Eh
   gradient norm :     0.0034797 Eh/α   predicted    -0.6772045E-04 ( -18.19%)
   displ. norm   :     0.3439687 α      lambda       -0.9466344E-04
   maximum displ.:     0.1912145 α      in ANC's #5, #4, #6, ...

........................................................................
.............................. CYCLE   56 ..............................
........................................................................

 iter      E             dE          RMSdq      gap      omega  full diag
   1   -117.0661893 -0.117066E+03  0.707E-02    0.41       0.0  T
   2   -117.0661903 -0.105808E-05  0.412E-02    0.41       1.0  T
   3   -117.0661880  0.233441E-05  0.721E-03    0.40       1.6  T
   4   -117.0661906 -0.262656E-05  0.210E-03    0.41       5.4  T
   5   -117.0661907 -0.138309E-06  0.109E-03    0.41      10.4  T
   6   -117.0661908 -0.505395E-07  0.445E-04    0.41      25.5  T
   7   -117.0661908 -0.391481E-08  0.154E-04    0.41      73.8  T
     SCC iter.                  ...        0 min,  0.129 sec
     gradient                   ...        0 min,  0.081 sec
 * total energy  :  -115.1669154 Eh     change       -0.6552756E-04 Eh
   gradient norm :     0.0045515 Eh/α   predicted    -0.5293426E-04 ( -19.22%)
   displ. norm   :     0.3920960 α      lambda       -0.7925717E-04
   maximum displ.:     0.2256133 α      in ANC's #5, #6, #4, ...

........................................................................
.............................. CYCLE   57 ..............................
........................................................................

 iter      E             dE          RMSdq      gap      omega  full diag
   1   -117.0633509 -0.117063E+03  0.858E-02    0.40       0.0  T
   2   -117.0633512 -0.295964E-06  0.509E-02    0.40       1.0  T
   3   -117.0633196  0.316529E-04  0.232E-02    0.41       1.0  T
   4   -117.0633535 -0.339597E-04  0.187E-03    0.40       6.1  T
   5   -117.0633536 -0.964148E-07  0.127E-03    0.40       8.9  T
   6   -117.0633537 -0.432024E-07  0.386E-04    0.40      29.3  T
   7   -117.0633537 -0.101043E-08  0.201E-04    0.40      56.4  T
     SCC iter.                  ...        0 min,  0.135 sec
     gradient                   ...        0 min,  0.084 sec
 * total energy  :  -115.1669654 Eh     change       -0.4994434E-04 Eh
   gradient norm :     0.0052147 Eh/α   predicted    -0.4572179E-04 (  -8.45%)
   displ. norm   :     0.2898409 α      lambda       -0.1230752E-03
   maximum displ.:     0.1410373 α      in ANC's #5, #4, #15, ...

........................................................................
.............................. CYCLE   58 ..............................
........................................................................

 iter      E             dE          RMSdq      gap      omega  full diag
   1   -117.0664328 -0.117066E+03  0.653E-02    0.42       0.0  T
   2   -117.0664314  0.133664E-05  0.397E-02    0.40       1.0  T
   3   -117.0663777  0.537252E-04  0.320E-02    0.42       1.0  T
   4   -117.0664389 -0.611798E-04  0.273E-03    0.41       4.1  T
   5   -117.0664392 -0.265461E-06  0.158E-03    0.41       7.2  T
   6   -117.0664392 -0.596895E-07  0.619E-04    0.41      18.3  T
   7   -117.0664392 -0.385981E-08  0.259E-04    0.41      43.8  T
   8   -117.0664392 -0.294796E-08  0.128E-04    0.41      88.3  T
     SCC iter.                  ...        0 min,  0.145 sec
     gradient                   ...        0 min,  0.079 sec
 * total energy  :  -115.1670347 Eh     change       -0.6928792E-04 Eh
   gradient norm :     0.0035210 Eh/α   predicted    -0.6670800E-04 (  -3.72%)
   displ. norm   :     0.2666635 α      lambda       -0.7364526E-04
   maximum displ.:     0.1496112 α      in ANC's #5, #6, #4, ...

........................................................................
.............................. CYCLE   59 ..............................
........................................................................

 iter      E             dE          RMSdq      gap      omega  full diag
   1   -117.0652908 -0.117065E+03  0.625E-02    0.40       0.0  T
   2   -117.0652899  0.931918E-06  0.380E-02    0.40       1.0  T
   3   -117.0652439  0.459834E-04  0.306E-02    0.41       1.0  T
   4   -117.0652961 -0.521978E-04  0.234E-03    0.40       4.8  T
   5   -117.0652964 -0.265813E-06  0.152E-03    0.40       7.4  T
   6   -117.0652964 -0.532280E-07  0.697E-04    0.40      16.2  T
   7   -117.0652964 -0.274241E-09  0.244E-04    0.40      46.4  T
   8   -117.0652964 -0.150173E-08  0.110E-04    0.40     103.1  T
     SCC iter.                  ...        0 min,  0.148 sec
     gradient                   ...        0 min,  0.083 sec
 * total energy  :  -115.1670951 Eh     change       -0.6045150E-04 Eh
   gradient norm :     0.0033257 Eh/α   predicted    -0.3944185E-04 ( -34.75%)
   displ. norm   :     0.4088741 α      lambda       -0.1461163E-03
   maximum displ.:     0.2168184 α      in ANC's #5, #6, #4, ...

........................................................................
.............................. CYCLE   60 ..............................
........................................................................

 iter      E             dE          RMSdq      gap      omega  full diag
   1   -117.0643047 -0.117064E+03  0.939E-02    0.40       0.0  T
   2   -117.0643026  0.209896E-05  0.571E-02    0.38       1.0  T
   3   -117.0642028  0.997994E-04  0.477E-02    0.41       1.0  T
   4   -117.0643203 -0.117569E-03  0.463E-03    0.39       2.4  T
   5   -117.0643214 -0.103257E-05  0.298E-03    0.39       3.8  T
   6   -117.0643216 -0.204198E-06  0.137E-03    0.39       8.2  T
   7   -117.0643216 -0.702499E-09  0.447E-04    0.39      25.4  T
   8   -117.0643216 -0.618385E-08  0.164E-04    0.39      69.0  T
     SCC iter.                  ...        0 min,  0.153 sec
     gradient                   ...        0 min,  0.089 sec
 * total energy  :  -115.1672004 Eh     change       -0.1052508E-03 Eh
   gradient norm :     0.0048667 Eh/α   predicted    -0.8527291E-04 ( -18.98%)
   displ. norm   :     0.3642529 α      lambda       -0.1015808E-03
   maximum displ.:     0.1903026 α      in ANC's #5, #6, #4, ...

........................................................................
.............................. CYCLE   61 ..............................
........................................................................

 iter      E             dE          RMSdq      gap      omega  full diag
   1   -117.0633885 -0.117063E+03  0.797E-02    0.38       0.0  T
   2   -117.0633894 -0.886422E-06  0.470E-02    0.37       1.0  T
   3   -117.0633588  0.306231E-04  0.244E-02    0.39       1.0  T
   4   -117.0633919 -0.330942E-04  0.320E-03    0.38       3.5  T
   5   -117.0633922 -0.321754E-06  0.224E-03    0.38       5.1  T
   6   -117.0633923 -0.118979E-06  0.713E-04    0.38      15.9  T
   7   -117.0633923 -0.306208E-08  0.267E-04    0.38      42.4  T
   8   -117.0633923 -0.146599E-08  0.113E-04    0.38      99.9  T
     SCC iter.                  ...        0 min,  0.147 sec
     gradient                   ...        0 min,  0.092 sec
 * total energy  :  -115.1672775 Eh     change       -0.7714204E-04 Eh
   gradient norm :     0.0053822 Eh/α   predicted    -0.5753221E-04 ( -25.42%)
   displ. norm   :     0.3450665 α      lambda       -0.1252026E-03
   maximum displ.:     0.1655146 α      in ANC's #5, #6, #1, ...

........................................................................
.............................. CYCLE   62 ..............................
........................................................................

 iter      E             dE          RMSdq      gap      omega  full diag
   1   -117.0655428 -0.117066E+03  0.697E-02    0.38       0.0  T
   2   -117.0655438 -0.100814E-05  0.408E-02    0.37       1.0  T
   3   -117.0655351  0.872306E-05  0.136E-02    0.38       1.0  T
   4   -117.0655446 -0.950998E-05  0.281E-03    0.37       4.0  T
   5   -117.0655447 -0.149178E-06  0.194E-03    0.37       5.8  T
   6   -117.0655449 -0.129433E-06  0.551E-04    0.37      20.6  T
   7   -117.0655449 -0.196047E-08  0.303E-04    0.37      37.3  T
   8   -117.0655449 -0.264178E-08  0.104E-04    0.37     108.8  T
     SCC iter.                  ...        0 min,  0.153 sec
     gradient                   ...        0 min,  0.085 sec
 * total energy  :  -115.1673643 Eh     change       -0.8673637E-04 Eh
   gradient norm :     0.0043758 Eh/α   predicted    -0.7005976E-04 ( -19.23%)
   displ. norm   :     0.6224733 α      lambda       -0.1499931E-03
   maximum displ.:     0.3568845 α      in ANC's #5, #6, #4, ...

........................................................................
.............................. CYCLE   63 ..............................
........................................................................

 iter      E             dE          RMSdq      gap      omega  full diag
   1   -117.0602773 -0.117060E+03  0.130E-01    0.35       0.0  T
   2   -117.0602816 -0.430017E-05  0.763E-02    0.36       1.0  T
   3   -117.0602523  0.293671E-04  0.224E-02    0.35       1.0  T
   4   -117.0602838 -0.315595E-04  0.465E-03    0.36       2.4  T
   5   -117.0602845 -0.670700E-06  0.218E-03    0.36       5.2  T
   6   -117.0602847 -0.153105E-06  0.108E-03    0.36      10.5  T
   7   -117.0602847 -0.238660E-07  0.345E-04    0.36      32.8  T
   8   -117.0602847 -0.249771E-08  0.182E-04    0.36      62.2  T
     SCC iter.                  ...        0 min,  0.161 sec
     gradient                   ...        0 min,  0.106 sec
 * total energy  :  -115.1674433 Eh     change       -0.7904315E-04 Eh
   gradient norm :     0.0069381 Eh/α   predicted    -0.1040575E-03 (  31.65%)
   displ. norm   :     0.2422847 α      lambda       -0.2155585E-03
   maximum displ.:     0.1005723 α      in ANC's #7, #5, #12, ...

........................................................................
.............................. CYCLE   64 ..............................
........................................................................

 iter      E             dE          RMSdq      gap      omega  full diag
   1   -117.0682476 -0.117068E+03  0.529E-02    0.36       0.0  T
   2   -117.0682483 -0.706451E-06  0.323E-02    0.37       1.0  T
   3   -117.0682193  0.289149E-04  0.273E-02    0.35       1.0  T
   4   -117.0682553 -0.359500E-04  0.396E-03    0.36       2.9  T
   5   -117.0682562 -0.869517E-06  0.166E-03    0.36       6.8  T
   6   -117.0682562 -0.691987E-07  0.814E-04    0.36      13.9  T
   7   -117.0682562 -0.270219E-08  0.422E-04    0.36      26.8  T
   8   -117.0682562 -0.300402E-08  0.201E-04    0.36      56.4  T
     SCC iter.                  ...        0 min,  0.154 sec
     gradient                   ...        0 min,  0.075 sec
 * total energy  :  -115.1675335 Eh     change       -0.9022250E-04 Eh
   gradient norm :     0.0068957 Eh/α   predicted    -0.1141123E-03 (  26.48%)
   displ. norm   :     0.3100935 α      lambda       -0.1509258E-03
   maximum displ.:     0.1818232 α      in ANC's #5, #6, #4, ...

........................................................................
.............................. CYCLE   65 ..............................
........................................................................

 iter      E             dE          RMSdq      gap      omega  full diag
   1   -117.0674528 -0.117067E+03  0.604E-02    0.37       0.0  T
   2   -117.0674540 -0.121844E-05  0.356E-02    0.37       1.0  T
   3   -117.0674504  0.359911E-05  0.802E-03    0.37       1.4  T
   4   -117.0674542 -0.379782E-05  0.236E-03    0.37       4.8  T
   5   -117.0674545 -0.262337E-06  0.973E-04    0.37      11.6  T
   6   -117.0674545 -0.323286E-07  0.408E-04    0.37      27.7  T
   7   -117.0674545 -0.127447E-08  0.199E-04    0.37      56.9  T
     SCC iter.                  ...        0 min,  0.141 sec
     gradient                   ...        0 min,  0.088 sec
 * total energy  :  -115.1676262 Eh     change       -0.9265689E-04 Eh
   gradient norm :     0.0053604 Eh/α   predicted    -0.8272301E-04 ( -10.72%)
   displ. norm   :     0.4643119 α      lambda       -0.1487279E-03
   maximum displ.:     0.2596813 α      in ANC's #5, #6, #4, ...

........................................................................
.............................. CYCLE   66 ..............................
........................................................................

 iter      E             dE          RMSdq      gap      omega  full diag
   1   -117.0638119 -0.117064E+03  0.960E-02    0.35       0.0  T
   2   -117.0638136 -0.176616E-05  0.573E-02    0.34       1.0  T
   3   -117.0637394  0.742412E-04  0.365E-02    0.37       1.0  T
   4   -117.0638201 -0.807069E-04  0.286E-03    0.35       4.0  T
   5   -117.0638204 -0.329361E-06  0.180E-03    0.35       6.3  T
   6   -117.0638206 -0.123008E-06  0.735E-04    0.35      15.4  T
   7   -117.0638206 -0.573664E-09  0.327E-04    0.35      34.6  T
   8   -117.0638206 -0.191999E-08  0.143E-04    0.35      79.0  T
     SCC iter.                  ...        0 min,  0.156 sec
     gradient                   ...        0 min,  0.092 sec
 * total energy  :  -115.1677231 Eh     change       -0.9690350E-04 Eh
   gradient norm :     0.0070007 Eh/α   predicted    -0.9039720E-04 (  -6.71%)
   displ. norm   :     0.3567686 α      lambda       -0.1959051E-03
   maximum displ.:     0.1992566 α      in ANC's #5, #7, #4, ...
 * RMSD in coord.:     0.7036529 α      energy gain  -0.1784761E-02 Eh

generating ANC from exact Hessian ...
Using Lindh-Hessian (1995)
 Shifting diagonal of input Hessian by    1.0111672108693990E-002
 Lowest  eigenvalues of input Hessian
    0.010000    0.000000    0.000000    0.000000    0.000000    0.000000
    0.000000    0.010188    0.010256    0.010300    0.010366    0.010458
    0.010505    0.010682    0.010750    0.010875    0.010943    0.010982
 Highest eigenvalues
    2.002613    2.004940    2.005678    2.010955    2.247414    2.427070


........................................................................
.............................. CYCLE   67 ..............................
........................................................................

 iter      E             dE          RMSdq      gap      omega  full diag
   1   -117.0642816 -0.117064E+03  0.682E-02    0.37       0.0  T
   2   -117.0642824 -0.863302E-06  0.413E-02    0.36       1.0  T
   3   -117.0642308  0.516326E-04  0.327E-02    0.38       1.0  T
   4   -117.0642894 -0.586260E-04  0.325E-03    0.36       3.5  T
   5   -117.0642898 -0.391220E-06  0.170E-03    0.36       6.7  T
   6   -117.0642900 -0.154292E-06  0.539E-04    0.36      21.0  T
   7   -117.0642900 -0.146072E-08  0.263E-04    0.36      43.1  T
   8   -117.0642900 -0.994063E-09  0.128E-04    0.36      88.6  T
     SCC iter.                  ...        0 min,  0.139 sec
     gradient                   ...        0 min,  0.080 sec
 * total energy  :  -115.1678398 Eh     change       -0.1167209E-03 Eh
   gradient norm :     0.0061100 Eh/α   predicted     0.0000000E+00 (-100.00%)
   displ. norm   :     0.0615650 α      lambda       -0.1200013E-03
   maximum displ.:     0.0336786 α      in ANC's #22, #7, #23, ...

........................................................................
.............................. CYCLE   68 ..............................
........................................................................

 iter      E             dE          RMSdq      gap      omega  full diag
   1   -117.0673400 -0.117067E+03  0.269E-02    0.36       0.0  T
   2   -117.0673391  0.921444E-06  0.181E-02    0.36       1.0  T
   3   -117.0673380  0.111732E-05  0.135E-02    0.35       1.0  T
   4   -117.0673455 -0.756612E-05  0.301E-03    0.36       3.8  T
   5   -117.0673456 -0.590141E-07  0.168E-03    0.36       6.7  T
   6   -117.0673457 -0.115869E-06  0.793E-04    0.36      14.3  T
   7   -117.0673457 -0.778046E-08  0.289E-04    0.36      39.1  T
   8   -117.0673457 -0.199562E-08  0.136E-04    0.36      83.0  T
     SCC iter.                  ...        0 min,  0.151 sec
     gradient                   ...        0 min,  0.089 sec
 * total energy  :  -115.1678805 Eh     change       -0.4073220E-04 Eh
   gradient norm :     0.0085885 Eh/α   predicted    -0.6188613E-04 (  51.93%)
   displ. norm   :     0.0804945 α      lambda       -0.1357951E-03
   maximum displ.:     0.0425871 α      in ANC's #7, #6, #2, ...

........................................................................
.............................. CYCLE   69 ..............................
........................................................................

 iter      E             dE          RMSdq      gap      omega  full diag
   1   -117.0702961 -0.117070E+03  0.283E-02    0.36       0.0  T
   2   -117.0702963 -0.173534E-06  0.174E-02    0.36       1.0  T
   3   -117.0702866  0.969110E-05  0.141E-02    0.35       1.0  T
   4   -117.0702978 -0.111978E-04  0.171E-03    0.36       6.6  T
   5   -117.0702979 -0.969761E-07  0.882E-04    0.36      12.8  T
   6   -117.0702979 -0.235583E-07  0.387E-04    0.36      29.2  T
   7   -117.0702979 -0.188997E-08  0.187E-04    0.36      60.5  T
     SCC iter.                  ...        0 min,  0.133 sec
     gradient                   ...        0 min,  0.088 sec
 * total energy  :  -115.1678867 Eh     change       -0.6165168E-05 Eh
   gradient norm :     0.0091864 Eh/α   predicted    -0.6833772E-04 (1008.45%)
   displ. norm   :     0.0545302 α      lambda       -0.1091785E-03
   maximum displ.:     0.0366010 α      in ANC's #22, #7, #23, ...

........................................................................
.............................. CYCLE   70 ..............................
........................................................................

 iter      E             dE          RMSdq      gap      omega  full diag
   1   -117.0692934 -0.117069E+03  0.269E-02    0.36       0.0  T
   2   -117.0692942 -0.817092E-06  0.143E-02    0.36       1.0  T
   3   -117.0692912  0.304489E-05  0.791E-03    0.36       1.4  T
   4   -117.0692946 -0.343921E-05  0.282E-03    0.36       4.0  T
   5   -117.0692948 -0.162530E-06  0.141E-03    0.36       8.1  T
   6   -117.0692949 -0.116395E-06  0.417E-04    0.36      27.2  T
   7   -117.0692949 -0.346972E-09  0.166E-04    0.36      68.1  T
     SCC iter.                  ...        0 min,  0.131 sec
     gradient                   ...        0 min,  0.104 sec
 * total energy  :  -115.1679406 Eh     change       -0.5387479E-04 Eh
   gradient norm :     0.0028313 Eh/α   predicted    -0.5476192E-04 (   1.65%)
   displ. norm   :     0.0531237 α      lambda       -0.5380934E-04
   maximum displ.:     0.0282819 α      in ANC's #7, #9, #2, ...

........................................................................
.............................. CYCLE   71 ..............................
........................................................................

 iter      E             dE          RMSdq      gap      omega  full diag
   1   -117.0675176 -0.117068E+03  0.181E-02    0.36       0.0  T
   2   -117.0675178 -0.228311E-06  0.110E-02    0.36       1.0  T
   3   -117.0675146  0.316338E-05  0.865E-03    0.36       1.3  T
   4   -117.0675185 -0.387388E-05  0.172E-03    0.36       6.6  T
   5   -117.0675186 -0.707915E-07  0.855E-04    0.36      13.2  T
   6   -117.0675186 -0.368658E-07  0.287E-04    0.36      39.4  T
   7   -117.0675186 -0.522419E-09  0.147E-04    0.36      76.8  T
     SCC iter.                  ...        0 min,  0.133 sec
     gradient                   ...        0 min,  0.082 sec
 * total energy  :  -115.1679669 Eh     change       -0.2633971E-04 Eh
   gradient norm :     0.0020232 Eh/α   predicted    -0.2698218E-04 (   2.44%)
   displ. norm   :     0.1045078 α      lambda       -0.5551387E-04
   maximum displ.:     0.0568279 α      in ANC's #7, #9, #2, ...

........................................................................
.............................. CYCLE   72 ..............................
........................................................................

 iter      E             dE          RMSdq      gap      omega  full diag
   1   -117.0665076 -0.117067E+03  0.385E-02    0.35       0.0  T
   2   -117.0665080 -0.368687E-06  0.217E-02    0.35       1.0  T
   3   -117.0665072  0.820552E-06  0.441E-03    0.35       2.6  T
   4   -117.0665079 -0.702694E-06  0.263E-03    0.36       4.3  T
   5   -117.0665081 -0.242731E-06  0.106E-03    0.35      10.7  T
   6   -117.0665082 -0.425225E-07  0.406E-04    0.36      27.9  T
   7   -117.0665082 -0.491715E-08  0.149E-04    0.35      76.2  T
     SCC iter.                  ...        0 min,  0.137 sec
     gradient                   ...        0 min,  0.099 sec
 * total energy  :  -115.1679954 Eh     change       -0.2852108E-04 Eh
   gradient norm :     0.0046062 Eh/α   predicted    -0.2806042E-04 (  -1.62%)
   displ. norm   :     0.1751042 α      lambda       -0.7681722E-04
   maximum displ.:     0.0960474 α      in ANC's #7, #9, #2, ...

........................................................................
.............................. CYCLE   73 ..............................
........................................................................

 iter      E             dE          RMSdq      gap      omega  full diag
   1   -117.0667534 -0.117067E+03  0.456E-02    0.35       0.0  T
   2   -117.0667537 -0.381135E-06  0.269E-02    0.35       1.0  T
   3   -117.0667498  0.395091E-05  0.815E-03    0.35       1.4  T
   4   -117.0667541 -0.429096E-05  0.155E-03    0.35       7.3  T
   5   -117.0667541 -0.466427E-07  0.851E-04    0.35      13.3  T
   6   -117.0667541 -0.170410E-07  0.391E-04    0.35      29.0  T
   7   -117.0667541 -0.246493E-08  0.130E-04    0.35      86.8  T
     SCC iter.                  ...        0 min,  0.134 sec
     gradient                   ...        0 min,  0.082 sec
 * total energy  :  -115.1680604 Eh     change       -0.6492450E-04 Eh
   gradient norm :     0.0024612 Eh/α   predicted    -0.3959032E-04 ( -39.02%)
   displ. norm   :     0.3546305 α      lambda       -0.1192048E-03
   maximum displ.:     0.1931324 α      in ANC's #7, #2, #9, ...

........................................................................
.............................. CYCLE   74 ..............................
........................................................................

 iter      E             dE          RMSdq      gap      omega  full diag
   1   -117.0665730 -0.117067E+03  0.901E-02    0.34       0.0  T
   2   -117.0665743 -0.129780E-05  0.529E-02    0.35       1.0  T
   3   -117.0665685  0.580845E-05  0.100E-02    0.34       1.1  T
   4   -117.0665750 -0.653416E-05  0.289E-03    0.35       3.9  T
   5   -117.0665752 -0.171520E-06  0.156E-03    0.35       7.3  T
   6   -117.0665753 -0.764512E-07  0.679E-04    0.35      16.7  T
   7   -117.0665753 -0.583370E-08  0.252E-04    0.35      44.8  T
   8   -117.0665753 -0.178746E-08  0.120E-04    0.35      94.4  T
     SCC iter.                  ...        0 min,  0.141 sec
     gradient                   ...        0 min,  0.092 sec
 * total energy  :  -115.1681481 Eh     change       -0.8770827E-04 Eh
   gradient norm :     0.0036795 Eh/α   predicted    -0.6709882E-04 ( -23.50%)
   displ. norm   :     0.3166596 α      lambda       -0.8339939E-04
   maximum displ.:     0.1746744 α      in ANC's #7, #2, #9, ...

........................................................................
.............................. CYCLE   75 ..............................
........................................................................

 iter      E             dE          RMSdq      gap      omega  full diag
   1   -117.0665575 -0.117067E+03  0.732E-02    0.34       0.0  T
   2   -117.0665581 -0.650068E-06  0.430E-02    0.35       1.0  T
   3   -117.0665545  0.358004E-05  0.774E-03    0.34       1.5  T
   4   -117.0665586 -0.403498E-05  0.196E-03    0.34       5.8  T
   5   -117.0665586 -0.642223E-07  0.114E-03    0.34       9.9  T
   6   -117.0665587 -0.449717E-07  0.431E-04    0.34      26.3  T
   7   -117.0665587 -0.203993E-08  0.182E-04    0.34      62.4  T
     SCC iter.                  ...        0 min,  0.125 sec
     gradient                   ...        0 min,  0.096 sec
 * total energy  :  -115.1682097 Eh     change       -0.6164489E-04 Eh
   gradient norm :     0.0042000 Eh/α   predicted    -0.4588306E-04 ( -25.57%)
   displ. norm   :     0.3811479 α      lambda       -0.1054363E-03
   maximum displ.:     0.2116362 α      in ANC's #7, #2, #9, ...

........................................................................
.............................. CYCLE   76 ..............................
........................................................................

 iter      E             dE          RMSdq      gap      omega  full diag
   1   -117.0673791 -0.117067E+03  0.869E-02    0.36       0.0  T
   2   -117.0673809 -0.182496E-05  0.511E-02    0.35       1.0  T
   3   -117.0673789  0.203517E-05  0.594E-03    0.35       1.9  T
   4   -117.0673813 -0.240252E-05  0.254E-03    0.35       4.5  T
   5   -117.0673815 -0.252654E-06  0.128E-03    0.35       8.9  T
   6   -117.0673816 -0.493780E-07  0.642E-04    0.35      17.6  T
   7   -117.0673816 -0.647572E-08  0.279E-04    0.35      40.5  T
   8   -117.0673816 -0.236537E-08  0.105E-04    0.35     107.8  T
     SCC iter.                  ...        0 min,  0.146 sec
     gradient                   ...        0 min,  0.088 sec
 * total energy  :  -115.1682833 Eh     change       -0.7361851E-04 Eh
   gradient norm :     0.0038200 Eh/α   predicted    -0.6037939E-04 ( -17.98%)
   displ. norm   :     0.4438449 α      lambda       -0.1051381E-03
   maximum displ.:     0.2514187 α      in ANC's #7, #2, #9, ...

........................................................................
.............................. CYCLE   77 ..............................
........................................................................

 iter      E             dE          RMSdq      gap      omega  full diag
   1   -117.0671161 -0.117067E+03  0.979E-02    0.34       0.0  T
   2   -117.0671172 -0.111745E-05  0.575E-02    0.35       1.0  T
   3   -117.0671111  0.615002E-05  0.104E-02    0.34       1.1  T
   4   -117.0671180 -0.695971E-05  0.244E-03    0.35       4.6  T
   5   -117.0671181 -0.844221E-07  0.147E-03    0.35       7.7  T
   6   -117.0671182 -0.821914E-07  0.518E-04    0.35      21.9  T
   7   -117.0671182 -0.513818E-08  0.210E-04    0.35      54.0  T
   8   -117.0671182 -0.107458E-08  0.104E-04    0.35     109.2  T
     SCC iter.                  ...        0 min,  0.160 sec
     gradient                   ...        0 min,  0.090 sec
 * total energy  :  -115.1683716 Eh     change       -0.8828152E-04 Eh
   gradient norm :     0.0023963 Eh/α   predicted    -0.6293040E-04 ( -28.72%)
   displ. norm   :     0.4781794 α      lambda       -0.1241179E-03
   maximum displ.:     0.2734608 α      in ANC's #7, #2, #9, ...

........................................................................
.............................. CYCLE   78 ..............................
........................................................................

 iter      E             dE          RMSdq      gap      omega  full diag
   1   -117.0682593 -0.117068E+03  0.103E-01    0.34       0.0  T
   2   -117.0682605 -0.121840E-05  0.602E-02    0.34       1.0  T
   3   -117.0682582  0.228739E-05  0.645E-03    0.34       1.8  T
   4   -117.0682612 -0.301368E-05  0.183E-03    0.34       6.2  T
   5   -117.0682612  0.158014E-07  0.137E-03    0.34       8.3  T
   6   -117.0682612 -0.611747E-07  0.516E-04    0.34      21.9  T
   7   -117.0682613 -0.897396E-08  0.214E-04    0.34      53.0  T
   8   -117.0682613 -0.966168E-09  0.106E-04    0.34     106.6  T
     SCC iter.                  ...        0 min,  0.154 sec
     gradient                   ...        0 min,  0.088 sec
 * total energy  :  -115.1684768 Eh     change       -0.1051490E-03 Eh
   gradient norm :     0.0025308 Eh/α   predicted    -0.7625019E-04 ( -27.48%)
   displ. norm   :     0.6622044 α      lambda       -0.1637296E-03
   maximum displ.:     0.3821689 α      in ANC's #7, #2, #9, ...

........................................................................
.............................. CYCLE   79 ..............................
........................................................................

 iter      E             dE          RMSdq      gap      omega  full diag
   1   -117.0653187 -0.117065E+03  0.150E-01    0.32       0.0  T
   2   -117.0653229 -0.423778E-05  0.879E-02    0.33       1.0  T
   3   -117.0653165  0.645699E-05  0.113E-02    0.32       1.0  T
   4   -117.0653248 -0.832218E-05  0.263E-03    0.33       4.3  T
   5   -117.0653248 -0.433912E-07  0.155E-03    0.33       7.3  T
   6   -117.0653249 -0.274274E-07  0.664E-04    0.33      17.0  T
   7   -117.0653249 -0.142646E-07  0.254E-04    0.33      44.6  T
   8   -117.0653249 -0.107593E-08  0.139E-04    0.33      81.7  T
     SCC iter.                  ...        0 min,  0.149 sec
     gradient                   ...        0 min,  0.085 sec
 * total energy  :  -115.1685974 Eh     change       -0.1206305E-03 Eh
   gradient norm :     0.0063185 Eh/α   predicted    -0.1177699E-03 (  -2.37%)
   displ. norm   :     0.5377002 α      lambda       -0.2673052E-03
   maximum displ.:     0.2826370 α      in ANC's #7, #2, #5, ...

........................................................................
.............................. CYCLE   80 ..............................
........................................................................

 iter      E             dE          RMSdq      gap      omega  full diag
   1   -117.0694416 -0.117069E+03  0.108E-01    0.35       0.0  T
   2   -117.0694431 -0.142399E-05  0.643E-02    0.34       1.0  T
   3   -117.0693880  0.550803E-04  0.300E-02    0.35       1.0  T
   4   -117.0694470 -0.590592E-04  0.267E-03    0.34       4.2  T
   5   -117.0694472 -0.182887E-06  0.159E-03    0.34       7.1  T
   6   -117.0694473 -0.877054E-07  0.622E-04    0.34      18.2  T
   7   -117.0694473 -0.354206E-08  0.324E-04    0.34      34.9  T
   8   -117.0694473 -0.346718E-08  0.127E-04    0.34      89.4  T
     SCC iter.                  ...        0 min,  0.156 sec
     gradient                   ...        0 min,  0.105 sec
 * total energy  :  -115.1687854 Eh     change       -0.1880156E-03 Eh
   gradient norm :     0.0043116 Eh/α   predicted    -0.1722984E-03 (  -8.36%)
   displ. norm   :     0.6910277 α      lambda       -0.2032836E-03
   maximum displ.:     0.3861305 α      in ANC's #7, #2, #5, ...

........................................................................
.............................. CYCLE   81 ..............................
........................................................................

 iter      E             dE          RMSdq      gap      omega  full diag
   1   -117.0654766 -0.117065E+03  0.151E-01    0.32       0.0  T
   2   -117.0654798 -0.319130E-05  0.889E-02    0.33       1.0  T
   3   -117.0654518  0.280286E-04  0.208E-02    0.34       1.0  T
   4   -117.0654823 -0.305208E-04  0.325E-03    0.33       3.5  T
   5   -117.0654825 -0.258791E-06  0.182E-03    0.33       6.2  T
   6   -117.0654826 -0.868608E-07  0.912E-04    0.33      12.4  T
   7   -117.0654826 -0.129019E-07  0.324E-04    0.33      34.9  T
   8   -117.0654826 -0.217490E-08  0.174E-04    0.33      64.9  T
     SCC iter.                  ...        0 min,  0.132 sec
     gradient                   ...        0 min,  0.087 sec
 * total energy  :  -115.1689375 Eh     change       -0.1520850E-03 Eh
   gradient norm :     0.0049402 Eh/α   predicted    -0.1501842E-03 (  -1.25%)
   displ. norm   :     0.4489872 α      lambda       -0.2194421E-03
   maximum displ.:     0.1967771 α      in ANC's #7, #2, #5, ...

........................................................................
.............................. CYCLE   82 ..............................
........................................................................

 iter      E             dE          RMSdq      gap      omega  full diag
   1   -117.0675491 -0.117068E+03  0.958E-02    0.33       0.0  T
   2   -117.0675499 -0.860392E-06  0.566E-02    0.33       1.0  T
   3   -117.0675107  0.391879E-04  0.252E-02    0.34       1.0  T
   4   -117.0675527 -0.419845E-04  0.225E-03    0.33       5.0  T
   5   -117.0675528 -0.777007E-07  0.125E-03    0.33       9.1  T
   6   -117.0675529 -0.516823E-07  0.581E-04    0.33      19.5  T
   7   -117.0675529 -0.403155E-08  0.263E-04    0.33      43.1  T
   8   -117.0675529 -0.867502E-09  0.132E-04    0.33      85.8  T
     SCC iter.                  ...        0 min,  0.132 sec
     gradient                   ...        0 min,  0.086 sec
 * total energy  :  -115.1690776 Eh     change       -0.1400753E-03 Eh
   gradient norm :     0.0048818 Eh/α   predicted    -0.1318410E-03 (  -5.88%)
   displ. norm   :     0.4385569 α      lambda       -0.1238940E-03
   maximum displ.:     0.2244171 α      in ANC's #7, #2, #1, ...

........................................................................
.............................. CYCLE   83 ..............................
........................................................................

 iter      E             dE          RMSdq      gap      omega  full diag
   1   -117.0661246 -0.117066E+03  0.948E-02    0.34       0.0  T
   2   -117.0661237  0.876251E-06  0.567E-02    0.33       1.0  T
   3   -117.0660402  0.835344E-04  0.384E-02    0.36       1.0  T
   4   -117.0661306 -0.904480E-04  0.222E-03    0.34       5.1  T
   5   -117.0661308 -0.166322E-06  0.128E-03    0.34       8.9  T
   6   -117.0661309 -0.626835E-07  0.536E-04    0.34      21.1  T
   7   -117.0661309 -0.428926E-09  0.281E-04    0.34      40.3  T
   8   -117.0661309 -0.229589E-08  0.105E-04    0.34     107.5  T
     SCC iter.                  ...        0 min,  0.131 sec
     gradient                   ...        0 min,  0.090 sec
 * total energy  :  -115.1691577 Eh     change       -0.8010409E-04 Eh
   gradient norm :     0.0041510 Eh/α   predicted    -0.7386528E-04 (  -7.79%)
   displ. norm   :     0.2556778 α      lambda       -0.1153440E-03
   maximum displ.:     0.1069249 α      in ANC's #2, #7, #1, ...

........................................................................
.............................. CYCLE   84 ..............................
........................................................................

 iter      E             dE          RMSdq      gap      omega  full diag
   1   -117.0690980 -0.117069E+03  0.559E-02    0.35       0.0  T
   2   -117.0690950  0.297954E-05  0.345E-02    0.33       1.0  T
   3   -117.0690559  0.390734E-04  0.314E-02    0.35       1.0  T
   4   -117.0691061 -0.501737E-04  0.234E-03    0.34       4.8  T
   5   -117.0691063 -0.240475E-06  0.114E-03    0.34       9.9  T
   6   -117.0691064 -0.617765E-07  0.451E-04    0.34      25.1  T
   7   -117.0691064  0.123293E-09  0.200E-04    0.34      56.7  T
     SCC iter.                  ...        0 min,  0.121 sec
     gradient                   ...        0 min,  0.087 sec
 * total energy  :  -115.1692352 Eh     change       -0.7756842E-04 Eh
   gradient norm :     0.0035843 Eh/α   predicted    -0.6144276E-04 ( -20.79%)
   displ. norm   :     0.4074483 α      lambda       -0.9650095E-04
   maximum displ.:     0.2081770 α      in ANC's #7, #2, #1, ...

........................................................................
.............................. CYCLE   85 ..............................
........................................................................

 iter      E             dE          RMSdq      gap      omega  full diag
   1   -117.0665978 -0.117067E+03  0.923E-02    0.33       0.0  T
   2   -117.0665993 -0.148122E-05  0.543E-02    0.33       1.0  T
   3   -117.0665530  0.463305E-04  0.272E-02    0.34       1.0  T
   4   -117.0666027 -0.496870E-04  0.236E-03    0.33       4.8  T
   5   -117.0666028 -0.165785E-06  0.118E-03    0.33       9.6  T
   6   -117.0666029 -0.466649E-07  0.609E-04    0.33      18.6  T
   7   -117.0666029 -0.442266E-08  0.265E-04    0.33      42.7  T
   8   -117.0666029 -0.226012E-08  0.116E-04    0.33      97.8  T
     SCC iter.                  ...        0 min,  0.138 sec
     gradient                   ...        0 min,  0.089 sec
 * total energy  :  -115.1692876 Eh     change       -0.5231680E-04 Eh
   gradient norm :     0.0053090 Eh/α   predicted    -0.5626781E-04 (   7.55%)
   displ. norm   :     0.1796164 α      lambda       -0.9368933E-04
   maximum displ.:     0.0627550 α      in ANC's #1, #19, #18, ...

........................................................................
.............................. CYCLE   86 ..............................
........................................................................

 iter      E             dE          RMSdq      gap      omega  full diag
   1   -117.0697911 -0.117070E+03  0.406E-02    0.36       0.0  T
   2   -117.0697929 -0.180899E-05  0.237E-02    0.35       1.0  T
   3   -117.0697911  0.181813E-05  0.606E-03    0.35       1.9  T
   4   -117.0697931 -0.203304E-05  0.209E-03    0.35       5.4  T
   5   -117.0697933 -0.119207E-06  0.120E-03    0.35       9.5  T
   6   -117.0697933 -0.588703E-07  0.572E-04    0.35      19.8  T
   7   -117.0697933 -0.640792E-08  0.229E-04    0.35      49.5  T
   8   -117.0697933 -0.116374E-08  0.109E-04    0.35     103.6  T
     SCC iter.                  ...        0 min,  0.139 sec
     gradient                   ...        0 min,  0.087 sec
 * total energy  :  -115.1693242 Eh     change       -0.3661931E-04 Eh
   gradient norm :     0.0050533 Eh/α   predicted    -0.4836096E-04 (  32.06%)
   displ. norm   :     0.1602444 α      lambda       -0.5187822E-04
   maximum displ.:     0.0855665 α      in ANC's #7, #2, #1, ...

........................................................................
.............................. CYCLE   87 ..............................
........................................................................

 iter      E             dE          RMSdq      gap      omega  full diag
   1   -117.0681694 -0.117068E+03  0.375E-02    0.35       0.0  T
   2   -117.0681694 -0.199188E-07  0.222E-02    0.35       1.0  T
   3   -117.0681573  0.121687E-04  0.151E-02    0.34       1.0  T
   4   -117.0681705 -0.132398E-04  0.132E-03    0.35       8.6  T
   5   -117.0681706 -0.999792E-07  0.598E-04    0.35      18.9  T
   6   -117.0681706 -0.101358E-07  0.283E-04    0.35      40.0  T
   7   -117.0681706 -0.308404E-09  0.121E-04    0.35      93.6  T
     SCC iter.                  ...        0 min,  0.113 sec
     gradient                   ...        0 min,  0.077 sec
 * total energy  :  -115.1693541 Eh     change       -0.2990660E-04 Eh
   gradient norm :     0.0032171 Eh/α   predicted    -0.2660622E-04 ( -11.04%)
   displ. norm   :     0.1519473 α      lambda       -0.4368787E-04
   maximum displ.:     0.0764931 α      in ANC's #7, #2, #1, ...

........................................................................
.............................. CYCLE   88 ..............................
........................................................................

 iter      E             dE          RMSdq      gap      omega  full diag
   1   -117.0672110 -0.117067E+03  0.350E-02    0.34       0.0  T
   2   -117.0672109  0.970167E-07  0.206E-02    0.35       1.0  T
   3   -117.0671978  0.130876E-04  0.166E-02    0.34       1.0  T
   4   -117.0672125 -0.147072E-04  0.152E-03    0.34       7.5  T
   5   -117.0672127 -0.137955E-06  0.591E-04    0.34      19.2  T
   6   -117.0672127 -0.911136E-08  0.290E-04    0.34      39.0  T
   7   -117.0672127 -0.549534E-09  0.109E-04    0.34     103.9  T
     SCC iter.                  ...        0 min,  0.118 sec
     gradient                   ...        0 min,  0.086 sec
 * total energy  :  -115.1693805 Eh     change       -0.2643271E-04 Eh
   gradient norm :     0.0029401 Eh/α   predicted    -0.2234917E-04 ( -15.45%)
   displ. norm   :     0.1997374 α      lambda       -0.4435325E-04
   maximum displ.:     0.0923595 α      in ANC's #7, #2, #1, ...

........................................................................
.............................. CYCLE   89 ..............................
........................................................................

 iter      E             dE          RMSdq      gap      omega  full diag
   1   -117.0667151 -0.117067E+03  0.432E-02    0.34       0.0  T
   2   -117.0667152 -0.172431E-06  0.251E-02    0.34       1.0  T
   3   -117.0667021  0.131069E-04  0.162E-02    0.33       1.0  T
   4   -117.0667164 -0.142491E-04  0.192E-03    0.34       5.9  T
   5   -117.0667166 -0.204640E-06  0.775E-04    0.34      14.6  T
   6   -117.0667166 -0.162833E-07  0.319E-04    0.34      35.5  T
   7   -117.0667166 -0.967560E-09  0.109E-04    0.34     104.3  T
     SCC iter.                  ...        0 min,  0.116 sec
     gradient                   ...        0 min,  0.087 sec
 * total energy  :  -115.1694105 Eh     change       -0.2996548E-04 Eh
   gradient norm :     0.0038805 Eh/α   predicted    -0.2306347E-04 ( -23.03%)
   displ. norm   :     0.1890311 α      lambda       -0.4381138E-04
   maximum displ.:     0.0920206 α      in ANC's #1, #2, #7, ...

........................................................................
.............................. CYCLE   90 ..............................
........................................................................

 iter      E             dE          RMSdq      gap      omega  full diag
   1   -117.0682935 -0.117068E+03  0.401E-02    0.34       0.0  T
   2   -117.0682939 -0.329307E-06  0.233E-02    0.34       1.0  T
   3   -117.0682905  0.335308E-05  0.813E-03    0.34       1.4  T
   4   -117.0682940 -0.352569E-05  0.192E-03    0.34       5.9  T
   5   -117.0682942 -0.164411E-06  0.744E-04    0.34      15.2  T
   6   -117.0682942 -0.227917E-07  0.246E-04    0.34      46.0  T
   7   -117.0682942 -0.938954E-09  0.101E-04    0.34     111.7  T
     SCC iter.                  ...        0 min,  0.112 sec
     gradient                   ...        0 min,  0.085 sec
 * total energy  :  -115.1694425 Eh     change       -0.3199461E-04 Eh
   gradient norm :     0.0032604 Eh/α   predicted    -0.2269191E-04 ( -29.08%)
   displ. norm   :     0.3704306 α      lambda       -0.5576549E-04
   maximum displ.:     0.1818788 α      in ANC's #2, #1, #7, ...

........................................................................
.............................. CYCLE   91 ..............................
........................................................................

 iter      E             dE          RMSdq      gap      omega  full diag
   1   -117.0683266 -0.117068E+03  0.809E-02    0.34       0.0  T
   2   -117.0683273 -0.702010E-06  0.475E-02    0.34       1.0  T
   3   -117.0683162  0.111698E-04  0.132E-02    0.35       1.0  T
   4   -117.0683282 -0.119969E-04  0.175E-03    0.34       6.5  T
   5   -117.0683283 -0.847049E-07  0.105E-03    0.34      10.8  T
   6   -117.0683283 -0.414210E-07  0.384E-04    0.34      29.5  T
   7   -117.0683283 -0.159102E-08  0.175E-04    0.34      64.7  T
     SCC iter.                  ...        0 min,  0.109 sec
     gradient                   ...        0 min,  0.084 sec
 * total energy  :  -115.1694829 Eh     change       -0.4042415E-04 Eh
   gradient norm :     0.0027285 Eh/α   predicted    -0.3171190E-04 ( -21.55%)
   displ. norm   :     0.3442002 α      lambda       -0.5388248E-04
   maximum displ.:     0.1795333 α      in ANC's #1, #2, #7, ...

........................................................................
.............................. CYCLE   92 ..............................
........................................................................

 iter      E             dE          RMSdq      gap      omega  full diag
   1   -117.0689658 -0.117069E+03  0.758E-02    0.33       0.0  T
   2   -117.0689663 -0.456440E-06  0.447E-02    0.33       1.0  T
   3   -117.0689458  0.204631E-04  0.180E-02    0.34       1.0  T
   4   -117.0689677 -0.218519E-04  0.146E-03    0.34       7.8  T
   5   -117.0689678 -0.753389E-07  0.865E-04    0.34      13.1  T
   6   -117.0689678 -0.247824E-07  0.385E-04    0.34      29.4  T
   7   -117.0689678 -0.108055E-08  0.149E-04    0.34      75.9  T
     SCC iter.                  ...        0 min,  0.110 sec
     gradient                   ...        0 min,  0.084 sec
 * total energy  :  -115.1695218 Eh     change       -0.3892558E-04 Eh
   gradient norm :     0.0023817 Eh/α   predicted    -0.3013674E-04 ( -22.58%)
   displ. norm   :     0.3797186 α      lambda       -0.4957053E-04
   maximum displ.:     0.2056399 α      in ANC's #1, #2, #7, ...
 * RMSD in coord.:     0.7801963 α      energy gain  -0.1798745E-02 Eh

generating ANC from exact Hessian ...
Using Lindh-Hessian (1995)
 Shifting diagonal of input Hessian by    1.0157515278462929E-002
 Lowest  eigenvalues of input Hessian
    0.010000    0.000000    0.000000    0.000000    0.000000    0.000000
    0.000000    0.010214    0.010297    0.010356    0.010393    0.010500
    0.010634    0.010768    0.010857    0.010938    0.011018    0.011061
 Highest eigenvalues
    2.003107    2.006110    2.006131    2.021686    2.246600    2.423890


........................................................................
.............................. CYCLE   93 ..............................
........................................................................

 iter      E             dE          RMSdq      gap      omega  full diag
   1   -117.0688306 -0.117069E+03  0.832E-02    0.34       0.0  T
   2   -117.0688307 -0.921055E-07  0.491E-02    0.33       1.0  T
   3   -117.0687998  0.309364E-04  0.225E-02    0.35       1.0  T
   4   -117.0688328 -0.330297E-04  0.152E-03    0.34       7.5  T
   5   -117.0688329 -0.843715E-07  0.876E-04    0.34      12.9  T
   6   -117.0688329 -0.223772E-07  0.373E-04    0.34      30.4  T
   7   -117.0688329 -0.987356E-09  0.163E-04    0.34      69.6  T
     SCC iter.                  ...        0 min,  0.109 sec
     gradient                   ...        0 min,  0.079 sec
 * total energy  :  -115.1695579 Eh     change       -0.3610157E-04 Eh
   gradient norm :     0.0029372 Eh/α   predicted     0.0000000E+00 (-100.00%)
   displ. norm   :     0.0303146 α      lambda       -0.2130774E-04
   maximum displ.:     0.0138502 α      in ANC's #7, #1, #9, ...

........................................................................
.............................. CYCLE   94 ..............................
........................................................................

 iter      E             dE          RMSdq      gap      omega  full diag
   1   -117.0691977 -0.117069E+03  0.126E-02    0.34       0.0  T
   2   -117.0691978 -0.967115E-07  0.713E-03    0.34       1.6  T
   3   -117.0691977  0.145226E-06  0.189E-03    0.34       6.0  T
   4   -117.0691978 -0.130560E-06  0.109E-03    0.34      10.4  T
   5   -117.0691978 -0.402540E-07  0.456E-04    0.34      24.8  T
   6   -117.0691978 -0.495990E-08  0.214E-04    0.34      52.9  T
     SCC iter.                  ...        0 min,  0.093 sec
     gradient                   ...        0 min,  0.090 sec
 * total energy  :  -115.1695705 Eh     change       -0.1259378E-04 Eh
   gradient norm :     0.0032726 Eh/α   predicted    -0.1220489E-04 (  -3.09%)
   displ. norm   :     0.0832826 α      lambda       -0.4868013E-04
   maximum displ.:     0.0396231 α      in ANC's #7, #1, #9, ...

........................................................................
.............................. CYCLE   95 ..............................
........................................................................

 iter      E             dE          RMSdq      gap      omega  full diag
   1   -117.0702404 -0.117070E+03  0.256E-02    0.34       0.0  T
   2   -117.0702408 -0.455136E-06  0.147E-02    0.34       1.0  T
   3   -117.0702374  0.346685E-05  0.799E-03    0.33       1.4  T
   4   -117.0702411 -0.373063E-05  0.169E-03    0.34       6.7  T
   5   -117.0702412 -0.806343E-07  0.713E-04    0.34      15.9  T
   6   -117.0702412 -0.190330E-07  0.302E-04    0.34      37.5  T
   7   -117.0702412 -0.234120E-08  0.994E-05    0.34     113.9  T
     SCC iter.                  ...        0 min,  0.115 sec
     gradient                   ...        0 min,  0.076 sec
 * total energy  :  -115.1695872 Eh     change       -0.1666134E-04 Eh
   gradient norm :     0.0038600 Eh/α   predicted    -0.2452092E-04 (  47.17%)
   displ. norm   :     0.0429261 α      lambda       -0.2770232E-04
   maximum displ.:     0.0201645 α      in ANC's #7, #1, #9, ...

........................................................................
.............................. CYCLE   96 ..............................
........................................................................

 iter      E             dE          RMSdq      gap      omega  full diag
   1   -117.0700074 -0.117070E+03  0.162E-02    0.34       0.0  T
   2   -117.0700074  0.334108E-07  0.907E-03    0.34       1.2  T
   3   -117.0700047  0.272138E-05  0.768E-03    0.34       1.5  T
   4   -117.0700079 -0.320152E-05  0.109E-03    0.34      10.4  T
   5   -117.0700079 -0.119565E-07  0.625E-04    0.34      18.1  T
   6   -117.0700079 -0.172287E-07  0.240E-04    0.34      47.3  T
   7   -117.0700079 -0.106103E-08  0.949E-05    0.34     119.3  T
     SCC iter.                  ...        0 min,  0.114 sec
     gradient                   ...        0 min,  0.087 sec
 * total energy  :  -115.1696014 Eh     change       -0.1417174E-04 Eh
   gradient norm :     0.0027569 Eh/α   predicted    -0.1387937E-04 (  -2.06%)
   displ. norm   :     0.0623487 α      lambda       -0.2999451E-04
   maximum displ.:     0.0298406 α      in ANC's #1, #7, #9, ...

........................................................................
.............................. CYCLE   97 ..............................
........................................................................

 iter      E             dE          RMSdq      gap      omega  full diag
   1   -117.0694760 -0.117069E+03  0.193E-02    0.34       0.0  T
   2   -117.0694758  0.174143E-06  0.119E-02    0.34       1.0  T
   3   -117.0694714  0.443890E-05  0.104E-02    0.34       1.1  T
   4   -117.0694770 -0.567131E-05  0.113E-03    0.34      10.0  T
   5   -117.0694771 -0.234743E-07  0.645E-04    0.34      17.6  T
   6   -117.0694771 -0.172274E-07  0.231E-04    0.34      49.1  T
   7   -117.0694771 -0.506901E-09  0.116E-04    0.34      97.4  T
     SCC iter.                  ...        0 min,  0.108 sec
     gradient                   ...        0 min,  0.081 sec
 * total energy  :  -115.1696148 Eh     change       -0.1344482E-04 Eh
   gradient norm :     0.0021190 Eh/α   predicted    -0.1505614E-04 (  11.98%)
   displ. norm   :     0.0882516 α      lambda       -0.3058711E-04
   maximum displ.:     0.0426031 α      in ANC's #1, #7, #9, ...

........................................................................
.............................. CYCLE   98 ..............................
........................................................................

 iter      E             dE          RMSdq      gap      omega  full diag
   1   -117.0691193 -0.117069E+03  0.247E-02    0.34       0.0  T
   2   -117.0691192  0.121681E-06  0.148E-02    0.34       1.0  T
   3   -117.0691120  0.720866E-05  0.124E-02    0.34       1.0  T
   4   -117.0691203 -0.838971E-05  0.136E-03    0.34       8.3  T
   5   -117.0691204 -0.557297E-07  0.719E-04    0.34      15.7  T
   6   -117.0691204 -0.244549E-07  0.268E-04    0.34      42.2  T
   7   -117.0691204 -0.847024E-09  0.123E-04    0.34      92.0  T
     SCC iter.                  ...        0 min,  0.110 sec
     gradient                   ...        0 min,  0.073 sec
 * total energy  :  -115.1696291 Eh     change       -0.1427044E-04 Eh
   gradient norm :     0.0030288 Eh/α   predicted    -0.1541332E-04 (   8.01%)
   displ. norm   :     0.0911674 α      lambda       -0.2482343E-04
   maximum displ.:     0.0460832 α      in ANC's #1, #7, #9, ...

........................................................................
.............................. CYCLE   99 ..............................
........................................................................

 iter      E             dE          RMSdq      gap      omega  full diag
   1   -117.0694150 -0.117069E+03  0.210E-02    0.34       0.0  T
   2   -117.0694151 -0.697885E-07  0.123E-02    0.34       1.0  T
   3   -117.0694146  0.447256E-06  0.262E-03    0.34       4.3  T
   4   -117.0694151 -0.484048E-06  0.714E-04    0.34      15.9  T
   5   -117.0694151 -0.143182E-07  0.380E-04    0.34      29.8  T
   6   -117.0694151 -0.548376E-08  0.146E-04    0.34      77.7  T
     SCC iter.                  ...        0 min,  0.101 sec
     gradient                   ...        0 min,  0.090 sec
 * total energy  :  -115.1696484 Eh     change       -0.1935140E-04 Eh
   gradient norm :     0.0014084 Eh/α   predicted    -0.1251594E-04 ( -35.32%)
   displ. norm   :     0.2594165 α      lambda       -0.3306048E-04
   maximum displ.:     0.1329496 α      in ANC's #1, #7, #9, ...

........................................................................
.............................. CYCLE  100 ..............................
........................................................................

 iter      E             dE          RMSdq      gap      omega  full diag
   1   -117.0698176 -0.117070E+03  0.614E-02    0.34       0.0  T
   2   -117.0698182 -0.651014E-06  0.359E-02    0.34       1.0  T
   3   -117.0698146  0.366825E-05  0.720E-03    0.34       1.6  T
   4   -117.0698186 -0.400459E-05  0.208E-03    0.34       5.5  T
   5   -117.0698187 -0.950904E-07  0.128E-03    0.34       8.9  T
   6   -117.0698187 -0.758338E-07  0.452E-04    0.34      25.0  T
   7   -117.0698187 -0.288919E-08  0.212E-04    0.34      53.5  T
     SCC iter.                  ...        0 min,  0.104 sec
     gradient                   ...        0 min,  0.088 sec
 * total energy  :  -115.1696741 Eh     change       -0.2566400E-04 Eh
   gradient norm :     0.0026729 Eh/α   predicted    -0.1702500E-04 ( -33.66%)
   displ. norm   :     0.1310433 α      lambda       -0.2472475E-04
   maximum displ.:     0.0696162 α      in ANC's #1, #7, #4, ...

........................................................................
.............................. CYCLE  101 ..............................
........................................................................

 iter      E             dE          RMSdq      gap      omega  full diag
   1   -117.0697829 -0.117070E+03  0.291E-02    0.34       0.0  T
   2   -117.0697830 -0.102171E-06  0.172E-02    0.34       1.0  T
   3   -117.0697771  0.586567E-05  0.976E-03    0.34       1.2  T
   4   -117.0697835 -0.632054E-05  0.121E-03    0.34       9.4  T
   5   -117.0697835 -0.166839E-07  0.652E-04    0.34      17.4  T
   6   -117.0697835 -0.231724E-07  0.212E-04    0.34      53.3  T
   7   -117.0697835 -0.516764E-09  0.885E-05    0.34     127.9  T
     SCC iter.                  ...        0 min,  0.111 sec
     gradient                   ...        0 min,  0.086 sec
 * total energy  :  -115.1696899 Eh     change       -0.1581222E-04 Eh
   gradient norm :     0.0022535 Eh/α   predicted    -0.1257567E-04 ( -20.47%)
   displ. norm   :     0.1119948 α      lambda       -0.2025441E-04
   maximum displ.:     0.0613831 α      in ANC's #1, #4, #7, ...

........................................................................
.............................. CYCLE  102 ..............................
........................................................................

 iter      E             dE          RMSdq      gap      omega  full diag
   1   -117.0698828 -0.117070E+03  0.241E-02    0.34       0.0  T
   2   -117.0698829 -0.134368E-06  0.141E-02    0.34       1.0  T
   3   -117.0698818  0.116002E-05  0.412E-03    0.34       2.7  T
   4   -117.0698830 -0.120102E-05  0.121E-03    0.34       9.4  T
   5   -117.0698830 -0.633025E-07  0.573E-04    0.34      19.8  T
   6   -117.0698830 -0.100130E-07  0.169E-04    0.34      67.0  T
   7   -117.0698830 -0.236525E-09  0.636E-05    0.34     178.0  T
     SCC iter.                  ...        0 min,  0.107 sec
     gradient                   ...        0 min,  0.092 sec
 * total energy  :  -115.1697070 Eh     change       -0.1708802E-04 Eh
   gradient norm :     0.0013336 Eh/α   predicted    -0.1025709E-04 ( -39.97%)
   displ. norm   :     0.2994842 α      lambda       -0.3475852E-04
   maximum displ.:     0.1640656 α      in ANC's #1, #4, #9, ...

........................................................................
.............................. CYCLE  103 ..............................
........................................................................

 iter      E             dE          RMSdq      gap      omega  full diag
   1   -117.0697865 -0.117070E+03  0.637E-02    0.33       0.0  T
   2   -117.0697874 -0.942717E-06  0.366E-02    0.34       1.0  T
   3   -117.0697795  0.785756E-05  0.133E-02    0.32       1.0  T
   4   -117.0697878 -0.828474E-05  0.342E-03    0.33       3.3  T
   5   -117.0697882 -0.413873E-06  0.170E-03    0.33       6.7  T
   6   -117.0697884 -0.115596E-06  0.450E-04    0.33      25.2  T
   7   -117.0697884 -0.250296E-08  0.187E-04    0.33      60.5  T
     SCC iter.                  ...        0 min,  0.109 sec
     gradient                   ...        0 min,  0.092 sec
 * total energy  :  -115.1697408 Eh     change       -0.3376520E-04 Eh
   gradient norm :     0.0024666 Eh/α   predicted    -0.1807374E-04 ( -46.47%)
   displ. norm   :     0.1461956 α      lambda       -0.1866833E-04
   maximum displ.:     0.0813303 α      in ANC's #1, #4, #9, ...

........................................................................
.............................. CYCLE  104 ..............................
........................................................................

 iter      E             dE          RMSdq      gap      omega  full diag
   1   -117.0696190 -0.117070E+03  0.299E-02    0.33       0.0  T
   2   -117.0696190 -0.630862E-07  0.175E-02    0.33       1.0  T
   3   -117.0696148  0.420791E-05  0.906E-03    0.33       1.3  T
   4   -117.0696194 -0.451214E-05  0.110E-03    0.33      10.3  T
   5   -117.0696194 -0.607310E-07  0.577E-04    0.33      19.6  T
   6   -117.0696194 -0.759653E-08  0.162E-04    0.33      70.1  T
   7   -117.0696194 -0.368630E-09  0.724E-05    0.33     156.4  T
     SCC iter.                  ...        0 min,  0.102 sec
     gradient                   ...        0 min,  0.096 sec
 * total energy  :  -115.1697576 Eh     change       -0.1684077E-04 Eh
   gradient norm :     0.0022086 Eh/α   predicted    -0.9536738E-05 ( -43.37%)
   displ. norm   :     0.2635305 α      lambda       -0.4018121E-04
   maximum displ.:     0.1460086 α      in ANC's #1, #4, #6, ...

........................................................................
.............................. CYCLE  105 ..............................
........................................................................

 iter      E             dE          RMSdq      gap      omega  full diag
   1   -117.0696303 -0.117070E+03  0.539E-02    0.33       0.0  T
   2   -117.0696305 -0.188233E-06  0.317E-02    0.33       1.0  T
   3   -117.0696161  0.143689E-04  0.162E-02    0.32       1.0  T
   4   -117.0696315 -0.153868E-04  0.165E-03    0.33       6.9  T
   5   -117.0696316 -0.128337E-06  0.875E-04    0.33      12.9  T
   6   -117.0696316 -0.159024E-07  0.300E-04    0.33      37.7  T
   7   -117.0696316 -0.876156E-09  0.140E-04    0.33      80.7  T
     SCC iter.                  ...        0 min,  0.103 sec
     gradient                   ...        0 min,  0.081 sec
 * total energy  :  -115.1697903 Eh     change       -0.3271032E-04 Eh
   gradient norm :     0.0014037 Eh/α   predicted    -0.2148856E-04 ( -34.31%)
   displ. norm   :     0.4849569 α      lambda       -0.3842792E-04
   maximum displ.:     0.2712368 α      in ANC's #1, #4, #6, ...

........................................................................
.............................. CYCLE  106 ..............................
........................................................................

 iter      E             dE          RMSdq      gap      omega  full diag
   1   -117.0682487 -0.117068E+03  0.996E-02    0.33       0.0  T
   2   -117.0682499 -0.124324E-05  0.584E-02    0.33       1.0  T
   3   -117.0682395  0.104085E-04  0.135E-02    0.32       1.0  T
   4   -117.0682508 -0.112975E-04  0.248E-03    0.33       4.6  T
   5   -117.0682511 -0.238732E-06  0.127E-03    0.33       8.9  T
   6   -117.0682511 -0.394639E-07  0.418E-04    0.33      27.1  T
   7   -117.0682511 -0.208919E-08  0.208E-04    0.33      54.5  T
     SCC iter.                  ...        0 min,  0.114 sec
     gradient                   ...        0 min,  0.087 sec
 * total energy  :  -115.1698239 Eh     change       -0.3354370E-04 Eh
   gradient norm :     0.0026264 Eh/α   predicted    -0.2122673E-04 ( -36.72%)
   displ. norm   :     0.0903995 α      lambda       -0.1875693E-04
   maximum displ.:     0.0524285 α      in ANC's #1, #6, #5, ...

........................................................................
.............................. CYCLE  107 ..............................
........................................................................

 iter      E             dE          RMSdq      gap      omega  full diag
   1   -117.0695798 -0.117070E+03  0.193E-02    0.33       0.0  T
   2   -117.0695798  0.591616E-08  0.115E-02    0.33       1.0  T
   3   -117.0695763  0.346959E-05  0.837E-03    0.34       1.4  T
   4   -117.0695801 -0.380826E-05  0.750E-04    0.33      15.1  T
   5   -117.0695802 -0.261234E-07  0.307E-04    0.33      36.9  T
   6   -117.0695802 -0.425182E-08  0.133E-04    0.33      84.9  T
     SCC iter.                  ...        0 min,  0.088 sec
     gradient                   ...        0 min,  0.083 sec
 * total energy  :  -115.1698387 Eh     change       -0.1483574E-04 Eh
   gradient norm :     0.0018773 Eh/α   predicted    -0.9456366E-05 ( -36.26%)
   displ. norm   :     0.3553879 α      lambda       -0.3261523E-04
   maximum displ.:     0.2102367 α      in ANC's #1, #5, #6, ...

........................................................................
.............................. CYCLE  108 ..............................
........................................................................

 iter      E             dE          RMSdq      gap      omega  full diag
   1   -117.0705123 -0.117071E+03  0.761E-02    0.34       0.0  T
   2   -117.0705103  0.197400E-05  0.456E-02    0.32       1.0  T
   3   -117.0704409  0.694763E-04  0.385E-02    0.35       1.0  T
   4   -117.0705200 -0.791328E-04  0.297E-03    0.33       3.8  T
   5   -117.0705205 -0.490502E-06  0.114E-03    0.33       9.9  T
   6   -117.0705205 -0.480251E-07  0.515E-04    0.33      22.0  T
   7   -117.0705205 -0.603578E-09  0.204E-04    0.33      55.6  T
   8   -117.0705205 -0.132641E-08  0.819E-05    0.33     138.3  T
     SCC iter.                  ...        0 min,  0.129 sec
     gradient                   ...        0 min,  0.087 sec
 * total energy  :  -115.1698704 Eh     change       -0.3170881E-04 Eh
   gradient norm :     0.0012397 Eh/α   predicted    -0.1722421E-04 ( -45.68%)
   displ. norm   :     0.2758165 α      lambda       -0.1613896E-04
   maximum displ.:     0.1632367 α      in ANC's #1, #5, #4, ...

........................................................................
.............................. CYCLE  109 ..............................
........................................................................

 iter      E             dE          RMSdq      gap      omega  full diag
   1   -117.0693274 -0.117069E+03  0.593E-02    0.33       0.0  T
   2   -117.0693272  0.199373E-06  0.351E-02    0.33       1.0  T
   3   -117.0692997  0.275537E-04  0.222E-02    0.34       1.0  T
   4   -117.0693294 -0.297009E-04  0.151E-03    0.33       7.5  T
   5   -117.0693295 -0.101907E-06  0.687E-04    0.33      16.5  T
   6   -117.0693295 -0.174050E-07  0.306E-04    0.33      37.0  T
   7   -117.0693295 -0.253223E-09  0.119E-04    0.33      95.3  T
     SCC iter.                  ...        0 min,  0.107 sec
     gradient                   ...        0 min,  0.086 sec
 * total energy  :  -115.1698893 Eh     change       -0.1893179E-04 Eh
   gradient norm :     0.0015007 Eh/α   predicted    -0.8345844E-05 ( -55.92%)
   displ. norm   :     0.2405700 α      lambda       -0.2175093E-04
   maximum displ.:     0.1410867 α      in ANC's #1, #5, #6, ...

........................................................................
.............................. CYCLE  110 ..............................
........................................................................

 iter      E             dE          RMSdq      gap      omega  full diag
   1   -117.0695511 -0.117070E+03  0.534E-02    0.33       0.0  T
   2   -117.0695508  0.219005E-06  0.319E-02    0.33       1.0  T
   3   -117.0695256  0.252829E-04  0.209E-02    0.34       1.0  T
   4   -117.0695528 -0.272462E-04  0.129E-03    0.33       8.8  T
   5   -117.0695529 -0.659040E-07  0.703E-04    0.33      16.1  T
   6   -117.0695529 -0.180915E-07  0.327E-04    0.33      34.6  T
   7   -117.0695529  0.191363E-09  0.149E-04    0.33      75.9  T
     SCC iter.                  ...        0 min,  0.110 sec
     gradient                   ...        0 min,  0.093 sec
 * total energy  :  -115.1699160 Eh     change       -0.2667636E-04 Eh
   gradient norm :     0.0016980 Eh/α   predicted    -0.1115977E-04 ( -58.17%)
   displ. norm   :     0.4254110 α      lambda       -0.3507071E-04
   maximum displ.:     0.2499674 α      in ANC's #1, #5, #9, ...

........................................................................
.............................. CYCLE  111 ..............................
........................................................................

 iter      E             dE          RMSdq      gap      omega  full diag
   1   -117.0683213 -0.117068E+03  0.949E-02    0.33       0.0  T
   2   -117.0683218 -0.418087E-06  0.562E-02    0.33       1.0  T
   3   -117.0682854  0.363731E-04  0.239E-02    0.34       1.0  T
   4   -117.0683242 -0.388131E-04  0.195E-03    0.33       5.8  T
   5   -117.0683243 -0.132036E-06  0.109E-03    0.33      10.4  T
   6   -117.0683244 -0.327749E-07  0.494E-04    0.33      22.9  T
   7   -117.0683244 -0.303544E-08  0.238E-04    0.33      47.6  T
     SCC iter.                  ...        0 min,  0.104 sec
     gradient                   ...        0 min,  0.080 sec
 * total energy  :  -115.1699581 Eh     change       -0.4213508E-04 Eh
   gradient norm :     0.0022815 Eh/α   predicted    -0.1895050E-04 ( -55.02%)
   displ. norm   :     0.3847431 α      lambda       -0.5120880E-04
   maximum displ.:     0.2225480 α      in ANC's #1, #5, #9, ...

........................................................................
.............................. CYCLE  112 ..............................
........................................................................

 iter      E             dE          RMSdq      gap      omega  full diag
   1   -117.0680408 -0.117068E+03  0.846E-02    0.33       0.0  T
   2   -117.0680414 -0.668357E-06  0.499E-02    0.33       1.0  T
   3   -117.0680241  0.173804E-04  0.161E-02    0.33       1.0  T
   4   -117.0680426 -0.185811E-04  0.196E-03    0.33       5.8  T
   5   -117.0680428 -0.113626E-06  0.107E-03    0.33      10.6  T
   6   -117.0680428 -0.273999E-07  0.470E-04    0.33      24.1  T
   7   -117.0680428 -0.486236E-08  0.209E-04    0.33      54.2  T
     SCC iter.                  ...        0 min,  0.103 sec
     gradient                   ...        0 min,  0.089 sec
 * total energy  :  -115.1699988 Eh     change       -0.4063998E-04 Eh
   gradient norm :     0.0024841 Eh/α   predicted    -0.2939897E-04 ( -27.66%)
   displ. norm   :     0.3907837 α      lambda       -0.5264172E-04
   maximum displ.:     0.2218433 α      in ANC's #1, #5, #3, ...

........................................................................
.............................. CYCLE  113 ..............................
........................................................................

 iter      E             dE          RMSdq      gap      omega  full diag
   1   -117.0684932 -0.117068E+03  0.839E-02    0.32       0.0  T
   2   -117.0684940 -0.785399E-06  0.494E-02    0.32       1.0  T
   3   -117.0684837  0.103293E-04  0.123E-02    0.33       1.0  T
   4   -117.0684948 -0.110786E-04  0.221E-03    0.32       5.1  T
   5   -117.0684949 -0.167405E-06  0.114E-03    0.33       9.9  T
   6   -117.0684950 -0.275666E-07  0.470E-04    0.33      24.1  T
   7   -117.0684950 -0.584487E-08  0.196E-04    0.33      57.7  T
     SCC iter.                  ...        0 min,  0.106 sec
     gradient                   ...        0 min,  0.085 sec
 * total energy  :  -115.1700396 Eh     change       -0.4081420E-04 Eh
   gradient norm :     0.0021458 Eh/α   predicted    -0.3034219E-04 ( -25.66%)
   displ. norm   :     0.3717946 α      lambda       -0.4616308E-04
   maximum displ.:     0.2118703 α      in ANC's #1, #5, #3, ...

........................................................................
.............................. CYCLE  114 ..............................
........................................................................

 iter      E             dE          RMSdq      gap      omega  full diag
   1   -117.0690374 -0.117069E+03  0.784E-02    0.33       0.0  T
   2   -117.0690379 -0.453011E-06  0.462E-02    0.32       1.0  T
   3   -117.0690246  0.133068E-04  0.143E-02    0.33       1.0  T
   4   -117.0690388 -0.142292E-04  0.176E-03    0.32       6.5  T
   5   -117.0690389 -0.776958E-07  0.985E-04    0.32      11.5  T
   6   -117.0690389 -0.227957E-07  0.402E-04    0.32      28.2  T
   7   -117.0690389 -0.451570E-08  0.170E-04    0.32      66.4  T
     SCC iter.                  ...        0 min,  0.104 sec
     gradient                   ...        0 min,  0.090 sec
 * total energy  :  -115.1700764 Eh     change       -0.3681076E-04 Eh
   gradient norm :     0.0016985 Eh/α   predicted    -0.2627668E-04 ( -28.62%)
   displ. norm   :     0.5652577 α      lambda       -0.5139408E-04
   maximum displ.:     0.3171233 α      in ANC's #1, #5, #7, ...

........................................................................
.............................. CYCLE  115 ..............................
........................................................................

 iter      E             dE          RMSdq      gap      omega  full diag
   1   -117.0706515 -0.117071E+03  0.116E-01    0.33       0.0  T
   2   -117.0706522 -0.653240E-06  0.685E-02    0.32       1.0  T
   3   -117.0706146  0.375602E-04  0.245E-02    0.33       1.0  T
   4   -117.0706547 -0.400878E-04  0.228E-03    0.32       5.0  T
   5   -117.0706548 -0.861543E-07  0.131E-03    0.32       8.6  T
   6   -117.0706548 -0.465355E-07  0.549E-04    0.32      20.6  T
   7   -117.0706548 -0.646688E-08  0.220E-04    0.32      51.4  T
   8   -117.0706548 -0.138664E-08  0.100E-04    0.32     113.1  T
     SCC iter.                  ...        0 min,  0.117 sec
     gradient                   ...        0 min,  0.076 sec
 * total energy  :  -115.1701288 Eh     change       -0.5237802E-04 Eh
   gradient norm :     0.0019187 Eh/α   predicted    -0.2935038E-04 ( -43.96%)
   displ. norm   :     0.6692971 α      lambda       -0.4519669E-04
   maximum displ.:     0.3983099 α      in ANC's #1, #5, #10, ...

........................................................................
.............................. CYCLE  116 ..............................
........................................................................

 iter      E             dE          RMSdq      gap      omega  full diag
   1   -117.0640147 -0.117064E+03  0.144E-01    0.32       0.0  T
   2   -117.0640152 -0.448162E-06  0.851E-02    0.32       1.0  T
   3   -117.0639340  0.811474E-04  0.366E-02    0.34       1.0  T
   4   -117.0640206 -0.865649E-04  0.263E-03    0.32       4.3  T
   5   -117.0640208 -0.239679E-06  0.146E-03    0.32       7.8  T
   6   -117.0640209 -0.543608E-07  0.620E-04    0.32      18.2  T
   7   -117.0640209 -0.374911E-08  0.241E-04    0.32      47.0  T
   8   -117.0640209 -0.172066E-08  0.107E-04    0.32     106.2  T
     SCC iter.                  ...        0 min,  0.116 sec
     gradient                   ...        0 min,  0.077 sec
 * total energy  :  -115.1701266 Eh     change        0.2231055E-05 Eh
   gradient norm :     0.0057193 Eh/α   predicted    -0.2710142E-04 (*******%)
   displ. norm   :     0.1433988 α      lambda       -0.1223448E-03
   maximum displ.:     0.0645444 α      in ANC's #7, #3, #10, ...

........................................................................
.............................. CYCLE  117 ..............................
........................................................................

 iter      E             dE          RMSdq      gap      omega  full diag
   1   -117.0698819 -0.117070E+03  0.290E-02    0.33       0.0  T
   2   -117.0698821 -0.234281E-06  0.175E-02    0.32       1.0  T
   3   -117.0698739  0.826246E-05  0.134E-02    0.33       1.0  T
   4   -117.0698832 -0.932143E-05  0.175E-03    0.32       6.5  T
   5   -117.0698833 -0.159126E-06  0.811E-04    0.32      14.0  T
   6   -117.0698834 -0.268650E-07  0.325E-04    0.32      34.9  T
   7   -117.0698834 -0.122463E-08  0.149E-04    0.32      76.1  T
     SCC iter.                  ...        0 min,  0.107 sec
     gradient                   ...        0 min,  0.081 sec
 * total energy  :  -115.1701948 Eh     change       -0.6829302E-04 Eh
   gradient norm :     0.0036174 Eh/α   predicted    -0.6243468E-04 (  -8.58%)
   displ. norm   :     0.1505102 α      lambda       -0.6493003E-04
   maximum displ.:     0.0758812 α      in ANC's #1, #3, #10, ...

........................................................................
.............................. CYCLE  118 ..............................
........................................................................

 iter      E             dE          RMSdq      gap      omega  full diag
   1   -117.0711267 -0.117071E+03  0.354E-02    0.32       0.0  T
   2   -117.0711266  0.896043E-07  0.212E-02    0.32       1.0  T
   3   -117.0711136  0.130469E-04  0.154E-02    0.33       1.0  T
   4   -117.0711278 -0.142003E-04  0.105E-03    0.32      10.8  T
   5   -117.0711278 -0.331539E-07  0.674E-04    0.32      16.8  T
   6   -117.0711278 -0.126909E-07  0.317E-04    0.32      35.7  T
   7   -117.0711278 -0.344158E-09  0.105E-04    0.32     107.6  T
     SCC iter.                  ...        0 min,  0.107 sec
     gradient                   ...        0 min,  0.085 sec
 * total energy  :  -115.1702258 Eh     change       -0.3091221E-04 Eh
   gradient norm :     0.0027617 Eh/α   predicted    -0.3320226E-04 (   7.41%)
   displ. norm   :     0.2454156 α      lambda       -0.3398179E-04
   maximum displ.:     0.1405493 α      in ANC's #1, #5, #3, ...

........................................................................
.............................. CYCLE  119 ..............................
........................................................................

 iter      E             dE          RMSdq      gap      omega  full diag
   1   -117.0704236 -0.117070E+03  0.536E-02    0.32       0.0  T
   2   -117.0704233  0.295540E-06  0.320E-02    0.32       1.0  T
   3   -117.0704012  0.221054E-04  0.192E-02    0.33       1.0  T
   4   -117.0704249 -0.236448E-04  0.100E-03    0.32      11.3  T
   5   -117.0704249 -0.201329E-07  0.639E-04    0.32      17.7  T
   6   -117.0704249 -0.873590E-08  0.299E-04    0.32      37.9  T
   7   -117.0704249 -0.786912E-09  0.105E-04    0.32     107.5  T
     SCC iter.                  ...        0 min,  0.112 sec
     gradient                   ...        0 min,  0.093 sec
 * total energy  :  -115.1702555 Eh     change       -0.2979195E-04 Eh
   gradient norm :     0.0020583 Eh/α   predicted    -0.1801464E-04 ( -39.53%)
   displ. norm   :     0.5085702 α      lambda       -0.8393219E-04
   maximum displ.:     0.2945749 α      in ANC's #1, #10, #3, ...

........................................................................
.............................. CYCLE  120 ..............................
........................................................................

 iter      E             dE          RMSdq      gap      omega  full diag
   1   -117.0683180 -0.117068E+03  0.116E-01    0.32       0.0  T
   2   -117.0683163  0.162032E-05  0.692E-02    0.32       1.0  T
   3   -117.0682051  0.111277E-03  0.429E-02    0.34       1.0  T
   4   -117.0683244 -0.119291E-03  0.249E-03    0.32       4.6  T
   5   -117.0683245 -0.145463E-06  0.153E-03    0.32       7.4  T
   6   -117.0683245 -0.435351E-07  0.736E-04    0.32      15.4  T
   7   -117.0683246 -0.592743E-08  0.276E-04    0.32      41.1  T
   8   -117.0683246 -0.209477E-08  0.149E-04    0.32      75.9  T
     SCC iter.                  ...        0 min,  0.122 sec
     gradient                   ...        0 min,  0.083 sec
 * total energy  :  -115.1703140 Eh     change       -0.5843374E-04 Eh
   gradient norm :     0.0025158 Eh/α   predicted    -0.5282336E-04 (  -9.60%)
   displ. norm   :     0.2908049 α      lambda       -0.4773070E-04
   maximum displ.:     0.1561268 α      in ANC's #1, #3, #10, ...
 * RMSD in coord.:     0.6627327 α      energy gain  -0.7921499E-03 Eh

generating ANC from exact Hessian ...
Using Lindh-Hessian (1995)
 Shifting diagonal of input Hessian by    1.0147714649938033E-002
 Lowest  eigenvalues of input Hessian
    0.010000    0.000000    0.000000    0.000000    0.000000    0.000000
    0.000000    0.010194    0.010284    0.010342    0.010401    0.010477
    0.010631    0.010760    0.010848    0.010891    0.011002    0.011061
 Highest eigenvalues
    2.001854    2.005209    2.006099    2.018626    2.243730    2.435267


........................................................................
.............................. CYCLE  121 ..............................
........................................................................

 iter      E             dE          RMSdq      gap      omega  full diag
   1   -117.0685791 -0.117069E+03  0.682E-02    0.32       0.0  T
   2   -117.0685786  0.439329E-06  0.406E-02    0.32       1.0  T
   3   -117.0685405  0.380846E-04  0.249E-02    0.33       1.0  T
   4   -117.0685813 -0.407798E-04  0.168E-03    0.32       6.8  T
   5   -117.0685813 -0.396919E-07  0.965E-04    0.32      11.7  T
   6   -117.0685814 -0.152552E-07  0.508E-04    0.32      22.3  T
   7   -117.0685814 -0.553909E-08  0.183E-04    0.32      61.8  T
   8   -117.0685814 -0.995826E-09  0.976E-05    0.32     116.1  T
     SCC iter.                  ...        0 min,  0.132 sec
     gradient                   ...        0 min,  0.084 sec
 * total energy  :  -115.1703490 Eh     change       -0.3496768E-04 Eh
   gradient norm :     0.0032232 Eh/α   predicted     0.0000000E+00 (-100.00%)
   displ. norm   :     0.0288349 α      lambda       -0.2672378E-04
   maximum displ.:     0.0096275 α      in ANC's #7, #16, #34, ...

........................................................................
.............................. CYCLE  122 ..............................
........................................................................

 iter      E             dE          RMSdq      gap      omega  full diag
   1   -117.0702801 -0.117070E+03  0.113E-02    0.32       0.0  T
   2   -117.0702801 -0.443698E-07  0.670E-03    0.32       1.7  T
   3   -117.0702793  0.828734E-06  0.409E-03    0.32       2.8  T
   4   -117.0702802 -0.895615E-06  0.702E-04    0.32      16.1  T
   5   -117.0702802 -0.269082E-07  0.291E-04    0.32      38.9  T
   6   -117.0702802 -0.259280E-08  0.121E-04    0.32      93.3  T
     SCC iter.                  ...        0 min,  0.101 sec
     gradient                   ...        0 min,  0.084 sec
 * total energy  :  -115.1703693 Eh     change       -0.2035424E-04 Eh
   gradient norm :     0.0014058 Eh/α   predicted    -0.1444689E-04 ( -29.02%)
   displ. norm   :     0.0796283 α      lambda       -0.2370401E-04
   maximum displ.:     0.0303636 α      in ANC's #7, #16, #3, ...

........................................................................
.............................. CYCLE  123 ..............................
........................................................................

 iter      E             dE          RMSdq      gap      omega  full diag
   1   -117.0725334 -0.117073E+03  0.245E-02    0.32       0.0  T
   2   -117.0725331  0.244762E-06  0.152E-02    0.32       1.0  T
   3   -117.0725260  0.710819E-05  0.131E-02    0.31       1.0  T
   4   -117.0725347 -0.868324E-05  0.161E-03    0.32       7.0  T
   5   -117.0725348 -0.142605E-06  0.602E-04    0.32      18.8  T
   6   -117.0725349 -0.860565E-08  0.315E-04    0.32      36.0  T
   7   -117.0725349 -0.108831E-08  0.114E-04    0.32      99.4  T
     SCC iter.                  ...        0 min,  0.105 sec
     gradient                   ...        0 min,  0.085 sec
 * total energy  :  -115.1703793 Eh     change       -0.9959743E-05 Eh
   gradient norm :     0.0042398 Eh/α   predicted    -0.1188697E-04 (  19.35%)
   displ. norm   :     0.0586079 α      lambda       -0.2869172E-04
   maximum displ.:     0.0232498 α      in ANC's #7, #16, #3, ...

........................................................................
.............................. CYCLE  124 ..............................
........................................................................

 iter      E             dE          RMSdq      gap      omega  full diag
   1   -117.0726677 -0.117073E+03  0.190E-02    0.32       0.0  T
   2   -117.0726678 -0.774869E-07  0.110E-02    0.32       1.0  T
   3   -117.0726671  0.717971E-06  0.371E-03    0.32       3.0  T
   4   -117.0726678 -0.761963E-06  0.109E-03    0.32      10.4  T
   5   -117.0726679 -0.310790E-07  0.667E-04    0.32      17.0  T
   6   -117.0726679 -0.142763E-07  0.206E-04    0.32      55.0  T
   7   -117.0726679 -0.474571E-09  0.987E-05    0.32     114.7  T
     SCC iter.                  ...        0 min,  0.104 sec
     gradient                   ...        0 min,  0.075 sec
 * total energy  :  -115.1703829 Eh     change       -0.3664543E-05 Eh
   gradient norm :     0.0054485 Eh/α   predicted    -0.1439586E-04 ( 292.84%)
   displ. norm   :     0.0214390 α      lambda       -0.2875727E-04
   maximum displ.:     0.0075294 α      in ANC's #10, #7, #3, ...

........................................................................
.............................. CYCLE  125 ..............................
........................................................................

 iter      E             dE          RMSdq      gap      omega  full diag
   1   -117.0715040 -0.117072E+03  0.101E-02    0.32       0.0  T
   2   -117.0715040 -0.243814E-07  0.604E-03    0.32       1.9  T
   3   -117.0715031  0.935695E-06  0.410E-03    0.32       2.8  T
   4   -117.0715041 -0.102064E-05  0.662E-04    0.32      17.1  T
   5   -117.0715041 -0.658081E-08  0.366E-04    0.32      30.9  T
   6   -117.0715041 -0.426911E-08  0.172E-04    0.32      66.0  T
     SCC iter.                  ...        0 min,  0.090 sec
     gradient                   ...        0 min,  0.083 sec
 * total energy  :  -115.1703974 Eh     change       -0.1448413E-04 Eh
   gradient norm :     0.0017904 Eh/α   predicted    -0.1440392E-04 (  -0.55%)
   displ. norm   :     0.0411543 α      lambda       -0.1834136E-04
   maximum displ.:     0.0170201 α      in ANC's #10, #7, #3, ...

........................................................................
.............................. CYCLE  126 ..............................
........................................................................

 iter      E             dE          RMSdq      gap      omega  full diag
   1   -117.0699869 -0.117070E+03  0.139E-02    0.32       0.0  T
   2   -117.0699871 -0.125084E-06  0.831E-03    0.32       1.4  T
   3   -117.0699868  0.241579E-06  0.217E-03    0.32       5.2  T
   4   -117.0699871 -0.277765E-06  0.700E-04    0.32      16.2  T
   5   -117.0699871 -0.497317E-08  0.500E-04    0.32      22.6  T
   6   -117.0699871 -0.123822E-07  0.182E-04    0.32      62.3  T
   7   -117.0699871 -0.355243E-09  0.822E-05    0.32     137.8  T
     SCC iter.                  ...        0 min,  0.101 sec
     gradient                   ...        0 min,  0.082 sec
 * total energy  :  -115.1704041 Eh     change       -0.6722745E-05 Eh
   gradient norm :     0.0021419 Eh/α   predicted    -0.9179638E-05 (  36.55%)
   displ. norm   :     0.0516554 α      lambda       -0.1364565E-04
   maximum displ.:     0.0208716 α      in ANC's #7, #10, #3, ...

........................................................................
.............................. CYCLE  127 ..............................
........................................................................

 iter      E             dE          RMSdq      gap      omega  full diag
   1   -117.0702444 -0.117070E+03  0.160E-02    0.32       0.0  T
   2   -117.0702444 -0.932793E-08  0.936E-03    0.32       1.2  T
   3   -117.0702432  0.122698E-05  0.469E-03    0.32       2.4  T
   4   -117.0702445 -0.131003E-05  0.637E-04    0.32      17.8  T
   5   -117.0702445 -0.119801E-07  0.338E-04    0.32      33.5  T
   6   -117.0702445 -0.442640E-08  0.968E-05    0.32     117.0  T
     SCC iter.                  ...        0 min,  0.088 sec
     gradient                   ...        0 min,  0.079 sec
 * total energy  :  -115.1704144 Eh     change       -0.1025328E-04 Eh
   gradient norm :     0.0013537 Eh/α   predicted    -0.6842031E-05 ( -33.27%)
   displ. norm   :     0.2421776 α      lambda       -0.3168948E-04
   maximum displ.:     0.0968079 α      in ANC's #7, #10, #3, ...

........................................................................
.............................. CYCLE  128 ..............................
........................................................................

 iter      E             dE          RMSdq      gap      omega  full diag
   1   -117.0715591 -0.117072E+03  0.690E-02    0.32       0.0  T
   2   -117.0715595 -0.389566E-06  0.405E-02    0.32       1.0  T
   3   -117.0715460  0.135179E-04  0.154E-02    0.31       1.0  T
   4   -117.0715603 -0.143823E-04  0.222E-03    0.32       5.1  T
   5   -117.0715605 -0.159090E-06  0.127E-03    0.32       8.9  T
   6   -117.0715606 -0.642484E-07  0.433E-04    0.32      26.1  T
   7   -117.0715606 -0.161084E-08  0.190E-04    0.32      59.7  T
     SCC iter.                  ...        0 min,  0.105 sec
     gradient                   ...        0 min,  0.081 sec
 * total energy  :  -115.1704089 Eh     change        0.5508235E-05 Eh
   gradient norm :     0.0044920 Eh/α   predicted    -0.1625883E-04 (-395.17%)
   displ. norm   :     0.0249576 α      lambda       -0.3504331E-04
   maximum displ.:     0.0086256 α      in ANC's #10, #3, #19, ...

........................................................................
.............................. CYCLE  129 ..............................
........................................................................

 iter      E             dE          RMSdq      gap      omega  full diag
   1   -117.0714119 -0.117071E+03  0.121E-02    0.32       0.0  T
   2   -117.0714120 -0.120746E-06  0.686E-03    0.32       1.6  T
   3   -117.0714116  0.428552E-06  0.317E-03    0.32       3.6  T
   4   -117.0714120 -0.432103E-06  0.124E-03    0.32       9.1  T
   5   -117.0714121 -0.648897E-07  0.546E-04    0.32      20.7  T
   6   -117.0714121 -0.125421E-07  0.188E-04    0.32      60.3  T
   7   -117.0714121 -0.895142E-09  0.850E-05    0.32     133.3  T
     SCC iter.                  ...        0 min,  0.102 sec
     gradient                   ...        0 min,  0.081 sec
 * total energy  :  -115.1704323 Eh     change       -0.2344773E-04 Eh
   gradient norm :     0.0021057 Eh/α   predicted    -0.1753291E-04 ( -25.23%)
   displ. norm   :     0.0315104 α      lambda       -0.1709671E-04
   maximum displ.:     0.0105947 α      in ANC's #10, #23, #34, ...

........................................................................
.............................. CYCLE  130 ..............................
........................................................................

 iter      E             dE          RMSdq      gap      omega  full diag
   1   -117.0710618 -0.117071E+03  0.147E-02    0.32       0.0  T
   2   -117.0710618 -0.881386E-07  0.815E-03    0.32       1.4  T
   3   -117.0710608  0.101498E-05  0.467E-03    0.32       2.4  T
   4   -117.0710619 -0.111116E-05  0.110E-03    0.32      10.3  T
   5   -117.0710620 -0.273022E-07  0.637E-04    0.32      17.8  T
   6   -117.0710620 -0.170873E-07  0.204E-04    0.32      55.6  T
   7   -117.0710620 -0.533547E-09  0.911E-05    0.32     124.2  T
     SCC iter.                  ...        0 min,  0.098 sec
     gradient                   ...        0 min,  0.087 sec
 * total energy  :  -115.1704410 Eh     change       -0.8656885E-05 Eh
   gradient norm :     0.0007084 Eh/α   predicted    -0.8559152E-05 (  -1.13%)
   displ. norm   :     0.0675311 α      lambda       -0.7355854E-05
   maximum displ.:     0.0308543 α      in ANC's #10, #3, #2, ...

........................................................................
.............................. CYCLE  131 ..............................
........................................................................

 iter      E             dE          RMSdq      gap      omega  full diag
   1   -117.0708984 -0.117071E+03  0.162E-02    0.32       0.0  T
   2   -117.0708984 -0.334545E-07  0.941E-03    0.32       1.2  T
   3   -117.0708960  0.238331E-05  0.687E-03    0.32       1.6  T
   4   -117.0708987 -0.265461E-05  0.977E-04    0.32      11.6  T
   5   -117.0708987 -0.163655E-07  0.559E-04    0.32      20.3  T
   6   -117.0708987 -0.192090E-07  0.160E-04    0.32      70.9  T
   7   -117.0708987 -0.290669E-09  0.719E-05    0.32     157.4  T
     SCC iter.                  ...        0 min,  0.106 sec
     gradient                   ...        0 min,  0.087 sec
 * total energy  :  -115.1704466 Eh     change       -0.5605888E-05 Eh
   gradient norm :     0.0012575 Eh/α   predicted    -0.3689611E-05 ( -34.18%)
   displ. norm   :     0.0944156 α      lambda       -0.7192955E-05
   maximum displ.:     0.0426599 α      in ANC's #10, #3, #2, ...

........................................................................
.............................. CYCLE  132 ..............................
........................................................................

 iter      E             dE          RMSdq      gap      omega  full diag
   1   -117.0708282 -0.117071E+03  0.209E-02    0.32       0.0  T
   2   -117.0708282 -0.282784E-07  0.123E-02    0.32       1.0  T
   3   -117.0708267  0.149726E-05  0.517E-03    0.32       2.2  T
   4   -117.0708283 -0.160039E-05  0.547E-04    0.32      20.7  T
   5   -117.0708283 -0.683141E-08  0.336E-04    0.32      33.7  T
   6   -117.0708283 -0.453217E-08  0.114E-04    0.32      99.2  T
     SCC iter.                  ...        0 min,  0.091 sec
     gradient                   ...        0 min,  0.083 sec
 * total energy  :  -115.1704559 Eh     change       -0.9276586E-05 Eh
   gradient norm :     0.0007958 Eh/α   predicted    -0.3613632E-05 ( -61.05%)
   displ. norm   :     0.2139708 α      lambda       -0.1391086E-04
   maximum displ.:     0.0965870 α      in ANC's #10, #3, #2, ...

........................................................................
.............................. CYCLE  133 ..............................
........................................................................

 iter      E             dE          RMSdq      gap      omega  full diag
   1   -117.0708834 -0.117071E+03  0.477E-02    0.32       0.0  T
   2   -117.0708836 -0.149977E-06  0.279E-02    0.32       1.0  T
   3   -117.0708784  0.513969E-05  0.956E-03    0.33       1.2  T
   4   -117.0708839 -0.550486E-05  0.108E-03    0.32      10.5  T
   5   -117.0708840 -0.248273E-07  0.670E-04    0.32      16.9  T
   6   -117.0708840 -0.153365E-07  0.221E-04    0.32      51.2  T
   7   -117.0708840 -0.795211E-09  0.945E-05    0.32     119.8  T
     SCC iter.                  ...        0 min,  0.106 sec
     gradient                   ...        0 min,  0.081 sec
 * total energy  :  -115.1704718 Eh     change       -0.1593425E-04 Eh
   gradient norm :     0.0005554 Eh/α   predicted    -0.7100656E-05 ( -55.44%)
   displ. norm   :     0.2561978 α      lambda       -0.1187205E-04
   maximum displ.:     0.1165049 α      in ANC's #3, #10, #2, ...

........................................................................
.............................. CYCLE  134 ..............................
........................................................................

 iter      E             dE          RMSdq      gap      omega  full diag
   1   -117.0706086 -0.117071E+03  0.573E-02    0.32       0.0  T
   2   -117.0706088 -0.132786E-06  0.337E-02    0.32       1.0  T
   3   -117.0706008  0.797552E-05  0.117E-02    0.33       1.0  T
   4   -117.0706093 -0.853500E-05  0.981E-04    0.32      11.5  T
   5   -117.0706093 -0.121972E-07  0.640E-04    0.32      17.7  T
   6   -117.0706094 -0.105409E-07  0.217E-04    0.32      52.2  T
   7   -117.0706094 -0.844608E-09  0.916E-05    0.32     123.6  T
     SCC iter.                  ...        0 min,  0.100 sec
     gradient                   ...        0 min,  0.083 sec
 * total energy  :  -115.1704857 Eh     change       -0.1386817E-04 Eh
   gradient norm :     0.0009971 Eh/α   predicted    -0.6111491E-05 ( -55.93%)
   displ. norm   :     0.2938081 α      lambda       -0.1325572E-04
   maximum displ.:     0.1350422 α      in ANC's #3, #10, #2, ...

........................................................................
.............................. CYCLE  135 ..............................
........................................................................

 iter      E             dE          RMSdq      gap      omega  full diag
   1   -117.0706315 -0.117071E+03  0.672E-02    0.32       0.0  T
   2   -117.0706318 -0.235050E-06  0.394E-02    0.32       1.0  T
   3   -117.0706248  0.697962E-05  0.109E-02    0.32       1.0  T
   4   -117.0706323 -0.750795E-05  0.115E-03    0.32       9.8  T
   5   -117.0706323 -0.120895E-07  0.744E-04    0.32      15.2  T
   6   -117.0706323 -0.127228E-07  0.234E-04    0.32      48.5  T
   7   -117.0706323 -0.990667E-09  0.101E-04    0.32     112.3  T
     SCC iter.                  ...        0 min,  0.104 sec
     gradient                   ...        0 min,  0.086 sec
 * total energy  :  -115.1705024 Eh     change       -0.1675063E-04 Eh
   gradient norm :     0.0010578 Eh/α   predicted    -0.6882316E-05 ( -58.91%)
   displ. norm   :     0.4508195 α      lambda       -0.2258166E-04
   maximum displ.:     0.2080353 α      in ANC's #3, #10, #2, ...

........................................................................
.............................. CYCLE  136 ..............................
........................................................................

 iter      E             dE          RMSdq      gap      omega  full diag
   1   -117.0700695 -0.117070E+03  0.106E-01    0.32       0.0  T
   2   -117.0700702 -0.708305E-06  0.619E-02    0.32       1.0  T
   3   -117.0700593  0.109012E-04  0.134E-02    0.32       1.0  T
   4   -117.0700711 -0.118183E-04  0.198E-03    0.32       5.7  T
   5   -117.0700712 -0.574537E-07  0.126E-03    0.32       9.0  T
   6   -117.0700712 -0.368151E-07  0.382E-04    0.32      29.6  T
   7   -117.0700712 -0.283488E-08  0.167E-04    0.32      67.9  T
     SCC iter.                  ...        0 min,  0.101 sec
     gradient                   ...        0 min,  0.079 sec
 * total energy  :  -115.1705303 Eh     change       -0.2789549E-04 Eh
   gradient norm :     0.0015384 Eh/α   predicted    -0.1231264E-04 ( -55.86%)
   displ. norm   :     0.5096083 α      lambda       -0.3232146E-04
   maximum displ.:     0.2352876 α      in ANC's #3, #10, #5, ...

........................................................................
.............................. CYCLE  137 ..............................
........................................................................

 iter      E             dE          RMSdq      gap      omega  full diag
   1   -117.0699001 -0.117070E+03  0.122E-01    0.32       0.0  T
   2   -117.0699011 -0.105344E-05  0.717E-02    0.32       1.0  T
   3   -117.0698879  0.132250E-04  0.146E-02    0.32       1.0  T
   4   -117.0699022 -0.143230E-04  0.266E-03    0.31       4.3  T
   5   -117.0699024 -0.141076E-06  0.167E-03    0.32       6.8  T
   6   -117.0699025 -0.668198E-07  0.519E-04    0.32      21.8  T
   7   -117.0699025 -0.447407E-08  0.224E-04    0.32      50.6  T
   8   -117.0699025 -0.130873E-08  0.128E-04    0.32      88.4  T
     SCC iter.                  ...        0 min,  0.127 sec
     gradient                   ...        0 min,  0.083 sec
 * total energy  :  -115.1705721 Eh     change       -0.4178272E-04 Eh
   gradient norm :     0.0018765 Eh/α   predicted    -0.1802605E-04 ( -56.86%)
   displ. norm   :     0.6136563 α      lambda       -0.4853626E-04
   maximum displ.:     0.2818872 α      in ANC's #3, #5, #10, ...

........................................................................
.............................. CYCLE  138 ..............................
........................................................................

 iter      E             dE          RMSdq      gap      omega  full diag
   1   -117.0694175 -0.117069E+03  0.150E-01    0.31       0.0  T
   2   -117.0694193 -0.183041E-05  0.877E-02    0.31       1.0  T
   3   -117.0694065  0.127546E-04  0.143E-02    0.32       1.0  T
   4   -117.0694204 -0.138358E-04  0.366E-03    0.31       3.1  T
   5   -117.0694208 -0.412694E-06  0.223E-03    0.32       5.1  T
   6   -117.0694209 -0.130297E-06  0.657E-04    0.32      17.2  T
   7   -117.0694209 -0.699963E-08  0.300E-04    0.32      37.8  T
   8   -117.0694209 -0.245423E-08  0.173E-04    0.32      65.4  T
     SCC iter.                  ...        0 min,  0.130 sec
     gradient                   ...        0 min,  0.090 sec
 * total energy  :  -115.1706240 Eh     change       -0.5190951E-04 Eh
   gradient norm :     0.0025200 Eh/α   predicted    -0.2833100E-04 ( -45.42%)
   displ. norm   :     0.2231899 α      lambda       -0.4810721E-04
   maximum displ.:     0.1046940 α      in ANC's #5, #3, #6, ...

........................................................................
.............................. CYCLE  139 ..............................
........................................................................

 iter      E             dE          RMSdq      gap      omega  full diag
   1   -117.0725029 -0.117073E+03  0.544E-02    0.32       0.0  T
   2   -117.0725031 -0.194649E-06  0.321E-02    0.31       1.0  T
   3   -117.0724939  0.920086E-05  0.120E-02    0.32       1.0  T
   4   -117.0725037 -0.980263E-05  0.138E-03    0.32       8.2  T
   5   -117.0725037 -0.315543E-07  0.856E-04    0.32      13.2  T
   6   -117.0725038 -0.182242E-07  0.354E-04    0.32      32.0  T
   7   -117.0725038 -0.139238E-08  0.132E-04    0.32      85.6  T
     SCC iter.                  ...        0 min,  0.106 sec
     gradient                   ...        0 min,  0.079 sec
 * total energy  :  -115.1706571 Eh     change       -0.3312362E-04 Eh
   gradient norm :     0.0018565 Eh/α   predicted    -0.2525224E-04 ( -23.76%)
   displ. norm   :     0.7476528 α      lambda       -0.6061922E-04
   maximum displ.:     0.3383640 α      in ANC's #3, #5, #9, ...

........................................................................
.............................. CYCLE  140 ..............................
........................................................................

 iter      E             dE          RMSdq      gap      omega  full diag
   1   -117.0675098 -0.117068E+03  0.185E-01    0.32       0.0  T
   2   -117.0675106 -0.780278E-06  0.109E-01    0.31       1.0  T
   3   -117.0673941  0.116489E-03  0.432E-02    0.34       1.0  T
   4   -117.0675182 -0.124150E-03  0.367E-03    0.32       3.1  T
   5   -117.0675185 -0.236061E-06  0.220E-03    0.32       5.2  T
   6   -117.0675186 -0.843673E-07  0.870E-04    0.32      13.0  T
   7   -117.0675186 -0.123786E-07  0.355E-04    0.32      31.9  T
   8   -117.0675186 -0.263336E-08  0.192E-04    0.32      58.8  T
     SCC iter.                  ...        0 min,  0.133 sec
     gradient                   ...        0 min,  0.094 sec
 * total energy  :  -115.1707122 Eh     change       -0.5510010E-04 Eh
   gradient norm :     0.0039104 Eh/α   predicted    -0.3783930E-04 ( -31.33%)
   displ. norm   :     0.2138530 α      lambda       -0.5283577E-04
   maximum displ.:     0.1034865 α      in ANC's #5, #3, #9, ...

........................................................................
.............................. CYCLE  141 ..............................
........................................................................

 iter      E             dE          RMSdq      gap      omega  full diag
   1   -117.0688730 -0.117069E+03  0.513E-02    0.32       0.0  T
   2   -117.0688724  0.546656E-06  0.308E-02    0.31       1.0  T
   3   -117.0688442  0.282653E-04  0.222E-02    0.33       1.0  T
   4   -117.0688747 -0.305641E-04  0.129E-03    0.32       8.8  T
   5   -117.0688748 -0.366429E-07  0.804E-04    0.32      14.1  T
   6   -117.0688748 -0.183157E-07  0.345E-04    0.32      32.8  T
   7   -117.0688748 -0.126576E-08  0.126E-04    0.32      90.1  T
     SCC iter.                  ...        0 min,  0.115 sec
     gradient                   ...        0 min,  0.082 sec
 * total energy  :  -115.1707566 Eh     change       -0.4433296E-04 Eh
   gradient norm :     0.0029188 Eh/α   predicted    -0.2763133E-04 ( -37.67%)
   displ. norm   :     0.3954328 α      lambda       -0.9709031E-04
   maximum displ.:     0.1874575 α      in ANC's #5, #9, #3, ...

........................................................................
.............................. CYCLE  142 ..............................
........................................................................

 iter      E             dE          RMSdq      gap      omega  full diag
   1   -117.0714033 -0.117071E+03  0.968E-02    0.32       0.0  T
   2   -117.0714007  0.257585E-05  0.580E-02    0.31       1.0  T
   3   -117.0712927  0.107978E-03  0.446E-02    0.34       1.0  T
   4   -117.0714110 -0.118332E-03  0.287E-03    0.32       3.9  T
   5   -117.0714112 -0.186985E-06  0.188E-03    0.32       6.0  T
   6   -117.0714114 -0.118384E-06  0.742E-04    0.32      15.3  T
   7   -117.0714114 -0.694614E-08  0.246E-04    0.32      46.1  T
   8   -117.0714114 -0.173392E-08  0.138E-04    0.32      82.1  T
     SCC iter.                  ...        0 min,  0.126 sec
     gradient                   ...        0 min,  0.084 sec
 * total energy  :  -115.1708261 Eh     change       -0.6955054E-04 Eh
   gradient norm :     0.0019883 Eh/α   predicted    -0.5613991E-04 ( -19.28%)
   displ. norm   :     0.8184416 α      lambda       -0.6538802E-04
   maximum displ.:     0.3592400 α      in ANC's #5, #3, #9, ...

........................................................................
.............................. CYCLE  143 ..............................
........................................................................

 iter      E             dE          RMSdq      gap      omega  full diag
   1   -117.0654158 -0.117065E+03  0.200E-01    0.32       0.0  T
   2   -117.0654162 -0.431372E-06  0.118E-01    0.31       1.0  T
   3   -117.0652489  0.167328E-03  0.534E-02    0.34       1.0  T
   4   -117.0654277 -0.178802E-03  0.453E-03    0.32       2.5  T
   5   -117.0654282 -0.561057E-06  0.283E-03    0.32       4.0  T
   6   -117.0654284 -0.185268E-06  0.999E-04    0.32      11.3  T
   7   -117.0654284 -0.321567E-07  0.405E-04    0.32      28.0  T
   8   -117.0654285 -0.555183E-08  0.204E-04    0.32      55.5  T
     SCC iter.                  ...        0 min,  0.119 sec
     gradient                   ...        0 min,  0.081 sec
 * total energy  :  -115.1708488 Eh     change       -0.2264385E-04 Eh
   gradient norm :     0.0049239 Eh/α   predicted    -0.4243293E-04 (  87.39%)
   displ. norm   :     0.1318806 α      lambda       -0.9647006E-04
   maximum displ.:     0.0707326 α      in ANC's #17, #33, #10, ...

........................................................................
.............................. CYCLE  144 ..............................
........................................................................

 iter      E             dE          RMSdq      gap      omega  full diag
   1   -117.0718836 -0.117072E+03  0.408E-02    0.32       0.0  T
   2   -117.0718838 -0.165240E-06  0.237E-02    0.31       1.0  T
   3   -117.0718692  0.145554E-04  0.180E-02    0.33       1.0  T
   4   -117.0718856 -0.163259E-04  0.235E-03    0.32       4.8  T
   5   -117.0718858 -0.218327E-06  0.133E-03    0.32       8.5  T
   6   -117.0718858 -0.712081E-07  0.462E-04    0.32      24.5  T
   7   -117.0718858 -0.318116E-08  0.209E-04    0.32      54.2  T
     SCC iter.                  ...        0 min,  0.112 sec
     gradient                   ...        0 min,  0.080 sec
 * total energy  :  -115.1708938 Eh     change       -0.4502589E-04 Eh
   gradient norm :     0.0022878 Eh/α   predicted    -0.4907484E-04 (   8.99%)
   displ. norm   :     0.0627512 α      lambda       -0.2886862E-04
   maximum displ.:     0.0239560 α      in ANC's #10, #3, #2, ...

........................................................................
.............................. CYCLE  145 ..............................
........................................................................

 iter      E             dE          RMSdq      gap      omega  full diag
   1   -117.0718201 -0.117072E+03  0.176E-02    0.31       0.0  T
   2   -117.0718200  0.141552E-06  0.103E-02    0.32       1.1  T
   3   -117.0718162  0.381220E-05  0.903E-03    0.31       1.3  T
   4   -117.0718206 -0.441450E-05  0.929E-04    0.32      12.2  T
   5   -117.0718206 -0.245315E-07  0.497E-04    0.32      22.8  T
   6   -117.0718206 -0.765066E-08  0.183E-04    0.32      62.0  T
     SCC iter.                  ...        0 min,  0.091 sec
     gradient                   ...        0 min,  0.079 sec
 * total energy  :  -115.1709160 Eh     change       -0.2220550E-04 Eh
   gradient norm :     0.0018201 Eh/α   predicted    -0.1449189E-04 ( -34.74%)
   displ. norm   :     0.3164345 α      lambda       -0.6003719E-04
   maximum displ.:     0.1467296 α      in ANC's #9, #3, #2, ...

........................................................................
.............................. CYCLE  146 ..............................
........................................................................

 iter      E             dE          RMSdq      gap      omega  full diag
   1   -117.0714300 -0.117071E+03  0.782E-02    0.31       0.0  T
   2   -117.0714271  0.292795E-05  0.462E-02    0.32       1.0  T
   3   -117.0713459  0.812005E-04  0.400E-02    0.29       1.0  T
   4   -117.0714372 -0.913324E-04  0.310E-03    0.31       3.7  T
   5   -117.0714375 -0.304383E-06  0.150E-03    0.31       7.6  T
   6   -117.0714375 -0.545637E-07  0.641E-04    0.31      17.7  T
   7   -117.0714376 -0.103857E-07  0.225E-04    0.31      50.3  T
   8   -117.0714376 -0.136941E-08  0.126E-04    0.31      89.9  T
     SCC iter.                  ...        0 min,  0.128 sec
     gradient                   ...        0 min,  0.083 sec
 * total energy  :  -115.1709644 Eh     change       -0.4842635E-04 Eh
   gradient norm :     0.0026833 Eh/α   predicted    -0.3135820E-04 ( -35.25%)
   displ. norm   :     0.2762402 α      lambda       -0.3407098E-04
   maximum displ.:     0.1386097 α      in ANC's #9, #3, #5, ...

........................................................................
.............................. CYCLE  147 ..............................
........................................................................

 iter      E             dE          RMSdq      gap      omega  full diag
   1   -117.0704714 -0.117070E+03  0.700E-02    0.31       0.0  T
   2   -117.0704718 -0.445351E-06  0.411E-02    0.31       1.0  T
   3   -117.0704682  0.358370E-05  0.763E-03    0.32       1.5  T
   4   -117.0704722 -0.392772E-05  0.144E-03    0.31       7.9  T
   5   -117.0704722 -0.464349E-07  0.887E-04    0.31      12.8  T
   6   -117.0704722 -0.286325E-07  0.307E-04    0.31      36.9  T
   7   -117.0704722 -0.189917E-08  0.143E-04    0.31      78.9  T
     SCC iter.                  ...        0 min,  0.107 sec
     gradient                   ...        0 min,  0.083 sec
 * total energy  :  -115.1709895 Eh     change       -0.2503720E-04 Eh
   gradient norm :     0.0030509 Eh/α   predicted    -0.1833647E-04 ( -26.76%)
   displ. norm   :     0.3520750 α      lambda       -0.4941447E-04
   maximum displ.:     0.1793780 α      in ANC's #9, #3, #5, ...

........................................................................
.............................. CYCLE  148 ..............................
........................................................................

 iter      E             dE          RMSdq      gap      omega  full diag
   1   -117.0701659 -0.117070E+03  0.859E-02    0.31       0.0  T
   2   -117.0701666 -0.655882E-06  0.505E-02    0.31       1.0  T
   3   -117.0701537  0.129194E-04  0.147E-02    0.32       1.0  T
   4   -117.0701675 -0.138404E-04  0.186E-03    0.31       6.1  T
   5   -117.0701676 -0.905334E-07  0.112E-03    0.31      10.1  T
   6   -117.0701676 -0.483631E-07  0.419E-04    0.31      27.0  T
   7   -117.0701676 -0.270109E-08  0.193E-04    0.31      58.7  T
     SCC iter.                  ...        0 min,  0.110 sec
     gradient                   ...        0 min,  0.085 sec
 * total energy  :  -115.1710241 Eh     change       -0.3459933E-04 Eh
   gradient norm :     0.0026897 Eh/α   predicted    -0.2777318E-04 ( -19.73%)
   displ. norm   :     0.2925088 α      lambda       -0.3633761E-04
   maximum displ.:     0.1411005 α      in ANC's #9, #3, #5, ...

........................................................................
.............................. CYCLE  149 ..............................
........................................................................

 iter      E             dE          RMSdq      gap      omega  full diag
   1   -117.0700103 -0.117070E+03  0.707E-02    0.31       0.0  T
   2   -117.0700106 -0.300813E-06  0.416E-02    0.31       1.0  T
   3   -117.0699985  0.121762E-04  0.142E-02    0.32       1.0  T
   4   -117.0700115 -0.130015E-04  0.133E-03    0.31       8.5  T
   5   -117.0700115 -0.346842E-07  0.786E-04    0.31      14.4  T
   6   -117.0700115 -0.178172E-07  0.333E-04    0.31      34.0  T
   7   -117.0700115 -0.206492E-08  0.136E-04    0.31      83.2  T
     SCC iter.                  ...        0 min,  0.107 sec
     gradient                   ...        0 min,  0.088 sec
 * total energy  :  -115.1710504 Eh     change       -0.2632867E-04 Eh
   gradient norm :     0.0023122 Eh/α   predicted    -0.1972734E-04 ( -25.07%)
   displ. norm   :     0.2885120 α      lambda       -0.4246481E-04
   maximum displ.:     0.1274640 α      in ANC's #9, #3, #5, ...

........................................................................
.............................. CYCLE  150 ..............................
........................................................................

 iter      E             dE          RMSdq      gap      omega  full diag
   1   -117.0711433 -0.117071E+03  0.678E-02    0.31       0.0  T
   2   -117.0711437 -0.418044E-06  0.398E-02    0.31       1.0  T
   3   -117.0711385  0.524063E-05  0.919E-03    0.31       1.2  T
   4   -117.0711441 -0.564768E-05  0.132E-03    0.31       8.6  T
   5   -117.0711442 -0.485493E-07  0.682E-04    0.31      16.6  T
   6   -117.0711442 -0.791547E-08  0.293E-04    0.31      38.6  T
   7   -117.0711442 -0.113442E-08  0.978E-05    0.31     115.8  T
     SCC iter.                  ...        0 min,  0.099 sec
     gradient                   ...        0 min,  0.081 sec
 * total energy  :  -115.1710793 Eh     change       -0.2896601E-04 Eh
   gradient norm :     0.0024081 Eh/α   predicted    -0.2300236E-04 ( -20.59%)
   displ. norm   :     0.4886600 α      lambda       -0.4502273E-04
   maximum displ.:     0.2100987 α      in ANC's #9, #3, #5, ...
 * RMSD in coord.:     0.7302453 α      energy gain  -0.7653660E-03 Eh

generating ANC from exact Hessian ...
Using Lindh-Hessian (1995)
 Shifting diagonal of input Hessian by    1.0145378952155948E-002
 Lowest  eigenvalues of input Hessian
    0.010000    0.000000    0.000000    0.000000    0.000000    0.000000
    0.000000    0.010189    0.010277    0.010325    0.010361    0.010475
    0.010617    0.010746    0.010835    0.010903    0.010988    0.011052
 Highest eigenvalues
    2.001719    2.003358    2.005528    2.018932    2.242240    2.443740


........................................................................
.............................. CYCLE  151 ..............................
........................................................................

 iter      E             dE          RMSdq      gap      omega  full diag
   1   -117.0681073 -0.117068E+03  0.118E-01    0.31       0.0  T
   2   -117.0681084 -0.113973E-05  0.691E-02    0.31       1.0  T
   3   -117.0681058  0.267211E-05  0.702E-03    0.31       1.6  T
   4   -117.0681090 -0.320967E-05  0.213E-03    0.31       5.3  T
   5   -117.0681091 -0.108009E-06  0.135E-03    0.31       8.4  T
   6   -117.0681091 -0.484724E-07  0.426E-04    0.31      26.6  T
   7   -117.0681091 -0.354574E-08  0.179E-04    0.31      63.1  T
     SCC iter.                  ...        0 min,  0.120 sec
     gradient                   ...        0 min,  0.093 sec
 * total energy  :  -115.1711011 Eh     change       -0.2178851E-04 Eh
   gradient norm :     0.0034648 Eh/α   predicted     0.0000000E+00 (-100.00%)
   displ. norm   :     0.0337365 α      lambda       -0.1204079E-04
   maximum displ.:     0.0134117 α      in ANC's #18, #17, #21, ...

........................................................................
.............................. CYCLE  152 ..............................
........................................................................

 iter      E             dE          RMSdq      gap      omega  full diag
   1   -117.0714710 -0.117071E+03  0.137E-02    0.31       0.0  T
   2   -117.0714712 -0.197908E-06  0.784E-03    0.31       1.4  T
   3   -117.0714703  0.903226E-06  0.441E-03    0.31       2.6  T
   4   -117.0714713 -0.930149E-06  0.176E-03    0.31       6.4  T
   5   -117.0714714 -0.125317E-06  0.677E-04    0.31      16.7  T
   6   -117.0714714 -0.218645E-07  0.240E-04    0.31      47.1  T
   7   -117.0714714 -0.108430E-08  0.123E-04    0.31      92.1  T
     SCC iter.                  ...        0 min,  0.115 sec
     gradient                   ...        0 min,  0.083 sec
 * total energy  :  -115.1711211 Eh     change       -0.1994654E-04 Eh
   gradient norm :     0.0041381 Eh/α   predicted    -0.2288540E-04 (  14.73%)
   displ. norm   :     0.0591319 α      lambda       -0.5669010E-04
   maximum displ.:     0.0268881 α      in ANC's #18, #17, #19, ...

........................................................................
.............................. CYCLE  153 ..............................
........................................................................

 iter      E             dE          RMSdq      gap      omega  full diag
   1   -117.0758664 -0.117076E+03  0.227E-02    0.32       0.0  T
   2   -117.0758665 -0.116086E-06  0.135E-02    0.32       1.0  T
   3   -117.0758622  0.428091E-05  0.889E-03    0.32       1.3  T
   4   -117.0758669 -0.466137E-05  0.139E-03    0.32       8.1  T
   5   -117.0758669 -0.437981E-07  0.711E-04    0.32      15.9  T
   6   -117.0758669 -0.190551E-07  0.315E-04    0.32      36.0  T
   7   -117.0758669 -0.115730E-08  0.129E-04    0.32      88.1  T
     SCC iter.                  ...        0 min,  0.122 sec
     gradient                   ...        0 min,  0.086 sec
 * total energy  :  -115.1711192 Eh     change        0.1846773E-05 Eh
   gradient norm :     0.0060017 Eh/α   predicted    -0.2844682E-04 (*******%)
   displ. norm   :     0.0173530 α      lambda       -0.4329426E-04
   maximum displ.:     0.0086324 α      in ANC's #23, #22, #51, ...

........................................................................
.............................. CYCLE  154 ..............................
........................................................................

 iter      E             dE          RMSdq      gap      omega  full diag
   1   -117.0734864 -0.117073E+03  0.991E-03    0.31       0.0  T
   2   -117.0734865 -0.643119E-07  0.580E-03    0.31       2.0  T
   3   -117.0734856  0.923814E-06  0.443E-03    0.31       2.6  T
   4   -117.0734867 -0.108239E-05  0.104E-03    0.31      10.9  T
   5   -117.0734867 -0.910617E-08  0.578E-04    0.31      19.6  T
   6   -117.0734867 -0.160857E-07  0.265E-04    0.31      42.8  T
   7   -117.0734867 -0.800625E-09  0.102E-04    0.31     111.1  T
     SCC iter.                  ...        0 min,  0.122 sec
     gradient                   ...        0 min,  0.088 sec
 * total energy  :  -115.1711412 Eh     change       -0.2199717E-04 Eh
   gradient norm :     0.0018269 Eh/α   predicted    -0.2165399E-04 (  -1.56%)
   displ. norm   :     0.0471482 α      lambda       -0.2520212E-04
   maximum displ.:     0.0161177 α      in ANC's #37, #40, #17, ...

........................................................................
.............................. CYCLE  155 ..............................
........................................................................

 iter      E             dE          RMSdq      gap      omega  full diag
   1   -117.0696013 -0.117070E+03  0.231E-02    0.31       0.0  T
   2   -117.0696020 -0.705742E-06  0.132E-02    0.31       1.0  T
   3   -117.0696003  0.171889E-05  0.638E-03    0.31       1.8  T
   4   -117.0696019 -0.159665E-05  0.319E-03    0.31       3.5  T
   5   -117.0696023 -0.454252E-06  0.125E-03    0.31       9.0  T
   6   -117.0696024 -0.687790E-07  0.406E-04    0.31      27.9  T
   7   -117.0696024 -0.284203E-08  0.191E-04    0.31      59.4  T
     SCC iter.                  ...        0 min,  0.115 sec
     gradient                   ...        0 min,  0.085 sec
 * total energy  :  -115.1711136 Eh     change        0.2766445E-04 Eh
   gradient norm :     0.0045848 Eh/α   predicted    -0.1261584E-04 (-145.60%)
   displ. norm   :     0.0303762 α      lambda       -0.5361193E-04
   maximum displ.:     0.0108316 α      in ANC's #18, #19, #37, ...

........................................................................
.............................. CYCLE  156 ..............................
........................................................................

 iter      E             dE          RMSdq      gap      omega  full diag
   1   -117.0711480 -0.117071E+03  0.163E-02    0.31       0.0  T
   2   -117.0711481 -0.142923E-06  0.916E-03    0.31       1.2  T
   3   -117.0711480  0.177278E-06  0.221E-03    0.31       5.1  T
   4   -117.0711481 -0.133323E-06  0.134E-03    0.31       8.5  T
   5   -117.0711482 -0.751860E-07  0.592E-04    0.31      19.1  T
   6   -117.0711482 -0.139493E-07  0.197E-04    0.31      57.4  T
   7   -117.0711482 -0.752152E-09  0.769E-05    0.31     147.3  T
     SCC iter.                  ...        0 min,  0.111 sec
     gradient                   ...        0 min,  0.086 sec
 * total energy  :  -115.1711503 Eh     change       -0.3669666E-04 Eh
   gradient norm :     0.0015622 Eh/α   predicted    -0.2683191E-04 ( -26.88%)
   displ. norm   :     0.0763456 α      lambda       -0.2385601E-04
   maximum displ.:     0.0291513 α      in ANC's #18, #17, #5, ...

........................................................................
.............................. CYCLE  157 ..............................
........................................................................

 iter      E             dE          RMSdq      gap      omega  full diag
   1   -117.0738812 -0.117074E+03  0.220E-02    0.32       0.0  T
   2   -117.0738817 -0.507470E-06  0.126E-02    0.32       1.0  T
   3   -117.0738807  0.100453E-05  0.462E-03    0.31       2.4  T
   4   -117.0738816 -0.941515E-06  0.237E-03    0.32       4.8  T
   5   -117.0738818 -0.220054E-06  0.105E-03    0.32      10.8  T
   6   -117.0738819 -0.555549E-07  0.337E-04    0.32      33.6  T
   7   -117.0738819 -0.942421E-09  0.150E-04    0.32      75.6  T
     SCC iter.                  ...        0 min,  0.135 sec
     gradient                   ...        0 min,  0.083 sec
 * total energy  :  -115.1711553 Eh     change       -0.5061859E-05 Eh
   gradient norm :     0.0019089 Eh/α   predicted    -0.1196177E-04 ( 136.31%)
   displ. norm   :     0.0441419 α      lambda       -0.1608609E-04
   maximum displ.:     0.0176943 α      in ANC's #23, #5, #4, ...

........................................................................
.............................. CYCLE  158 ..............................
........................................................................

 iter      E             dE          RMSdq      gap      omega  full diag
   1   -117.0726308 -0.117073E+03  0.181E-02    0.31       0.0  T
   2   -117.0726310 -0.240809E-06  0.988E-03    0.31       1.1  T
   3   -117.0726300  0.102900E-05  0.424E-03    0.32       2.7  T
   4   -117.0726311 -0.108582E-05  0.174E-03    0.31       6.5  T
   5   -117.0726312 -0.789857E-07  0.887E-04    0.32      12.8  T
   6   -117.0726312 -0.447931E-07  0.227E-04    0.32      49.9  T
   7   -117.0726312 -0.202903E-09  0.805E-05    0.32     140.7  T
     SCC iter.                  ...        0 min,  0.133 sec
     gradient                   ...        0 min,  0.083 sec
 * total energy  :  -115.1711670 Eh     change       -0.1165342E-04 Eh
   gradient norm :     0.0017000 Eh/α   predicted    -0.8050797E-05 ( -30.91%)
   displ. norm   :     0.0392995 α      lambda       -0.8882027E-05
   maximum displ.:     0.0168277 α      in ANC's #5, #4, #17, ...

........................................................................
.............................. CYCLE  159 ..............................
........................................................................

 iter      E             dE          RMSdq      gap      omega  full diag
   1   -117.0719826 -0.117072E+03  0.111E-02    0.31       0.0  T
   2   -117.0719826  0.223383E-07  0.659E-03    0.31       1.7  T
   3   -117.0719811  0.152050E-05  0.577E-03    0.32       2.0  T
   4   -117.0719829 -0.183731E-05  0.712E-04    0.31      15.9  T
   5   -117.0719829 -0.104073E-07  0.356E-04    0.31      31.8  T
   6   -117.0719830 -0.494776E-08  0.150E-04    0.31      75.5  T
     SCC iter.                  ...        0 min,  0.132 sec
     gradient                   ...        0 min,  0.080 sec
 * total energy  :  -115.1711750 Eh     change       -0.8042838E-05 Eh
   gradient norm :     0.0006792 Eh/α   predicted    -0.4444406E-05 ( -44.74%)
   displ. norm   :     0.0875071 α      lambda       -0.7562008E-05
   maximum displ.:     0.0379396 α      in ANC's #5, #4, #17, ...

........................................................................
.............................. CYCLE  160 ..............................
........................................................................

 iter      E             dE          RMSdq      gap      omega  full diag
   1   -117.0718643 -0.117072E+03  0.186E-02    0.31       0.0  T
   2   -117.0718643 -0.490349E-07  0.109E-02    0.31       1.0  T
   3   -117.0718642  0.153038E-06  0.155E-03    0.31       7.3  T
   4   -117.0718643 -0.171189E-06  0.523E-04    0.31      21.7  T
   5   -117.0718643 -0.728083E-08  0.324E-04    0.31      35.0  T
   6   -117.0718643 -0.419492E-08  0.126E-04    0.31      89.7  T
     SCC iter.                  ...        0 min,  0.117 sec
     gradient                   ...        0 min,  0.088 sec
 * total energy  :  -115.1711846 Eh     change       -0.9595154E-05 Eh
   gradient norm :     0.0008402 Eh/α   predicted    -0.3795389E-05 ( -60.44%)
   displ. norm   :     0.2696319 α      lambda       -0.2090808E-04
   maximum displ.:     0.1173889 α      in ANC's #5, #4, #17, ...

........................................................................
.............................. CYCLE  161 ..............................
........................................................................

 iter      E             dE          RMSdq      gap      omega  full diag
   1   -117.0716979 -0.117072E+03  0.567E-02    0.31       0.0  T
   2   -117.0716983 -0.418711E-06  0.333E-02    0.32       1.0  T
   3   -117.0716963  0.205355E-05  0.531E-03    0.32       2.1  T
   4   -117.0716986 -0.229266E-05  0.137E-03    0.31       8.2  T
   5   -117.0716986 -0.566701E-07  0.792E-04    0.32      14.3  T
   6   -117.0716986 -0.181670E-07  0.332E-04    0.31      34.1  T
   7   -117.0716986 -0.133863E-08  0.167E-04    0.32      67.8  T
     SCC iter.                  ...        0 min,  0.146 sec
     gradient                   ...        0 min,  0.085 sec
 * total energy  :  -115.1712008 Eh     change       -0.1614402E-04 Eh
   gradient norm :     0.0016825 Eh/α   predicted    -0.1079934E-04 ( -33.11%)
   displ. norm   :     0.1841598 α      lambda       -0.1566533E-04
   maximum displ.:     0.0860182 α      in ANC's #5, #1, #4, ...

........................................................................
.............................. CYCLE  162 ..............................
........................................................................

 iter      E             dE          RMSdq      gap      omega  full diag
   1   -117.0722554 -0.117072E+03  0.380E-02    0.32       0.0  T
   2   -117.0722555 -0.553207E-07  0.224E-02    0.31       1.0  T
   3   -117.0722498  0.563800E-05  0.945E-03    0.32       1.2  T
   4   -117.0722559 -0.601863E-05  0.766E-04    0.31      14.8  T
   5   -117.0722559 -0.117244E-07  0.450E-04    0.31      25.2  T
   6   -117.0722559 -0.428891E-08  0.225E-04    0.31      50.4  T
     SCC iter.                  ...        0 min,  0.119 sec
     gradient                   ...        0 min,  0.087 sec
 * total energy  :  -115.1712143 Eh     change       -0.1353919E-04 Eh
   gradient norm :     0.0009660 Eh/α   predicted    -0.7952407E-05 ( -41.26%)
   displ. norm   :     0.0903611 α      lambda       -0.6011981E-05
   maximum displ.:     0.0469316 α      in ANC's #5, #1, #11, ...

........................................................................
.............................. CYCLE  163 ..............................
........................................................................

 iter      E             dE          RMSdq      gap      omega  full diag
   1   -117.0726750 -0.117073E+03  0.178E-02    0.31       0.0  T
   2   -117.0726750 -0.322688E-07  0.104E-02    0.32       1.1  T
   3   -117.0726746  0.459983E-06  0.296E-03    0.31       3.8  T
   4   -117.0726751 -0.493937E-06  0.444E-04    0.32      25.5  T
   5   -117.0726751 -0.721704E-08  0.229E-04    0.32      49.3  T
     SCC iter.                  ...        0 min,  0.107 sec
     gradient                   ...        0 min,  0.090 sec
 * total energy  :  -115.1712222 Eh     change       -0.7851751E-05 Eh
   gradient norm :     0.0006435 Eh/α   predicted    -0.3019754E-05 ( -61.54%)
   displ. norm   :     0.1399847 α      lambda       -0.1210654E-04
   maximum displ.:     0.0741144 α      in ANC's #5, #1, #9, ...

........................................................................
.............................. CYCLE  164 ..............................
........................................................................

 iter      E             dE          RMSdq      gap      omega  full diag
   1   -117.0729402 -0.117073E+03  0.289E-02    0.31       0.0  T
   2   -117.0729403 -0.102959E-06  0.169E-02    0.31       1.0  T
   3   -117.0729401  0.234323E-06  0.206E-03    0.31       5.5  T
   4   -117.0729404 -0.274258E-06  0.708E-04    0.31      16.0  T
   5   -117.0729404 -0.818427E-08  0.441E-04    0.31      25.7  T
   6   -117.0729404 -0.869555E-08  0.170E-04    0.31      66.8  T
     SCC iter.                  ...        0 min,  0.122 sec
     gradient                   ...        0 min,  0.085 sec
 * total energy  :  -115.1712364 Eh     change       -0.1424635E-04 Eh
   gradient norm :     0.0005936 Eh/α   predicted    -0.6109280E-05 ( -57.12%)
   displ. norm   :     0.1602088 α      lambda       -0.9780963E-05
   maximum displ.:     0.0882474 α      in ANC's #5, #1, #9, ...

........................................................................
.............................. CYCLE  165 ..............................
........................................................................

 iter      E             dE          RMSdq      gap      omega  full diag
   1   -117.0727187 -0.117073E+03  0.332E-02    0.31       0.0  T
   2   -117.0727189 -0.126530E-06  0.195E-02    0.31       1.0  T
   3   -117.0727187  0.200801E-06  0.213E-03    0.31       5.3  T
   4   -117.0727189 -0.259887E-06  0.597E-04    0.31      19.0  T
   5   -117.0727189  0.498929E-09  0.409E-04    0.31      27.7  T
   6   -117.0727189 -0.634361E-08  0.191E-04    0.31      59.2  T
     SCC iter.                  ...        0 min,  0.098 sec
     gradient                   ...        0 min,  0.094 sec
 * total energy  :  -115.1712475 Eh     change       -0.1111262E-04 Eh
   gradient norm :     0.0007520 Eh/α   predicted    -0.4948976E-05 ( -55.47%)
   displ. norm   :     0.1266407 α      lambda       -0.6658725E-05
   maximum displ.:     0.0733370 α      in ANC's #5, #1, #9, ...

........................................................................
.............................. CYCLE  166 ..............................
........................................................................

 iter      E             dE          RMSdq      gap      omega  full diag
   1   -117.0727906 -0.117073E+03  0.270E-02    0.31       0.0  T
   2   -117.0727906 -0.583389E-07  0.159E-02    0.31       1.0  T
   3   -117.0727896  0.106565E-05  0.431E-03    0.32       2.6  T
   4   -117.0727907 -0.114784E-05  0.525E-04    0.31      21.6  T
   5   -117.0727907 -0.426043E-08  0.323E-04    0.31      35.1  T
   6   -117.0727907 -0.293352E-08  0.136E-04    0.31      83.3  T
     SCC iter.                  ...        0 min,  0.099 sec
     gradient                   ...        0 min,  0.090 sec
 * total energy  :  -115.1712559 Eh     change       -0.8349868E-05 Eh
   gradient norm :     0.0006625 Eh/α   predicted    -0.3354163E-05 ( -59.83%)
   displ. norm   :     0.1333562 α      lambda       -0.7896803E-05
   maximum displ.:     0.0793919 α      in ANC's #5, #1, #9, ...

........................................................................
.............................. CYCLE  167 ..............................
........................................................................

 iter      E             dE          RMSdq      gap      omega  full diag
   1   -117.0727177 -0.117073E+03  0.297E-02    0.31       0.0  T
   2   -117.0727178 -0.508123E-07  0.175E-02    0.31       1.0  T
   3   -117.0727156  0.218185E-05  0.587E-03    0.32       1.9  T
   4   -117.0727179 -0.233057E-05  0.587E-04    0.31      19.3  T
   5   -117.0727179 -0.743891E-08  0.311E-04    0.31      36.4  T
   6   -117.0727179 -0.105470E-08  0.136E-04    0.31      83.5  T
     SCC iter.                  ...        0 min,  0.104 sec
     gradient                   ...        0 min,  0.082 sec
 * total energy  :  -115.1712661 Eh     change       -0.1021943E-04 Eh
   gradient norm :     0.0004626 Eh/α   predicted    -0.3980776E-05 ( -61.05%)
   displ. norm   :     0.1802378 α      lambda       -0.1051433E-04
   maximum displ.:     0.1084220 α      in ANC's #5, #1, #9, ...

........................................................................
.............................. CYCLE  168 ..............................
........................................................................

 iter      E             dE          RMSdq      gap      omega  full diag
   1   -117.0725047 -0.117073E+03  0.400E-02    0.32       0.0  T
   2   -117.0725048 -0.823525E-07  0.236E-02    0.31       1.0  T
   3   -117.0725006  0.417812E-05  0.820E-03    0.32       1.4  T
   4   -117.0725051 -0.446233E-05  0.771E-04    0.32      14.7  T
   5   -117.0725051 -0.132061E-07  0.426E-04    0.32      26.6  T
   6   -117.0725051 -0.275804E-08  0.190E-04    0.32      59.5  T
     SCC iter.                  ...        0 min,  0.133 sec
     gradient                   ...        0 min,  0.085 sec
 * total energy  :  -115.1712789 Eh     change       -0.1276877E-04 Eh
   gradient norm :     0.0004064 Eh/α   predicted    -0.5334173E-05 ( -58.22%)
   displ. norm   :     0.2016976 α      lambda       -0.9472580E-05
   maximum displ.:     0.1218834 α      in ANC's #5, #1, #9, ...

........................................................................
.............................. CYCLE  169 ..............................
........................................................................

 iter      E             dE          RMSdq      gap      omega  full diag
   1   -117.0723633 -0.117072E+03  0.427E-02    0.32       0.0  T
   2   -117.0723634 -0.721061E-07  0.252E-02    0.32       1.0  T
   3   -117.0723575  0.588087E-05  0.967E-03    0.32       1.2  T
   4   -117.0723638 -0.627271E-05  0.831E-04    0.32      13.6  T
   5   -117.0723638 -0.179759E-07  0.444E-04    0.32      25.5  T
   6   -117.0723638 -0.231445E-08  0.201E-04    0.32      56.4  T
     SCC iter.                  ...        0 min,  0.114 sec
     gradient                   ...        0 min,  0.089 sec
 * total energy  :  -115.1712899 Eh     change       -0.1109640E-04 Eh
   gradient norm :     0.0005976 Eh/α   predicted    -0.4824421E-05 ( -56.52%)
   displ. norm   :     0.1950948 α      lambda       -0.7622732E-05
   maximum displ.:     0.1182742 α      in ANC's #5, #1, #9, ...

........................................................................
.............................. CYCLE  170 ..............................
........................................................................

 iter      E             dE          RMSdq      gap      omega  full diag
   1   -117.0722634 -0.117072E+03  0.390E-02    0.32       0.0  T
   2   -117.0722635 -0.119085E-06  0.230E-02    0.32       1.0  T
   3   -117.0722607  0.275905E-05  0.652E-03    0.32       1.7  T
   4   -117.0722637 -0.295679E-05  0.874E-04    0.32      12.9  T
   5   -117.0722637 -0.206939E-07  0.419E-04    0.32      27.0  T
   6   -117.0722637 -0.221637E-08  0.198E-04    0.32      57.2  T
     SCC iter.                  ...        0 min,  0.112 sec
     gradient                   ...        0 min,  0.082 sec
 * total energy  :  -115.1712990 Eh     change       -0.9091552E-05 Eh
   gradient norm :     0.0006300 Eh/α   predicted    -0.3879434E-05 ( -57.33%)
   displ. norm   :     0.2327112 α      lambda       -0.8689519E-05
   maximum displ.:     0.1411686 α      in ANC's #5, #1, #9, ...

........................................................................
.............................. CYCLE  171 ..............................
........................................................................

 iter      E             dE          RMSdq      gap      omega  full diag
   1   -117.0722497 -0.117072E+03  0.454E-02    0.32       0.0  T
   2   -117.0722499 -0.145067E-06  0.267E-02    0.32       1.0  T
   3   -117.0722459  0.394133E-05  0.787E-03    0.32       1.4  T
   4   -117.0722502 -0.422123E-05  0.893E-04    0.32      12.7  T
   5   -117.0722502 -0.254891E-07  0.453E-04    0.32      25.0  T
   6   -117.0722502 -0.308681E-08  0.207E-04    0.32      54.7  T
     SCC iter.                  ...        0 min,  0.111 sec
     gradient                   ...        0 min,  0.102 sec
 * total energy  :  -115.1713093 Eh     change       -0.1027350E-04 Eh
   gradient norm :     0.0006731 Eh/α   predicted    -0.4451080E-05 ( -56.67%)
   displ. norm   :     0.3092391 α      lambda       -0.1084650E-04
   maximum displ.:     0.1871861 α      in ANC's #5, #1, #9, ...

........................................................................
.............................. CYCLE  172 ..............................
........................................................................

 iter      E             dE          RMSdq      gap      omega  full diag
   1   -117.0720246 -0.117072E+03  0.600E-02    0.32       0.0  T
   2   -117.0720248 -0.280811E-06  0.352E-02    0.32       1.0  T
   3   -117.0720195  0.538027E-05  0.907E-03    0.33       1.2  T
   4   -117.0720252 -0.578367E-05  0.123E-03    0.32       9.2  T
   5   -117.0720253 -0.496395E-07  0.597E-04    0.32      19.0  T
   6   -117.0720253 -0.470530E-08  0.283E-04    0.32      39.9  T
   7   -117.0720253 -0.758703E-09  0.132E-04    0.32      85.9  T
     SCC iter.                  ...        0 min,  0.145 sec
     gradient                   ...        0 min,  0.088 sec
 * total energy  :  -115.1713215 Eh     change       -0.1216031E-04 Eh
   gradient norm :     0.0007072 Eh/α   predicted    -0.5657773E-05 ( -53.47%)
   displ. norm   :     0.3383280 α      lambda       -0.1118117E-04
   maximum displ.:     0.2038701 α      in ANC's #5, #1, #9, ...

........................................................................
.............................. CYCLE  173 ..............................
........................................................................

 iter      E             dE          RMSdq      gap      omega  full diag
   1   -117.0721210 -0.117072E+03  0.663E-02    0.33       0.0  T
   2   -117.0721214 -0.366096E-06  0.389E-02    0.32       1.0  T
   3   -117.0721156  0.576405E-05  0.938E-03    0.33       1.2  T
   4   -117.0721218 -0.621188E-05  0.139E-03    0.32       8.1  T
   5   -117.0721219 -0.695177E-07  0.690E-04    0.32      16.4  T
   6   -117.0721219 -0.903675E-08  0.321E-04    0.32      35.3  T
   7   -117.0721219 -0.865910E-09  0.160E-04    0.32      70.9  T
     SCC iter.                  ...        0 min,  0.144 sec
     gradient                   ...        0 min,  0.097 sec
 * total energy  :  -115.1713324 Eh     change       -0.1093430E-04 Eh
   gradient norm :     0.0006879 Eh/α   predicted    -0.5878481E-05 ( -46.24%)
   displ. norm   :     0.1342213 α      lambda       -0.7601322E-05
   maximum displ.:     0.0752087 α      in ANC's #5, #1, #9, ...

........................................................................
.............................. CYCLE  174 ..............................
........................................................................

 iter      E             dE          RMSdq      gap      omega  full diag
   1   -117.0735819 -0.117074E+03  0.297E-02    0.33       0.0  T
   2   -117.0735820 -0.104087E-06  0.174E-02    0.32       1.0  T
   3   -117.0735806  0.137164E-05  0.461E-03    0.33       2.5  T
   4   -117.0735821 -0.148482E-05  0.732E-04    0.32      15.5  T
   5   -117.0735821 -0.157016E-07  0.447E-04    0.33      25.3  T
   6   -117.0735821 -0.819674E-08  0.177E-04    0.33      63.8  T
     SCC iter.                  ...        0 min,  0.122 sec
     gradient                   ...        0 min,  0.086 sec
 * total energy  :  -115.1713398 Eh     change       -0.7375804E-05 Eh
   gradient norm :     0.0006770 Eh/α   predicted    -0.3835283E-05 ( -48.00%)
   displ. norm   :     0.2539874 α      lambda       -0.8516453E-05
   maximum displ.:     0.1501850 α      in ANC's #5, #1, #9, ...

........................................................................
.............................. CYCLE  175 ..............................
........................................................................

 iter      E             dE          RMSdq      gap      omega  full diag
   1   -117.0723002 -0.117072E+03  0.536E-02    0.32       0.0  T
   2   -117.0723004 -0.279217E-06  0.315E-02    0.32       1.0  T
   3   -117.0722982  0.219874E-05  0.569E-03    0.33       2.0  T
   4   -117.0723006 -0.239503E-05  0.129E-03    0.32       8.8  T
   5   -117.0723007 -0.559997E-07  0.656E-04    0.32      17.2  T
   6   -117.0723007 -0.969858E-08  0.269E-04    0.32      42.1  T
   7   -117.0723007 -0.774989E-09  0.147E-04    0.32      77.0  T
     SCC iter.                  ...        0 min,  0.140 sec
     gradient                   ...        0 min,  0.090 sec
 * total energy  :  -115.1713471 Eh     change       -0.7322824E-05 Eh
   gradient norm :     0.0007881 Eh/α   predicted    -0.4381935E-05 ( -40.16%)
   displ. norm   :     0.0680697 α      lambda       -0.6104351E-05
   maximum displ.:     0.0277102 α      in ANC's #3, #16, #13, ...

........................................................................
.............................. CYCLE  176 ..............................
........................................................................

 iter      E             dE          RMSdq      gap      omega  full diag
   1   -117.0730883 -0.117073E+03  0.186E-02    0.32       0.0  T
   2   -117.0730883 -0.238484E-07  0.109E-02    0.32       1.0  T
   3   -117.0730871  0.120514E-05  0.449E-03    0.33       2.5  T
   4   -117.0730884 -0.128985E-05  0.460E-04    0.32      24.6  T
   5   -117.0730884 -0.164360E-08  0.294E-04    0.32      38.5  T
   6   -117.0730884 -0.304243E-08  0.120E-04    0.32      94.5  T
     SCC iter.                  ...        0 min,  0.135 sec
     gradient                   ...        0 min,  0.091 sec
 * total energy  :  -115.1713534 Eh     change       -0.6244171E-05 Eh
   gradient norm :     0.0006773 Eh/α   predicted    -0.3059325E-05 ( -51.01%)
   displ. norm   :     0.0766927 α      lambda       -0.5399162E-05
   maximum displ.:     0.0337098 α      in ANC's #3, #6, #16, ...

........................................................................
.............................. CYCLE  177 ..............................
........................................................................

 iter      E             dE          RMSdq      gap      omega  full diag
   1   -117.0732659 -0.117073E+03  0.194E-02    0.32       0.0  T
   2   -117.0732658  0.354259E-07  0.115E-02    0.32       1.0  T
   3   -117.0732625  0.332879E-05  0.754E-03    0.33       1.5  T
   4   -117.0732661 -0.358217E-05  0.496E-04    0.32      22.8  T
   5   -117.0732661 -0.261460E-08  0.285E-04    0.32      39.7  T
   6   -117.0732661 -0.248464E-08  0.130E-04    0.32      87.0  T
     SCC iter.                  ...        0 min,  0.106 sec
     gradient                   ...        0 min,  0.086 sec
 * total energy  :  -115.1713587 Eh     change       -0.5391095E-05 Eh
   gradient norm :     0.0004871 Eh/α   predicted    -0.2708725E-05 ( -49.76%)
   displ. norm   :     0.0672635 α      lambda       -0.3719134E-05
   maximum displ.:     0.0329385 α      in ANC's #3, #6, #5, ...

........................................................................
.............................. CYCLE  178 ..............................
........................................................................

 iter      E             dE          RMSdq      gap      omega  full diag
   1   -117.0731555 -0.117073E+03  0.169E-02    0.32       0.0  T
   2   -117.0731555  0.496627E-09  0.999E-03    0.32       1.1  T
   3   -117.0731539  0.163207E-05  0.502E-03    0.33       2.3  T
   4   -117.0731556 -0.174180E-05  0.425E-04    0.32      26.6  T
   5   -117.0731556 -0.373478E-08  0.231E-04    0.32      49.0  T
   6   -117.0731556 -0.147237E-08  0.971E-05    0.32     116.6  T
     SCC iter.                  ...        0 min,  0.109 sec
     gradient                   ...        0 min,  0.099 sec
 * total energy  :  -115.1713628 Eh     change       -0.4014078E-05 Eh
   gradient norm :     0.0004144 Eh/α   predicted    -0.1864439E-05 ( -53.55%)
   displ. norm   :     0.0686905 α      lambda       -0.3294121E-05
   maximum displ.:     0.0358734 α      in ANC's #3, #6, #2, ...

........................................................................
.............................. CYCLE  179 ..............................
........................................................................

 iter      E             dE          RMSdq      gap      omega  full diag
   1   -117.0728516 -0.117073E+03  0.167E-02    0.32       0.0  T
   2   -117.0728517 -0.389389E-07  0.982E-03    0.32       1.2  T
   3   -117.0728514  0.311637E-06  0.210E-03    0.32       5.4  T
   4   -117.0728517 -0.340958E-06  0.459E-04    0.32      24.7  T
   5   -117.0728517 -0.482298E-08  0.284E-04    0.32      39.9  T
     SCC iter.                  ...        0 min,  0.093 sec
     gradient                   ...        0 min,  0.087 sec
 * total energy  :  -115.1713664 Eh     change       -0.3622652E-05 Eh
   gradient norm :     0.0003483 Eh/α   predicted    -0.1655241E-05 ( -54.31%)
   displ. norm   :     0.0741336 α      lambda       -0.3157928E-05
   maximum displ.:     0.0399206 α      in ANC's #3, #6, #2, ...

........................................................................
.............................. CYCLE  180 ..............................
........................................................................

 iter      E             dE          RMSdq      gap      omega  full diag
   1   -117.0727322 -0.117073E+03  0.174E-02    0.32       0.0  T
   2   -117.0727323 -0.454488E-07  0.102E-02    0.32       1.1  T
   3   -117.0727321  0.163421E-06  0.163E-03    0.32       7.0  T
   4   -117.0727323 -0.190900E-06  0.326E-04    0.32      34.7  T
   5   -117.0727323 -0.472568E-09  0.201E-04    0.32      56.3  T
     SCC iter.                  ...        0 min,  0.103 sec
     gradient                   ...        0 min,  0.099 sec
 * total energy  :  -115.1713699 Eh     change       -0.3516771E-05 Eh
   gradient norm :     0.0004088 Eh/α   predicted    -0.1585606E-05 ( -54.91%)
   displ. norm   :     0.0914719 α      lambda       -0.3102760E-05
   maximum displ.:     0.0486593 α      in ANC's #3, #6, #9, ...

........................................................................
.............................. CYCLE  181 ..............................
........................................................................

 iter      E             dE          RMSdq      gap      omega  full diag
   1   -117.0726119 -0.117073E+03  0.211E-02    0.32       0.0  T
   2   -117.0726120 -0.607746E-07  0.123E-02    0.33       1.0  T
   3   -117.0726116  0.389160E-06  0.276E-03    0.32       4.1  T
   4   -117.0726120 -0.427698E-06  0.534E-04    0.33      21.2  T
   5   -117.0726120 -0.120921E-07  0.284E-04    0.33      39.8  T
   6   -117.0726120 -0.291496E-08  0.943E-05    0.33     120.1  T
     SCC iter.                  ...        0 min,  0.111 sec
     gradient                   ...        0 min,  0.087 sec
 * total energy  :  -115.1713735 Eh     change       -0.3557533E-05 Eh
   gradient norm :     0.0004134 Eh/α   predicted    -0.1559123E-05 ( -56.17%)
   displ. norm   :     0.0971218 α      lambda       -0.2924693E-05
   maximum displ.:     0.0528735 α      in ANC's #3, #6, #9, ...

........................................................................
.............................. CYCLE  182 ..............................
........................................................................

 iter      E             dE          RMSdq      gap      omega  full diag
   1   -117.0727048 -0.117073E+03  0.223E-02    0.33       0.0  T
   2   -117.0727049 -0.603720E-07  0.130E-02    0.33       1.0  T
   3   -117.0727047  0.242452E-06  0.194E-03    0.32       5.8  T
   4   -117.0727049 -0.277122E-06  0.488E-04    0.33      23.2  T
   5   -117.0727049 -0.438227E-08  0.333E-04    0.33      34.0  T
     SCC iter.                  ...        0 min,  0.088 sec
     gradient                   ...        0 min,  0.086 sec
 * total energy  :  -115.1713766 Eh     change       -0.3195107E-05 Eh
   gradient norm :     0.0003666 Eh/α   predicted    -0.1473444E-05 ( -53.88%)
   displ. norm   :     0.0853538 α      lambda       -0.2248751E-05
   maximum displ.:     0.0472146 α      in ANC's #3, #9, #6, ...

........................................................................
.............................. CYCLE  183 ..............................
........................................................................

 iter      E             dE          RMSdq      gap      omega  full diag
   1   -117.0728556 -0.117073E+03  0.191E-02    0.33       0.0  T
   2   -117.0728556 -0.487677E-07  0.111E-02    0.33       1.0  T
   3   -117.0728554  0.202460E-06  0.167E-03    0.32       6.8  T
   4   -117.0728556 -0.234154E-06  0.385E-04    0.33      29.4  T
   5   -117.0728556 -0.169815E-08  0.256E-04    0.33      44.2  T
     SCC iter.                  ...        0 min,  0.097 sec
     gradient                   ...        0 min,  0.091 sec
 * total energy  :  -115.1713791 Eh     change       -0.2432261E-05 Eh
   gradient norm :     0.0003008 Eh/α   predicted    -0.1130779E-05 ( -53.51%)
   displ. norm   :     0.0718196 α      lambda       -0.1863920E-05
   maximum displ.:     0.0405953 α      in ANC's #3, #2, #9, ...
 * RMSD in coord.:     0.3541517 α      energy gain  -0.2997313E-03 Eh

generating ANC from exact Hessian ...
Using Lindh-Hessian (1995)
 Shifting diagonal of input Hessian by    1.0134285101432324E-002
 Lowest  eigenvalues of input Hessian
    0.010000    0.000000    0.000000    0.000000    0.000000    0.000000
    0.000000    0.010194    0.010269    0.010349    0.010387    0.010483
    0.010607    0.010741    0.010838    0.010900    0.010976    0.011042
 Highest eigenvalues
    2.003464    2.006208    2.006393    2.024552    2.246012    2.447048


........................................................................
.............................. CYCLE  184 ..............................
........................................................................

 iter      E             dE          RMSdq      gap      omega  full diag
   1   -117.0729843 -0.117073E+03  0.154E-02    0.33       0.0  T
   2   -117.0729843 -0.315175E-07  0.899E-03    0.33       1.3  T
   3   -117.0729842  0.107796E-06  0.125E-03    0.33       9.1  T
   4   -117.0729843 -0.124880E-06  0.352E-04    0.33      32.2  T
   5   -117.0729843 -0.218493E-08  0.223E-04    0.33      50.9  T
     SCC iter.                  ...        0 min,  0.131 sec
     gradient                   ...        0 min,  0.084 sec
 * total energy  :  -115.1713813 Eh     change       -0.2177768E-05 Eh
   gradient norm :     0.0003344 Eh/α   predicted     0.0000000E+00 (-100.00%)
   displ. norm   :     0.0111411 α      lambda       -0.8574308E-06
   maximum displ.:     0.0041516 α      in ANC's #18, #2, #13, ...

........................................................................
.............................. CYCLE  185 ..............................
........................................................................

 iter      E             dE          RMSdq      gap      omega  full diag
   1   -117.0729924 -0.117073E+03  0.389E-03    0.32       0.0  T
   2   -117.0729924 -0.527265E-08  0.225E-03    0.32       5.0  T
   3   -117.0729923  0.557691E-07  0.990E-04    0.33      11.4  T
   4   -117.0729924 -0.605950E-07  0.193E-04    0.32      58.6  T
   5   -117.0729924 -0.808427E-09  0.121E-04    0.32      93.4  T
     SCC iter.                  ...        0 min,  0.106 sec
     gradient                   ...        0 min,  0.081 sec
 * total energy  :  -115.1713822 Eh     change       -0.9678973E-06 Eh
   gradient norm :     0.0002509 Eh/α   predicted    -0.4343869E-06 ( -55.12%)
   displ. norm   :     0.0410292 α      lambda       -0.2325989E-05
   maximum displ.:     0.0160067 α      in ANC's #13, #2, #18, ...

   *** GEOMETRY OPTIMIZATION CONVERGED AFTER 185 ITERATIONS ***

------------------------------------------------------------------------
 total energy gain   :        -0.4624360 Eh     -290.1830 kcal/mol
 total RMSD          :         3.1474344 a0        1.6656 Å
 total power (kW/mol):        -6.5628407 (step)  -24.9063 (real)
------------------------------------------------------------------------

 ANCopt (total)                0 d,  0 h,  0 min, 48.748 sec
 optimizer setup                ...        0 min,  0.001 sec (  0.002%)
 model hessian                  ...        0 min,  0.599 sec (  1.229%)
 ANC generation                 ...        0 min,  0.120 sec (  0.247%)
 coordinate transformation      ...        0 min,  0.031 sec (  0.065%)
 single point calculation       ...        0 min, 47.721 sec ( 97.894%)
 optimization log               ...        0 min,  0.127 sec (  0.261%)
 hessian update                 ...        0 min,  0.031 sec (  0.064%)
 rational function              ...        0 min,  0.079 sec (  0.162%)

================
 final structure:
================
78
 xtb: 6.7.1 (edcfbbe)
Co          -0.23912287640949       -0.23490033267266       -0.48001859947406
N            0.29956646080412       -2.22280892730015        0.18648715503591
C            1.56070810804818       -2.86498116519799       -0.11992392428050
C            2.47752232505578       -1.87532527821030       -0.85635892938947
P            1.91429232515480       -0.10709891306339       -0.67374333477649
C            2.87857785451785        0.44640450823648        0.77212514182097
C            2.69255254460857       -0.23402951591310        1.97321521589049
C            3.35881678169912        0.16654873979142        3.11512645341878
C            4.20762845181091        1.26208645201887        3.07399510253560
C            4.37661956958453        1.95841423305715        1.88907187158127
C            3.71272386985963        1.55817212409954        0.74194198220542
C            2.79697099452012        0.71006860908989       -2.04179019215682
C            2.12649527274447        1.71967706508340       -2.72243161737877
C            2.74835683919569        2.40223256299900       -3.75276350158959
C            4.04329585839233        2.07112483326559       -4.11473542052159
C            4.71655193838975        1.06409063801406       -3.44010498138140
C            4.10179242041344        0.38735079157078       -2.40216410153079
C           -0.74941696248733       -3.05422193985525        0.74002388160528
C           -1.85464975530271       -2.14150929012121        1.28186096138745
P           -2.25992792802477       -0.84639938692554        0.01172697706299
C           -3.47952161229307        0.22659534130260        0.82910569770906
C           -3.55186832947388        0.42221507315510        2.20327485407696
C           -4.46984995199459        1.31579392034998        2.72867969746180
C           -5.31178326123963        2.02833807101828        1.89160411725827
C           -5.22974827900396        1.85441720306293        0.51833848080465
C           -4.31489232740873        0.96443212152874       -0.00932541500594
C           -3.36487054005602       -1.83799224813640       -1.06465623217731
C           -2.96500213407652       -2.20345323830664       -2.34268877163773
C           -3.77835009224555       -3.00188832995018       -3.12930467356223
C           -4.99860659871417       -3.43832704044085       -2.64254247780753
C           -5.40608265443834       -3.07322975801220       -1.36800822728157
C           -4.59465349490779       -2.27899022852942       -0.58036208039575
H            1.42718336601185       -3.76731081896241       -0.74341331916599
H            2.02486938322037       -3.18665486434146        0.82259966436207
H            2.46764896532876       -2.07457838956620       -1.93247585192972
H            3.50856540926241       -1.96709633215430       -0.50561438002181
H            2.00964787006397       -1.07118818032966        2.00626867895378
H            3.21384909668705       -0.37025117400715        4.04222288991510
H            4.72802246460698        1.57803594579701        3.96662469611022
H            5.02622358243744        2.82174663306296        1.85719384062881
H            3.84234814737915        2.11268126338452       -0.17743453724750
H            1.10900515112016        1.95098994904351       -2.43079749933287
H            2.22307480157622        3.18797000400072       -4.27583849912252
H            4.53125848557688        2.59944150752826       -4.92093598040878
H            5.72941440993123        0.81004139092393       -3.71941263210578
H            4.63808620235807       -0.38601562288363       -1.87126291203373
H           -1.16882112059414       -3.75375506675852       -0.00766161816126
H           -0.33549455339142       -3.65349335459020        1.56127035886406
H           -2.74639562516216       -2.71040689006009        1.55831653574620
H           -1.46971379105868       -1.61586959589169        2.16009759645157
H           -2.89591199448122       -0.11741913702775        2.87069754385529
H           -4.52495596764765        1.45796441097070        3.79868596409491
H           -6.02595142357342        2.72402384827549        2.30754793396395
H           -5.87731818028336        2.41700243256478       -0.13879206505040
H           -4.23534289246152        0.82740916117071       -1.08089573225848
H           -2.01576471685687       -1.84925882996152       -2.72136152123614
H           -3.45920970278504       -3.28165421745308       -4.12321214250946
H           -5.63542904244916       -4.06004324483867       -3.25502847037867
H           -6.36012465292243       -3.41005160962727       -0.98813611150739
H           -4.91691154443892       -1.98962039313397        0.41149423884111
C           -0.28461085239722        0.85742406839155        0.88255255016093
O           -0.38280367043586        1.75076145873999        1.61625759025376
O            3.30684340626163       -2.41817155714599       -4.06722220964153
C            3.44042816604308       -1.61197603502581       -4.96058444003416
C            2.43126285296665       -0.65817227794435       -5.41016324277689
C            1.19365554177616       -0.58806161942151       -4.76789277254313
C            0.24410601565032        0.32382383558222       -5.18225438004838
C            0.51870426775943        1.17109087553238       -6.24477985890453
C            1.74417864430270        1.10647573129252       -6.89352315556977
C            2.69925463206379        0.19969641562081       -6.47887047729131
H           -0.06221466859816       -1.78735616647184       -0.69780210381930
H            4.39529303872091       -1.55546648336072       -5.52167954026759
H           -0.36810178297163       -0.40756683304956       -1.92833000643714
H            1.00006556705328       -1.24954659438275       -3.93689710752855
H           -0.70406089255699        0.38203914419480       -4.66912833006333
H           -0.22366068977327        1.88580207258317       -6.56914000521680
H            1.95154495659251        1.76894755909448       -7.72117078040113
H            3.65717113858295        0.14674630084295       -6.97697809029015

 Bond Distances (Angstroems)
 ---------------------------
Co1-N2=2.1648        Co1-P5=2.1659        Co1-P20=2.1678       Co1-C61=1.7470       Co1-H71=1.5776       Co1-H73=1.4643       
N2-Co1=2.1648        N2-C3=1.4480         N2-C18=1.4485        N2-H71=1.0500        C3-N2=1.4480         C3-C4=1.5370         
C3-H33=1.1049        C3-H34=1.0988        C4-C3=1.5370         C4-P5=1.8647         C4-H35=1.0945        C4-H36=1.0929        
P5-Co1=2.1659        P5-C4=1.8647         P5-C6=1.8239         P5-C12=1.8217        C6-P5=1.8239         C6-C7=1.3929         
C6-C11=1.3902        C7-C6=1.3929         C7-C8=1.3814         C7-H37=1.0809        C8-C7=1.3814         C8-C9=1.3865         
C8-H38=1.0811        C9-C8=1.3865         C9-C10=1.3847        C9-H39=1.0805        C10-C9=1.3847        C10-C11=1.3845       
C10-H40=1.0809       C11-C6=1.3902        C11-C10=1.3845       C11-H41=1.0815       C12-P5=1.8217        C12-C13=1.3900       
C12-C17=1.3916       C13-C12=1.3900       C13-C14=1.3835       C13-H42=1.0834       C14-C13=1.3835       C14-C15=1.3847       
C14-H43=1.0802       C15-C14=1.3847       C15-C16=1.3865       C15-H44=1.0804       C16-C15=1.3865       C16-C17=1.3832       
C16-H45=1.0809       C17-C12=1.3916       C17-C16=1.3832       C17-H46=1.0805       C18-N2=1.4485        C18-C19=1.5324       
C18-H47=1.1065       C18-H48=1.0977       C19-C18=1.5324       C19-P20=1.8587       C19-H49=1.0933       C19-H50=1.0935       
P20-Co1=2.1678       P20-C19=1.8587       P20-C21=1.8185       P20-C27=1.8338       C21-P20=1.8185       C21-C22=1.3899       
C21-C26=1.3947       C22-C21=1.3899       C22-C23=1.3846       C22-H51=1.0802       C23-C22=1.3846       C23-C24=1.3847       
C23-H52=1.0808       C24-C23=1.3847       C24-C25=1.3867       C24-H53=1.0803       C25-C24=1.3867       C25-C26=1.3811       
C25-H54=1.0806       C26-C21=1.3947       C26-C25=1.3811       C26-H55=1.0832       C27-P20=1.8338       C27-C28=1.3881       
C27-C32=1.3933       C28-C27=1.3881       C28-C29=1.3848       C28-H56=1.0816       C29-C28=1.3848       C29-C30=1.3844       
C29-H57=1.0807       C30-C29=1.3844       C30-C31=1.3870       C30-H58=1.0804       C31-C30=1.3870       C31-C32=1.3819       
C31-H59=1.0807       C32-C27=1.3933       C32-C31=1.3819       C32-H60=1.0823       H33-C3=1.1049        H34-C3=1.0988        
H35-C4=1.0945        H36-C4=1.0929        H37-C7=1.0809        H38-C8=1.0811        H39-C9=1.0805        H40-C10=1.0809       
H41-C11=1.0815       H42-C13=1.0834       H43-C14=1.0802       H44-C15=1.0804       H45-C16=1.0809       H46-C17=1.0805       
H47-C18=1.1065       H48-C18=1.0977       H49-C19=1.0933       H50-C19=1.0935       H51-C22=1.0802       H52-C23=1.0808       
H53-C24=1.0803       H54-C25=1.0806       H55-C26=1.0832       H56-C28=1.0816       H57-C29=1.0807       H58-C30=1.0804       
H59-C31=1.0807       H60-C32=1.0823       C61-Co1=1.7470       C61-O62=1.1602       O62-C61=1.1602       O63-C64=1.2107       
C64-O63=1.2107       C64-C65=1.4595       C64-H72=1.1090       C65-C64=1.4595       C65-C66=1.3961       C65-C70=1.3964       
C66-C65=1.3961       C66-C67=1.3802       C66-H74=1.0796       C67-C66=1.3802       C67-C68=1.3864       C67-H75=1.0797       
C68-C67=1.3864       C68-C69=1.3881       C68-H76=1.0803       C69-C68=1.3881       C69-C70=1.3807       C69-H77=1.0802       
C70-C65=1.3964       C70-C69=1.3807       C70-H78=1.0810       H71-Co1=1.5776       H71-N2=1.0500        H72-C64=1.1090       
H73-Co1=1.4643       H74-C66=1.0796       H75-C67=1.0797       H76-C68=1.0803       H77-C69=1.0802       H78-C70=1.0810       
 C  H  Rav=1.0857 sigma=0.0086  Rmin=1.0796  Rmax=1.1090    34
 C  C  Rav=1.3981 sigma=0.0371  Rmin=1.3802  Rmax=1.5370    33
 N  H  Rav=1.0500 sigma=0.0000  Rmin=1.0500  Rmax=1.0500     1
 N  C  Rav=1.4482 sigma=0.0002  Rmin=1.4480  Rmax=1.4485     2
 O  C  Rav=1.1855 sigma=0.0253  Rmin=1.1602  Rmax=1.2107     2
 P  C  Rav=1.8369 sigma=0.0183  Rmin=1.8185  Rmax=1.8647     6
 Co H  Rav=1.5209 sigma=0.0567  Rmin=1.4643  Rmax=1.5776     2
 Co C  Rav=1.7470 sigma=0.0000  Rmin=1.7470  Rmax=1.7470     1
 Co N  Rav=2.1648 sigma=0.0000  Rmin=2.1648  Rmax=2.1648     1
 Co P  Rav=2.1668 sigma=0.0010  Rmin=2.1659  Rmax=2.1678     2

 selected bond angles (degree)
 --------------------
P5-Co1-N2= 80.46               P20-Co1-N2= 84.44              P20-Co1-P5=164.53              C61-Co1-N2=109.91              
C61-Co1-P5= 93.37              C61-Co1-P20= 88.58             H71-Co1-N2= 27.24              H71-Co1-P5= 86.23              
H71-Co1-P20= 81.85             H71-Co1-C61=136.54             H73-Co1-N2=102.60              H73-Co1-P5= 90.35              
H73-Co1-P20= 96.26             H73-Co1-C61=147.45             H73-Co1-H71= 75.95             C3-N2-Co1=123.98               
C18-N2-Co1=117.68              C18-N2-C3=117.20               H71-N2-Co1= 43.46              H71-N2-C3=107.81               
H71-N2-C18=108.08              C4-C3-N2=109.59                H33-C3-N2=112.11               H33-C3-C4=109.12               
H34-C3-N2=108.44               H34-C3-C4=110.34               H34-C3-H33=107.22              P5-C4-C3=112.55                
H35-C4-C3=110.40               H35-C4-P5=105.44               H36-C4-C3=110.79               H36-C4-P5=109.46               
H36-C4-H35=107.99              C4-P5-Co1=104.66               C6-P5-Co1=118.21               C6-P5-C4=101.87                
C12-P5-Co1=125.13              C12-P5-C4=101.86               C12-P5-C6=101.71               C7-C6-P5=117.69                
C11-C6-P5=122.87               C11-C6-C7=119.31               C8-C7-C6=120.45                H37-C7-C6=119.28               
H37-C7-C8=120.27               C9-C8-C7=119.99                H38-C8-C7=120.02               H38-C8-C9=119.99               
C10-C9-C8=119.83               H39-C9-C8=120.09               H39-C9-C10=120.07              C11-C10-C9=120.34              
H40-C10-C9=120.01              H40-C10-C11=119.65             

 selected dihedral angles (degree)
 ---------------------------------
C3-N2-Co1-P5=339.51           C3-N2-Co1-P20=162.91          C3-N2-Co1-C61=249.37          C3-N2-Co1-H71= 79.92          
C3-N2-Co1-H73= 67.72          C18-N2-Co1-P5=172.12          C18-N2-Co1-P20=355.52         C18-N2-Co1-C61= 81.98         
C18-N2-Co1-H71=272.53         C18-N2-Co1-H73=260.33         H71-N2-Co1-P5=259.60          H71-N2-Co1-P20= 82.99         
H71-N2-Co1-C61=169.45         H71-N2-Co1-H73=347.80         C4-C3-N2-Co1=  5.41           C4-C3-N2-C18=172.85           
C4-C3-N2-H71= 50.74           H33-C3-N2-Co1=244.08          H33-C3-N2-C18= 51.53          H33-C3-N2-H71=289.42          
H34-C3-N2-Co1=125.90          H34-C3-N2-C18=293.35          H34-C3-N2-H71=171.24          P5-C4-C3-N2= 16.80            
P5-C4-C3-H33=139.91           P5-C4-C3-H34=257.47           H35-C4-C3-N2=259.29           H35-C4-C3-H33= 22.40          
H35-C4-C3-H34=139.96          H36-C4-C3-N2=139.72           H36-C4-C3-H33=262.83          H36-C4-C3-H34= 20.39          
C4-P5-Co1-N2= 23.66           C4-P5-Co1-P20= 36.44          C4-P5-Co1-C61=133.30          C4-P5-Co1-H71=356.84          
C4-P5-Co1-H73=280.94          C6-P5-Co1-N2=271.23           C6-P5-Co1-P20=284.00          C6-P5-Co1-C61= 20.86          
C6-P5-Co1-H71=244.41          C6-P5-Co1-H73=168.51          C12-P5-Co1-N2=140.01          C12-P5-Co1-P20=152.78         
C12-P5-Co1-C61=249.64         C12-P5-Co1-H71=113.18         C12-P5-Co1-H73= 37.28         Co1-P5-C4-C3=329.64           
Co1-P5-C4-H35= 90.05          Co1-P5-C4-H36=205.98          C6-P5-C4-C3= 93.30            C6-P5-C4-H35=213.71           
C6-P5-C4-H36=329.64           C12-P5-C4-C3=198.14           C12-P5-C4-H35=318.55          C12-P5-C4-H36= 74.48          
C7-C6-P5-Co1= 54.03           C7-C6-P5-C4=300.06            C7-C6-P5-C12=195.11           C11-C6-P5-Co1=238.28          
C11-C6-P5-C4=124.31           C11-C6-P5-C12= 19.36          C8-C7-C6-P5=182.24            C8-C7-C6-C11=358.15           
H37-C7-C6-P5=  1.37           H37-C7-C6-C11=177.27          C9-C8-C7-C6=  0.75            C9-C8-C7-H37=181.63           
H38-C8-C7-C6=180.37           H38-C8-C7-H37=  1.25          C10-C9-C8-C7=  0.51           C10-C9-C8-H38=180.89          
H39-C9-C8-C7=179.88           H39-C9-C8-H38=  0.25          C11-C10-C9-C8=359.35          C11-C10-C9-H39=179.98         
H40-C10-C9-C8=179.09          H40-C10-C9-H39=359.73         

 CMA Distance (Angstroems)
 ---------------------------
R(CMA):  0.9680
           -------------------------------------------------
          |                Final Singlepoint                |
           -------------------------------------------------

          ...................................................
          :                      SETUP                      :
          :.................................................:
          :  # basis functions                 222          :
          :  # atomic orbitals                 219          :
          :  # shells                          123          :
          :  # electrons                       216          :
          :  max. iterations                   500          :
          :  Hamiltonian                  GFN2-xTB          :
          :  restarted?                      false          :
          :  GBSA solvation                   true          :
          :  PC potential                    false          :
          :  electronic temp.          300.0000000     K    :
          :  accuracy                    0.5000000          :
          :  -> integral cutoff          0.2801030E+02      :
          :  -> integral neglect         0.5000000E-08      :
          :  -> SCF convergence          0.5000000E-06 Eh   :
          :  -> wf. convergence          0.5000000E-04 e    :
          :  Broyden damping             0.4000000          :
          :  net charge                          0          :
          :  unpaired electrons                  0          :
          ...................................................

 iter      E             dE          RMSdq      gap      omega  full diag
   1   -117.0729924 -0.117073E+03  0.399E-05    0.32       0.0  T
   2   -117.0729924 -0.241585E-11  0.280E-05    0.32     404.1  T
   3   -117.0729924 -0.215437E-10  0.178E-05    0.32     635.5  T

   *** convergence criteria satisfied after 3 iterations ***

         #    Occupation            Energy/Eh            Energy/eV
      -------------------------------------------------------------
         1        2.0000           -0.7208885             -19.6164
       ...           ...                  ...                  ...
       102        2.0000           -0.3867237             -10.5233
       103        2.0000           -0.3762833             -10.2392
       104        2.0000           -0.3607093              -9.8154
       105        2.0000           -0.3292209              -8.9586
       106        2.0000           -0.3225194              -8.7762
       107        2.0000           -0.3156358              -8.5889
       108        1.9963           -0.3050375              -8.3005 (HOMO)
       109        0.0037           -0.2931072              -7.9759 (LUMO)
       110                         -0.2462401              -6.7005
       111                         -0.2428830              -6.6092
       112                         -0.2424662              -6.5978
       113                         -0.2356783              -6.4131
       ...                                ...                  ...
       219                          3.5466070              96.5081
      -------------------------------------------------------------
                  HL-Gap            0.0119303 Eh            0.3246 eV
             Fermi-level           -0.2990724 Eh           -8.1382 eV

 SCC (total)                   0 d,  0 h,  0 min,  0.184 sec
 SCC setup                      ...        0 min,  0.003 sec (  1.723%)
 Dispersion                     ...        0 min,  0.002 sec (  1.345%)
 classical contributions        ...        0 min,  0.000 sec (  0.234%)
 integral evaluation            ...        0 min,  0.023 sec ( 12.624%)
 iterations                     ...        0 min,  0.063 sec ( 34.284%)
 molecular gradient             ...        0 min,  0.090 sec ( 49.008%)
 printout                       ...        0 min,  0.001 sec (  0.761%)

         :::::::::::::::::::::::::::::::::::::::::::::::::::::
         ::                     SUMMARY                     ::
         :::::::::::::::::::::::::::::::::::::::::::::::::::::
         :: total energy            -115.171382226179 Eh    ::
         :: total w/o Gsasa/hb      -115.123618823483 Eh    ::
         :: gradient norm              0.000252172677 Eh/a0 ::
         :: HOMO-LUMO gap              0.324640428117 eV    ::
         ::.................................................::
         :: SCC energy              -117.069244259154 Eh    ::
         :: -> isotropic ES            0.061897752630 Eh    ::
         :: -> anisotropic ES          0.008857985300 Eh    ::
         :: -> anisotropic XC          0.069573277197 Eh    ::
         :: -> dispersion             -0.121753927884 Eh    ::
         :: -> Gsolv                  -0.053465866202 Eh    ::
         ::    -> Gelec               -0.005702463506 Eh    ::
         ::    -> Gsasa               -0.049971545835 Eh    ::
         ::    -> Ghb                  0.000000000000 Eh    ::
         ::    -> Gshift               0.002208143139 Eh    ::
         :: repulsion energy           1.897862032975 Eh    ::
         :: add. restraining           0.000000000000 Eh    ::
         :: total charge              -0.000000000000 e     ::
         :::::::::::::::::::::::::::::::::::::::::::::::::::::

           -------------------------------------------------
          |                Property Printout                |
           -------------------------------------------------

    * Orbital Energies and Occupations

         #    Occupation            Energy/Eh            Energy/eV
      -------------------------------------------------------------
         1        2.0000           -0.7208885             -19.6164
       ...           ...                  ...                  ...
        96        2.0000           -0.4091733             -11.1342
        97        2.0000           -0.4059280             -11.0459
        98        2.0000           -0.4056405             -11.0380
        99        2.0000           -0.4025488             -10.9539
       100        2.0000           -0.4007080             -10.9038
       101        2.0000           -0.3953324             -10.7575
       102        2.0000           -0.3867237             -10.5233
       103        2.0000           -0.3762833             -10.2392
       104        2.0000           -0.3607093              -9.8154
       105        2.0000           -0.3292209              -8.9586
       106        2.0000           -0.3225194              -8.7762
       107        2.0000           -0.3156358              -8.5889
       108        1.9963           -0.3050375              -8.3005 (HOMO)
       109        0.0037           -0.2931072              -7.9759 (LUMO)
       110                         -0.2462401              -6.7005
       111                         -0.2428830              -6.6092
       112                         -0.2424662              -6.5978
       113                         -0.2356783              -6.4131
       114                         -0.2345070              -6.3813
       115                         -0.2303196              -6.2673
       116                         -0.2285849              -6.2201
       117                         -0.2270044              -6.1771
       118                         -0.2249411              -6.1210
       119                         -0.2178805              -5.9288
       ...                                ...                  ...
       219                          3.5466070              96.5081
      -------------------------------------------------------------
                  HL-Gap            0.0119303 Eh            0.3246 eV
             Fermi-level           -0.2990724 Eh           -8.1382 eV

     #   Z          covCN         q      C6AA      α(0)
     1  27 Co       5.024    -0.436   190.355    25.507
     2   7 N        3.309    -0.210    25.569     7.510
     3   6 C        3.786     0.026    20.145     6.393
     4   6 C        3.750    -0.052    21.579     6.625
     5  15 P        4.147     0.009   159.803    22.708
     6   6 C        2.917     0.019    27.587     8.613
     7   6 C        3.015    -0.024    28.573     8.768
     8   6 C        2.918    -0.028    28.702     8.785
     9   6 C        2.920    -0.028    28.697     8.785
    10   6 C        2.919    -0.028    28.694     8.784
    11   6 C        2.973    -0.027    28.665     8.782
    12   6 C        2.918     0.022    27.512     8.601
    13   6 C        3.021    -0.019    28.469     8.752
    14   6 C        2.918    -0.028    28.707     8.786
    15   6 C        2.920    -0.028    28.710     8.787
    16   6 C        2.919    -0.032    28.786     8.798
    17   6 C        2.972    -0.026    28.640     8.778
    18   6 C        3.821     0.030    20.060     6.374
    19   6 C        3.752    -0.047    21.471     6.608
    20  15 P        4.208    -0.006   160.468    22.755
    21   6 C        2.917     0.020    27.563     8.609
    22   6 C        2.967    -0.025    28.617     8.775
    23   6 C        2.919    -0.027    28.675     8.781
    24   6 C        2.920    -0.027    28.675     8.781
    25   6 C        2.918    -0.027    28.678     8.782
    26   6 C        3.032    -0.021    28.508     8.758
    27   6 C        2.917     0.018    27.607     8.616
    28   6 C        2.986    -0.022    28.557     8.766
    29   6 C        2.918    -0.028    28.694     8.784
    30   6 C        2.920    -0.026    28.655     8.778
    31   6 C        2.919    -0.028    28.694     8.784
    32   6 C        2.988    -0.026    28.641     8.779
    33   1 H        0.922     0.018     2.770     2.603
    34   1 H        0.923     0.033     2.542     2.493
    35   1 H        0.926     0.081     1.971     2.195
    36   1 H        0.925     0.056     2.252     2.346
    37   1 H        0.926     0.055     2.259     2.351
    38   1 H        0.926     0.034     2.532     2.488
    39   1 H        0.926     0.034     2.534     2.489
    40   1 H        0.926     0.033     2.546     2.495
    41   1 H        0.925     0.031     2.568     2.506
    42   1 H        0.925     0.060     2.198     2.319
    43   1 H        0.926     0.037     2.482     2.464
    44   1 H        0.926     0.038     2.473     2.459
    45   1 H        0.926     0.036     2.503     2.474
    46   1 H        0.926     0.039     2.456     2.450
    47   1 H        0.922     0.012     2.851     2.640
    48   1 H        0.924     0.037     2.493     2.469
    49   1 H        0.925     0.055     2.258     2.350
    50   1 H        0.926     0.067     2.118     2.276
    51   1 H        0.926     0.037     2.491     2.468
    52   1 H        0.926     0.036     2.502     2.474
    53   1 H        0.926     0.037     2.493     2.469
    54   1 H        0.926     0.037     2.489     2.467
    55   1 H        0.925     0.041     2.435     2.440
    56   1 H        0.925     0.056     2.252     2.347
    57   1 H        0.926     0.037     2.493     2.469
    58   1 H        0.926     0.037     2.491     2.468
    59   1 H        0.926     0.036     2.496     2.471
    60   1 H        0.925     0.036     2.506     2.475
    61   6 C        1.883     0.182    26.778     8.358
    62   8 O        0.856    -0.258    19.032     5.849
    63   8 O        0.856    -0.372    21.133     6.163
    64   6 C        2.767     0.210    23.542     7.946
    65   6 C        2.970    -0.013    28.332     8.731
    66   6 C        2.924    -0.006    28.163     8.703
    67   6 C        2.916    -0.020    28.497     8.754
    68   6 C        2.921    -0.017    28.423     8.743
    69   6 C        2.917    -0.025    28.625     8.773
    70   6 C        2.923    -0.024    28.614     8.772
    71   1 H        1.665     0.258     0.840     1.431
    72   1 H        0.922     0.010     2.888     2.658
    73   1 H        0.900    -0.193    10.327     5.028
    74   1 H        0.926     0.061     2.183     2.311
    75   1 H        0.926     0.054     2.272     2.357
    76   1 H        0.926     0.049     2.338     2.391
    77   1 H        0.926     0.046     2.365     2.405
    78   1 H        0.926     0.042     2.425     2.435

 Mol. C6AA /au·bohr⁶  :      88837.091992
 Mol. C8AA /au·bohr⁸  :    2527751.463911
 Mol. α(0) /au        :        484.719328


Wiberg/Mayer (AO) data.
largest (>0.10) Wiberg bond orders for each atom

 ---------------------------------------------------------------------------
     #   Z sym  total        # sym  WBO       # sym  WBO       # sym  WBO
 ---------------------------------------------------------------------------
     1  27 Co   4.705 --    61 C    1.247    20 P    0.860     5 P    0.859
                            73 H    0.754    62 O    0.277     2 N    0.254
                            71 H    0.134
     2   7 N    3.219 --    18 C    1.009     3 C    1.008    71 H    0.747
                             1 Co   0.254
     3   6 C    3.986 --     2 N    1.008     4 C    0.989    34 H    0.970
                            33 H    0.965
     4   6 C    3.988 --     5 P    0.990     3 C    0.989    36 H    0.944
                            35 H    0.933
     5  15 P    4.409 --     4 C    0.990    12 C    0.989     6 C    0.987
                             1 Co   0.859
     6   6 C    3.981 --    11 C    1.392     7 C    1.379     5 P    0.987
                             9 C    0.105
     7   6 C    3.990 --     8 C    1.456     6 C    1.379    37 H    0.953
                            10 C    0.109
     8   6 C    3.991 --     7 C    1.456     9 C    1.428    38 H    0.970
                            11 C    0.107
     9   6 C    3.980 --    10 C    1.440     8 C    1.428    39 H    0.971
                             6 C    0.105
    10   6 C    3.991 --    11 C    1.442     9 C    1.440    40 H    0.970
                             7 C    0.109
    11   6 C    3.992 --    10 C    1.442     6 C    1.392    41 H    0.961
                             8 C    0.107
    12   6 C    3.983 --    13 C    1.395    17 C    1.384     5 P    0.989
                            15 C    0.106
    13   6 C    3.988 --    14 C    1.440    12 C    1.395    42 H    0.948
                            16 C    0.107
    14   6 C    3.992 --    15 C    1.441    13 C    1.440    43 H    0.969
                            17 C    0.110
    15   6 C    3.988 --    14 C    1.441    16 C    1.430    44 H    0.971
                            12 C    0.106
    16   6 C    3.990 --    17 C    1.450    15 C    1.430    45 H    0.969
                            13 C    0.107
    17   6 C    3.990 --    16 C    1.450    12 C    1.384    46 H    0.962
                            14 C    0.110
    18   6 C    3.988 --     2 N    1.009    19 C    0.989    48 H    0.968
                            47 H    0.963
    19   6 C    3.994 --    20 P    0.994    18 C    0.989    49 H    0.944
                            50 H    0.938
    20  15 P    4.405 --    21 C    1.002    19 C    0.994    27 C    0.975
                             1 Co   0.860
    21   6 C    3.981 --    22 C    1.392    26 C    1.374    20 P    1.002
                            24 C    0.105
    22   6 C    3.991 --    23 C    1.441    21 C    1.392    51 H    0.960
                            25 C    0.107
    23   6 C    3.991 --    22 C    1.441    24 C    1.440    52 H    0.970
                            26 C    0.109
    24   6 C    3.983 --    23 C    1.440    25 C    1.428    53 H    0.971
                            21 C    0.105
    25   6 C    3.991 --    26 C    1.457    24 C    1.428    54 H    0.969
                            22 C    0.107
    26   6 C    3.991 --    25 C    1.457    21 C    1.374    55 H    0.956
                            23 C    0.109
    27   6 C    3.980 --    28 C    1.404    32 C    1.378    20 P    0.975
                            30 C    0.106
    28   6 C    3.989 --    29 C    1.436    27 C    1.404    56 H    0.950
                            31 C    0.107
    29   6 C    3.992 --    30 C    1.445    28 C    1.436    57 H    0.970
                            32 C    0.111
    30   6 C    3.990 --    29 C    1.445    31 C    1.427    58 H    0.971
                            27 C    0.106
    31   6 C    3.990 --    32 C    1.456    30 C    1.427    59 H    0.969
                            28 C    0.107
    32   6 C    3.991 --    31 C    1.456    27 C    1.378    60 H    0.960
                            29 C    0.111
    33   1 H    0.999 --     3 C    0.965
    34   1 H    0.998 --     3 C    0.970
    35   1 H    0.993 --     4 C    0.933
    36   1 H    0.996 --     4 C    0.944
    37   1 H    0.997 --     7 C    0.953
    38   1 H    0.998 --     8 C    0.970
    39   1 H    0.998 --     9 C    0.971
    40   1 H    0.998 --    10 C    0.970
    41   1 H    0.999 --    11 C    0.961
    42   1 H    0.996 --    13 C    0.948
    43   1 H    0.998 --    14 C    0.969
    44   1 H    0.998 --    15 C    0.971
    45   1 H    0.998 --    16 C    0.969
    46   1 H    0.998 --    17 C    0.962
    47   1 H    0.999 --    18 C    0.963
    48   1 H    0.998 --    18 C    0.968
    49   1 H    0.996 --    19 C    0.944
    50   1 H    0.995 --    19 C    0.938
    51   1 H    0.999 --    22 C    0.960
    52   1 H    0.998 --    23 C    0.970
    53   1 H    0.998 --    24 C    0.971
    54   1 H    0.998 --    25 C    0.969
    55   1 H    0.998 --    26 C    0.956
    56   1 H    0.997 --    28 C    0.950
    57   1 H    0.998 --    29 C    0.970
    58   1 H    0.998 --    30 C    0.971
    59   1 H    0.998 --    31 C    0.969
    60   1 H    0.999 --    32 C    0.960
    61   6 C    3.560 --    62 O    2.089     1 Co   1.247
    62   8 O    2.423 --    61 C    2.089     1 Co   0.277
    63   8 O    2.055 --    64 C    1.830
    64   6 C    3.919 --    63 O    1.830    65 C    1.079    72 H    0.932
    65   6 C    3.989 --    66 C    1.363    70 C    1.361    64 C    1.079
    66   6 C    3.986 --    67 C    1.458    65 C    1.363    74 H    0.960
                            69 C    0.103
    67   6 C    3.990 --    66 C    1.458    68 C    1.431    75 H    0.967
                            70 C    0.105
    68   6 C    3.989 --    67 C    1.431    69 C    1.423    76 H    0.970
    69   6 C    3.992 --    70 C    1.466    68 C    1.423    77 H    0.970
                            66 C    0.103
    70   6 C    3.989 --    69 C    1.466    65 C    1.361    78 H    0.967
                            67 C    0.105
    71   1 H    0.933 --     2 N    0.747     1 Co   0.134
    72   1 H    0.999 --    64 C    0.932
    73   1 H    0.961 --     1 Co   0.754
    74   1 H    0.996 --    66 C    0.960
    75   1 H    0.997 --    67 C    0.967
    76   1 H    0.997 --    68 C    0.970
    77   1 H    0.997 --    69 C    0.970
    78   1 H    0.998 --    70 C    0.967
 ---------------------------------------------------------------------------

Topologies differ in total number of bonds
Writing topology from bond orders to xtbtopo.mol

molecular dipole:
                 x           y           z       tot (Debye)
 q only:       -0.394      -0.541      -0.826
   full:       -0.249      -0.752      -0.613       2.545
molecular quadrupole (traceless):
                xx          xy          yy          xz          yz          zz
 q only:        5.819      13.681     -16.618      -3.200     -17.854      10.799
  q+dip:        7.296      14.138     -22.569      -8.718     -19.188      15.274
   full:        6.883      14.922     -18.264      -7.198     -16.894      11.381

           -------------------------------------------------
          |                Geometry Summary                 |
           -------------------------------------------------

      molecular mass/u    :      635.5585907
   center of mass at/Å    :        0.1184937      -0.2497344      -1.1083450
  moments of inertia/u·Å² :        0.5233032E+04   0.8262262E+04   0.1063200E+05
rotational constants/cm⁻¹ :        0.3221389E-02   0.2040317E-02   0.1585556E-02

 * 81 selected distances

     #   Z          #   Z                                           value/Å
     2   7 N        3   6 C                                       1.4480164
     3   6 C        4   6 C                                       1.5369789
     1  27 Co       5  15 P                                       2.1658856
     4   6 C        5  15 P                                       1.8647256
     5  15 P        6   6 C                                       1.8239377
     6   6 C        7   6 C                                       1.3929155
     7   6 C        8   6 C                                       1.3814241
     8   6 C        9   6 C                                       1.3864978
     9   6 C       10   6 C                                       1.3847288
     6   6 C       11   6 C                                       1.3902295
    10   6 C       11   6 C                                       1.3845066
     5  15 P       12   6 C                                       1.8216578
    12   6 C       13   6 C                                       1.3900072
    13   6 C       14   6 C                                       1.3835382
    14   6 C       15   6 C                                       1.3847467
    15   6 C       16   6 C                                       1.3865490
    12   6 C       17   6 C                                       1.3916089
    16   6 C       17   6 C                                       1.3831947
     2   7 N       18   6 C                                       1.4484534
    18   6 C       19   6 C                                       1.5323746
     1  27 Co      20  15 P                                       2.1678097 (max)
    19   6 C       20  15 P                                       1.8587095
    20  15 P       21   6 C                                       1.8184705
    21   6 C       22   6 C                                       1.3899073
    22   6 C       23   6 C                                       1.3846386
    23   6 C       24   6 C                                       1.3846540
    24   6 C       25   6 C                                       1.3866640
    21   6 C       26   6 C                                       1.3947094
    25   6 C       26   6 C                                       1.3811098
    20  15 P       27   6 C                                       1.8337819
    27   6 C       28   6 C                                       1.3881009
    28   6 C       29   6 C                                       1.3848460
    29   6 C       30   6 C                                       1.3843563
    30   6 C       31   6 C                                       1.3870006
    27   6 C       32   6 C                                       1.3933365
    31   6 C       32   6 C                                       1.3818902
     3   6 C       33   1 H                                       1.1048832
     3   6 C       34   1 H                                       1.0987587
     4   6 C       35   1 H                                       1.0944529
     4   6 C       36   1 H                                       1.0929290
     7   6 C       37   1 H                                       1.0808729
     8   6 C       38   1 H                                       1.0810540
     9   6 C       39   1 H                                       1.0804730
    10   6 C       40   1 H                                       1.0808999
    11   6 C       41   1 H                                       1.0814510
    13   6 C       42   1 H                                       1.0834401
    14   6 C       43   1 H                                       1.0802371
    15   6 C       44   1 H                                       1.0803636
    16   6 C       45   1 H                                       1.0809461
    17   6 C       46   1 H                                       1.0805383
    18   6 C       47   1 H                                       1.1064720
    18   6 C       48   1 H                                       1.0976812
    19   6 C       49   1 H                                       1.0932900
    19   6 C       50   1 H                                       1.0935139
    22   6 C       51   1 H                                       1.0802486
    23   6 C       52   1 H                                       1.0808158
    24   6 C       53   1 H                                       1.0802890
    25   6 C       54   1 H                                       1.0805877
    26   6 C       55   1 H                                       1.0832205
    28   6 C       56   1 H                                       1.0816185
    29   6 C       57   1 H                                       1.0807274
    30   6 C       58   1 H                                       1.0803764
    31   6 C       59   1 H                                       1.0807165
    32   6 C       60   1 H                                       1.0822959
     1  27 Co      61   6 C                                       1.7469523
    61   6 C       62   8 O                                       1.1601797
    63   8 O       64   6 C                                       1.2107405
    65   6 C       66   6 C                                       1.3961014
    66   6 C       67   6 C                                       1.3801722
    67   6 C       68   6 C                                       1.3864438
    68   6 C       69   6 C                                       1.3881033
    65   6 C       70   6 C                                       1.3963860
    69   6 C       70   6 C                                       1.3807085
     1  27 Co      71   1 H                                       1.5776076
     2   7 N       71   1 H                                       1.0499869 (min)
     1  27 Co      73   1 H                                       1.4642594
    66   6 C       74   1 H                                       1.0796265
    67   6 C       75   1 H                                       1.0796796
    68   6 C       76   1 H                                       1.0803368
    69   6 C       77   1 H                                       1.0802178
    70   6 C       78   1 H                                       1.0809806

 * 9 distinct bonds (by element types)

   Z      Z             #   av. dist./Å        max./Å        min./Å
   1 H    6 C          33     1.0849695     1.1064720     1.0796265
   6 C    6 C          32     1.3962009     1.5369789     1.3801722
   1 H    7 N           1     1.0499869     1.0499869     1.0499869
   6 C    7 N           2     1.4482349     1.4484534     1.4480164
   6 C    8 O           2     1.1854601     1.2107405     1.1601797
   6 C   15 P           6     1.8368805     1.8647256     1.8184705
   1 H   27 Co          2     1.5209335     1.5776076     1.4642594
   6 C   27 Co          1     1.7469523     1.7469523     1.7469523
  15 P   27 Co          2     2.1668476     2.1678097     2.1658856


optimized geometry written to: xtbopt.xyz


           -------------------------------------------------
          | TOTAL ENERGY             -115.171382226179 Eh   |
          | GRADIENT NORM               0.000252172677 Eh/α |
          | HOMO-LUMO GAP               0.324640428117 eV   |
           -------------------------------------------------

------------------------------------------------------------------------
 * finished run on 2026/09/13 at 01:40:03.201     
------------------------------------------------------------------------
 total:
 * wall-time:     0 d,  0 h,  0 min, 49.545 sec
 *  cpu-time:     0 d,  0 h,  0 min, 12.234 sec
 * ratio c/w:     0.247 speedup
 SCF:
 * wall-time:     0 d,  0 h,  0 min,  0.492 sec
 *  cpu-time:     0 d,  0 h,  0 min,  0.047 sec
 * ratio c/w:     0.095 speedup
 ANC optimizer:
 * wall-time:     0 d,  0 h,  0 min, 48.942 sec
 *  cpu-time:     0 d,  0 h,  0 min, 12.188 sec
 * ratio c/w:     0.249 speedup


normal termination of xtb
Note: The following floating-point exceptions are signalling: IEEE_DIVIDE_BY_ZERO IEEE_UNDERFLOW_FLAG IEEE_DENORMAL
