78
 energy: -115.171382226179 gnorm: 0.000252172677 xtb: 6.7.1 (edcfbbe)
Co          -0.23912287640949       -0.23490033267266       -0.48001859947406
N            0.29956646080412       -2.22280892730015        0.18648715503591
C            1.56070810804818       -2.86498116519799       -0.11992392428050
C            2.47752232505578       -1.87532527821030       -0.85635892938947
P            1.91429232515480       -0.10709891306339       -0.67374333477649
C            2.87857785451785        0.44640450823648        0.77212514182097
C            2.69255254460857       -0.23402951591310        1.97321521589049
C            3.35881678169912        0.16654873979142        3.11512645341878
C            4.20762845181091        1.26208645201887        3.07399510253560
C            4.37661956958453        1.95841423305715        1.88907187158127
C            3.71272386985963        1.55817212409954        0.74194198220542
C            2.79697099452012        0.71006860908989       -2.04179019215682
C            2.12649527274447        1.71967706508340       -2.72243161737877
C            2.74835683919569        2.40223256299900       -3.75276350158959
C            4.04329585839233        2.07112483326559       -4.11473542052159
C            4.71655193838975        1.06409063801406       -3.44010498138140
C            4.10179242041344        0.38735079157078       -2.40216410153079
C           -0.74941696248733       -3.05422193985525        0.74002388160528
C           -1.85464975530271       -2.14150929012121        1.28186096138745
P           -2.25992792802477       -0.84639938692554        0.01172697706299
C           -3.47952161229307        0.22659534130260        0.82910569770906
C           -3.55186832947388        0.42221507315510        2.20327485407696
C           -4.46984995199459        1.31579392034998        2.72867969746180
C           -5.31178326123963        2.02833807101828        1.89160411725827
C           -5.22974827900396        1.85441720306293        0.51833848080465
C           -4.31489232740873        0.96443212152874       -0.00932541500594
C           -3.36487054005602       -1.83799224813640       -1.06465623217731
C           -2.96500213407652       -2.20345323830664       -2.34268877163773
C           -3.77835009224555       -3.00188832995018       -3.12930467356223
C           -4.99860659871417       -3.43832704044085       -2.64254247780753
C           -5.40608265443834       -3.07322975801220       -1.36800822728157
C           -4.59465349490779       -2.27899022852942       -0.58036208039575
H            1.42718336601185       -3.76731081896241       -0.74341331916599
H            2.02486938322037       -3.18665486434146        0.82259966436207
H            2.46764896532876       -2.07457838956620       -1.93247585192972
H            3.50856540926241       -1.96709633215430       -0.50561438002181
H            2.00964787006397       -1.07118818032966        2.00626867895378
H            3.21384909668705       -0.37025117400715        4.04222288991510
H            4.72802246460698        1.57803594579701        3.96662469611022
H            5.02622358243744        2.82174663306296        1.85719384062881
H            3.84234814737915        2.11268126338452       -0.17743453724750
H            1.10900515112016        1.95098994904351       -2.43079749933287
H            2.22307480157622        3.18797000400072       -4.27583849912252
H            4.53125848557688        2.59944150752826       -4.92093598040878
H            5.72941440993123        0.81004139092393       -3.71941263210578
H            4.63808620235807       -0.38601562288363       -1.87126291203373
H           -1.16882112059414       -3.75375506675852       -0.00766161816126
H           -0.33549455339142       -3.65349335459020        1.56127035886406
H           -2.74639562516216       -2.71040689006009        1.55831653574620
H           -1.46971379105868       -1.61586959589169        2.16009759645157
H           -2.89591199448122       -0.11741913702775        2.87069754385529
H           -4.52495596764765        1.45796441097070        3.79868596409491
H           -6.02595142357342        2.72402384827549        2.30754793396395
H           -5.87731818028336        2.41700243256478       -0.13879206505040
H           -4.23534289246152        0.82740916117071       -1.08089573225848
H           -2.01576471685687       -1.84925882996152       -2.72136152123614
H           -3.45920970278504       -3.28165421745308       -4.12321214250946
H           -5.63542904244916       -4.06004324483867       -3.25502847037867
H           -6.36012465292243       -3.41005160962727       -0.98813611150739
H           -4.91691154443892       -1.98962039313397        0.41149423884111
C           -0.28461085239722        0.85742406839155        0.88255255016093
O           -0.38280367043586        1.75076145873999        1.61625759025376
O            3.30684340626163       -2.41817155714599       -4.06722220964153
C            3.44042816604308       -1.61197603502581       -4.96058444003416
C            2.43126285296665       -0.65817227794435       -5.41016324277689
C            1.19365554177616       -0.58806161942151       -4.76789277254313
C            0.24410601565032        0.32382383558222       -5.18225438004838
C            0.51870426775943        1.17109087553238       -6.24477985890453
C            1.74417864430270        1.10647573129252       -6.89352315556977
C            2.69925463206379        0.19969641562081       -6.47887047729131
H           -0.06221466859816       -1.78735616647184       -0.69780210381930
H            4.39529303872091       -1.55546648336072       -5.52167954026759
H           -0.36810178297163       -0.40756683304956       -1.92833000643714
H            1.00006556705328       -1.24954659438275       -3.93689710752855
H           -0.70406089255699        0.38203914419480       -4.66912833006333
H           -0.22366068977327        1.88580207258317       -6.56914000521680
H            1.95154495659251        1.76894755909448       -7.72117078040113
H            3.65717113858295        0.14674630084295       -6.97697809029015
