50
Properties=species:S:1:pos:R:3:forces:R:3 energy:=T -81.809287901074=T gnorm:=T 0.000092095477=T xtb:=T 6.7.1=T (edcfbbe)=T energy=-2226.144113442748 pbc="F F F"
Co       0.29375503      -0.55378242      -1.13058556       0.00089238      -0.00058470       0.00063092
C        2.43100557      -2.24396256       0.11435081       0.00008766       0.00004528       0.00004803
P        2.09930838      -0.41158656       0.23533099       0.00000263      -0.00023227       0.00011980
C        3.74284245       0.21625778      -0.24617543      -0.00001803      -0.00008337       0.00014546
C        4.86384370       0.01130239       0.55400823      -0.00001994       0.00023077      -0.00004339
C        6.10231025       0.45773996       0.13204565       0.00002673       0.00012495       0.00016847
C        6.23134311       1.10893675      -1.08556605       0.00014428      -0.00000286      -0.00002158
C        5.11862996       1.31278485      -1.88472994       0.00002812      -0.00014035       0.00007851
C        3.87652630       0.86667694      -1.46663258       0.00006689      -0.00008841       0.00002533
C        2.13235496      -0.10591123       2.03409856       0.00003007      -0.00003691       0.00008348
C        2.46016927       1.18143545       2.45999818      -0.00027208      -0.00006425       0.00014008
C        2.42369087       1.50582407       3.80204292      -0.00036144      -0.00003497       0.00025225
C        2.03892204       0.55468619       4.73520569      -0.00031136      -0.00021905      -0.00000880
C        1.68142812      -0.71615597       4.31680699       0.00024766      -0.00016433       0.00004799
C        1.71983136      -1.04662642       2.97300951       0.00043894      -0.00011700      -0.00009114
C        1.09202210      -2.89639467       0.23466733       0.00001194       0.00040571      -0.00014637
C        0.89871072      -4.12827941       0.82683443      -0.00012747       0.00015828       0.00009929
C       -0.40271200      -4.59848489       1.00898589       0.00003150       0.00012464      -0.00008898
C       -1.45724919      -3.78654119       0.65556949       0.00012645      -0.00004139      -0.00014838
C       -1.19999510      -2.54820809       0.05875278       0.00029682       0.00039715      -0.00039204
C       -2.19673939      -1.54234508      -0.23668490      -0.00016797      -0.00007477      -0.00021312
C       -3.57324226      -1.75244353      -0.18178446      -0.00006571      -0.00010622      -0.00024434
C       -4.42746312      -0.68855564      -0.39765798       0.00012247       0.00014415      -0.00008481
C       -3.88988523       0.56142139      -0.65660331      -0.00020672      -0.00005643       0.00009865
C       -2.50540443       0.69889333      -0.72842631      -0.00017523       0.00024168      -0.00025466
O       -2.00007907       1.90906650      -0.96933607      -0.00008114      -0.00000391      -0.00043464
N       -1.66506628      -0.32580125      -0.53707599      -0.00023529      -0.00012065       0.00006808
N        0.06515252      -2.15107368      -0.20369569      -0.00002962       0.00085620      -0.00007791
H        3.14586288      -2.60952938       0.85673848       0.00001105       0.00002696       0.00008045
H        2.84928852      -2.40025906      -0.88732880       0.00012761      -0.00007513      -0.00002083
H        4.76301759      -0.48919142       1.50763082      -0.00006355       0.00026505       0.00014752
H        6.97162611       0.29829942       0.75392894      -0.00000450       0.00008255       0.00019740
H        7.20107526       1.45808991      -1.40948233       0.00010492      -0.00016143      -0.00008301
H        5.21759786       1.82044731      -2.83328414       0.00015737      -0.00027618      -0.00005456
H        2.99685386       1.01575482      -2.07896483       0.00014885       0.00000284      -0.00015598
H        2.75221112       1.92063542       1.72465970      -0.00019414       0.00004458       0.00022237
H        2.69211478       2.50189993       4.12350702      -0.00025574      -0.00000851       0.00007631
H        2.01069638       0.80632165       5.78532989      -0.00019987      -0.00029893       0.00010630
H        1.36975574      -1.45610877       5.04054983       0.00024468      -0.00028769      -0.00000304
H        1.42696341      -2.03995020       2.66212495       0.00030951      -0.00018694       0.00010968
H        1.74772784      -4.71007741       1.15188956       0.00005851       0.00013794       0.00014922
H       -0.57478811      -5.56538467       1.45620781      -0.00000882       0.00013977       0.00016186
H       -2.47253141      -4.09118981       0.84996722      -0.00001999      -0.00002306      -0.00031171
H       -3.96424743      -2.73653960       0.01757914      -0.00002709      -0.00003750      -0.00015457
H       -5.49730823      -0.82376187      -0.35890577       0.00000463       0.00001648       0.00004963
H       -4.50360299       1.43390080      -0.80572745      -0.00013628       0.00000537      -0.00003549
H       -1.02945934       1.82694022      -1.05830926      -0.00013278      -0.00012967      -0.00015416
C        0.71120781      -1.24525038      -2.68238829      -0.00138241       0.00081543       0.00249550
O        1.01226574      -1.63119048      -3.73102765       0.00061881      -0.00071749      -0.00287850
H        0.40684627       0.73450556      -1.79390896       0.00015668       0.00010862       0.00029942
