50
Properties=species:S:1:pos:R:3 energy:=T -81.809287901074=T gnorm:=T 0.000092095477=T xtb:=T 6.7.1=T (edcfbbe)=T pbc="F F F"
Co       0.29375503      -0.55378242      -1.13058556
C        2.43100557      -2.24396256       0.11435081
P        2.09930838      -0.41158656       0.23533099
C        3.74284245       0.21625778      -0.24617543
C        4.86384370       0.01130239       0.55400823
C        6.10231025       0.45773996       0.13204565
C        6.23134311       1.10893675      -1.08556605
C        5.11862996       1.31278485      -1.88472994
C        3.87652630       0.86667694      -1.46663258
C        2.13235496      -0.10591123       2.03409856
C        2.46016927       1.18143545       2.45999818
C        2.42369087       1.50582407       3.80204292
C        2.03892204       0.55468619       4.73520569
C        1.68142812      -0.71615597       4.31680699
C        1.71983136      -1.04662642       2.97300951
C        1.09202210      -2.89639467       0.23466733
C        0.89871072      -4.12827941       0.82683443
C       -0.40271200      -4.59848489       1.00898589
C       -1.45724919      -3.78654119       0.65556949
C       -1.19999510      -2.54820809       0.05875278
C       -2.19673939      -1.54234508      -0.23668490
C       -3.57324226      -1.75244353      -0.18178446
C       -4.42746312      -0.68855564      -0.39765798
C       -3.88988523       0.56142139      -0.65660331
C       -2.50540443       0.69889333      -0.72842631
O       -2.00007907       1.90906650      -0.96933607
N       -1.66506628      -0.32580125      -0.53707599
N        0.06515252      -2.15107368      -0.20369569
H        3.14586288      -2.60952938       0.85673848
H        2.84928852      -2.40025906      -0.88732880
H        4.76301759      -0.48919142       1.50763082
H        6.97162611       0.29829942       0.75392894
H        7.20107526       1.45808991      -1.40948233
H        5.21759786       1.82044731      -2.83328414
H        2.99685386       1.01575482      -2.07896483
H        2.75221112       1.92063542       1.72465970
H        2.69211478       2.50189993       4.12350702
H        2.01069638       0.80632165       5.78532989
H        1.36975574      -1.45610877       5.04054983
H        1.42696341      -2.03995020       2.66212495
H        1.74772784      -4.71007741       1.15188956
H       -0.57478811      -5.56538467       1.45620781
H       -2.47253141      -4.09118981       0.84996722
H       -3.96424743      -2.73653960       0.01757914
H       -5.49730823      -0.82376187      -0.35890577
H       -4.50360299       1.43390080      -0.80572745
H       -1.02945934       1.82694022      -1.05830926
C        0.71120781      -1.24525038      -2.68238829
O        1.01226574      -1.63119048      -3.73102765
H        0.40684627       0.73450556      -1.79390896
