63
 energy: -92.079473967035 gnorm: 0.000143987799 xtb: 6.7.1 (edcfbbe)
Fe           0.40301039082508       -0.30191797406008       -0.90219785095184
N           -0.12980195549942       -1.98966579254159       -0.49044904911300
C            0.63443499721719       -2.96148025788639        0.29124843286832
C            1.74135602850798       -2.26774289659868        1.08068462987320
P            2.27051813082032       -0.92765595917962       -0.06850553064811
C            3.42260927498464       -1.86239817932402       -1.14497501505683
C            2.98134378582143       -2.24025042612035       -2.40802110953430
C            3.79375560585077       -2.99678789135252       -3.23380657343076
C            5.05383307248112       -3.37797807922297       -2.80146097366120
C            5.49945781471492       -3.00181721936764       -1.54361981060720
C            4.68860599099693       -2.24782081118303       -0.71439799673380
C            3.44487374576393        0.09823012974579        0.86943348675438
C            3.90542422782570       -0.18191628242568        2.15109665617269
C            4.80601845199841        0.67499023395277        2.76240187775088
C            5.24991885828734        1.80904446269918        2.10315358829837
C            4.78704243363239        2.09642959564276        0.82751398203565
C            3.88552593947200        1.24689334114745        0.21553120934747
C           -1.39123201064354       -2.61299100985399       -0.89262668592960
C           -2.05915492460867       -1.81346152834224       -2.00848344088152
P           -1.61919673895117       -0.07810670696803       -1.55751350596730
C           -2.17265913865250        0.95833679048726       -2.94617481754757
C           -1.87372802254223        2.31417981132827       -2.82403888472043
C           -2.23980723844387        3.20117352358605       -3.81778953012453
C           -2.90277224892903        2.73905421688406       -4.94538029624899
C           -3.19490517916329        1.39156337748834       -5.07497503571922
C           -2.83220884651754        0.49850779458683       -4.08007647069512
C           -2.93400103227054        0.25745562490439       -0.32993111312176
C           -4.26207500706110        0.43157489621961       -0.70877080211397
C           -5.23473470205149        0.61259737606938        0.25798009476159
C           -4.89041857490136        0.61595134290367        1.60123365864054
C           -3.56873078116036        0.44379042875460        1.98040742121124
C           -2.59152923650332        0.26699724157876        1.01659241873750
H           -0.04153576669272       -3.49930879259514        0.97491553124302
H            1.07863523926558       -3.70934720471057       -0.38783997285914
H            1.32099704104371       -1.78254757269464        1.96874182765078
H            2.54364543416979       -2.95485963602851        1.36434632638372
H            1.99572281653270       -1.92264029435934       -2.73161314775250
H            3.44796064547301       -3.28720061118022       -4.21614363748064
H            5.69173282561798       -3.96570451504163       -3.44623197634062
H            6.48392223476169       -3.29804974664250       -1.20942814006002
H            5.03906902529786       -1.95117345897001        0.26519726232891
H            3.56590806868505       -1.06385055503773        2.67603011679752
H            5.16341997734420        0.45591965887580        3.75905160116757
H            5.95309671825050        2.47301499365216        2.58547638377967
H            5.12804595611052        2.98541610287743        0.31606107155402
H            3.49494880553880        1.46132287353738       -0.77178321771500
H           -2.06770566101851       -2.66738503701813       -0.02274707178105
H           -1.19890781680189       -3.64564762063783       -1.22464065097515
H           -3.13447105428256       -2.00193084540078       -2.06988614255947
H           -1.58007507949884       -2.03767172301409       -2.96850243645241
H           -1.33983872287055        2.64529169382387       -1.94127862866340
H           -2.00588799204484        4.25194852769193       -3.72078588032289
H           -3.18701623785302        3.42980511962453       -5.72645424032184
H           -3.70749263418547        1.03314217967640       -5.95696716674551
H           -3.06491696313996       -0.55128657657750       -4.19266391490841
H           -4.52990670132484        0.43188494340247       -1.75746854554282
H           -6.26607740526677        0.75165970939179       -0.03520127115615
H           -5.65498667561158        0.75708626650777        2.35222615913635
H           -3.30224152147972        0.45105163878273        3.02812359422548
H           -1.54690340375106        0.15059457232188        1.28168637300905
C            1.08115160666615        0.61935641606067       -2.21273866226145
O            1.49704387802016        1.15384635338533       -3.15927613982438
H            0.32778406352000        0.85223097258607        0.02929684602447
