75

Ru      0.108105396921850     -0.103739438297430     -0.048422855584080
N      -0.004207279877350     -2.324947938175600     -0.052261629319480
C       1.259733264141100     -3.032512398054170     -0.097414840712670
C       2.380444848927090     -2.263811815211590     -0.805774788581240
P       2.378321551195400     -0.489318069163050     -0.261829192789710
C       3.484609931455490      0.314783195432660     -1.550634704381100
C       4.619187162646270     -0.577103709039080     -2.054753620849780
C       2.674184290270430      0.855917036811490     -2.723129074929140
C       3.573420239283080     -0.399513520657230      1.181715023524330
C       3.265441831479480     -1.421154256323490      2.269778773260930
C       3.500843638263900      1.011500648086250      1.762036352949950
C      -0.434150860474490     -1.958564587971470      1.127179716446310
C      -1.921060778296680     -1.715607160062390      1.351425922512050
P      -2.173037078515770     -0.189670410691670      0.344844678172160
C      -3.123288077805770      1.010527330695130      1.412041632006890
C      -3.351046164325770      2.260643861725940      0.562621483319870
C      -2.340626761654900      1.377322967670800      2.667345269990480
C      -3.435469960155280     -0.698504651676390     -0.948074194168690
C      -4.860143813504970     -0.849320123016810     -0.416659029129800
C      -2.996302539142950     -1.998544860036850     -1.626867399208340
H       1.587019096319990     -3.302680811040480      0.920899978602450
H       1.073313177839100     -3.968327591085610     -0.644654626454590
H       3.345186374712070     -2.752191970836750     -0.644037978660560
H       2.168242362376310     -2.237116196375870     -1.880387155133050
H       3.922243550974200      1.174906188211160     -1.028186563040270
H       5.315253661862170      0.024702053257010     -2.638031183643030
H       4.239316306351950     -1.365264325446620     -2.700979993957160
H       5.175349180690540     -1.034656872305320     -1.239274964639010
H       3.311405451153680      1.444942430215030     -3.382112002697740
H       2.242912092739540      0.045127760228690     -3.308418761068000
H       1.865915518658180      1.491887741799210     -2.358889031635310
H       4.582962186130700     -0.585106953599020      0.793176279445120
H       3.919988827720400     -1.261382977217060      3.126434743118550
H       3.415992571736440     -2.440231567658060      1.917739586249220
H       2.235925446237610     -1.302973304560400      2.605963442760000
H       2.478930173765140      1.223082438375200      2.075151242010530
H       4.161384116924230      1.104249563696710      2.623137479755520
H       3.786477303268920      1.763767637010990      1.029403243433630
H       0.274874108514820      0.236090041329110      1.466594825447800
H       0.118970169380500     -2.276655432230710      2.029560623916700
H      -2.120980337960220     -1.529375630449050      2.408804148258500
H      -2.510913602574450     -2.574358622960920      1.018863594400560
H      -4.076492313234480      0.553331677356850      1.702193510599510
H      -3.991426001939970      2.058685167088010     -0.294163346591400
H      -3.810711585497890      3.049743413366080      1.156011712746560
H      -2.387463288029380      2.618668326795650      0.193959615042200
H      -2.887785100908150      2.125905145849790      3.239049034569290
H      -2.176811650668000      0.514287609581110      3.310026344795450
H      -1.371606333808150      1.788853757099830      2.388647078351480
H      -3.404583496208120      0.108007380098390     -1.693592116510110
H      -4.879287756295610     -1.503182479380640      0.454656009776630
H      -5.302201997447610      0.106552641886730     -0.147952486208910
H      -5.483943040104830     -1.297709213077910     -1.189433811168550
H      -1.911266293149810     -2.066157995959880     -1.695885435280680
H      -3.351238709665990     -2.864117957990330     -1.069808842391750
H      -3.408747075942900     -2.056385630049510     -2.633167949358700
C      -0.167890877630840     -0.220404529034550     -1.868577577213480
O      -0.420066647540920     -0.262846420231990     -2.995762602156950
H       0.237891342092230      1.434263652692280     -0.219309109538790
O      -1.323355484211538     -3.075836253815350     -1.899217114421186
C      -0.973954928796651     -1.748231964441261     -2.179390950378526
C       0.178104468094858     -1.710377341919379     -3.145070649157530
C       1.498484665050367     -1.638585562319413     -2.671149082787673
C       2.569818436841327     -1.637580888625357     -3.570181740049666
C       2.330922098041511     -1.719260944885160     -4.944900157403718
C       1.020342159178324     -1.806655872309150     -5.422730554281122
C      -0.053750498757461     -1.808029538512385     -4.527003504514555
H      -0.635200680335731     -3.424256402540875     -1.273807082304483
H      -0.721227108910125     -1.205843063772805     -1.239630277419839
H      -1.853026870310883     -1.233571652298022     -2.622587698088239
H       1.697660381601243     -1.583940766346792     -1.608002889709540
H       3.585419391282646     -1.577014532261916     -3.200877776596373
H       3.161162362442709     -1.719633906385641     -5.639282519503082
H       0.836779308910632     -1.876863823582123     -6.487095171219440
H      -1.064150796558296     -1.885070329019836     -4.909302559504003
