58

O       0.023178060000000     -1.603156760000000     -1.433093100000000
C       0.254215950000000     -0.377425990000000     -0.771153520000000
N      -0.410793960000000     -0.347360960000000      0.511014970000000
C      -1.754025670000000     -0.046839380000000      0.651949350000000
C      -2.661511470000000     -0.238127860000000     -0.390496350000000
C      -4.002971950000000      0.037425150000000     -0.202476920000000
C      -4.467992640000000      0.495349810000000      1.018966020000000
C      -3.572933820000000      0.674785220000000      2.061659360000000
C      -2.229722460000000      0.411052110000000      1.882657260000000
C       1.733391870000000     -0.122216620000000     -0.570985930000000
C       2.478848310000000     -0.967239050000000      0.245080500000000
C       3.832717040000000     -0.748762950000000      0.427668000000000
C       4.455413560000000      0.315574750000000     -0.203228400000000
C       3.718956440000000      1.159836020000000     -1.016876840000000
C       2.364069230000000      0.941344220000000     -1.201339910000000
H       0.321565160000000     -2.321266750000000     -0.861136850000000
H      -0.169687050000000      0.375467960000000     -1.453512320000000
H       0.168589920000000     -0.071357830000000      1.290073420000000
H      -2.316187280000000     -0.616431360000000     -1.340057990000000
H      -4.693539820000000     -0.112827300000000     -1.020518920000000
H      -5.517804110000000      0.706744590000000      1.159383930000000
H      -3.923672940000000      1.029012120000000      3.020936320000000
H      -1.534310910000000      0.557448500000000      2.698410180000000
H       1.997561960000000     -1.796655270000000      0.745876750000000
H       4.402432380000000     -1.411010070000000      1.063153420000000
H       5.512443260000000      0.485864800000000     -0.060808030000000
H       4.200167180000000      1.990878050000000     -1.511419330000000
H       1.791603770000000      1.599894880000000     -1.838684450000000
C       0.645460506086329     -1.026397629311891      4.466956815334889
C       1.734495352839202     -0.091616894832164      3.937997820367431
C       1.991085066473078      1.046981853280358      4.933991509120405
C       3.031924321226083     -0.871423403422473      3.686759293344307
O       1.238357049676505      0.436427772426806      2.711429135586966
H       0.952256444979719     -1.472570270666717      5.408466606645884
H       0.454150817440509     -1.813299210137228      3.741974912829135
H      -0.275290390234578     -0.468627330107467      4.616928581534498
H       2.767651487322636      1.713655495882792      4.560949995984069
H       1.080427155085836      1.624105221250778      5.079201418266183
H       2.309764399754207      0.646085200469615      5.892294856514610
H       3.810656354053734     -0.207769781050959      3.312861926747047
H       2.858102336121735     -1.650996559540099      2.948175678807206
H       3.381107070870619     -1.330967919726312      4.607349821808254
H       1.901831111806667      1.033877172419055      2.347504990165088
C       0.913492403702409     -4.519540266838357     -2.282947314796711
C       0.998484360317586     -5.029730521319184     -0.843471087519231
C       0.062305721236573     -6.229207415213073     -0.645800768237444
C       2.440587696502881     -5.427731563641888     -0.502188133970000
O       0.583622531585793     -3.946308639314283     -0.016705211576018
H       1.217450406660631     -5.295457783039080     -2.979507435418070
H       1.560531997314456     -3.654603418665324     -2.403927754566511
H      -0.106581777873209     -4.217000430392658     -2.504982811629125
H       0.121861758762650     -6.596147328516689      0.378151037598096
H      -0.965085212275176     -5.934288899917878     -0.848152121624951
H       0.335414846567529     -7.036749534558265     -1.319527033471874
H       2.503950706988325     -5.794560564101706      0.521569925100089
H       3.095990497066842     -4.565156289161292     -0.601511891325141
H       2.785500083098727     -6.210282679189310     -1.172446198703292
H       0.624066969135798     -4.233198262799523      0.902883278836623
