58

O       0.581712753229090     -0.551469890839410     -1.916604148297150
C       0.380982383436520      0.245097104619470     -0.780442330106330
N      -0.173572612790950     -0.533093395386740      0.318300282844010
C      -1.528000826977690     -0.834014792401180      0.390211082662580
C      -2.329656597497090     -0.905050849667560     -0.749635777481210
C      -3.654869138621770     -1.285960373037820     -0.642646706814580
C      -4.200784507506810     -1.610327083314020      0.587765745765250
C      -3.407598066324210     -1.543148021860740      1.722800289313410
C      -2.085967217772010     -1.155639826418740      1.629586357849960
C       1.649478905904700      0.908719185216710     -0.279724899582360
C       2.869448128555940      0.244871267085460     -0.314358548058620
C       4.008963479096020      0.857322362999790      0.181099292574350
C       3.939121321330480      2.129024735891940      0.725523016074180
C       2.723084861056850      2.792772571792720      0.767381428631060
C       1.585080727498530      2.186646820223710      0.263775480063020
H       1.050925297285210     -1.357635867811030     -1.637875679882820
H      -0.329703916718860      1.022632341848410     -1.106536534214220
H       0.258854529203460     -0.347781862869320      1.220427248177100
H      -1.910789698498780     -0.672329083058910     -1.716721266182050
H      -4.264322516624670     -1.335412465931900     -1.533992137063690
H      -5.235008064740580     -1.912097105222370      0.662879077657540
H      -3.824203523647180     -1.790108189926800      2.689120619075740
H      -1.469232365446250     -1.089031996809410      2.514308986730170
H       2.934121069978570     -0.751848697549770     -0.723525077670340
H       4.955629409903400      0.337939611576000      0.140109797172540
H       4.829224122230850      2.604422896230850      1.111580052549590
H       2.662481767304390      3.786461220269600      1.186739746018180
H       0.638302673916700      2.707002785836380      0.292473472586290
C       1.052263845574600     -2.111896487576430      3.953824838240540
C       2.120753252119120     -1.115357304550390      3.502978723653220
C       2.820861189390720     -0.493607486861890      4.716618056352420
C       3.146964289625850     -1.801740460002810      2.595923412271520
O       1.432440154681510     -0.091731064080640      2.778866429169730
H       1.502586925043120     -2.904333438563310      4.544467407391550
H       0.563955021754160     -2.549968132690050      3.087409730734140
H       0.303403206512670     -1.603381329091720      4.556540243424630
H       3.574997888295930      0.222955260158350      4.393199963044070
H       2.095512455357000      0.025088103714480      5.340007965156380
H       3.306211483739560     -1.263887649929230      5.309489181591080
H       3.913168401994070     -1.092463376351770      2.287347441305630
H       2.664766730028670     -2.194890983341250      1.703869135752230
H       3.625311888984530     -2.619967028587280      3.127654755878070
H       2.078887475828240      0.564731992569540      2.493619864661160
C       1.866383834917280     -5.028267262408330     -1.025363287615240
C       0.764602367567710     -4.077105690192100     -0.554225398580540
C      -0.322322561092190     -3.939806901399450     -1.627514338390200
C       0.142117301623180     -4.576405327732870      0.754198808414720
O       1.391874595068620     -2.816511117780730     -0.334028168420940
H       1.457537085453380     -6.016077163272570     -1.216168140814270
H       2.640573064810960     -5.102027625654870     -0.265398440328160
H       2.316394181482670     -4.646528422656280     -1.938587470441630
H      -1.104339749197960     -3.260453006670660     -1.292104104048250
H       0.104732484145140     -3.546855004318560     -2.547981080063120
H      -0.769588594940590     -4.908237378062730     -1.834834912336060
H      -0.644447791606830     -3.895719104553110      1.080594126037830
H       0.902158399662160     -4.637371714037820      1.530917597324680
H      -0.292675125260880     -5.562148526099080      0.613449947390080
H       0.744786003823280     -2.226499621222470      0.098529304990430
