61
Properties=species:S:1:pos:R:3:forces:R:3 energy:=T -71.692979462206=T gnorm:=T 0.000598513111=T xtb:=T 6.7.1=T (edcfbbe)=T energy=-1950.865339329704 pbc="F F F"
Ru       0.03274741      -0.14681197      -0.33756788      -0.00368149       0.00188704      -0.00591341
N       -0.17785083      -2.34916124      -0.19714446       0.00117736      -0.00018138       0.00306020
C        1.01251759      -3.07497654      -0.63929555      -0.00177441      -0.00051811      -0.00227627
C        2.26017930      -2.45862127      -0.01298453      -0.00057512      -0.00065014      -0.00226952
P        2.26538128      -0.63056223      -0.41370398       0.00347380      -0.00035607       0.00277038
C        3.13747828      -0.68219339      -2.08077811      -0.00058233       0.00238754      -0.00081288
C        4.59230152      -1.14470289      -2.08067361      -0.00073632       0.00333538      -0.00029729
C        2.99327997       0.64814803      -2.82340586      -0.00064106       0.00354361       0.00246739
C        3.58176902       0.02410512       0.74175049       0.00061590      -0.00119895       0.00275730
C        3.71219212       1.52092565       0.46452371      -0.00011558      -0.00196042       0.00220301
C        3.21600307      -0.19690140       2.20590611       0.00052632      -0.00475499       0.00138894
C       -1.40719568      -2.81842232      -0.83853094      -0.00075140      -0.00008894      -0.00108019
C       -2.61634423      -2.09484497      -0.25151944       0.00104807      -0.00155317       0.00374539
P       -2.23852272      -0.25908213      -0.08281597      -0.00499734      -0.00189356       0.00202595
C       -3.18219722       0.05757579       1.51428290       0.00269088       0.00309560      -0.00041577
C       -3.22590234       1.55681702       1.79838111       0.00112013       0.00269819      -0.00155739
C       -2.54210144      -0.65162101       2.70488938       0.00066467       0.00461810       0.00083241
C       -3.42405382       0.55919043      -1.29469324      -0.00027396      -0.00203588      -0.00233034
C       -2.85337494       1.93785498      -1.62831837      -0.00057883      -0.00108143      -0.00237607
C       -3.63503238      -0.22218934      -2.59005661      -0.00142110      -0.00456084       0.00045327
H       -0.27708514      -2.50008523       0.81238217       0.00129285      -0.00145045      -0.00026668
H        1.06716934      -3.00289690      -1.73301767      -0.00126578       0.00038953      -0.00224809
H        0.93883341      -4.14352253      -0.37520104      -0.00037918      -0.00067577      -0.00245494
H        2.20194318      -2.55914681       1.07480794       0.00160491      -0.00206681      -0.00117018
H        3.15991066      -2.96869535      -0.36293763       0.00071325      -0.00111278      -0.00444312
H        2.53899652      -1.43001278      -2.62404741      -0.00026433       0.00270662      -0.00113761
H        4.91219851      -1.31999062      -3.10759802      -0.00049732       0.00482044      -0.00099883
H        5.24305762      -0.38420986      -1.65504521      -0.00012462       0.00314392      -0.00007524
H        4.73092574      -2.07015660      -1.52521940       0.00045627       0.00233812      -0.00185905
H        2.08594810       1.16539181      -2.50401687      -0.00219354       0.00298223       0.00253696
H        2.93620107       0.48347831      -3.89880265      -0.00051756       0.00450228       0.00092513
H        3.84173286       1.30099291      -2.63169878      -0.00165074       0.00378214       0.00297478
H        4.52562519      -0.49100510       0.52590088      -0.00027279      -0.00236891       0.00040125
H        4.34945430       1.99779576       1.20830479       0.00068769      -0.00343501       0.00293717
H        4.13623260       1.70989937      -0.51822240      -0.00018271      -0.00063749       0.00372181
H        2.72107974       1.97715689       0.50514531       0.00126468      -0.00223924       0.00411557
H        3.90815185       0.34934481       2.84555340      -0.00033724      -0.00534258       0.00065314
H        2.20989303       0.17558964       2.39168663       0.00026131      -0.00415412       0.00170160
H        3.26377606      -1.24788624       2.48420549       0.00017504      -0.00320151      -0.00062567
H       -1.52056496      -3.90826435      -0.70840754      -0.00091717      -0.00022244       0.00151337
H       -1.33072838      -2.61572549      -1.91328138      -0.00203086      -0.00036402       0.00182647
H       -2.82299785      -2.49200441       0.74551467       0.00121865       0.00150731       0.00017585
H       -3.49982435      -2.26694506      -0.86615850       0.00002966      -0.00041430       0.00329926
H       -4.20144120      -0.32883456       1.36457541       0.00079326       0.00254892       0.00053469
H       -3.85730754       2.08537006       1.08827081       0.00180335       0.00155900      -0.00239235
H       -2.21393223       1.96067968       1.74439625       0.00263746       0.00248739      -0.00289479
H       -3.61881961       1.74081421       2.79794198       0.00217095       0.00429308      -0.00220261
H       -2.57498452      -1.73651660       2.61732817       0.00053309       0.00350964       0.00106049
H       -3.06519169      -0.38144071       3.62130310       0.00176910       0.00444006       0.00056078
H       -1.50276164      -0.33971210       2.79784153       0.00042992       0.00374811      -0.00073831
H       -4.39204741       0.67460812      -0.78915826      -0.00032784      -0.00166623       0.00020482
H       -3.57531784       2.52974385      -2.19030324      -0.00108528      -0.00299046      -0.00286049
H       -2.57198263       2.48238140      -0.72934731      -0.00026082      -0.00040065      -0.00294795
H       -1.95066530       1.82309740      -2.22800741      -0.00122460      -0.00249488      -0.00373246
H       -2.68163325      -0.51882876      -3.02190659      -0.00144197      -0.00331013      -0.00002931
H       -4.24862276      -1.10902080      -2.44611026      -0.00050196      -0.00320191       0.00170290
H       -4.14267059       0.41382281      -3.31472987      -0.00145738      -0.00423150      -0.00043604
C       -0.10397963      -0.20696886      -2.16130851       0.00131880      -0.00182212      -0.00668878
O       -0.16350646      -0.33620002      -3.31884136      -0.00087246       0.00050287       0.00686312
H        0.18664270      -0.11067120       1.23161502       0.00268642      -0.00128602      -0.00105016
H        0.16671114       1.41407828      -0.30612307       0.00077132      -0.00090394       0.00116842
