62
 energy: -92.068928116556 gnorm: 0.000137551423 xtb: 6.7.1 (edcfbbe)
Co          -0.04335700135163       -0.53997111229542        0.21673420884740
N           -0.08637875909693       -2.33832510728551        0.62722009360591
C            1.01990309361207       -3.26684387515512        0.49303446686410
C            2.19097069332739       -2.63742205671731       -0.25638011341816
P            2.08241395975290       -0.87674923449426        0.23055641928240
C            3.43854652504159       -0.01749381392660       -0.62566619176808
C            3.71240338633659        1.28205144374133       -0.20201900003493
C            4.70861684139488        2.02119109888614       -0.80921781899843
C            5.43790098770338        1.47168895267699       -1.85330314349257
C            5.16299838847446        0.18569574896362       -2.28720711700019
C            4.16429463971429       -0.55801770327499       -1.68073684516413
C            2.72112846213881       -0.89836407537756        1.93511142786424
C            1.83081095809553       -0.61528334937971        2.96329564945065
C            2.25364493073813       -0.65305700585613        4.27980474470220
C            3.57095318845471       -0.97129713832987        4.57025073754578
C            4.46420819990565       -1.24774744953171        3.54593142541159
C            4.04435463181331       -1.21066703898371        2.22849474650577
C           -1.23101566754145       -3.06199735216762        1.14754522458118
C           -2.34909432351179       -2.11250544125066        1.56896502892658
P           -2.18239688679431       -0.73381301749329        0.37694619618309
C           -3.46806505278264        0.47991003002102        0.80651004793783
C           -4.17090403106538        0.48141885732795        2.00576661716046
C           -5.11589202656829        1.46311272635577        2.25364096889638
C           -5.35934201423392        2.45156145521627        1.31491540464904
C           -4.65189523939312        2.46307524600955        0.12186588513130
C           -3.70916890044688        1.48530987250441       -0.12860301101665
C           -2.88674569821644       -1.44602624591333       -1.14336191255029
C           -2.02130443451469       -1.70119808871708       -2.19967420329875
C           -2.49627305570611       -2.27457321537443       -3.36547373757486
C           -3.84079243630945       -2.59149658877615       -3.47804634073874
C           -4.70873267746886       -2.33335264467513       -2.42756684643057
C           -4.23662013625861       -1.76059117837407       -1.26037791625506
H            1.36945792895134       -3.58726657999342        1.49558296766470
H            0.68613624039680       -4.18283438849145       -0.03032771446162
H            2.02330458032114       -2.69742249758546       -1.33584575969459
H            3.14883243124551       -3.09917695492822       -0.00281857929394
H            3.13117529412498        1.70136181789870        0.61007344796402
H            4.91760052703626        3.02661969433603       -0.47281167517637
H            6.21737553609979        2.04805122948933       -2.33017412686795
H            5.72876635034336       -0.24091165628603       -3.10346355223541
H            3.95566835105761       -1.55923549298426       -2.02980139443821
H            0.80290980310974       -0.36879298536415        2.70064316276810
H            1.56105667721209       -0.43339760713609        5.08002996420363
H            3.90512816066297       -1.00212340854380        5.59748740274578
H            5.49135362851877       -1.49196642290584        3.77752929852407
H            4.74034979806489       -1.41767079428724        1.42577329215646
H           -1.62334645060449       -3.75592368898294        0.37682702336040
H           -0.92638774703999       -3.68780362064814        2.00765331114836
H           -3.33390089123708       -2.58663234518586        1.54703068227994
H           -2.14837094694979       -1.71780982661656        2.56938082422124
H           -3.98665378394987       -0.28334381057054        2.74663729140404
H           -5.66419175130684        1.45666545426784        3.18513056500772
H           -6.09706056179761        3.21550272644884        1.51330057073481
H           -4.83608120875983        3.23707184640292       -0.60935795956416
H           -3.14595642292678        1.48581472331429       -1.05374175993912
H           -0.97097687556739       -1.44004815655748       -2.07924722757219
H           -1.82293183920074       -2.47353262847354       -4.18724532119748
H           -4.21581275120007       -3.03882989659487       -4.38750225231615
H           -5.75697081236831       -2.57980455213978       -2.52128575968431
H           -4.91242774723254       -1.55050392775329       -0.44139889193209
C           -0.00210092140208        1.13235232650312       -0.18856878878305
O            0.02744128292311        2.26140519730297       -0.46692417899959
