78
Properties=species:S:1:pos:R:3:forces:R:3 charge=0 unpaired=0 uhf=0 endpoint_role="alcohol encounter complex; requires optimization" energy=-3134.9411660417813 pbc="F F F"
Co      -0.02338157      -0.42726824      -0.12090431       0.00626359       0.00178366       0.00171134
N        0.31978843      -2.14443690       0.46799080      -0.00055396      -0.00056508       0.00231422
C        1.48988596      -2.94124468       0.16343637      -0.00076938       0.00031287      -0.00034214
C        2.35974451      -2.26401561      -0.89055110       0.00040437      -0.00001250      -0.00006073
P        2.10182487      -0.47941450      -0.56688065       0.00056378      -0.00107926      -0.00080265
C        3.06761720      -0.23751674       0.95763506      -0.00008151       0.00000597       0.00001605
C        2.37575420       0.05446338       2.12633937      -0.00000709      -0.00044130       0.00027434
C        3.05573059       0.19491169       3.32278045      -0.00023801      -0.00084352       0.00010034
C        4.43290540       0.04359903       3.35333175       0.00021370      -0.00040070       0.00012027
C        5.12826093      -0.24414425       2.18830708       0.00020653       0.00134655      -0.00034465
C        4.45079708      -0.38431870       0.99065494       0.00025387       0.00099865      -0.00007210
C        3.13607294       0.39235772      -1.78550626      -0.00005418       0.00044342       0.00070365
C        3.56601460       1.67945596      -1.46938027      -0.00064201      -0.00041642       0.00069386
C        4.34221455       2.39531299      -2.36008109      -0.00001769       0.00026521      -0.00023918
C        4.68674627       1.83761060      -3.58141592       0.00003214       0.00038079       0.00014030
C        4.23807271       0.57045030      -3.91346432      -0.00037777       0.00017707      -0.00003397
C        3.45888197      -0.14909678      -3.02511921       0.00028160       0.00011217      -0.00024002
C       -0.56174062      -2.90796441       1.32693479      -0.00064374      -0.00134850       0.00020141
C       -1.70713553      -2.03772728       1.83668644       0.00026089      -0.00029294      -0.00078035
P       -2.05087935      -0.96608655       0.39199328       0.00049429       0.00345928      -0.00131968
C       -3.35528663       0.19936158       0.89333886      -0.00009686      -0.00083251       0.00028433
C       -3.77012819       0.39397334       2.20536122       0.00014667      -0.00031092       0.00011992
C       -4.74058227       1.33971151       2.49193656       0.00089979       0.00134887       0.00037500
C       -5.29587134       2.10118079       1.47733153       0.00089326       0.00041744       0.00057633
C       -4.87853420       1.91962690       0.16721043      -0.00016008      -0.00079632      -0.00007838
C       -3.91125252       0.97711793      -0.12122033      -0.00062854      -0.00026940      -0.00014312
C       -2.99229163      -2.11229286      -0.67013534      -0.00019115      -0.00021241      -0.00010282
C       -2.34000120      -2.75450619      -1.71545402      -0.00029089       0.00121855       0.00018397
C       -3.01685484      -3.67822219      -2.49290360      -0.00055729       0.00032866      -0.00046276
C       -4.34635173      -3.96429649      -2.22983275      -0.00024793       0.00044476      -0.00007136
C       -4.99914244      -3.32743555      -1.18513101      -0.00035762       0.00030728      -0.00027859
C       -4.32702293      -2.40485546      -0.40437468       0.00009016      -0.00004504       0.00018197
H        1.18907287      -3.94716754      -0.18658053       0.00026840      -0.00008313       0.00003450
H        2.08873557      -3.09542997       1.08406222       0.00013419       0.00035953      -0.00028811
H        1.97742157      -2.48632456      -1.88876111      -0.00025074       0.00015133       0.00018987
H        3.41094407      -2.55526396      -0.82043890       0.00025619      -0.00001931      -0.00022083
H        1.29393445       0.16271508       2.07253268      -0.00011066      -0.00059621       0.00029956
H        2.51613394       0.42235346       4.23132444       0.00017588      -0.00025187       0.00019986
H        4.96751484       0.15090327       4.28633119       0.00018201       0.00056151      -0.00011430
H        6.20254963      -0.35989628       2.21639001       0.00012164       0.00053818      -0.00013215
H        4.99144879      -0.60140320       0.07836744      -0.00010755       0.00036433      -0.00019484
H        3.28966543       2.10825906      -0.51416946      -0.00047051       0.00077294      -0.00007622
H        4.68044472       3.38920355      -2.10359056      -0.00045471       0.00049163       0.00007155
H        5.29813385       2.39389001      -4.27679535       0.00009564       0.00026258       0.00032877
H        4.49366176       0.14126093      -4.87147693       0.00033605      -0.00008426       0.00033118
H        3.09941162      -1.12969953      -3.29896504       0.00014326       0.00017544       0.00032890
H       -0.98530607      -3.77308935       0.77695086      -0.00023896      -0.00000209      -0.00072153
H        0.00650173      -3.32609569       2.17938384      -0.00015369      -0.00070542      -0.00066619
H       -2.57341239      -2.62328815       2.15613153       0.00006772      -0.00041174      -0.00059502
H       -1.35926700      -1.40309596       2.65696780      -0.00049358      -0.00085138      -0.00014393
H       -3.34161855      -0.19304600       3.00515759       0.00017365      -0.00026922      -0.00002758
H       -5.06351928       1.48401816       3.51332099      -0.00046003      -0.00101241       0.00003887
H       -6.05067866       2.83926546       1.70668102      -0.00063870      -0.00054798       0.00021649
H       -5.30635640       2.51665250      -0.62538049       0.00036990       0.00037856       0.00030107
H       -3.57336858       0.82808919      -1.13980972       0.00072522       0.00070496       0.00047668
H       -1.30100646      -2.52479840      -1.91291630      -0.00007766      -0.00059126      -0.00023227
H       -2.50550938      -4.17368212      -3.30587452      -0.00019247      -0.00032833       0.00023600
H       -4.87650378      -4.68386236      -2.83726522      -0.00030599       0.00018127       0.00001410
H       -6.03587250      -3.55274455      -0.97832442      -0.00026650       0.00108641      -0.00049078
H       -4.83773310      -1.90773638       0.40986300      -0.00004706       0.00097305      -0.00063331
C       -0.34765612       1.24494075      -0.37617638      -0.01119107      -0.00046761      -0.00060543
O       -0.61473921       2.37774734      -0.40894185       0.00430712      -0.00030762       0.00174540
O        0.26040142      -1.29239822      -3.19328199       0.00291858      -0.00021919       0.00264906
C       -0.28613295      -0.56800913      -4.27291921      -0.00139901       0.00025787      -0.00164239
C        0.55318968       0.62292256      -4.67000072       0.00028867      -0.00034541       0.00003257
C        0.66738911       1.70703604      -3.80836855      -0.00015948      -0.00041029      -0.00032376
C        1.43930633       2.80124205      -4.15155362       0.00084430      -0.00041800      -0.00040901
C        2.10535628       2.82633691      -5.36515121      -0.00028725      -0.00013247      -0.00013904
C        2.00048486       1.74949238      -6.22832148      -0.00005948       0.00020037      -0.00051610
C        1.23170786       0.65190155      -5.88042668       0.00068812      -0.00079498       0.00031862
H        0.21642527      -0.74302862      -2.38250940      -0.00103808      -0.00131404      -0.00118613
H       -0.34600088      -1.27945194      -5.10201371       0.00033976      -0.00084381      -0.00063504
H       -1.30652862      -0.23560839      -4.02631310       0.00098280      -0.00054105       0.00054089
H        0.14223695       1.69589598      -2.86431835      -0.00006662       0.00009498       0.00003796
H        1.51693708       3.63590477      -3.47021026      -0.00056606      -0.00000061      -0.00035524
H        2.70382658       3.68370015      -5.63698433      -0.00008649      -0.00024153      -0.00033185
H        2.51919629       1.76373114      -7.17635624       0.00024283      -0.00078390      -0.00015676
H        1.15385261      -0.18759831      -6.55722438       0.00037148      -0.00046418      -0.00017890
