50
Properties=species:S:1:pos:R:3:forces:R:3 energy:=T -80.966162681530=T gnorm:=T 0.000023491679=T xtb:=T 6.7.1=T (edcfbbe)=T energy=-2203.2015076256866 pbc="F F F"
Fe       0.12822344      -0.37648428      -0.33528948       0.00024227      -0.00025244       0.00008755
C        2.33856210      -2.29160041       0.58179109       0.00000555       0.00006107      -0.00004974
P        2.09692297      -0.44004143       0.53375333       0.00003322       0.00001515       0.00010500
C        3.62063413       0.13515175      -0.27556208       0.00004783      -0.00000516       0.00006557
C        4.87803742      -0.34631390       0.08006892      -0.00010041       0.00010475       0.00000060
C        6.00115536       0.13063618      -0.57041042      -0.00001924       0.00020124      -0.00004182
C        5.87681858       1.08869794      -1.56605454      -0.00007379       0.00016104       0.00005595
C        4.62737246       1.57764192      -1.91344737      -0.00011972       0.00012846       0.00003930
C        3.49903471       1.10161372      -1.26884139      -0.00004522       0.00006442       0.00004053
C        2.33486380       0.01628158       2.27633033       0.00004613       0.00003017       0.00003048
C        3.20119730       1.03049550       2.66887853      -0.00009971      -0.00003718       0.00000869
C        3.29729396       1.36946986       4.00813710      -0.00007128      -0.00003430       0.00007790
C        2.52756753       0.70907516       4.95137293      -0.00001111      -0.00006061       0.00002860
C        1.64934954      -0.29037378       4.55758939      -0.00002828      -0.00008710       0.00002974
C        1.54547556      -0.63264438       3.22332602       0.00004754      -0.00004345      -0.00004367
C        0.99676460      -2.95462254       0.56849152      -0.00001951       0.00002536       0.00006277
C        0.80133451      -4.26100992       0.98064897       0.00000744      -0.00000502       0.00003736
C       -0.46546200      -4.82665638       0.90333293       0.00003842      -0.00000338       0.00012170
C       -1.51507505      -4.06605730       0.42332906      -0.00000306       0.00002053       0.00008328
C       -1.27571329      -2.75411905       0.03665593      -0.00002322      -0.00002151       0.00004351
C       -2.25242180      -1.79425676      -0.43138494       0.00005093      -0.00000461       0.00003574
C       -3.62854093      -1.89254589      -0.61231025       0.00001586      -0.00005069      -0.00010890
C       -4.32514882      -0.76255736      -1.00903292       0.00004823      -0.00010444      -0.00017540
C       -3.67281683       0.45487546      -1.21149208       0.00006806      -0.00006454      -0.00019465
C       -2.30751182       0.47777670      -1.02317722       0.00010310      -0.00001833      -0.00015307
O       -1.42468224       1.49236947      -1.13381798      -0.00010286      -0.00006368      -0.00008767
N       -1.64021705      -0.61919216      -0.66872370      -0.00006601       0.00001820      -0.00007931
N       -0.02414852      -2.21215459       0.10304154       0.00004036       0.00001431       0.00007332
H        2.93388423      -2.61039845       1.44376880      -0.00001913       0.00006283       0.00014962
H        2.88071403      -2.56296260      -0.33459710       0.00006902      -0.00006120       0.00014582
H        4.97335869      -1.08240032       0.86566150       0.00006484       0.00009030      -0.00004744
H        6.97844920      -0.24232153      -0.30089649      -0.00001554       0.00020936      -0.00004450
H        6.75815858       1.45703320      -2.07023864      -0.00010033       0.00023810       0.00001532
H        4.53614455       2.32746321      -2.68552700      -0.00013236       0.00013737       0.00008479
H        2.51134843       1.47197046      -1.52474644      -0.00010080       0.00001161       0.00008553
H        3.79789561       1.55213855       1.93332797      -0.00003961       0.00002127       0.00006072
H        3.97271584       2.15487708       4.31504766      -0.00007800      -0.00002685       0.00009557
H        2.60582849       0.97806588       5.99469619      -0.00005152      -0.00009243       0.00005695
H        1.04314081      -0.79649256       5.29457680       0.00000667      -0.00011375      -0.00001059
H        0.84358786      -1.39104309       2.90361169       0.00002433      -0.00006412       0.00000435
H        1.63705538      -4.83110053       1.35594932       0.00003043       0.00001795       0.00008926
H       -0.62572564      -5.84563004       1.21925519       0.00001038       0.00002533       0.00013142
H       -2.51207136      -4.47020896       0.35526828       0.00001345       0.00001362       0.00012834
H       -4.14210978      -2.82348293      -0.43845978       0.00003540      -0.00003237      -0.00005339
H       -5.39326001      -0.81567950      -1.15178175       0.00006767      -0.00008945      -0.00024776
H       -4.21991285       1.34044917      -1.49504011       0.00004124      -0.00011955      -0.00029567
H       -1.85208267       2.34844886      -1.28281672       0.00006732      -0.00010143      -0.00034440
C        0.72687268      -0.76401422      -1.94484911      -0.00005883       0.00022648      -0.00011609
O        1.09148265      -1.10881169      -2.96931968       0.00012919      -0.00039470       0.00007128
H       -0.24716003      -0.06212009       0.99744529       0.00002462       0.00005337      -0.00005247
