50
Properties=species:S:1:pos:R:3 energy:=T -80.966162681530=T gnorm:=T 0.000023491679=T xtb:=T 6.7.1=T (edcfbbe)=T pbc="F F F"
Fe       0.12822344      -0.37648428      -0.33528948
C        2.33856210      -2.29160041       0.58179109
P        2.09692297      -0.44004143       0.53375333
C        3.62063413       0.13515175      -0.27556208
C        4.87803742      -0.34631390       0.08006892
C        6.00115536       0.13063618      -0.57041042
C        5.87681858       1.08869794      -1.56605454
C        4.62737246       1.57764192      -1.91344737
C        3.49903471       1.10161372      -1.26884139
C        2.33486380       0.01628158       2.27633033
C        3.20119730       1.03049550       2.66887853
C        3.29729396       1.36946986       4.00813710
C        2.52756753       0.70907516       4.95137293
C        1.64934954      -0.29037378       4.55758939
C        1.54547556      -0.63264438       3.22332602
C        0.99676460      -2.95462254       0.56849152
C        0.80133451      -4.26100992       0.98064897
C       -0.46546200      -4.82665638       0.90333293
C       -1.51507505      -4.06605730       0.42332906
C       -1.27571329      -2.75411905       0.03665593
C       -2.25242180      -1.79425676      -0.43138494
C       -3.62854093      -1.89254589      -0.61231025
C       -4.32514882      -0.76255736      -1.00903292
C       -3.67281683       0.45487546      -1.21149208
C       -2.30751182       0.47777670      -1.02317722
O       -1.42468224       1.49236947      -1.13381798
N       -1.64021705      -0.61919216      -0.66872370
N       -0.02414852      -2.21215459       0.10304154
H        2.93388423      -2.61039845       1.44376880
H        2.88071403      -2.56296260      -0.33459710
H        4.97335869      -1.08240032       0.86566150
H        6.97844920      -0.24232153      -0.30089649
H        6.75815858       1.45703320      -2.07023864
H        4.53614455       2.32746321      -2.68552700
H        2.51134843       1.47197046      -1.52474644
H        3.79789561       1.55213855       1.93332797
H        3.97271584       2.15487708       4.31504766
H        2.60582849       0.97806588       5.99469619
H        1.04314081      -0.79649256       5.29457680
H        0.84358786      -1.39104309       2.90361169
H        1.63705538      -4.83110053       1.35594932
H       -0.62572564      -5.84563004       1.21925519
H       -2.51207136      -4.47020896       0.35526828
H       -4.14210978      -2.82348293      -0.43845978
H       -5.39326001      -0.81567950      -1.15178175
H       -4.21991285       1.34044917      -1.49504011
H       -1.85208267       2.34844886      -1.28281672
C        0.72687268      -0.76401422      -1.94484911
O        1.09148265      -1.10881169      -2.96931968
H       -0.24716003      -0.06212009       0.99744529
