57
 energy: -76.461757605064 gnorm: 0.000516551726 xtb: 6.7.1 (edcfbbe)
Mn           0.07084604572367        0.19856851646079       -0.49625112467762
C            2.01357836197585       -1.89698931562620       -1.72483741256902
P            2.18310510374080       -0.14111384587026       -1.14596721288330
C            3.64774121941568       -0.31974990778856        0.00362780275564
C            3.32632652170336       -1.28611532927450        1.14155152338456
C            4.04045809443245        1.04765485887294        0.55586805126529
C            2.89685761407593        0.64276062759483       -2.68892309914866
C            4.29113588313447        0.17381748399909       -3.09457114473767
C            2.81008943181697        2.16554692838864       -2.60575599795287
C            0.95979316421740       -2.54208358157934       -0.87766955421001
C            0.91575251148323       -3.91839474264226       -0.72803277103914
C           -0.09055962498616       -4.49801278366501        0.03058040944539
C           -1.02350375132674       -3.65614514541520        0.61544307518398
C           -0.90881049423645       -2.28732384941729        0.44005102952096
C           -1.86826868016403       -1.33860108203468        1.10202537458160
N           -2.14289847354283       -0.17988714282715        0.23741310455501
C           -2.71954277391862        0.92730581422270        1.03060813345669
C           -4.05989298325974        0.65090763634315        1.71797229348048
C           -3.07321745910525       -0.61716660192015       -0.82434150685168
C           -3.53077337158914        0.50043616700160       -1.75421767118588
N            0.06752193752725       -1.72096484718946       -0.29083481315523
H            2.95110899110216       -2.45953561717733       -1.70503323164808
H            1.65885431398783       -1.84884976499476       -2.76272861573680
H            4.47369343117371       -0.73974376912708       -0.58482259061753
H            3.07546807221357       -2.27969548538904        0.77251124932338
H            2.49183970356830       -0.91731541092781        1.73446450956029
H            4.18894617520132       -1.38018913071813        1.80107433247352
H            4.49074719360512        1.66891200817163       -0.21385659473921
H            3.15851863468444        1.56304556359441        0.93631818023563
H            4.75775132839784        0.93946562126213        1.36884541508689
H            2.18161538588950        0.31929356934436       -3.46043111215278
H            4.35534699006155       -0.91244312381624       -3.12412093748014
H            5.04814047888227        0.55480464729912       -2.41314409464014
H            4.51944076005950        0.55216816972405       -4.09024646098406
H            3.60134291344884        2.57680924938006       -1.98450748386243
H            2.89535401622418        2.60316241589307       -3.59917097581257
H            1.84832932325059        2.45006915472954       -2.17389361006797
H            1.66371018552686       -4.52927291688473       -1.21161339108803
H           -0.14773451081665       -5.56783212667312        0.15637668524011
H           -1.83151738454322       -4.05314772374381        1.21140772384929
H           -2.79179562498120       -1.87509553667792        1.37001618004206
H           -1.40519340962744       -0.97527638903424        2.03007292612927
H           -2.82032587183051        1.78774907994108        0.36753234216410
H           -1.98804116329526        1.20012955144743        1.79643228402101
H           -3.99147647303945       -0.17539296316016        2.42222430201744
H           -4.85219814144098        0.44102440630636        1.00415363261022
H           -4.34278385079030        1.54025410668623        2.27636428239256
H           -2.56162538878243       -1.38359735233368       -1.41737550507839
H           -3.95596830997516       -1.09633193488947       -0.37204974518742
H           -3.95966003771936        0.06495355118154       -2.65421360010019
H           -4.28553247965332        1.12925786856251       -1.28885138992718
H           -2.68459506165488        1.12294467299548       -2.03987385809283
C           -0.31643583202564        0.10926005509234       -2.22298111765874
O           -0.47662601026798        0.05975959122817       -3.37283528231124
C            0.50398768318143        0.63042802046922        1.17217144523195
O            0.76534266479558        0.98621195542036        2.24764453465385
H           -0.15671421035482        1.73472883841105       -0.63787822382695
