57
Properties=species:S:1:pos:R:3:forces:R:3 energy:=T -76.702072432696=T gnorm:=T 0.000230342175=T xtb:=T 6.7.1=T (edcfbbe)=T energy=-2087.1697018288637 pbc="F F F"
O       -0.12286994      -1.07703570      -1.67032215       0.00045417       0.00061499       0.00087551
C        0.20253556      -0.09679512      -0.66437946       0.00006828      -0.00079782      -0.00103352
N       -0.52141309      -0.24593753       0.55762448       0.00057442       0.00188606       0.00135410
C       -1.81169222       0.14769486       0.59947827       0.00038094      -0.00039560      -0.00070489
C       -2.61526550       0.49397455      -0.51666700       0.00050121      -0.00012121      -0.00007648
C       -3.94149547       0.83691045      -0.37163205       0.00021785       0.00073128      -0.00010158
C       -4.54838573       0.85500488       0.87527720      -0.00026369      -0.00000683      -0.00037724
C       -3.78232126       0.53091205       1.98877520       0.00109163      -0.00035892       0.00059743
C       -2.45710245       0.19073448       1.86154078      -0.00078010       0.00042134       0.00076519
C        1.69206586      -0.14678422      -0.36421966       0.00019089      -0.00017852      -0.00001478
C        2.34387702      -1.35660545      -0.15576763       0.00068257      -0.00027269       0.00011962
C        3.70388610      -1.38637282       0.10137142      -0.00051884       0.00014872       0.00046960
C        4.43159925      -0.20954341       0.15557564       0.00003718       0.00052963      -0.00036172
C        3.78672924       1.00046338      -0.04061548       0.00048898      -0.00007967      -0.00025105
C        2.42842380       1.02891791      -0.30036404       0.00004309       0.00040450       0.00044877
H       -0.17900381      -1.91221126      -1.17705366      -0.00017462      -0.00047110      -0.00009003
H       -0.00710168       0.87216136      -1.16501054       0.00023677      -0.00000519      -0.00013430
H        0.34350233       0.42797430       1.84099597      -0.00286676      -0.00217919      -0.00362134
H       -2.18353984       0.46840076      -1.50909053      -0.00023361      -0.00005727       0.00030690
H       -4.52214216       1.08879452      -1.25418006      -0.00010434      -0.00076030       0.00025809
H       -5.59302746       1.11921250       0.97927731       0.00010108      -0.00030562       0.00008781
H       -4.23510514       0.55097066       2.97497869       0.00032676       0.00052614       0.00030072
H       -1.86942669      -0.02936888       2.74262521       0.00083783       0.00055118       0.00003731
H        1.78487308      -2.27979453      -0.18652762      -0.00007775      -0.00005836      -0.00001891
H        4.19765029      -2.33552278       0.26354717       0.00074471       0.00022337       0.00007965
H        5.49429735      -0.23441261       0.35627421       0.00026895       0.00030098       0.00009072
H        4.34514392       1.92556306       0.00911086      -0.00004251       0.00038527       0.00017504
H        1.92686678       1.97552919      -0.44801199      -0.00025081      -0.00029005      -0.00001886
C       -1.26389873      -5.08091307       0.45065203      -0.00063641       0.00026883      -0.00001355
C       -1.60784307      -3.59119843       0.59788417      -0.00196374      -0.00064343       0.00024360
C       -2.58932480      -3.17339840      -0.50904924       0.00017619      -0.00039648       0.00004094
C       -2.25185226      -3.33868405       1.96775896       0.00086002      -0.00007655      -0.00020492
O       -0.39187360      -2.88544473       0.48431350       0.00022923       0.00498645      -0.00015359
H       -2.16194741      -5.68803645       0.52711909      -0.00045751      -0.00044216      -0.00036470
H       -0.56392320      -5.37165595       1.23045122      -0.00026291      -0.00003508      -0.00005735
H       -0.79422205      -5.25497316      -0.51490212      -0.00005497       0.00016850      -0.00012807
H       -2.81775332      -2.11285272      -0.42524808      -0.00046634      -0.00025599       0.00054592
H       -2.15118388      -3.35328486      -1.48954975      -0.00047312       0.00043258       0.00021192
H       -3.51599346      -3.73720791      -0.42712958      -0.00026309      -0.00032480      -0.00011348
H       -2.52318882      -2.28858652       2.05707677       0.00032938      -0.00011795       0.00007833
H       -1.54720555      -3.58919190       2.75861345      -0.00051568      -0.00045401      -0.00019895
H       -3.14797586      -3.94396276       2.08484756      -0.00033616       0.00022450      -0.00007003
H       -0.54341099      -1.88771467       0.65096492       0.00038204      -0.00568041      -0.00003932
C        0.70752699       0.50763767       4.90036974      -0.00074292       0.00046539      -0.00011440
C        1.32597781       0.09887159       3.54854360      -0.00062749       0.00165525      -0.00124003
C        2.85497616       0.26771604       3.61855760       0.00025632      -0.00028740       0.00029551
C        0.99316928      -1.36640823       3.26051718       0.00010812       0.00020068      -0.00076917
O        0.82335262       0.95873279       2.54720624       0.00290176       0.00107288       0.00249656
H       -0.37442646       0.40413385       4.85462833      -0.00010238      -0.00012954      -0.00041760
H        1.09237300      -0.11506101       5.70467361      -0.00022384       0.00008780       0.00009285
H        0.94018622       1.54934975       5.10840639      -0.00063588      -0.00013707      -0.00062989
H        3.09832111       1.31355931       3.79072616      -0.00026975       0.00025063       0.00006398
H        3.29456876      -0.03464508       2.67191301       0.00059071      -0.00027396      -0.00007007
H        3.27312585      -0.33575332       4.42091049       0.00005238      -0.00068314       0.00111078
H       -0.08375196      -1.50703678       3.23139052      -0.00020299       0.00029661      -0.00072564
H        1.39663458      -1.65616830       2.29464098       0.00073149      -0.00021631       0.00022164
H        1.41266121      -2.01090997       4.03122246      -0.00031675      -0.00034096       0.00074700
