57
Properties=species:S:1:pos:R:3:forces:R:3 energy:=T -76.702079633090=T gnorm:=T 0.000034575048=T xtb:=T 6.7.1=T (edcfbbe)=T energy=-2087.1698977614556 pbc="F F F"
O       -0.12280153      -1.08116712      -1.67340254      -0.00010641      -0.00026625       0.00003715
C        0.20303623      -0.10007215      -0.66873396       0.00000374      -0.00033805      -0.00024069
N       -0.51856650      -0.24932543       0.55482584      -0.00009226      -0.00064053      -0.00012208
C       -1.80785440       0.14614823       0.60097058       0.00010702       0.00038698       0.00002829
C       -2.61481813       0.49461105      -0.51211265      -0.00004503       0.00010686       0.00001183
C       -3.93996059       0.83945958      -0.36203958      -0.00002951      -0.00012815      -0.00005196
C       -4.54244378       0.85763796       0.88705488      -0.00002311      -0.00007843       0.00000182
C       -3.77309162       0.53127837       1.99762788      -0.00004433      -0.00012618      -0.00007625
C       -2.44897563       0.18898532       1.86528091      -0.00004027      -0.00001156       0.00007899
C        1.69262006      -0.14726342      -0.36851841      -0.00012788      -0.00010160      -0.00006959
C        2.34675530      -1.35553554      -0.15880481       0.00013182      -0.00013911      -0.00013497
C        3.70561485      -1.38171140       0.10496156      -0.00012503      -0.00010282      -0.00005737
C        4.42962384      -0.20290344       0.16429812       0.00006997      -0.00015019      -0.00003498
C        3.78262173       1.00544281      -0.03485112      -0.00000403      -0.00009391       0.00010944
C        2.42560878       1.03034755      -0.30116954      -0.00004376      -0.00010966       0.00019238
H       -0.17830871      -1.91625159      -1.17987127       0.00010071       0.00001137       0.00014377
H       -0.00851259       0.86831704      -1.16966388       0.00010876      -0.00017581       0.00002404
H        0.35797181       0.42467409       1.82721330      -0.00002668       0.00000529       0.00011890
H       -2.18654538       0.46888731      -1.50602405      -0.00000654      -0.00006658      -0.00000102
H       -4.52350116       1.09253411      -1.24231789       0.00004122       0.00005996      -0.00004999
H       -5.58629431       1.12335548       0.99491679      -0.00000129       0.00003215      -0.00000923
H       -4.22231004       0.55119338       2.98546899       0.00007478       0.00024125       0.00001203
H       -1.85864767      -0.03383552       2.74396038      -0.00000127       0.00015092       0.00004522
H        1.79020093      -2.28015869      -0.19293401       0.00011876      -0.00024048      -0.00007101
H        4.20139126      -2.32956092       0.26889086      -0.00000816      -0.00020105      -0.00018257
H        5.49128554      -0.22496832       0.37098212       0.00006779      -0.00012444      -0.00006994
H        4.33821857       1.93205953       0.01842684      -0.00000311      -0.00011149       0.00008135
H        1.92211036       1.97567575      -0.45022710      -0.00002898      -0.00011284       0.00012340
C       -1.27265719      -5.08414364       0.44138013      -0.00014180      -0.00005632      -0.00002791
C       -1.61179605      -3.59414003       0.59614648       0.00005225      -0.00003866      -0.00012733
C       -2.59778930      -3.16962788      -0.50409847      -0.00001208       0.00007000      -0.00005584
C       -2.24808456      -3.34505524       1.97027993       0.00014223       0.00010863      -0.00009892
O       -0.39424018      -2.89128998       0.47911492       0.00013341       0.00001661      -0.00016259
H       -2.17207535      -5.68908997       0.51910022      -0.00014972      -0.00005487      -0.00001287
H       -0.57018015      -5.38014056       1.21692820       0.00001973       0.00000591      -0.00009533
H       -0.80762941      -5.25540504      -0.52691459      -0.00014262       0.00009343      -0.00002937
H       -2.82528167      -2.10945820      -0.41352527      -0.00004642       0.00006533      -0.00000165
H       -2.16400212      -3.34429337      -1.48744222       0.00001403       0.00010384      -0.00004750
H       -3.52440754      -3.73341115      -0.42126573       0.00004189       0.00001199      -0.00001077
H       -2.51566286      -2.29447425       2.06517627       0.00013225       0.00008684      -0.00005823
H       -1.54050791      -3.60111956       2.75672943       0.00007463       0.00004286      -0.00001902
H       -3.14567134      -3.94778358       2.08930780       0.00010583       0.00017010      -0.00003939
H       -0.54248457      -1.89426970       0.64758103      -0.00005075       0.00079645       0.00011620
C        0.67679781       0.50599783       4.87431499      -0.00007375      -0.00001683       0.00012948
C        1.33271722       0.09858755       3.53954543      -0.00003864       0.00013792       0.00000984
C        2.85839913       0.27493337       3.64950203       0.00009167       0.00008061       0.00001778
C        1.01457736      -1.36870717       3.24505792      -0.00001503      -0.00003175       0.00004744
O        0.85621312       0.95412044       2.52220923      -0.00023233       0.00011527       0.00006105
H       -0.40308077       0.39713675       4.80082169      -0.00008088      -0.00018081       0.00016368
H        1.04334852      -0.11366845       5.68947035       0.00015082       0.00011980       0.00015192
H        0.89868572       1.54916580       5.08687737      -0.00017233       0.00013346       0.00001074
H        3.09201238       1.32205027       3.82718116      -0.00012190       0.00024323       0.00018085
H        3.32376084      -0.02562830       2.71446689      -0.00004109       0.00031386      -0.00018078
H        3.25839900      -0.32617060       4.46282569       0.00016501      -0.00005009       0.00001868
H       -0.06034447      -1.51383467       3.18483070      -0.00014208      -0.00003559       0.00004553
H        1.44667458      -1.65833621       2.29160876       0.00018721       0.00002109      -0.00000117
H        1.41453884      -2.01005115       4.02870115       0.00008354       0.00005205       0.00017853
