57
Properties=species:S:1:pos:R:3:forces:R:3 energy:=T -76.702814920202=T gnorm:=T 0.000017684617=T xtb:=T 6.7.1=T (edcfbbe)=T energy=-2087.1899059433345 pbc="F F F"
O        0.01290548      -1.31590856      -1.63888237      -0.00000070      -0.00013752       0.00001767
C        0.26622669      -0.20392525      -0.76580044       0.00001733       0.00015451       0.00010691
N       -0.50219692      -0.22885227       0.44127451       0.00009499      -0.00010995      -0.00006809
C       -1.79985020       0.13956489       0.38394258      -0.00010472       0.00003594      -0.00004161
C       -2.55751468       0.34739948      -0.79712458       0.00005079       0.00000874       0.00010743
C       -3.89374112       0.67938806      -0.74786589      -0.00005816      -0.00001585       0.00011066
C       -4.55613735       0.82233160       0.46186752       0.00003169      -0.00001629       0.00004029
C       -3.83554214       0.63594229       1.63592947       0.00004050       0.00002607       0.00006312
C       -2.50143808       0.30834926       1.60485313       0.00000585      -0.00000562       0.00005192
C        1.74670166      -0.11477264      -0.42520397      -0.00005759       0.00003088      -0.00001160
C        2.60640875      -1.19191570      -0.58439601       0.00008974       0.00000610       0.00000496
C        3.95366358      -1.06645926      -0.28873943      -0.00001664       0.00000971      -0.00012969
C        4.45689017       0.13622277       0.17529807       0.00002430       0.00007540      -0.00003138
C        3.60259163       1.21484527       0.34299298       0.00005789       0.00001594      -0.00003735
C        2.25987928       1.09044906       0.04079355      -0.00003839       0.00001166      -0.00010707
H       -0.03027252      -2.07713387      -1.03551813      -0.00005615       0.00003544      -0.00004634
H        0.03271435       0.68475735      -1.39244566      -0.00003720      -0.00000657      -0.00001179
H        0.32710395       0.27100511       1.88624602       0.00017148       0.00007771       0.00031453
H       -2.08429774       0.22091447      -1.76282884      -0.00000717       0.00002477      -0.00000230
H       -4.43740436       0.82120927      -1.67741346       0.00001471       0.00003881       0.00006494
H       -5.60818888       1.07619675       0.49099042       0.00003589      -0.00000765       0.00009470
H       -4.33192030       0.75527237       2.59372213       0.00004140      -0.00006262       0.00006225
H       -1.95029119       0.19758899       2.52729461       0.00003684      -0.00004097       0.00003031
H        2.22302278      -2.13485685      -0.94574684      -0.00001029       0.00000465      -0.00005712
H        4.61209611      -1.91536434      -0.41772473       0.00002500       0.00003190      -0.00009199
H        5.50898737       0.23322855       0.40820481       0.00003611       0.00004259      -0.00012300
H        3.98604291       2.15709179       0.71076670       0.00000317       0.00005435      -0.00006984
H        1.59138188       1.92817275       0.17765444      -0.00000347       0.00004198       0.00003214
C       -1.12307552      -5.05040503       0.78055744      -0.00006780      -0.00004073      -0.00006978
C       -1.52285629      -3.56751332       0.74348157       0.00000603       0.00002674      -0.00008531
C       -2.37348053      -3.29367719      -0.50758702      -0.00000202       0.00004581      -0.00003216
C       -2.34700606      -3.22172231       1.99215840      -0.00006710      -0.00001681       0.00000087
O       -0.32060353      -2.82908809       0.71625839      -0.00015439       0.00002681       0.00011807
H       -2.00724586      -5.68142176       0.81370604      -0.00010740       0.00000200      -0.00007532
H       -0.51001844      -5.24043590       1.65841099      -0.00010947      -0.00003009      -0.00005564
H       -0.53983297      -5.29512415      -0.10433358      -0.00006596      -0.00000354      -0.00005436
H       -2.64535590      -2.24108100      -0.55277671       0.00007347       0.00001754      -0.00002918
H       -1.81645655      -3.54408086      -1.40887126      -0.00006042       0.00000178       0.00001596
H       -3.28464226      -3.88753389      -0.48075008      -0.00007029       0.00012931      -0.00004976
H       -2.61655715      -2.16712152       1.97438072      -0.00012662      -0.00004962      -0.00002264
H       -1.76541788      -3.42380001       2.88972062      -0.00009768       0.00001161      -0.00003353
H       -3.25775792      -3.81564352       2.02156707      -0.00002988      -0.00005789      -0.00004575
H       -0.51481423      -1.81743958       0.71969063       0.00004308      -0.00007307      -0.00001503
C        2.11588906       0.42422248       4.59801527      -0.00004029       0.00002005       0.00002461
C        1.23233704      -0.29225272       3.56510593       0.00002370      -0.00005963       0.00018213
C        2.05184879      -1.37208804       2.84651322       0.00009311       0.00003582       0.00005324
C        0.04324627      -0.96090322       4.27701256       0.00006535      -0.00001659       0.00000598
O        0.78368526       0.69794483       2.66850195      -0.00003026      -0.00008258      -0.00027796
H        1.53831216       1.19683481       5.09993944      -0.00003502      -0.00005212       0.00005771
H        2.49361367      -0.28027422       5.33477445       0.00003157      -0.00003984       0.00006875
H        2.95195392       0.89695618       4.08855930      -0.00002210       0.00002809       0.00008744
H        2.89280487      -0.91585692       2.33136870       0.00008021       0.00003468       0.00000786
H        1.43454066      -1.88131925       2.11097552       0.00007270      -0.00000879      -0.00000007
H        2.42585010      -2.10197853       3.56212087       0.00008907       0.00002761      -0.00000017
H       -0.57566864      -0.20614388       4.75896742       0.00008849      -0.00009136       0.00012631
H       -0.55921310      -1.49314980       3.54654423      -0.00002068       0.00006189      -0.00005645
H        0.39315618      -1.66542276       5.02867893       0.00005342      -0.00017121      -0.00011848
