      -----------------------------------------------------------      
     |                   =====================                   |     
     |                           x T B                           |     
     |                   =====================                   |     
     |                         S. Grimme                         |     
     |          Mulliken Center for Theoretical Chemistry        |     
     |                    University of Bonn                     |     
      -----------------------------------------------------------      

   * xtb version 6.7.1 (edcfbbe) compiled by 'VssAdministrator@runnervm171ch' on 2026-06-10

   xtb is free software: you can redistribute it and/or modify it under
   the terms of the GNU Lesser General Public License as published by
   the Free Software Foundation, either version 3 of the License, or
   (at your option) any later version.
   
   xtb is distributed in the hope that it will be useful,
   but WITHOUT ANY WARRANTY; without even the implied warranty of
   MERCHANTABILITY or FITNESS FOR A PARTICULAR PURPOSE.  See the
   GNU Lesser General Public License for more details.
   
   Cite this work as:
   * C. Bannwarth, E. Caldeweyher, S. Ehlert, A. Hansen, P. Pracht,
     J. Seibert, S. Spicher, S. Grimme, WIREs Comput. Mol. Sci., 2020, 11,
     e01493. DOI: 10.1002/wcms.1493
   
   for GFN2-xTB:
   * C. Bannwarth, S. Ehlert and S. Grimme., J. Chem. Theory Comput., 2019,
     15, 1652-1671. DOI: 10.1021/acs.jctc.8b01176
   for GFN1-xTB:
   * S. Grimme, C. Bannwarth, P. Shushkov, J. Chem. Theory Comput., 2017,
     13, 1989-2009. DOI: 10.1021/acs.jctc.7b00118
   for GFN0-xTB:
   * P. Pracht, E. Caldeweyher, S. Ehlert, S. Grimme, ChemRxiv, 2019, preprint.
     DOI: 10.26434/chemrxiv.8326202.v1
   for GFN-FF:
   * S. Spicher and S. Grimme, Angew. Chem. Int. Ed., 2020, 59, 15665-15673.
     DOI: 10.1002/anie.202004239
   
   for ALPB and GBSA implicit solvation:
   * S. Ehlert, M. Stahn, S. Spicher, S. Grimme, J. Chem. Theory Comput.,
     2021, 17, 4250-4261. DOI: 10.1021/acs.jctc.1c00471
   
   for ddCOSMO and CPCM-X implicit solvation:
   * M. Stahn, S. Ehlert, S. Grimme, J. Phys. Chem. A,
     2023, XX, XXXX-XXXX. DOI: 10.1021/acs.jpca.3c04382
   
   for DFT-D4:
   * E. Caldeweyher, C. Bannwarth and S. Grimme, J. Chem. Phys., 2017,
     147, 034112. DOI: 10.1063/1.4993215
   * E. Caldeweyher, S. Ehlert, A. Hansen, H. Neugebauer, S. Spicher,
     C. Bannwarth and S. Grimme, J. Chem. Phys., 2019, 150, 154122.
     DOI: 10.1063/1.5090222
   * E. Caldeweyher, J.-M. Mewes, S. Ehlert and S. Grimme, Phys. Chem. Chem. Phys.
     2020, 22, 8499-8512. DOI: 10.1039/D0CP00502A
   
   for sTDA-xTB:
   * S. Grimme and C. Bannwarth, J. Chem. Phys., 2016, 145, 054103.
     DOI: 10.1063/1.4959605
   
   in the mass-spec context:
   * V. Asgeirsson, C. Bauer and S. Grimme, Chem. Sci., 2017, 8, 4879.
     DOI: 10.1039/c7sc00601b
   * J. Koopman and S. Grimme, ACS Omega 2019, 4, 12, 15120-15133.
     DOI: 10.1021/acsomega.9b02011
   
   for metadynamics refer to:
   * S. Grimme, J. Chem. Theory Comput., 2019, 155, 2847-2862
     DOI: 10.1021/acs.jctc.9b00143
   
   for SPH calculations refer to:
   * S. Spicher and S. Grimme, J. Chem. Theory Comput., 2021, 17, 1701-1714
     DOI: 10.1021/acs.jctc.0c01306
   
   for ONIOM refer to:
   * C. Plett, A. Katbashev, S. Ehlert, S. Grimme, M. Bursch,
     Phys. Chem. Chem. Phys., 2023, 25, 17860-17868. DOI: 10.1039/D3CP02178E
   
   for DIPRO refer to:
   * J. Kohn, N. Gildemeister, S. Grimme, D. Fazzi, A. Hansen,
     J. Chem. Phys., 2023, just accepted.
   
   for PTB refer to:
   * S. Grimme, M. Mueller, A. Hansen, J. Chem. Phys., 2023, 158, 124111.
     DOI: 10.1063/5.0137838
   
   with help from (in alphabetical order)
   P. Atkinson, C. Bannwarth, F. Bohle, G. Brandenburg, E. Caldeweyher
   M. Checinski, S. Dohm, S. Ehlert, S. Ehrlich, I. Gerasimov, C. Hölzer
   A. Katbashev, J. Kohn, J. Koopman, C. Lavigne, S. Lehtola, F. März, M. Müller,
   F. Musil, H. Neugebauer, J. Pisarek, C. Plett, P. Pracht, F. Pultar,
   J. Seibert, P. Shushkov, S. Spicher, M. Stahn, M. Steiner, T. Strunk,
   J. Stückrath, T. Rose, and J. Unsleber
   
 * started run on 2026/09/20 at 00:12:14.259     
   ID    Z sym.   atoms
    1    6 C      1, 3, 5-11
    2    7 N      2, 4
    3    8 O      12
    4    1 H      13-20

           -------------------------------------------------
          |                Calculation Setup                |
           -------------------------------------------------

          program call               : C:\Users\HUIWEI\miniconda3\envs\phase2ff\Library\bin\xtb.exe input.xyz --gfn 1 --chrg -1 --uhf 1 --acc 0.1 --iterations 250 --alpb dmf
          coordinate file            : input.xyz
          omp threads                :                     2


           -------------------------------------------------
          |                 G F N 1 - x T B                 |
           -------------------------------------------------

        Reference                      10.1021/acs.jctc.7b00118
      * Hamiltonian:
        H0-scaling (s, p, d)           1.850000    2.250000    2.000000
        zeta-weighting                 0.000000
      * Dispersion:
        s8                             2.400000
        a1                             0.630000
        a2                             5.000000
        s9                             0.000000
      * Repulsion:
        kExp                           1.500000
        rExp                           1.000000
      * Coulomb:
        alpha                          2.000000
        third order                    atomic
        anisotropic                    false
      * Halogen bond correction:
        rad-scale                      1.300000
        damping                        0.440000

      * Solvation model:               ALPB
        Solvent                        dmf
        Parameter file                 internal GFN1-xTB/ALPB
        Dielectric constant                3.7000E+01
        Reference state                gsolv [1 M gas/solution]
        Free energy shift                  7.9351E-03 Eh       4.9794E+00 kcal/mol
        Temperature                        2.9815E+02 K
        Density                            9.5000E-01 kg/L
        Solvent mass                       7.3100E+01 g/mol
        Interaction kernel             P16
        Born radius scaling (c1)           1.8847E+00
        Born radii integrator          GBOBC
        Born offset                        0.0000E+00 a0       0.0000E+00 AA
        H-bond correction              true
        Ion screening                  false
        Surface tension                    1.0000E-05 Eh       1.5569E+01 dyn/cm
        Grid points                               230 per atom

          ...................................................
          :                      SETUP                      :
          :.................................................:
          :  # basis functions                  64          :
          :  # atomic orbitals                  64          :
          :  # shells                           40          :
          :  # electrons                        61          :
          :  # halogen bonds                     0          :
          :  max. iterations                   250          :
          :  Hamiltonian                  GFN1-xTB          :
          :  restarted?                      false          :
          :  GBSA solvation                   true          :
          :  PC potential                    false          :
          :  electronic temp.          300.0000000     K    :
          :  accuracy                    0.1000000          :
          :  -> integral cutoff          0.3500000E+02      :
          :  -> integral neglect         0.1000000E-08      :
          :  -> SCF convergence          0.1000000E-06 Eh   :
          :  -> wf. convergence          0.2000000E-05 e    :
          :  Broyden damping             0.4000000          :
          :  net charge                         -1          :
          :  unpaired electrons                  1          :
          ...................................................

 iter      E             dE          RMSdq      gap      omega  full diag
   1    -35.0891263 -0.350891E+02  0.985E+00    0.49       0.0  T
   2    -35.1407263 -0.516000E-01  0.599E+00    0.15       1.0  T
   3    -35.0537290  0.869973E-01  0.266E+00    1.05       1.0  T
   4    -35.1665857 -0.112857E+00  0.849E-01    0.35       1.0  T
   5    -35.1672535 -0.667731E-03  0.679E-01    0.08       1.0  T
   6    -35.1785671 -0.113137E-01  0.331E-01    0.12       1.0  T
   7    -35.1814278 -0.286072E-02  0.313E-02    0.05       1.0  T
   8    -35.1813052  0.122651E-03  0.781E-02    0.07       1.0  T
   9    -35.1814397 -0.134541E-03  0.201E-02    0.06       1.1  T
  10    -35.1814378  0.191856E-05  0.192E-02    0.06       1.2  T
  11    -35.1814470 -0.913426E-05  0.385E-03    0.06       5.8  T
  12    -35.1814473 -0.385322E-06  0.159E-03    0.06      14.1  T
  13    -35.1814474 -0.692770E-07  0.268E-04    0.06      83.4  T
  14    -35.1814474  0.219565E-08  0.376E-04    0.06      59.4  T
  15    -35.1814474 -0.364592E-08  0.108E-04    0.06     207.2  T
  16    -35.1814474 -0.276174E-09  0.355E-05    0.06     630.1  T
  17    -35.1814474 -0.379856E-10  0.273E-06    0.06    8201.6  T
  18    -35.1814474 -0.248690E-12  0.156E-07    0.06  100000.0  T

   *** convergence criteria satisfied after 18 iterations ***

         #    Occupation            Energy/Eh            Energy/eV
      -------------------------------------------------------------
         1        2.0000           -0.7589465             -20.6520
       ...           ...                  ...                  ...
        25        2.0000           -0.4231635             -11.5149
        26        2.0000           -0.3963717             -10.7858
        27        2.0000           -0.3773331             -10.2678
        28        2.0000           -0.3771706             -10.2633
        29        2.0000           -0.3688281             -10.0363
        30        2.0000           -0.3534650              -9.6183
        31        0.7468           -0.2240623              -6.0970 (HOMO)
        32        0.2532           -0.2220073              -6.0411 (LUMO)
        33                         -0.1664337              -4.5289
        34                         -0.1366530              -3.7185
        35                         -0.1155745              -3.1449
        36                         -0.0779386              -2.1208
       ...                                ...                  ...
        64                          0.7989556              21.7407
      -------------------------------------------------------------
                  HL-Gap            0.0020550 Eh            0.0559 eV
             Fermi-level           -0.2558992 Eh           -6.9634 eV

 SCC (total)                   0 d,  0 h,  0 min,  0.029 sec
 SCC setup                      ...        0 min,  0.001 sec (  2.274%)
 Dispersion                     ...        0 min,  0.000 sec (  0.334%)
 classical contributions        ...        0 min,  0.000 sec (  0.142%)
 integral evaluation            ...        0 min,  0.003 sec ( 10.074%)
 iterations                     ...        0 min,  0.019 sec ( 66.448%)
 molecular gradient             ...        0 min,  0.006 sec ( 19.428%)
 printout                       ...        0 min,  0.000 sec (  1.237%)

         :::::::::::::::::::::::::::::::::::::::::::::::::::::
         ::                     SUMMARY                     ::
         :::::::::::::::::::::::::::::::::::::::::::::::::::::
         :: total energy             -34.701201152434 Eh    ::
         :: total w/o Gsasa/hb       -34.690305240029 Eh    ::
         :: gradient norm              0.113131894145 Eh/a0 ::
         :: HOMO-LUMO gap              0.055920028627 eV    ::
         ::.................................................::
         :: SCC energy               -35.181447408542 Eh    ::
         :: -> electrostatic           0.187387168274 Eh    ::
         :: -> Gsolv                  -0.082645215397 Eh    ::
         ::    -> Gelec               -0.071749302992 Eh    ::
         ::    -> Gsasa               -0.018389165446 Eh    ::
         ::    -> Ghb                 -0.000441879214 Eh    ::
         ::    -> Gshift               0.007935132256 Eh    ::
         :: repulsion energy           0.491239396691 Eh    ::
         :: dispersion energy         -0.010993140584 Eh    ::
         :: halogen bond corr.         0.000000000000 Eh    ::
         :: add. restraining           0.000000000000 Eh    ::
         :: total charge              -1.000000000000 e     ::
         :::::::::::::::::::::::::::::::::::::::::::::::::::::

           -------------------------------------------------
          |                Property Printout                |
           -------------------------------------------------

    * Orbital Energies and Occupations

         #    Occupation            Energy/Eh            Energy/eV
      -------------------------------------------------------------
         1        2.0000           -0.7589465             -20.6520
       ...           ...                  ...                  ...
        19        2.0000           -0.4746783             -12.9167
        20        2.0000           -0.4701548             -12.7936
        21        2.0000           -0.4661423             -12.6844
        22        2.0000           -0.4615716             -12.5600
        23        2.0000           -0.4421029             -12.0302
        24        2.0000           -0.4253565             -11.5745
        25        2.0000           -0.4231635             -11.5149
        26        2.0000           -0.3963717             -10.7858
        27        2.0000           -0.3773331             -10.2678
        28        2.0000           -0.3771706             -10.2633
        29        2.0000           -0.3688281             -10.0363
        30        2.0000           -0.3534650              -9.6183
        31        0.7468           -0.2240623              -6.0970 (HOMO)
        32        0.2532           -0.2220073              -6.0411 (LUMO)
        33                         -0.1664337              -4.5289
        34                         -0.1366530              -3.7185
        35                         -0.1155745              -3.1449
        36                         -0.0779386              -2.1208
        37                         -0.0568049              -1.5457
        38                         -0.0509895              -1.3875
        39                         -0.0486483              -1.3238
        40                         -0.0427407              -1.1630
        41                         -0.0362207              -0.9856
        42                         -0.0330847              -0.9003
       ...                                ...                  ...
        64                          0.7989556              21.7407
      -------------------------------------------------------------
                  HL-Gap            0.0020550 Eh            0.0559 eV
             Fermi-level           -0.2558992 Eh           -6.9634 eV

  Mulliken/CM5 charges         n(s)   n(p)   n(d)
     1C     0.06556 -0.02009   0.977  2.957  0.000
     2N    -0.26099 -0.51894   1.443  3.818  0.000
     3C     0.22260  0.33140   0.961  2.816  0.000
     4N    -0.46715 -0.65580   1.534  3.933  0.000
     5C     0.13761  0.20496   1.037  2.826  0.000
     6C    -0.12112 -0.16855   1.040  3.081  0.000
     7C    -0.08865 -0.14448   1.037  3.052  0.000
     8C    -0.07522 -0.13129   1.044  3.031  0.000
     9C    -0.08247 -0.13432   1.035  3.047  0.000
    10C    -0.11435 -0.10585   1.079  3.036  0.000
    11C     0.39572  0.49508   0.973  2.632  0.000
    12O    -0.67302 -0.71784   1.731  4.942  0.000
    13H     0.03539  0.09990   0.965  0.000  0.000
    14H     0.03539  0.09989   0.965  0.000  0.000
    15H     0.02581  0.08873   0.974  0.000  0.000
    16H    -0.00544  0.07284   1.005  0.000  0.000
    17H    -0.00625  0.05410   1.006  0.000  0.000
    18H    -0.01225  0.04429   1.012  0.000  0.000
    19H    -0.01042  0.04613   1.010  0.000  0.000
    20H    -0.00073  0.05985   1.001  0.000  0.000

Wiberg/Mayer (AO) data.
largest (>0.10) Wiberg bond orders for each atom

 ---------------------------------------------------------------------------
     #   Z sym  total        # sym  WBO       # sym  WBO       # sym  WBO
 ---------------------------------------------------------------------------
     1   6 C    3.963 --    15 H    0.988    14 H    0.982    13 H    0.982
                             2 N    0.962
     2   7 N    3.384 --     3 C    1.151    11 C    1.022     1 C    0.962
     3   6 C    3.804 --     4 N    1.537     2 N    1.151    16 H    0.967
     4   7 N    2.937 --     3 C    1.537     5 C    1.137
     5   6 C    3.901 --     6 C    1.358    10 C    1.252     4 N    1.137
     6   6 C    3.899 --     7 C    1.376     5 C    1.358    17 H    0.975
     7   6 C    3.887 --     8 C    1.388     6 C    1.376    18 H    0.976
     8   6 C    3.932 --     9 C    1.439     7 C    1.388    19 H    0.976
     9   6 C    3.885 --     8 C    1.439    10 C    1.282    20 H    0.974
    10   6 C    3.911 --     9 C    1.282     5 C    1.252    11 C    1.149
    11   6 C    3.813 --    12 O    1.474    10 C    1.149     2 N    1.022
    12   8 O    1.765 --    11 C    1.474
    13   1 H    1.012 --     1 C    0.982
    14   1 H    1.012 --     1 C    0.982
    15   1 H    1.006 --     1 C    0.988
    16   1 H    1.016 --     3 C    0.967
    17   1 H    1.009 --     6 C    0.975
    18   1 H    1.007 --     7 C    0.976
    19   1 H    1.007 --     8 C    0.976
    20   1 H    1.012 --     9 C    0.974
 ---------------------------------------------------------------------------

Topologies differ in total number of bonds
Writing topology from bond orders to xtbtopo.mol

 dipole moment from electron density (au)
     X       Y       Z   
  -1.4149  -1.0091  -0.2675  total (Debye):    4.469


           -------------------------------------------------
          | TOTAL ENERGY              -34.701201152434 Eh   |
          | GRADIENT NORM               0.113131894145 Eh/α |
          | HOMO-LUMO GAP               0.055920028627 eV   |
           -------------------------------------------------

------------------------------------------------------------------------
 * finished run on 2026/09/20 at 00:12:14.303     
------------------------------------------------------------------------
 total:
 * wall-time:     0 d,  0 h,  0 min,  0.043 sec
 *  cpu-time:     0 d,  0 h,  0 min,  0.000 sec
 * ratio c/w:     0.000 speedup
 SCF:
 * wall-time:     0 d,  0 h,  0 min,  0.029 sec
 *  cpu-time:     0 d,  0 h,  0 min,  0.000 sec
 * ratio c/w:     0.000 speedup

