55
Properties=species:S:1:pos:R:3:forces:R:3 energy:=T -75.372076241995=T gnorm:=T 0.000147706161=T xtb:=T 6.7.1=T (edcfbbe)=T energy=-2050.9786620424743 pbc="F F F"
Mn       0.12971091      -0.05906359       0.10567045      -0.00126049       0.00141393       0.00035374
C        1.85822484      -2.04008731      -1.52166858      -0.00027158      -0.00242101       0.00055096
P        2.12892947      -0.39984619      -0.91833137      -0.00063339       0.00125438       0.00189635
C        2.48689970       0.66903485      -2.42308559       0.00030765      -0.00110809       0.00157082
C        2.19475098       2.13551117      -2.10270235      -0.00039481       0.00029046      -0.00116252
C        3.85324243       0.48391797      -3.07268503      -0.00023468       0.00050792      -0.00100520
C        3.80057725      -0.49245398      -0.06242049      -0.00036950       0.00023251      -0.00053969
C        3.81477106      -1.64523919       0.93661364      -0.00020558       0.00016410      -0.00087003
C        4.18830135       0.81979288       0.60950996       0.00198025       0.00029969      -0.00083189
C        0.80407619      -2.72681708      -0.94290118       0.00059348       0.00115464      -0.00043456
C        0.49451519      -4.10171452      -1.18331050      -0.00048847      -0.00093719      -0.00000998
C       -0.56633733      -4.68955138      -0.56347123       0.00063140       0.00021219      -0.00041504
C       -1.36862601      -3.94842848       0.32444746       0.00006547      -0.00021653       0.00010582
C       -1.04632447      -2.62446180       0.52697926       0.00040609       0.00026157       0.00002676
C       -1.79258173      -1.71253035       1.47908948       0.00022204      -0.00059736       0.00004516
N       -1.93934568      -0.37051744       0.87019259      -0.00025989       0.00026175       0.00077380
C       -3.09253327      -0.46111191      -0.04815027       0.00015350       0.00036311      -0.00031004
C       -3.46288329       0.81584277      -0.79198477       0.00013360      -0.00019091      -0.00018723
C       -2.12304186       0.70556604       1.86038238       0.00013216      -0.00013215      -0.00063108
C       -1.46609660       2.01321888       1.38815457      -0.00009009      -0.00003949      -0.00022634
N       -0.01640589      -2.03494638      -0.08409325       0.00032908      -0.00119420      -0.00008621
H        2.58351235      -2.53966133      -2.14854748       0.00040319       0.00059712      -0.00010998
H        1.73418344       0.31268122      -3.13881396       0.00001993       0.00013277       0.00011302
H        3.03863308       2.60609104      -1.60348030      -0.00021218      -0.00032452       0.00102498
H        1.97988419       2.69839037      -3.01024201       0.00032615      -0.00012899       0.00045263
H        1.32479141       2.20230383      -1.43426746      -0.00040714      -0.00034041      -0.00013344
H        4.05578277      -0.57226592      -3.24106863      -0.00014221      -0.00053446      -0.00018656
H        3.86866637       0.99010266      -4.03797779       0.00021315       0.00060487      -0.00016012
H        4.64927469       0.90399638      -2.46182787      -0.00004004       0.00000481       0.00015478
H        4.51788045      -0.73244461      -0.85747420       0.00086054      -0.00012207      -0.00061133
H        3.17722655      -1.43304464       1.78973215      -0.00050959       0.00057255       0.00109392
H        4.82769379      -1.81138244       1.30236242       0.00008328       0.00007315       0.00044702
H        3.45824130      -2.56085017       0.46691048      -0.00013450       0.00018801       0.00057657
H        4.32701457       1.61485179      -0.11873132       0.00102218      -0.00036374       0.00021005
H        5.11960562       0.69920736       1.16294050      -0.00098735      -0.00024936      -0.00042550
H        3.41190702       1.12703917       1.30849110      -0.00091551       0.00109504       0.00051465
H        1.12415573      -4.65537409      -1.86360717       0.00001142       0.00033803      -0.00011763
H       -0.80038829      -5.72907771      -0.74616053      -0.00023183       0.00003197       0.00003767
H       -2.20614029      -4.40115593       0.82984579       0.00017758      -0.00010345       0.00002798
H       -2.76752625      -2.14108294       1.75134525      -0.00014766      -0.00019182      -0.00033971
H       -1.19013630      -1.62853680       2.39142246      -0.00024394      -0.00020159       0.00035821
H       -3.97498462      -0.79184072       0.52416139       0.00002528       0.00012777       0.00013734
H       -2.85852709      -1.24201048      -0.77829795      -0.00002455      -0.00033543       0.00011860
H       -4.17896578       0.56576285      -1.57222872      -0.00018079      -0.00024368      -0.00025300
H       -2.59502369       1.26644971      -1.26791138      -0.00007075      -0.00023077      -0.00031197
H       -3.92975626       1.54593702      -0.13477764      -0.00006858       0.00000334      -0.00006017
H       -3.18746954       0.87161259       2.07383007      -0.00000217      -0.00037548       0.00055045
H       -1.64335373       0.40010717       2.79539697       0.00067965       0.00003989      -0.00036645
H       -0.53022899       1.80684352       0.79934908      -0.00049630       0.00031005       0.00022524
H       -1.18029973       2.61882234       2.24672958      -0.00056845       0.00018574      -0.00027789
H       -2.12823833       2.60412608       0.76037200      -0.00014231      -0.00041869      -0.00021601
C       -0.41491829       0.05895839      -1.58368469       0.00076004       0.00102581       0.00017906
O       -0.69954718       0.03052910      -2.70141205      -0.00040183      -0.00104118      -0.00105946
C        0.87320508      -0.11567186       1.71555531       0.00101849      -0.00084612      -0.00091225
O        1.35507260      -0.07399488       2.76928501      -0.00041947       0.00114154       0.00070566
