55
Properties=species:S:1:pos:R:3 energy:=T -75.372076241995=T gnorm:=T 0.000147706161=T xtb:=T 6.7.1=T (edcfbbe)=T pbc="F F F"
Mn       0.12971091      -0.05906359       0.10567045
C        1.85822484      -2.04008731      -1.52166858
P        2.12892947      -0.39984619      -0.91833137
C        2.48689970       0.66903485      -2.42308559
C        2.19475098       2.13551117      -2.10270235
C        3.85324243       0.48391797      -3.07268503
C        3.80057725      -0.49245398      -0.06242049
C        3.81477106      -1.64523919       0.93661364
C        4.18830135       0.81979288       0.60950996
C        0.80407619      -2.72681708      -0.94290118
C        0.49451519      -4.10171452      -1.18331050
C       -0.56633733      -4.68955138      -0.56347123
C       -1.36862601      -3.94842848       0.32444746
C       -1.04632447      -2.62446180       0.52697926
C       -1.79258173      -1.71253035       1.47908948
N       -1.93934568      -0.37051744       0.87019259
C       -3.09253327      -0.46111191      -0.04815027
C       -3.46288329       0.81584277      -0.79198477
C       -2.12304186       0.70556604       1.86038238
C       -1.46609660       2.01321888       1.38815457
N       -0.01640589      -2.03494638      -0.08409325
H        2.58351235      -2.53966133      -2.14854748
H        1.73418344       0.31268122      -3.13881396
H        3.03863308       2.60609104      -1.60348030
H        1.97988419       2.69839037      -3.01024201
H        1.32479141       2.20230383      -1.43426746
H        4.05578277      -0.57226592      -3.24106863
H        3.86866637       0.99010266      -4.03797779
H        4.64927469       0.90399638      -2.46182787
H        4.51788045      -0.73244461      -0.85747420
H        3.17722655      -1.43304464       1.78973215
H        4.82769379      -1.81138244       1.30236242
H        3.45824130      -2.56085017       0.46691048
H        4.32701457       1.61485179      -0.11873132
H        5.11960562       0.69920736       1.16294050
H        3.41190702       1.12703917       1.30849110
H        1.12415573      -4.65537409      -1.86360717
H       -0.80038829      -5.72907771      -0.74616053
H       -2.20614029      -4.40115593       0.82984579
H       -2.76752625      -2.14108294       1.75134525
H       -1.19013630      -1.62853680       2.39142246
H       -3.97498462      -0.79184072       0.52416139
H       -2.85852709      -1.24201048      -0.77829795
H       -4.17896578       0.56576285      -1.57222872
H       -2.59502369       1.26644971      -1.26791138
H       -3.92975626       1.54593702      -0.13477764
H       -3.18746954       0.87161259       2.07383007
H       -1.64335373       0.40010717       2.79539697
H       -0.53022899       1.80684352       0.79934908
H       -1.18029973       2.61882234       2.24672958
H       -2.12823833       2.60412608       0.76037200
C       -0.41491829       0.05895839      -1.58368469
O       -0.69954718       0.03052910      -2.70141205
C        0.87320508      -0.11567186       1.71555531
O        1.35507260      -0.07399488       2.76928501
