14
Properties=species:S:1:pos:R:3:forces:R:3 energy:=T -19.324993434036=T gnorm:=T 0.000043889829=T xtb:=T 6.7.1=T (edcfbbe)=T energy=-525.8598562516983 pbc="F F F"
N        2.22654078       0.52104614      -0.19181815      -0.00136100       0.00002307      -0.00067394
C        0.89043281       0.20615752      -0.06306973       0.00025210       0.00037980      -0.00004950
C        0.45038272      -1.10930783      -0.22428916      -0.00029198      -0.00028873      -0.00019437
C       -0.89628821      -1.40972727      -0.16725763      -0.00005303       0.00006369      -0.00023788
C       -1.83142260      -0.41124162       0.05310875       0.00002497       0.00005738      -0.00007333
C       -1.40309348       0.89653419       0.21503368       0.00004326      -0.00000406      -0.00009477
C       -0.05846427       1.20625144       0.15950254      -0.00019098       0.00000247       0.00035039
H        2.52162734       1.40010844       0.20142996       0.00058168      -0.00066196       0.00016809
H        2.88062014      -0.23508822      -0.06976264       0.00084023       0.00036529       0.00015255
H        1.17627425      -1.89231748      -0.39615125       0.00003755       0.00009083      -0.00008724
H       -1.21939208      -2.43379665      -0.29279375      -0.00008491       0.00004744      -0.00019511
H       -2.88367538      -0.65011675       0.09962900      -0.00006127       0.00003055       0.00010117
H       -2.12415166       1.68297206       0.38957493       0.00005208      -0.00002739       0.00043317
H        0.27060963       2.22852602       0.28686344       0.00021130      -0.00007837       0.00040077
