56
 energy: -75.593347977365 gnorm: 0.000277860946 xtb: 6.7.1 (edcfbbe)
Mn           0.08927241892310        0.12431241397121       -0.20953953452167
C            1.74721949380082       -2.18125143280967       -1.49135000931524
P            2.14055688881065       -0.43046742739116       -0.98167994172253
C            3.65596508156944       -0.71918222669684        0.05830638055542
C            3.36231457763622       -1.70880823989630        1.18530387779889
C            4.19149083985501        0.60187156209761        0.60478173802840
C            2.73020013338977        0.34538945176432       -2.56875967129450
C            2.60046792119333        1.86443477931013       -2.44190487931515
C            4.11312303088734       -0.08572680066320       -3.04311321069805
C            0.74677345457404       -2.73107801755105       -0.51850784250547
C            0.62681881933417       -4.08089395065456       -0.22538451661528
C           -0.35095055919932       -4.49961779069069        0.66383287251241
C           -1.20041189841679       -3.55743241659130        1.22562304419954
C           -1.03351202868808       -2.22339620648071        0.89866868155686
C           -1.88723646073019       -1.11248959812379        1.45719563193100
N           -1.93677250901015        0.00395516840379        0.48865572368948
C           -3.06792016723795       -0.21039415294234       -0.44459807940005
C           -3.04774719129047       -1.52834334271574       -1.20647057308312
C           -2.10515107374654        1.33451692326028        1.11260104800878
C           -1.45637906912867        2.40950076770487        0.23412127169230
N           -0.06156258418741       -1.82363904722919        0.05796063495047
H            1.27809220008300       -2.12007867180921       -2.48243607797715
H            2.63722179876751       -2.81093496215229       -1.56846636975052
H            4.40218333912956       -1.16540548627778       -0.61273439969673
H            4.22812578555544       -1.77487241789556        1.84219456580776
H            3.15579259549296       -2.70643630746398        0.80461596849870
H            2.51249116428389       -1.38952859133509        1.78506903186086
H            3.44407940621334        1.10156251501883        1.21732708820284
H            5.06940454865211        0.42115637875828        1.22312511016272
H            4.48039889320898        1.27552579060476       -0.19840107312828
H            1.99098715543188        0.00269450913154       -3.30777416833321
H            1.65641954767055        2.12053322324882       -1.94402952922119
H            3.41643478864475        2.28641191729412       -1.86016500723548
H            2.60987288975800        2.33245965779379       -3.42422826967760
H            4.89689147902255        0.29605863236556       -2.39359603068769
H            4.28749497714884        0.31272740998262       -4.04134895670459
H            4.19129167824339       -1.17006090490243       -3.09632051744901
H            1.28955586345255       -4.79309361878860       -0.69168113686884
H           -0.45559663208075       -5.54472308512108        0.90910852106039
H           -1.98071852403847       -3.85264626927618        1.90957111677373
H           -1.42101730297184       -0.76505157425183        2.38733299175436
H           -2.89210787645363       -1.47474277841511        1.70482486069401
H           -4.00506889598269       -0.15169408478837        0.12720790761644
H           -3.06270567858284        0.61005991388179       -1.16557467786837
H           -3.82732935991313       -1.49730160838817       -1.96494112786583
H           -2.09604613166409       -1.68784808662197       -1.71037515178410
H           -3.24542830145017       -2.37984726833067       -0.56044357762982
H           -3.16680687686589        1.56886356595792        1.26236260162025
H           -1.62386001514547        1.33672881668907        2.09504898657484
H           -2.01353643386939        2.56176684295809       -0.69029717978142
H           -0.38482723441151        2.16297455812525       -0.02220362244808
H           -1.43288646368276        3.35687849915859        0.77051865601714
C           -0.39864286880730        0.15992979761663       -1.92968915335844
O           -0.64744798665748        0.30827866277633       -3.03901485809874
C            0.74192460547009        0.42436389140707        1.43562295588077
O            1.16193988044325        0.75192763586319        2.45151300214598
