73

O       0.023178060000000     -1.603156760000000     -1.433093100000000
C       0.254215950000000     -0.377425990000000     -0.771153520000000
N      -0.410793960000000     -0.347360960000000      0.511014970000000
C      -1.754025670000000     -0.046839380000000      0.651949350000000
C      -2.661511470000000     -0.238127860000000     -0.390496350000000
C      -4.002971950000000      0.037425150000000     -0.202476920000000
C      -4.467992640000000      0.495349810000000      1.018966020000000
C      -3.572933820000000      0.674785220000000      2.061659360000000
C      -2.229722460000000      0.411052110000000      1.882657260000000
C       1.733391870000000     -0.122216620000000     -0.570985930000000
C       2.478848310000000     -0.967239050000000      0.245080500000000
C       3.832717040000000     -0.748762950000000      0.427668000000000
C       4.455413560000000      0.315574750000000     -0.203228400000000
C       3.718956440000000      1.159836020000000     -1.016876840000000
C       2.364069230000000      0.941344220000000     -1.201339910000000
H       0.321565160000000     -2.321266750000000     -0.861136850000000
H      -0.169687050000000      0.375467960000000     -1.453512320000000
H       0.168589920000000     -0.071357830000000      1.290073420000000
H      -2.316187280000000     -0.616431360000000     -1.340057990000000
H      -4.693539820000000     -0.112827300000000     -1.020518920000000
H      -5.517804110000000      0.706744590000000      1.159383930000000
H      -3.923672940000000      1.029012120000000      3.020936320000000
H      -1.534310910000000      0.557448500000000      2.698410180000000
H       1.997561960000000     -1.796655270000000      0.745876750000000
H       4.402432380000000     -1.411010070000000      1.063153420000000
H       5.512443260000000      0.485864800000000     -0.060808030000000
H       4.200167180000000      1.990878050000000     -1.511419330000000
H       1.791603770000000      1.599894880000000     -1.838684450000000
C      -0.625082606027756     -4.982479172621360     -1.406223565051267
C       0.047585566063201     -5.080649782892259     -0.036008399871600
C      -0.984326472995007     -5.440414194372638      1.041013387401423
C       1.165272732859107     -6.131621969968533     -0.063825219996388
O       0.596700216004571     -3.792545082590271      0.226126121413886
H      -1.071128472763280     -5.934331249496934     -1.679454547308593
H       0.110062905948481     -4.701828278780175     -2.156029143747089
H      -1.397179846689318     -4.217861516452365     -1.381583328753554
H      -0.507992291422852     -5.512890002452211      2.018009869976532
H      -1.753787626134608     -4.672813405214090      1.087636272726880
H      -1.452411490200022     -6.393944953048047      0.812331384938661
H       1.644379974096384     -6.206227249077114      0.911648641216827
H       1.917786058789916     -5.852314310759603     -0.798103824962705
H       0.761899080465668     -7.105609780315024     -0.326948989471897
H       1.030517999784786     -3.816729000780194      1.086824482553632
C       1.947299417957174      2.648177768832868      2.530017602863867
C       1.868850609328922      1.432461132171903      3.454943751874723
C       3.270439865517218      1.038588103669397      3.939361353472430
C       0.963515553497969      1.733302306556377      4.656777326371849
O       1.309150144898892      0.379915781052657      2.674982984320387
H       2.367272542787813      3.499938500917644      3.057047669224302
H       0.952514600291810      2.901605580662872      2.172820508013442
H       2.570062689061960      2.415055012483053      1.670249530043001
H       3.217822884230443      0.173960588421315      4.599906458223902
H       3.898853294984433      0.785618082149744      3.088151707720327
H       3.727874130722652      1.861485142912922      4.481776605048658
H       0.908036599788012      0.870321120783483      5.319230727664605
H      -0.041051340252433      1.970530446496712      4.313233574414955
H       1.351006327913189      2.577865068966600      5.219948096480598
H       1.244960727887710     -0.407048615755301      3.228292262384735
C       1.007121627549431     -4.661209314411248      4.676954988751955
C       2.241449046094559     -4.035665656500427      4.025233811231411
C       2.746244143586225     -2.853259763079269      4.862698455937780
C       3.352817768222599     -5.082509577389168      3.871877086293194
O       1.821126913072022     -3.580115665395301      2.742557454910230
H       1.249192021170707     -5.035921572405611      5.667221169831718
H       0.643433609470494     -5.480275714211995      4.061915549317951
H       0.218403041660949     -3.917653345899429      4.757135811720421
H       3.626561968837135     -2.406571782906352      4.402068998380532
H       1.971062248216941     -2.093499160168708      4.935581831960617
H       3.009338777972828     -3.184187029984866      5.863642163994166
H       4.234640894224103     -4.639294558476263      3.410783417234454
H       3.007290730298043     -5.899646797973105      3.242312178831745
H       3.633178616281687     -5.481273900111878      4.842949424489925
H       2.577319686730240     -3.177145606142224      2.300548381808441
