73

O       0.293893180385920     -1.643638621783720     -1.805637245756050
C       0.343067436450310     -0.320662110824260     -1.329532622447600
N      -0.355204806954430     -0.144896931505490     -0.082071327561510
C      -1.713698056830410     -0.289449464801630      0.083311485299810
C      -2.618156024500340     -0.316138187900530     -0.980713321003430
C      -3.976363320745610     -0.411506293113390     -0.741314871117490
C      -4.467695415480920     -0.486389819511890      0.550717473706910
C      -3.576949372029360     -0.470271844485520      1.613261513336590
C      -2.220232371252860     -0.376288880266710      1.386251708932680
C       1.755224440507110      0.199201276799890     -1.130000821354100
C       2.788626423444590     -0.639741985679430     -0.735252901106510
C       4.061806470114020     -0.130594232892840     -0.536536972168470
C       4.311916831109460      1.219096532189430     -0.716915569294160
C       3.281626379307080      2.061995403487610     -1.100537273665360
C       2.011751794255920      1.553553463466820     -1.308955462250650
H       0.594415175220550     -2.228660346996190     -1.080205837531890
H      -0.148248852605350      0.280772196398510     -2.107017376062850
H       0.191565795476770     -0.344521824676260      0.746470361981310
H      -2.260155159219300     -0.278529786856780     -1.998038755942810
H      -4.659553563955190     -0.432572027641870     -1.579369288868900
H      -5.530349832212920     -0.562612741727920      0.728690809375300
H      -3.945942844596800     -0.536760891841120      2.627801224064290
H      -1.525189606086990     -0.375062245823000      2.213956195683930
H       2.604956173336230     -1.692937610401640     -0.586139330472040
H       4.862409878587950     -0.792665065058530     -0.237870231537580
H       5.305269668633250      1.613370002656920     -0.558767950329800
H       3.468764756830900      3.116697357114220     -1.241024927636290
H       1.207742815197240      2.210494596537150     -1.609144897294800
C       0.286730074858000     -5.033905756966680     -0.871836433131410
C       0.030510613253250     -4.274975968562780      0.431371692855430
C      -1.408670851994130     -3.755092630461300      0.474939634481960
C       0.304589343678940     -5.175017247287890      1.640703485037500
O       0.947617148901270     -3.176741058855210      0.442567924825090
H      -0.339226795394840     -5.920253303224630     -0.917476737868610
H       1.330905682008820     -5.332769193374840     -0.927276844015430
H       0.063903122108760     -4.398141051705810     -1.725255832131280
H      -1.586911955007450     -3.190272691777370      1.388947352519980
H      -1.602399398105960     -3.101814042397340     -0.373008146968140
H      -2.109597764072820     -4.584510395443230      0.438031746586960
H       0.206804671743510     -4.601281828790900      2.560421039313130
H       1.313973834116880     -5.576805164969320      1.582169129220950
H      -0.400680171056270     -6.001159233821230      1.663696196012930
H       0.756574686864740     -2.621210326253180      1.211687495262660
C       1.121002336080650      1.621933050676430      2.443921280893450
C       1.632812237898040      0.388517827420000      3.190720238328100
C       3.159661980760950      0.306233671747630      3.082503656924440
C       1.209041476215290      0.451233418830790      4.663865453931590
O       1.046785695990980     -0.759437665765400      2.578349604785800
H       1.499059946430970      2.523396270168610      2.918058236693960
H       0.034189301250350      1.645899267373050      2.455510381323910
H       1.455016647347550      1.601779734875750      1.409765682673950
H       3.529606099129780     -0.574714386570380      3.602949362214760
H       3.451346510566760      0.242838695920260      2.036444561217530
H       3.616714145583850      1.189017305599470      3.521108509127450
H       1.569015031024410     -0.426241464162030      5.198174737278580
H       0.123824585267710      0.480088655808080      4.737918106077830
H       1.616418047802400      1.339189952686970      5.139299354294570
H       1.374821788312050     -1.541656563321020      3.056859181658480
C       1.374802271983800     -3.714471699637990      5.753700647674420
C       2.563221520952130     -3.801469866012190      4.795128043732840
C       3.781308980269700     -3.072226218350890      5.376338013909900
C       2.915498592973110     -5.264847057584540      4.514062637634860
O       2.147436526097110     -3.160093951829220      3.585471483105180
H       1.631606476174100     -4.156813590124320      6.711510999320610
H       0.521045804126420     -4.242738336438110      5.336230136181480
H       1.091405078437500     -2.676361875636720      5.908813520838660
H       4.607006459950500     -3.083572083934320      4.666119050580750
H       3.532767016441020     -2.037439333613160      5.602952745777620
H       4.106121519803340     -3.557455473578210      6.292353388891700
H       3.753945482957580     -5.330044324586690      3.821371822160150
H       2.062260116122510     -5.780810060782080      4.079561500425720
H       3.192331337051520     -5.766862339331230      5.436917916322410
H       2.778591632603020     -3.368914924563250      2.885598898964110
