50
 energy: -76.473592065550 gnorm: 0.000193057509 xtb: 6.7.1 (edcfbbe)
Mn           0.07477543545308       -0.13804798750075        0.09009911419451
C            2.31158136673291       -2.31250796421634       -0.05725665699647
P            2.23598751023767       -0.49993564538406       -0.41749416967016
C            3.62247349923673        0.11275234870671        0.67764901169325
C            5.01754135506907       -0.37742370723239        0.29990519366094
C            3.58546250307152        1.63136256677038        0.83415567129445
C            2.92274294635208       -0.45167724436434       -2.15214108737719
C            2.09071079945377       -1.32754474509935       -3.08634397631677
C            2.93931649127097        0.99301464425419       -2.64405572341665
C            0.95352092830951       -2.86990961357863       -0.35568944794600
C            0.79826616398916       -4.18849748996018       -0.74000098879994
C           -0.47964130289132       -4.69113778574015       -0.96685304747514
C           -1.55386550438708       -3.85680802269247       -0.74892192477576
C           -1.33473743001661       -2.53514997185921       -0.35207530577392
C           -2.40424516759048       -1.61611118373483       -0.00341306086170
C           -3.75807955547697       -1.94578445365844       -0.04281584408209
C           -4.69435254429436       -1.02960863438314        0.39742216427708
C           -4.25879723148908        0.19066468950453        0.87727062253891
C           -2.89087974079749        0.47154343009427        0.87255554235922
O           -2.50516516162232        1.65743362512694        1.34129272140493
N           -1.97665757012238       -0.39993897083803        0.42701459989832
N           -0.08504389703847       -2.02922489618890       -0.20754674721350
H            2.50290430964980       -2.41020867144573        1.01981456064615
H            3.10095816347304       -2.83510860851346       -0.60333024986388
H            3.34531152986592       -0.32151073909887        1.65150155281977
H            5.03803697958606       -1.45462534894573        0.14488050704184
H            5.37443641516990        0.11694184588699       -0.60071902671241
H            5.71053651405088       -0.13985933555472        1.10588996744758
H            4.16567542042385        1.93124091640540        1.70525978502072
H            2.55518180119498        1.96369606996720        0.96675935403412
H            4.00050512357738        2.13152187556361       -0.03683767990423
H            3.94375587332590       -0.85143081564286       -2.11422324295115
H            2.11821206781256       -2.37639046082288       -2.79481171748505
H            1.05240755752486       -0.99973647655109       -3.09787230801071
H            2.47523156839709       -1.25123146759548       -4.10297429453131
H            3.17306364671182        1.03250460363225       -3.70714347613624
H            3.67997409851042        1.58208852178625       -2.10976713182689
H            1.96119358619060        1.44941865919197       -2.48437131260912
H            1.66757833381952       -4.81764019833115       -0.85910503316385
H           -0.62329719294875       -5.71143528550942       -1.28672240729666
H           -2.55825328340700       -4.22209585139248       -0.88580349420430
H           -4.07543580801983       -2.90606966828416       -0.41293259629799
H           -5.74712171426098       -1.26455032322164        0.37389170225860
H           -4.93334281076203        0.94261382494783        1.25031547502787
H           -1.53376377341935        1.75248430947354        1.24188112322227
C           -0.47775146333398        0.31633573044012       -1.54262524287284
O           -0.99366901835430        0.62665831182099       -2.53069117231232
C            0.47266381141490       -0.29056751433690        1.81857534406154
O            0.73635975114001       -0.39268607540235        2.94194470492139
H            0.18215636270937        1.40931918550283        0.28075003381500
