74
 energy: -93.650643645896 gnorm: 0.000139115761 xtb: 6.7.1 (edcfbbe)
Co           0.23876749837439       -0.21454628451672       -0.64976270039176
N            0.20360929434730       -2.21524229419761       -0.72393739106297
C            1.33976958164491       -2.96601600070464       -0.18599818063005
C            2.63841726192104       -2.30234923370328       -0.63646834345116
P            2.42215019970546       -0.47023712679189       -0.43894392037316
C            3.59995269860442        0.27181504774913       -1.68072860112085
C            5.07354877941431       -0.08121532481074       -1.47826197424878
C            3.15005757016661       -0.08679846073144       -3.09573695466276
C            3.26662467339825       -0.11830220907461        1.18783826348002
C            2.60924962716080       -0.92839438423584        2.30177803513749
C            3.16453016913430        1.37769711230942        1.47061587892366
C           -1.09475508416826       -2.87742226696728       -0.51289807238975
C           -1.89918337609747       -2.17120935777475        0.57742109127133
P           -1.79745166916630       -0.35664262036681        0.20458854365350
C           -2.21578849105627        0.43908803204943        1.84185697363029
C           -2.47001915867360        1.93171640711053        1.64046476887438
C           -1.05280030972174        0.25494688677650        2.81143122547156
C           -3.31662290685596        0.00855416818763       -0.81966713957906
C           -4.65468150549876       -0.25940197529342       -0.13049120630458
C           -3.25259724108038       -0.72809067333563       -2.15510571554815
H            1.26318836562896       -2.97587656431214        0.90476106435068
H            1.31209420170583       -4.00568201508683       -0.54482085077831
H            3.49993421219354       -2.68298294798288       -0.08387978793104
H            2.78105284865830       -2.49225429804462       -1.70381964681768
H            3.46105111493741        1.35446379903642       -1.55640732502613
H            5.64774579577316        0.29711938115825       -2.32287836194185
H            5.21227862376372       -1.15967137556349       -1.43188658118549
H            5.47759658183608        0.36854738804898       -0.57516948667438
H            3.57501594096226        0.60894694214469       -3.81722855518532
H            3.47134097754067       -1.09080074546051       -3.36474354388131
H            2.06676664153530       -0.03762603030420       -3.17516753873497
H            4.31812474467846       -0.41101169930312        1.10613759109152
H            2.91616219368322       -0.54649450225080        3.27386624362482
H            2.89552077243650       -1.97623254481936        2.24788121345400
H            1.52604287810212       -0.84861406149214        2.22843368604430
H            2.11901952254137        1.68645277751431        1.46144377105504
H            3.58876924037496        1.61272557915110        2.44542843598727
H            3.69487908146954        1.95925653642997        0.71902000400988
H           -0.94313888722755       -3.93282225797334       -0.25476248673240
H           -1.65337535107085       -2.83229536519257       -1.44877588716712
H           -1.44199366216084       -2.34530390169164        1.55443664206105
H           -2.92801899075267       -2.53533199815252        0.60310426400323
H           -3.10843637667226       -0.05101893178600        2.24630855224969
H           -3.37139674314756        2.12214033566141        1.06374090834954
H           -2.57492912514793        2.42760211012332        2.60447576938895
H           -1.62752433615415        2.38149368860165        1.11453854392930
H           -1.27024553304236        0.74888074436698        3.75688076629774
H           -0.86160821775107       -0.79547197778910        3.01798260440317
H           -0.15605494913034        0.70338556851739        2.38508314853575
H           -3.22242249455179        1.08122600386793       -1.03532328918115
H           -4.74948125022089       -1.30557588779019        0.15315500159221
H           -4.79535815942615        0.35557755417360        0.75388963400577
H           -5.45907773754776       -0.03156180494114       -0.82865043770836
H           -2.25826578452751       -0.65087096827133       -2.58624635020217
H           -3.51265570238021       -1.77866528936978       -2.03703708288327
H           -3.95019433131163       -0.29025593509633       -2.86694226024829
C            0.27684346720574        1.49491366251918       -0.82380516087863
O            0.29362620530372        2.60561337126948       -1.13984554712306
O           -2.14755769487708       -1.12274896782074       -5.41306422224293
C           -0.94575134264583       -1.24013999429305       -5.39744737216977
C           -0.20775646705513       -2.36333393693346       -4.81515312828827
C           -0.89074656421461       -3.34688591058149       -4.10144401058895
C           -0.19199736557797       -4.35297603712866       -3.46288222164868
C            1.19256796771883       -4.38925724774133       -3.53988397813853
C            1.87611021379919       -3.42256550458769       -4.26239451617354
C            1.18121899237385       -2.41202990197382       -4.89890110217123
H            0.35078946092999       -2.14956462767213       -1.73161202270755
H           -0.06820962724758       -0.47371014250430       -2.82171678752806
H           -0.29444730708253       -0.45772580435576       -5.83597566105250
H           -1.96825935510525       -3.28382827241425       -4.04907519440358
H           -0.72299548991273       -5.11054875931204       -2.90402002270102
H            1.74135616335311       -5.17450273928951       -3.03895493865863
H            2.95459972935284       -3.46082179789543       -4.32754280528476
H            1.70594794213551       -1.64145130341144       -5.44482369445535
