59
Properties=species:S:1:pos:R:3:forces:R:3 energy:=T -70.721989957328=T gnorm:=T 0.000093235220=T xtb:=T 6.7.1=T (edcfbbe)=T energy=-1924.443369134752 pbc="F F F"
Co       0.10521550      -0.29135406      -0.24502879       0.00162981       0.00008380      -0.00058291
N        0.11391927      -2.27744527      -0.14789122      -0.00082031       0.00063638      -0.00065889
C        1.22666570      -2.73663964       0.70309715      -0.00006560       0.00019807       0.00074941
C        2.54238105      -2.25521372       0.09579999      -0.00054323      -0.00072006      -0.00017448
P        2.29771097      -0.48157800      -0.38686247      -0.00008401      -0.00122579       0.00018298
C        3.17129919      -0.27682003      -2.00967960       0.00014714       0.00015868      -0.00061736
C        4.61977565      -0.75481175      -2.00144553      -0.00003633      -0.00000097       0.00019425
C        2.33544025      -0.96872593      -3.08750479       0.00001077      -0.00012748       0.00003738
C        3.29260575       0.43124602       0.88381920      -0.00019314       0.00054438      -0.00043938
C        2.55152421       0.27924556       2.21351525       0.00005096      -0.00003926      -0.00023895
C        3.45077782       1.90226358       0.51147963       0.00013420       0.00017815      -0.00010756
C       -1.15909207      -2.97794154       0.13225514       0.00044432      -0.00005343       0.00003216
C       -2.03070586      -2.15396450       1.07261393       0.00047584      -0.00036920       0.00008393
P       -1.96971460      -0.41678339       0.44979926      -0.00049278       0.00010706       0.00049081
C       -2.67528984       0.53934625       1.87782394      -0.00041446      -0.00058014      -0.00004432
C       -3.26162719       1.88184350       1.44989139      -0.00000055      -0.00012916       0.00070689
C       -1.54634800       0.75471879       2.88701765       0.00004812       0.00011818       0.00010010
C       -3.18588079      -0.26825014      -0.94766829       0.00026490       0.00006452       0.00048182
C       -4.53033166      -0.94073160      -0.69054884       0.00019018       0.00028367      -0.00020498
C       -2.53122445      -0.75133652      -2.24443188      -0.00011973      -0.00009133      -0.00000271
H        0.37877517      -2.52316703      -1.10661696       0.00006240      -0.00008154       0.00006861
H        1.08904186      -2.32680141       1.70654387      -0.00005742       0.00002725      -0.00005393
H        1.22929403      -3.83234941       0.77680637       0.00010827       0.00003311      -0.00008209
H        3.37208910      -2.36852028       0.79548016      -0.00035890       0.00039542      -0.00011940
H        2.76722772      -2.83953390      -0.80076526       0.00002931       0.00015834      -0.00004850
H        3.14560299       0.80280585      -2.20640228       0.00013923       0.00003071      -0.00026073
H        5.06344787      -0.58618730      -2.98145916       0.00017162      -0.00024535      -0.00000987
H        4.68853141      -1.81849487      -1.78279896      -0.00008909       0.00015301       0.00027114
H        5.21206293      -0.21094655      -1.26899144      -0.00005180       0.00015236      -0.00003379
H        2.69602626      -0.69713910      -4.07751619       0.00039915      -0.00018926      -0.00002834
H        2.39454272      -2.05273341      -3.00136600       0.00018122      -0.00010280      -0.00010132
H        1.29043614      -0.65716982      -3.00932453       0.00037462      -0.00026817      -0.00054171
H        4.28287746      -0.03667946       0.95370397      -0.00021453      -0.00009834      -0.00017681
H        2.96176027       0.95871303       2.95789148      -0.00026712       0.00029031      -0.00027114
H        2.63858390      -0.73284623       2.60330312      -0.00015012       0.00027114      -0.00004907
H        1.49298637       0.51860799       2.07427560      -0.00021560       0.00006633      -0.00018843
H        2.47820529       2.37437876       0.38606185       0.00026946       0.00021947      -0.00020949
H        3.98158981       2.42883555       1.30290303       0.00021421       0.00020786      -0.00002244
H        4.01869836       2.02449910      -0.40842390       0.00021877      -0.00005999      -0.00015706
H       -0.96242139      -3.96778415       0.55963942      -0.00012047      -0.00006118      -0.00024599
H       -1.69176018      -3.12309108      -0.80946422      -0.00002812       0.00034425       0.00002101
H       -1.61281567      -2.15491402       2.08287048      -0.00019081      -0.00026354       0.00004656
H       -3.05009477      -2.54033871       1.12389359      -0.00033360       0.00004244      -0.00015414
H       -3.45990518      -0.08012994       2.33240569       0.00003875       0.00005171       0.00006320
H       -4.17118468       1.75967816       0.86640255       0.00017640       0.00000127      -0.00001961
H       -3.51061379       2.46902552       2.33236029      -0.00042930      -0.00023413       0.00044370
H       -2.53940596       2.44865718       0.86333373       0.00018918       0.00021773       0.00058131
H       -1.93095170       1.22281175       3.79099357      -0.00016334      -0.00031491       0.00056484
H       -1.07280176      -0.18398824       3.16994980      -0.00026262      -0.00044558       0.00020960
H       -0.79051069       1.41242136       2.45820771      -0.00009199      -0.00037769       0.00033221
H       -3.33549629       0.81507595      -1.04142084      -0.00016663      -0.00004112      -0.00000493
H       -4.43818468      -2.02505273      -0.70040261       0.00005337       0.00006200      -0.00016782
H       -4.95061985      -0.63451236       0.26586350      -0.00008447      -0.00008351      -0.00022737
H       -5.23449764      -0.66187047      -1.47269538       0.00009732       0.00002868      -0.00022599
H       -1.47982026      -0.43599989      -2.27613887       0.00046192      -0.00007029       0.00038532
H       -2.58377627      -1.83360085      -2.33856279       0.00004491       0.00015389      -0.00003493
H       -3.03886544      -0.32276518      -3.10638469       0.00068689       0.00027997      -0.00010412
C        0.04000836       1.41450624      -0.51136938      -0.00206163      -0.00008039       0.00078294
O       -0.05913405       2.53002231      -0.75673635       0.00079446       0.00079443      -0.00021962
