59
Properties=species:S:1:pos:R:3 energy:=T -70.721989957328=T gnorm:=T 0.000093235220=T xtb:=T 6.7.1=T (edcfbbe)=T pbc="F F F"
Co       0.10521550      -0.29135406      -0.24502879
N        0.11391927      -2.27744527      -0.14789122
C        1.22666570      -2.73663964       0.70309715
C        2.54238105      -2.25521372       0.09579999
P        2.29771097      -0.48157800      -0.38686247
C        3.17129919      -0.27682003      -2.00967960
C        4.61977565      -0.75481175      -2.00144553
C        2.33544025      -0.96872593      -3.08750479
C        3.29260575       0.43124602       0.88381920
C        2.55152421       0.27924556       2.21351525
C        3.45077782       1.90226358       0.51147963
C       -1.15909207      -2.97794154       0.13225514
C       -2.03070586      -2.15396450       1.07261393
P       -1.96971460      -0.41678339       0.44979926
C       -2.67528984       0.53934625       1.87782394
C       -3.26162719       1.88184350       1.44989139
C       -1.54634800       0.75471879       2.88701765
C       -3.18588079      -0.26825014      -0.94766829
C       -4.53033166      -0.94073160      -0.69054884
C       -2.53122445      -0.75133652      -2.24443188
H        0.37877517      -2.52316703      -1.10661696
H        1.08904186      -2.32680141       1.70654387
H        1.22929403      -3.83234941       0.77680637
H        3.37208910      -2.36852028       0.79548016
H        2.76722772      -2.83953390      -0.80076526
H        3.14560299       0.80280585      -2.20640228
H        5.06344787      -0.58618730      -2.98145916
H        4.68853141      -1.81849487      -1.78279896
H        5.21206293      -0.21094655      -1.26899144
H        2.69602626      -0.69713910      -4.07751619
H        2.39454272      -2.05273341      -3.00136600
H        1.29043614      -0.65716982      -3.00932453
H        4.28287746      -0.03667946       0.95370397
H        2.96176027       0.95871303       2.95789148
H        2.63858390      -0.73284623       2.60330312
H        1.49298637       0.51860799       2.07427560
H        2.47820529       2.37437876       0.38606185
H        3.98158981       2.42883555       1.30290303
H        4.01869836       2.02449910      -0.40842390
H       -0.96242139      -3.96778415       0.55963942
H       -1.69176018      -3.12309108      -0.80946422
H       -1.61281567      -2.15491402       2.08287048
H       -3.05009477      -2.54033871       1.12389359
H       -3.45990518      -0.08012994       2.33240569
H       -4.17118468       1.75967816       0.86640255
H       -3.51061379       2.46902552       2.33236029
H       -2.53940596       2.44865718       0.86333373
H       -1.93095170       1.22281175       3.79099357
H       -1.07280176      -0.18398824       3.16994980
H       -0.79051069       1.41242136       2.45820771
H       -3.33549629       0.81507595      -1.04142084
H       -4.43818468      -2.02505273      -0.70040261
H       -4.95061985      -0.63451236       0.26586350
H       -5.23449764      -0.66187047      -1.47269538
H       -1.47982026      -0.43599989      -2.27613887
H       -2.58377627      -1.83360085      -2.33856279
H       -3.03886544      -0.32276518      -3.10638469
C        0.04000836       1.41450624      -0.51136938
O       -0.05913405       2.53002231      -0.75673635
