61
 energy: -76.093657400992 gnorm: 0.000142827362 xtb: 6.7.1 (edcfbbe)
Mn          -0.07045892045755       -0.19030624481896       -0.33193364346042
N           -0.22177063782499       -2.36544444535677       -0.23783791655763
C            1.07501335606182       -3.03727358813785       -0.46267933507224
C            2.18928404087537       -2.25009305468303        0.23057185823766
P            2.15123903351270       -0.52049283789303       -0.45227708970364
C            2.99656112617720       -0.71406635398204       -2.10636898964748
C            4.31314855389958       -1.48803058295511       -2.06435078952284
C            3.17994716641672        0.66649848074693       -2.73863803184558
C            3.37073770051744        0.49159088113216        0.52767710755638
C            2.83156438657552        1.92490660508187        0.56406251997234
C            3.63795691339709       -0.04020497533156        1.93244108783389
C           -1.28821956139783       -2.87560524467949       -1.13072956640772
C           -2.58623771858699       -2.03809200385990       -1.06833130805340
P           -2.27001228893482       -0.42753338166147       -0.19247339817002
C           -3.30783478638382       -0.66005747232393        1.33749097470616
C           -3.38802169278644        0.60593842316352        2.18702677398857
C           -2.77090293747976       -1.81961137117418        2.17587150603642
C           -3.11003649619060        1.00687298384313       -1.03389308700917
C           -2.14798225857124        2.17830691918761       -0.76500622360105
C           -3.38477442514841        0.80952576424934       -2.52126449959950
H           -0.50739963743153       -2.58373601246273        0.72535675634139
H            1.25971638845704       -3.06500863033502       -1.54157455007992
H            1.04339319165298       -4.06758180111434       -0.08854196077489
H            1.98571286479173       -2.18890537589990        1.30492489849218
H            3.16112748194808       -2.72420125428188        0.08371246459431
H            2.28477102798102       -1.27645749394170       -2.72646838679102
H            4.81919441930787       -1.37584528254395       -3.02185678166885
H            4.98313172140535       -1.11560161789068       -1.29215823221630
H            4.14990444789788       -2.55064994383347       -1.90291662248393
H            2.26104875652114        1.25244648589115       -2.67148634414009
H            3.43475693966471        0.56486807453981       -3.79226781577200
H            3.98105459181118        1.22036020768775       -2.25304401404387
H            4.31547856107506        0.48931987322783       -0.02983707100214
H            3.56294298865563        2.59718255640852        1.00991430891374
H            2.60607165818041        2.28609998235029       -0.44045020205865
H            1.91918276171457        1.98119828866864        1.15980479999666
H            4.31811213550766        0.63766125564466        2.44658683926933
H            2.72477700298741       -0.09862230330589        2.52020358846162
H            4.10389434416695       -1.02265119524682        1.90218500209593
H           -1.50576100544104       -3.92062445063359       -0.88082627880437
H           -0.88887169540111       -2.85005168260032       -2.14853554152720
H           -3.39282888208219       -2.57881328185239       -0.56673165242167
H           -2.91897100221412       -1.81141382546662       -2.08334762538906
H           -4.31277287299106       -0.90952056345097        0.96263202407688
H           -3.87429195233587        1.42489189276264        1.66180641327928
H           -2.39726581407338        0.93010352249958        2.49973209716840
H           -3.96904029607534        0.40364176592967        3.08561446779520
H           -2.74090562205324       -2.75246093435987        1.61552374290822
H           -3.41675681334644       -1.97537342599733        3.03849788758720
H           -1.77351665906434       -1.58873575424920        2.54964617568427
H           -4.06782726033860        1.20329028428983       -0.53583131533162
H           -2.38380801546357        3.03443618125259       -1.39531990613757
H           -2.20577850668370        2.49644521101835        0.27640011773129
H           -1.08753592754433        1.88932208925468       -0.97382923823239
H           -2.48605056483153        0.54989213273110       -3.07415600099500
H           -4.13315125017613        0.03493216948871       -2.67796550462152
H           -3.77689372211863        1.73559418376793       -2.93984876181842
C           -0.13657952024153       -0.19740544560436       -2.10951748288146
O           -0.10544587930928       -0.13052315529693       -3.25478623870077
C            0.09442551267598        0.12631604888856        1.41182438120875
O            0.18324813143229        0.43938337269947        2.51310191455261
