56
Properties=species:S:1:pos:R:3:forces:R:3 energy:=T -71.169216024921=T gnorm:=T 0.000244836585=T xtb:=T 6.7.1=T (edcfbbe)=T energy=-1936.6130102870961 pbc="F F F"
Ru       0.28533852      -0.00581843       0.02699215      -0.00406479      -0.00255692      -0.00451570
C        2.32540205      -2.34123437      -0.52603293       0.00015364      -0.00006864       0.00006643
P        2.46227792      -0.62028308       0.19049255       0.00121646       0.00040603       0.00127557
C        3.77948011       0.09486458      -0.93200627      -0.00086428       0.00061291       0.00073148
C        5.16696121      -0.52725955      -0.80828703      -0.00011544       0.00119085      -0.00016583
C        3.82265495       1.61515992      -0.79169326       0.00075905       0.00017440       0.00022493
C        3.33653732      -0.98826454       1.80212983      -0.00080344       0.00062942      -0.00057595
C        2.49179018      -1.93926735       2.64546600       0.00012385       0.00029043       0.00076812
C        3.56436915       0.32430361       2.54571602       0.00012127      -0.00000174       0.00007986
C        0.96220418      -2.87700692      -0.20555189       0.00022425      -0.00004535       0.00001651
C        0.69233339      -4.23503559      -0.21219686      -0.00009559      -0.00051306      -0.00060905
C       -0.59615016      -4.68649666       0.04213770      -0.00002248      -0.00025058      -0.00038447
C       -1.57899669      -3.74368613       0.31006076       0.00007760      -0.00008943      -0.00090601
C       -1.24117590      -2.40222675       0.32421078      -0.00030986      -0.00026369      -0.00014150
C       -2.21927802      -1.32575752       0.70525503      -0.00004329      -0.00014364      -0.00020035
N       -2.01752522      -0.10071914      -0.08988346      -0.00046541      -0.00028516       0.00066222
C       -2.86695600       0.98827900       0.43946791       0.00070575      -0.00028651       0.00049002
C       -2.62486716       1.38163180       1.89100610       0.00002173      -0.00040085       0.00026017
C       -2.48366354      -0.39392939      -1.46274209       0.00004377       0.00016316      -0.00032579
C       -2.41738847       0.79264726      -2.42101079       0.00043303       0.00086218       0.00020474
N        0.00576369      -1.96688437       0.06519423       0.00145587       0.00020534       0.00259958
H        3.11387566      -3.02173867      -0.19221953      -0.00035716       0.00004792       0.00001163
H        2.41115758      -2.22539323      -1.61502173       0.00025792      -0.00041281       0.00027132
H        3.38229398      -0.12909743      -1.93352926       0.00055737       0.00123731       0.00024637
H        5.12405889      -1.61308027      -0.87202851      -0.00058106      -0.00122291       0.00004539
H        5.79822139      -0.16560143      -1.61933386      -0.00001029       0.00011240      -0.00005950
H        5.63812104      -0.24666903       0.13098998       0.00010578       0.00029202      -0.00006670
H        2.80344581       2.00141826      -0.71956296       0.00257069      -0.00140916       0.00067304
H        4.36693607       1.91625052       0.09999179      -0.00308890      -0.00160234      -0.00458304
H        4.31098083       2.06313100      -1.65621217      -0.00018205      -0.00019260       0.00155543
H        4.29427128      -1.47118170       1.57042241      -0.00034377       0.00067986       0.00049675
H        2.37916846      -2.91325230       2.17056763       0.00000759       0.00174012       0.00073824
H        2.95711705      -2.08871240       3.61914276      -0.00059076      -0.00016116      -0.00013612
H        1.50208544      -1.51043073       2.79964910       0.00135264      -0.00047710      -0.00038616
H        3.88183064       0.13611253       3.57065433      -0.00012355       0.00024480      -0.00039389
H        2.63270546       0.89097971       2.56208750       0.00039152      -0.00049155      -0.00082646
H        4.32602857       0.92812406       2.05837823      -0.00132193      -0.00097241       0.00049307
H        1.48730086      -4.93463837      -0.42375845      -0.00013524       0.00008842       0.00003595
H       -0.82568091      -5.74005144       0.03206358      -0.00003798       0.00012210      -0.00034051
H       -2.59444741      -4.04521337       0.51732669      -0.00019409      -0.00011029      -0.00041494
H       -3.25625803      -1.68922486       0.61185590      -0.00015951      -0.00016569      -0.00004928
H       -2.02488981      -1.07603911       1.75567438       0.00015828      -0.00002904       0.00020633
H       -2.66699016       1.86962563      -0.17158352      -0.00018884      -0.00002020      -0.00006556
H       -3.92430614       0.70035540       0.31400999       0.00036932       0.00001018       0.00084444
H       -2.99975404       0.64072712       2.59388046       0.00149007       0.00088393      -0.00038113
H       -3.14027407       2.31919871       2.08661836       0.00014797      -0.00068560       0.00058353
H       -1.55867333       1.53052265       2.05193523      -0.00118582       0.00009490      -0.00041250
H       -1.87322112      -1.21170456      -1.86222835      -0.00057116      -0.00011425       0.00004148
H       -3.52621308      -0.75447637      -1.41700587       0.00034937       0.00040133       0.00021446
H       -2.39730707       0.42976842      -3.44631662       0.00046171       0.00001385       0.00038828
H       -3.27806153       1.44775253      -2.31081679      -0.00002597      -0.00010622       0.00000342
H       -1.50990113       1.36960740      -2.24243850       0.00001065      -0.00003833       0.00057997
C        0.55265618       0.01078471      -1.79327285       0.00269724       0.00261734       0.00098668
O        0.83568357      -0.04840876      -2.92028852      -0.00132779      -0.00079436      -0.00067223
H        0.15573135       0.05745331       1.59066493      -0.00048147       0.00066183      -0.00007291
H        0.36198323       1.57218469       0.07539124       0.00142753       0.00012853       0.00089018
