56
Properties=species:S:1:pos:R:3 energy:=T -71.169216024921=T gnorm:=T 0.000244836585=T xtb:=T 6.7.1=T (edcfbbe)=T pbc="F F F"
Ru       0.28533852      -0.00581843       0.02699215
C        2.32540205      -2.34123437      -0.52603293
P        2.46227792      -0.62028308       0.19049255
C        3.77948011       0.09486458      -0.93200627
C        5.16696121      -0.52725955      -0.80828703
C        3.82265495       1.61515992      -0.79169326
C        3.33653732      -0.98826454       1.80212983
C        2.49179018      -1.93926735       2.64546600
C        3.56436915       0.32430361       2.54571602
C        0.96220418      -2.87700692      -0.20555189
C        0.69233339      -4.23503559      -0.21219686
C       -0.59615016      -4.68649666       0.04213770
C       -1.57899669      -3.74368613       0.31006076
C       -1.24117590      -2.40222675       0.32421078
C       -2.21927802      -1.32575752       0.70525503
N       -2.01752522      -0.10071914      -0.08988346
C       -2.86695600       0.98827900       0.43946791
C       -2.62486716       1.38163180       1.89100610
C       -2.48366354      -0.39392939      -1.46274209
C       -2.41738847       0.79264726      -2.42101079
N        0.00576369      -1.96688437       0.06519423
H        3.11387566      -3.02173867      -0.19221953
H        2.41115758      -2.22539323      -1.61502173
H        3.38229398      -0.12909743      -1.93352926
H        5.12405889      -1.61308027      -0.87202851
H        5.79822139      -0.16560143      -1.61933386
H        5.63812104      -0.24666903       0.13098998
H        2.80344581       2.00141826      -0.71956296
H        4.36693607       1.91625052       0.09999179
H        4.31098083       2.06313100      -1.65621217
H        4.29427128      -1.47118170       1.57042241
H        2.37916846      -2.91325230       2.17056763
H        2.95711705      -2.08871240       3.61914276
H        1.50208544      -1.51043073       2.79964910
H        3.88183064       0.13611253       3.57065433
H        2.63270546       0.89097971       2.56208750
H        4.32602857       0.92812406       2.05837823
H        1.48730086      -4.93463837      -0.42375845
H       -0.82568091      -5.74005144       0.03206358
H       -2.59444741      -4.04521337       0.51732669
H       -3.25625803      -1.68922486       0.61185590
H       -2.02488981      -1.07603911       1.75567438
H       -2.66699016       1.86962563      -0.17158352
H       -3.92430614       0.70035540       0.31400999
H       -2.99975404       0.64072712       2.59388046
H       -3.14027407       2.31919871       2.08661836
H       -1.55867333       1.53052265       2.05193523
H       -1.87322112      -1.21170456      -1.86222835
H       -3.52621308      -0.75447637      -1.41700587
H       -2.39730707       0.42976842      -3.44631662
H       -3.27806153       1.44775253      -2.31081679
H       -1.50990113       1.36960740      -2.24243850
C        0.55265618       0.01078471      -1.79327285
O        0.83568357      -0.04840876      -2.92028852
H        0.15573135       0.05745331       1.59066493
H        0.36198323       1.57218469       0.07539124
