56
Properties=species:S:1:pos:R:3:forces:R:3 energy:=T -75.589494437400=T gnorm:=T 0.000143367083=T xtb:=T 6.7.1=T (edcfbbe)=T energy=-2056.8949124723204 pbc="F F F"
Mn       0.08482141      -0.02853390       0.03376576       0.00001587      -0.00103864      -0.00006441
C        1.80538610      -1.94838308      -1.74302709      -0.00016909       0.00035631       0.00135662
P        2.10393811      -0.29177806      -0.94026912       0.00067959       0.00161169      -0.00240095
C        2.53333261       0.81449822      -2.37478201       0.00040884       0.00161150      -0.00021179
C        2.27051249       2.25920873      -1.94443004      -0.00070586      -0.00048295       0.00003075
C        3.92129802       0.61854413      -2.97315596       0.00001966      -0.00061162      -0.00003604
C        3.69532781      -0.64421059      -0.04417969       0.00024117       0.00030490       0.00007547
C        3.52519168      -1.83205262       0.90265039       0.00012767      -0.00010754       0.00093219
C        4.18203180       0.59667718       0.70008763      -0.00006418       0.00021187       0.00036921
C        0.85336605      -2.72235825      -0.87749827      -0.00025412      -0.00115676      -0.00081095
C        0.75959065      -4.10556725      -0.90210715       0.00052435       0.00074190       0.00004186
C       -0.17715769      -4.74050924      -0.10111198      -0.00076701      -0.00019826       0.00079020
C       -1.00366830      -3.97466390       0.70886942       0.00006146      -0.00063203      -0.00065705
C       -0.85472421      -2.59947734       0.70544278       0.00051381       0.00011117      -0.00001021
C       -1.64945342      -1.66301902       1.57771676      -0.00005664      -0.00004835      -0.00032511
N       -1.87820226      -0.38812757       0.85768393       0.00092551       0.00038821      -0.00081321
C       -3.04741902      -0.61858486      -0.02731549      -0.00000348      -0.00005849      -0.00003850
C       -3.53623539       0.58387978      -0.82167820       0.00002652      -0.00016786       0.00019655
C       -2.10746785       0.76086962       1.76064226      -0.00024086      -0.00033994       0.00002566
C       -1.51640822       2.04959576       1.16779987      -0.00045683       0.00016460       0.00025720
N        0.06302410      -1.99292123      -0.06976590      -0.00108074       0.00021578       0.00013634
H        2.73185477      -2.49992847      -1.92469811      -0.00007198       0.00033136       0.00013535
H        1.32903966      -1.75739252      -2.71319836       0.00013267      -0.00015434       0.00057777
H        1.79042155       0.54814065      -3.14048444       0.00001028      -0.00022080       0.00060353
H        3.06700727       2.63541267      -1.30680933       0.00000599      -0.00037136       0.00071759
H        2.19521819       2.91130154      -2.81226671       0.00060795      -0.00021078      -0.00034682
H        1.32647504       2.31442945      -1.38330687      -0.00107412       0.00033573      -0.00038414
H        4.08926562      -0.42272621      -3.24254166       0.00012616      -0.00045368       0.00019010
H        4.00704611       1.21746159      -3.87852446      -0.00034956      -0.00021233       0.00012646
H        4.70355826       0.93884462      -2.28964712      -0.00048299       0.00003971       0.00002421
H        4.42569029      -0.91451712      -0.81891272      -0.00020409       0.00009190      -0.00034952
H        2.68812732      -1.68296346       1.58197155       0.00046490       0.00002643      -0.00015540
H        4.42597622      -1.94816836       1.50311741      -0.00094516      -0.00037941      -0.00029791
H        3.36295392      -2.76193072       0.36200572      -0.00029687       0.00131391       0.00066188
H        4.39713084       1.41237420       0.01402993       0.00047057      -0.00104026       0.00088548
H        5.09608912       0.36878268       1.24618189      -0.00089119      -0.00024889      -0.00010589
H        3.43785418       0.93980979       1.41537441       0.00099062       0.00033230      -0.00043052
H        1.40929945      -4.67555524      -1.54787724       0.00027854      -0.00009306       0.00046720
H       -0.26574448      -5.81541114      -0.11104235       0.00010788       0.00002986      -0.00059220
H       -1.74737815      -4.43718248       1.33830708      -0.00061431       0.00029518      -0.00065141
H       -2.59414393      -2.12634289       1.88892525       0.00029874      -0.00002363       0.00008858
H       -1.05807634      -1.47019011       2.48120362       0.00032394       0.00014364      -0.00013723
H       -3.88312502      -0.97898115       0.58950540      -0.00006771       0.00022807      -0.00018109
H       -2.77103056      -1.41883038      -0.72071137       0.00003875      -0.00014039       0.00009318
H       -4.25509888       0.23461607      -1.56006059      -0.00000856       0.00005223       0.00004042
H       -2.72841332       1.07924527      -1.35432054       0.00011598      -0.00021045      -0.00003878
H       -4.04273696       1.30935878      -0.18994026       0.00048576       0.00008975      -0.00039844
H       -3.17591201       0.89231269       1.96360103      -0.00006632       0.00006914      -0.00014442
H       -1.61574624       0.55805698       2.71638115      -0.00025266       0.00006345       0.00010077
H       -0.55200550       1.86276507       0.60740288       0.00037042      -0.00030901      -0.00098371
H       -1.28429792       2.75077231       1.96804568       0.00050031      -0.00020581       0.00006297
H       -2.20385661       2.53777438       0.48163121      -0.00024087       0.00021259       0.00022325
C       -0.49224255       0.09600084      -1.65278058       0.00090044      -0.00129276       0.00222945
O       -0.74092929       0.11091812      -2.77214083      -0.00062211       0.00025637      -0.00157008
C        0.83237749       0.04874296       1.66345807      -0.00034069      -0.00096259      -0.00003658
O        1.29581185       0.22958607       2.69689189       0.00055365       0.00174245       0.00073212
