56
Properties=species:S:1:pos:R:3 energy:=T -75.589494437400=T gnorm:=T 0.000143367083=T xtb:=T 6.7.1=T (edcfbbe)=T pbc="F F F"
Mn       0.08482141      -0.02853390       0.03376576
C        1.80538610      -1.94838308      -1.74302709
P        2.10393811      -0.29177806      -0.94026912
C        2.53333261       0.81449822      -2.37478201
C        2.27051249       2.25920873      -1.94443004
C        3.92129802       0.61854413      -2.97315596
C        3.69532781      -0.64421059      -0.04417969
C        3.52519168      -1.83205262       0.90265039
C        4.18203180       0.59667718       0.70008763
C        0.85336605      -2.72235825      -0.87749827
C        0.75959065      -4.10556725      -0.90210715
C       -0.17715769      -4.74050924      -0.10111198
C       -1.00366830      -3.97466390       0.70886942
C       -0.85472421      -2.59947734       0.70544278
C       -1.64945342      -1.66301902       1.57771676
N       -1.87820226      -0.38812757       0.85768393
C       -3.04741902      -0.61858486      -0.02731549
C       -3.53623539       0.58387978      -0.82167820
C       -2.10746785       0.76086962       1.76064226
C       -1.51640822       2.04959576       1.16779987
N        0.06302410      -1.99292123      -0.06976590
H        2.73185477      -2.49992847      -1.92469811
H        1.32903966      -1.75739252      -2.71319836
H        1.79042155       0.54814065      -3.14048444
H        3.06700727       2.63541267      -1.30680933
H        2.19521819       2.91130154      -2.81226671
H        1.32647504       2.31442945      -1.38330687
H        4.08926562      -0.42272621      -3.24254166
H        4.00704611       1.21746159      -3.87852446
H        4.70355826       0.93884462      -2.28964712
H        4.42569029      -0.91451712      -0.81891272
H        2.68812732      -1.68296346       1.58197155
H        4.42597622      -1.94816836       1.50311741
H        3.36295392      -2.76193072       0.36200572
H        4.39713084       1.41237420       0.01402993
H        5.09608912       0.36878268       1.24618189
H        3.43785418       0.93980979       1.41537441
H        1.40929945      -4.67555524      -1.54787724
H       -0.26574448      -5.81541114      -0.11104235
H       -1.74737815      -4.43718248       1.33830708
H       -2.59414393      -2.12634289       1.88892525
H       -1.05807634      -1.47019011       2.48120362
H       -3.88312502      -0.97898115       0.58950540
H       -2.77103056      -1.41883038      -0.72071137
H       -4.25509888       0.23461607      -1.56006059
H       -2.72841332       1.07924527      -1.35432054
H       -4.04273696       1.30935878      -0.18994026
H       -3.17591201       0.89231269       1.96360103
H       -1.61574624       0.55805698       2.71638115
H       -0.55200550       1.86276507       0.60740288
H       -1.28429792       2.75077231       1.96804568
H       -2.20385661       2.53777438       0.48163121
C       -0.49224255       0.09600084      -1.65278058
O       -0.74092929       0.11091812      -2.77214083
C        0.83237749       0.04874296       1.66345807
O        1.29581185       0.22958607       2.69689189
