49
Properties=species:S:1:pos:R:3:forces:R:3 energy:=T -71.046753268723=T gnorm:=T 0.000143083746=T xtb:=T 6.7.1=T (edcfbbe)=T energy=-1933.280628963455 pbc="F F F"
Fe       0.09130917      -0.23088691      -0.10620049      -0.00246309       0.00352173       0.00076857
C        2.31728806      -2.36860631      -0.21954942       0.00024453      -0.00101902       0.00099443
P        2.18980219      -0.53653246      -0.50025894      -0.00001925      -0.00188001       0.00068089
C        3.49821037       0.08282230       0.67970305      -0.00031174      -0.00044935      -0.00047161
C        4.93232793      -0.30368902       0.32950567       0.00002058       0.00056502       0.00025500
C        3.34924301       1.58240859       0.91635787       0.00067068       0.00014784       0.00052223
C        2.94457930      -0.40657389      -2.20897838      -0.00074249       0.00098272       0.00009168
C        2.14597274      -1.25838273      -3.19230272       0.00000085      -0.00032875       0.00004676
C        2.94671490       1.05424837      -2.64730520       0.00027634       0.00033592      -0.00055368
C        0.96010302      -2.93908700      -0.48979393       0.00033261       0.00077259      -0.00018030
C        0.77426878      -4.25794148      -0.84435176       0.00022634       0.00009540      -0.00025607
C       -0.51850196      -4.76020676      -0.99312646      -0.00002024       0.00041370       0.00018598
C       -1.57843143      -3.92745235      -0.70855892       0.00001702      -0.00035436       0.00009762
C       -1.33543699      -2.60287135      -0.34546797       0.00057195       0.00062769       0.00031505
C       -2.34533866      -1.65957726       0.08155347       0.00000951       0.00049081      -0.00000177
C       -3.70234832      -1.94033287       0.22907749       0.00055439      -0.00011964       0.00005094
C       -4.54138005      -0.96792710       0.74020306       0.00004376      -0.00014684      -0.00008957
C       -4.00883210       0.25278109       1.11704173       0.00009899       0.00008027       0.00004555
C       -2.64395752       0.47793334       0.93867998       0.00020057      -0.00041783      -0.00046213
O       -2.12235166       1.64022830       1.31578734       0.00017528       0.00011211      -0.00085827
N       -1.83238714      -0.44187357       0.40200025      -0.00175961       0.00006675      -0.00015846
N       -0.07423346      -2.08786105      -0.30934455      -0.00014606      -0.00228271      -0.00039828
H        2.52595751      -2.49786574       0.85017401       0.00029098      -0.00022721      -0.00056977
H        3.10386522      -2.86244220      -0.79573138       0.00000438       0.00026806      -0.00050942
H        3.20411458      -0.42028678       1.61286012      -0.00030871      -0.00027950      -0.00012505
H        5.01769358      -1.36811387       0.11752477      -0.00000936      -0.00044332       0.00063386
H        5.28910895       0.25729624      -0.53178820       0.00019557      -0.00066206      -0.00032769
H        5.58525469      -0.07245388       1.17055092       0.00027868       0.00021962       0.00020321
H        3.90159528       1.88150070       1.80630584       0.00025163       0.00014829       0.00026726
H        2.29562823       1.81639764       1.05834079       0.00050109      -0.00045623       0.00035643
H        3.72279943       2.16151665       0.07502341      -0.00002330      -0.00007453       0.00021883
H        3.97185192      -0.78792047      -2.16142572      -0.00044301       0.00047480      -0.00023537
H        2.19264849      -2.31764146      -2.94570181      -0.00043540       0.00045451      -0.00009969
H        1.10054666      -0.95565960      -3.19452038       0.00022168       0.00027459       0.00014800
H        2.53667597      -1.12885617      -4.20152834      -0.00023010       0.00004805       0.00046529
H        3.22725528       1.14175051      -3.69690648      -0.00036597       0.00041884       0.00005080
H        3.64703275       1.64203264      -2.05844402      -0.00026923       0.00022006       0.00011141
H        1.95127067       1.47953957      -2.51717719       0.00005556      -0.00032949       0.00020055
H        1.63095787      -4.89752220      -0.99564208      -0.00002227      -0.00006186      -0.00028956
H       -0.67951806      -5.78358258      -1.29401384       0.00019829       0.00002703      -0.00014546
H       -2.59126489      -4.29197775      -0.76547251       0.00021349      -0.00009239       0.00014667
H       -4.09055713      -2.90643064      -0.04757719      -0.00010617       0.00003756       0.00010607
H       -5.59673165      -1.16008154       0.85841935       0.00005180      -0.00008765       0.00001258
H       -4.61024741       1.03809727       1.54346816       0.00006149      -0.00023372      -0.00033241
H       -1.15585053       1.60402652       1.12176897      -0.00026131       0.00027428      -0.00026028
C       -0.44294187       0.25481209      -1.69358377       0.00041213      -0.00033082      -0.00008728
O       -0.93792671       0.65857300      -2.65708604       0.00013581       0.00008623       0.00036060
H        0.46540403      -0.31397777       1.31781273       0.00160459       0.00031180      -0.00125962
H        0.21317873       1.22578993       0.08396909       0.00001677      -0.00119899       0.00033549
