49
Properties=species:S:1:pos:R:3 energy:=T -71.046753268723=T gnorm:=T 0.000143083746=T xtb:=T 6.7.1=T (edcfbbe)=T pbc="F F F"
Fe       0.09130917      -0.23088691      -0.10620049
C        2.31728806      -2.36860631      -0.21954942
P        2.18980219      -0.53653246      -0.50025894
C        3.49821037       0.08282230       0.67970305
C        4.93232793      -0.30368902       0.32950567
C        3.34924301       1.58240859       0.91635787
C        2.94457930      -0.40657389      -2.20897838
C        2.14597274      -1.25838273      -3.19230272
C        2.94671490       1.05424837      -2.64730520
C        0.96010302      -2.93908700      -0.48979393
C        0.77426878      -4.25794148      -0.84435176
C       -0.51850196      -4.76020676      -0.99312646
C       -1.57843143      -3.92745235      -0.70855892
C       -1.33543699      -2.60287135      -0.34546797
C       -2.34533866      -1.65957726       0.08155347
C       -3.70234832      -1.94033287       0.22907749
C       -4.54138005      -0.96792710       0.74020306
C       -4.00883210       0.25278109       1.11704173
C       -2.64395752       0.47793334       0.93867998
O       -2.12235166       1.64022830       1.31578734
N       -1.83238714      -0.44187357       0.40200025
N       -0.07423346      -2.08786105      -0.30934455
H        2.52595751      -2.49786574       0.85017401
H        3.10386522      -2.86244220      -0.79573138
H        3.20411458      -0.42028678       1.61286012
H        5.01769358      -1.36811387       0.11752477
H        5.28910895       0.25729624      -0.53178820
H        5.58525469      -0.07245388       1.17055092
H        3.90159528       1.88150070       1.80630584
H        2.29562823       1.81639764       1.05834079
H        3.72279943       2.16151665       0.07502341
H        3.97185192      -0.78792047      -2.16142572
H        2.19264849      -2.31764146      -2.94570181
H        1.10054666      -0.95565960      -3.19452038
H        2.53667597      -1.12885617      -4.20152834
H        3.22725528       1.14175051      -3.69690648
H        3.64703275       1.64203264      -2.05844402
H        1.95127067       1.47953957      -2.51717719
H        1.63095787      -4.89752220      -0.99564208
H       -0.67951806      -5.78358258      -1.29401384
H       -2.59126489      -4.29197775      -0.76547251
H       -4.09055713      -2.90643064      -0.04757719
H       -5.59673165      -1.16008154       0.85841935
H       -4.61024741       1.03809727       1.54346816
H       -1.15585053       1.60402652       1.12176897
C       -0.44294187       0.25481209      -1.69358377
O       -0.93792671       0.65857300      -2.65708604
H        0.46540403      -0.31397777       1.31781273
H        0.21317873       1.22578993       0.08396909
