      -----------------------------------------------------------      
     |                   =====================                   |     
     |                           x T B                           |     
     |                   =====================                   |     
     |                         S. Grimme                         |     
     |          Mulliken Center for Theoretical Chemistry        |     
     |                    University of Bonn                     |     
      -----------------------------------------------------------      

   * xtb version 6.7.1 (edcfbbe) compiled by 'VssAdministrator@runnervm171ch' on 2026-06-10

   xtb is free software: you can redistribute it and/or modify it under
   the terms of the GNU Lesser General Public License as published by
   the Free Software Foundation, either version 3 of the License, or
   (at your option) any later version.
   
   xtb is distributed in the hope that it will be useful,
   but WITHOUT ANY WARRANTY; without even the implied warranty of
   MERCHANTABILITY or FITNESS FOR A PARTICULAR PURPOSE.  See the
   GNU Lesser General Public License for more details.
   
   Cite this work as:
   * C. Bannwarth, E. Caldeweyher, S. Ehlert, A. Hansen, P. Pracht,
     J. Seibert, S. Spicher, S. Grimme, WIREs Comput. Mol. Sci., 2020, 11,
     e01493. DOI: 10.1002/wcms.1493
   
   for GFN2-xTB:
   * C. Bannwarth, S. Ehlert and S. Grimme., J. Chem. Theory Comput., 2019,
     15, 1652-1671. DOI: 10.1021/acs.jctc.8b01176
   for GFN1-xTB:
   * S. Grimme, C. Bannwarth, P. Shushkov, J. Chem. Theory Comput., 2017,
     13, 1989-2009. DOI: 10.1021/acs.jctc.7b00118
   for GFN0-xTB:
   * P. Pracht, E. Caldeweyher, S. Ehlert, S. Grimme, ChemRxiv, 2019, preprint.
     DOI: 10.26434/chemrxiv.8326202.v1
   for GFN-FF:
   * S. Spicher and S. Grimme, Angew. Chem. Int. Ed., 2020, 59, 15665-15673.
     DOI: 10.1002/anie.202004239
   
   for ALPB and GBSA implicit solvation:
   * S. Ehlert, M. Stahn, S. Spicher, S. Grimme, J. Chem. Theory Comput.,
     2021, 17, 4250-4261. DOI: 10.1021/acs.jctc.1c00471
   
   for ddCOSMO and CPCM-X implicit solvation:
   * M. Stahn, S. Ehlert, S. Grimme, J. Phys. Chem. A,
     2023, XX, XXXX-XXXX. DOI: 10.1021/acs.jpca.3c04382
   
   for DFT-D4:
   * E. Caldeweyher, C. Bannwarth and S. Grimme, J. Chem. Phys., 2017,
     147, 034112. DOI: 10.1063/1.4993215
   * E. Caldeweyher, S. Ehlert, A. Hansen, H. Neugebauer, S. Spicher,
     C. Bannwarth and S. Grimme, J. Chem. Phys., 2019, 150, 154122.
     DOI: 10.1063/1.5090222
   * E. Caldeweyher, J.-M. Mewes, S. Ehlert and S. Grimme, Phys. Chem. Chem. Phys.
     2020, 22, 8499-8512. DOI: 10.1039/D0CP00502A
   
   for sTDA-xTB:
   * S. Grimme and C. Bannwarth, J. Chem. Phys., 2016, 145, 054103.
     DOI: 10.1063/1.4959605
   
   in the mass-spec context:
   * V. Asgeirsson, C. Bauer and S. Grimme, Chem. Sci., 2017, 8, 4879.
     DOI: 10.1039/c7sc00601b
   * J. Koopman and S. Grimme, ACS Omega 2019, 4, 12, 15120-15133.
     DOI: 10.1021/acsomega.9b02011
   
   for metadynamics refer to:
   * S. Grimme, J. Chem. Theory Comput., 2019, 155, 2847-2862
     DOI: 10.1021/acs.jctc.9b00143
   
   for SPH calculations refer to:
   * S. Spicher and S. Grimme, J. Chem. Theory Comput., 2021, 17, 1701-1714
     DOI: 10.1021/acs.jctc.0c01306
   
   for ONIOM refer to:
   * C. Plett, A. Katbashev, S. Ehlert, S. Grimme, M. Bursch,
     Phys. Chem. Chem. Phys., 2023, 25, 17860-17868. DOI: 10.1039/D3CP02178E
   
   for DIPRO refer to:
   * J. Kohn, N. Gildemeister, S. Grimme, D. Fazzi, A. Hansen,
     J. Chem. Phys., 2023, just accepted.
   
   for PTB refer to:
   * S. Grimme, M. Mueller, A. Hansen, J. Chem. Phys., 2023, 158, 124111.
     DOI: 10.1063/5.0137838
   
   with help from (in alphabetical order)
   P. Atkinson, C. Bannwarth, F. Bohle, G. Brandenburg, E. Caldeweyher
   M. Checinski, S. Dohm, S. Ehlert, S. Ehrlich, I. Gerasimov, C. Hölzer
   A. Katbashev, J. Kohn, J. Koopman, C. Lavigne, S. Lehtola, F. März, M. Müller,
   F. Musil, H. Neugebauer, J. Pisarek, C. Plett, P. Pracht, F. Pultar,
   J. Seibert, P. Shushkov, S. Spicher, M. Stahn, M. Steiner, T. Strunk,
   J. Stückrath, T. Rose, and J. Unsleber
   
 * started run on 2026/09/20 at 00:12:14.171     
   ID    Z sym.   atoms
    1    6 C      1, 3, 5-11
    2    7 N      2, 4
    3    8 O      12
    4    1 H      13-20

           -------------------------------------------------
          |                Calculation Setup                |
           -------------------------------------------------

          program call               : C:\Users\HUIWEI\miniconda3\envs\phase2ff\Library\bin\xtb.exe input.xyz --gfn 1 --chrg 0 --uhf 0 --acc 0.1 --iterations 250 --alpb dmf
          coordinate file            : input.xyz
          omp threads                :                     2


           -------------------------------------------------
          |                 G F N 1 - x T B                 |
           -------------------------------------------------

        Reference                      10.1021/acs.jctc.7b00118
      * Hamiltonian:
        H0-scaling (s, p, d)           1.850000    2.250000    2.000000
        zeta-weighting                 0.000000
      * Dispersion:
        s8                             2.400000
        a1                             0.630000
        a2                             5.000000
        s9                             0.000000
      * Repulsion:
        kExp                           1.500000
        rExp                           1.000000
      * Coulomb:
        alpha                          2.000000
        third order                    atomic
        anisotropic                    false
      * Halogen bond correction:
        rad-scale                      1.300000
        damping                        0.440000

      * Solvation model:               ALPB
        Solvent                        dmf
        Parameter file                 internal GFN1-xTB/ALPB
        Dielectric constant                3.7000E+01
        Reference state                gsolv [1 M gas/solution]
        Free energy shift                  7.9351E-03 Eh       4.9794E+00 kcal/mol
        Temperature                        2.9815E+02 K
        Density                            9.5000E-01 kg/L
        Solvent mass                       7.3100E+01 g/mol
        Interaction kernel             P16
        Born radius scaling (c1)           1.8847E+00
        Born radii integrator          GBOBC
        Born offset                        0.0000E+00 a0       0.0000E+00 AA
        H-bond correction              true
        Ion screening                  false
        Surface tension                    1.0000E-05 Eh       1.5569E+01 dyn/cm
        Grid points                               230 per atom

          ...................................................
          :                      SETUP                      :
          :.................................................:
          :  # basis functions                  64          :
          :  # atomic orbitals                  64          :
          :  # shells                           40          :
          :  # electrons                        60          :
          :  # halogen bonds                     0          :
          :  max. iterations                   250          :
          :  Hamiltonian                  GFN1-xTB          :
          :  restarted?                      false          :
          :  GBSA solvation                   true          :
          :  PC potential                    false          :
          :  electronic temp.          300.0000000     K    :
          :  accuracy                    0.1000000          :
          :  -> integral cutoff          0.3500000E+02      :
          :  -> integral neglect         0.1000000E-08      :
          :  -> SCF convergence          0.1000000E-06 Eh   :
          :  -> wf. convergence          0.2000000E-05 e    :
          :  Broyden damping             0.4000000          :
          :  net charge                          0          :
          :  unpaired electrons                  0          :
          ...................................................

 iter      E             dE          RMSdq      gap      omega  full diag
   1    -34.8232841 -0.348233E+02  0.944E+00    3.35       0.0  T
   2    -34.9151946 -0.919105E-01  0.564E+00    3.36       1.0  T
   3    -34.9084002  0.679435E-02  0.121E+00    3.40       1.0  T
   4    -34.9200044 -0.116042E-01  0.151E-01    3.38       1.0  T
   5    -34.9203109 -0.306422E-03  0.380E-02    3.39       1.0  T
   6    -34.9203356 -0.247434E-04  0.836E-03    3.39       2.7  T
   7    -34.9203364 -0.756696E-06  0.158E-03    3.39      14.1  T
   8    -34.9203364 -0.342107E-07  0.470E-04    3.39      47.6  T
   9    -34.9203364 -0.164523E-08  0.168E-04    3.39     133.3  T
  10    -34.9203364 -0.126079E-09  0.532E-05    3.39     420.1  T
  11    -34.9203364 -0.106439E-10  0.190E-05    3.39    1176.9  T
  12    -34.9203364 -0.291323E-12  0.503E-06    3.39    4443.7  T

   *** convergence criteria satisfied after 12 iterations ***

         #    Occupation            Energy/Eh            Energy/eV
      -------------------------------------------------------------
         1        2.0000           -0.8230613             -22.3966
       ...           ...                  ...                  ...
        24        2.0000           -0.4923662             -13.3980
        25        2.0000           -0.4879444             -13.2776
        26        2.0000           -0.4634788             -12.6119
        27        2.0000           -0.4514819             -12.2854
        28        2.0000           -0.4485624             -12.2060
        29        2.0000           -0.4369915             -11.8911
        30        2.0000           -0.4229437             -11.5089 (HOMO)
        31                         -0.2984435              -8.1211 (LUMO)
        32                         -0.2914676              -7.9312
        33                         -0.2390239              -6.5042
        34                         -0.2090222              -5.6878
        35                         -0.1436559              -3.9091
       ...                                ...                  ...
        64                          0.7222300              19.6529
      -------------------------------------------------------------
                  HL-Gap            0.1245002 Eh            3.3878 eV
             Fermi-level           -0.3606936 Eh           -9.8150 eV

 SCC (total)                   0 d,  0 h,  0 min,  0.048 sec
 SCC setup                      ...        0 min,  0.001 sec (  2.805%)
 Dispersion                     ...        0 min,  0.000 sec (  0.234%)
 classical contributions        ...        0 min,  0.000 sec (  0.086%)
 integral evaluation            ...        0 min,  0.003 sec (  6.486%)
 iterations                     ...        0 min,  0.038 sec ( 78.639%)
 molecular gradient             ...        0 min,  0.005 sec ( 11.232%)
 printout                       ...        0 min,  0.000 sec (  0.486%)

         :::::::::::::::::::::::::::::::::::::::::::::::::::::
         ::                     SUMMARY                     ::
         :::::::::::::::::::::::::::::::::::::::::::::::::::::
         :: total energy             -34.440090133752 Eh    ::
         :: total w/o Gsasa/hb       -34.428515619149 Eh    ::
         :: gradient norm              0.029620758308 Eh/a0 ::
         :: HOMO-LUMO gap              3.387821840793 eV    ::
         ::.................................................::
         :: SCC energy               -34.920336389859 Eh    ::
         :: -> electrostatic           0.092302324399 Eh    ::
         :: -> Gsolv                  -0.019768058318 Eh    ::
         ::    -> Gelec               -0.008193543716 Eh    ::
         ::    -> Gsasa               -0.018389165446 Eh    ::
         ::    -> Ghb                 -0.001120481412 Eh    ::
         ::    -> Gshift               0.007935132256 Eh    ::
         :: repulsion energy           0.491239396691 Eh    ::
         :: dispersion energy         -0.010993140584 Eh    ::
         :: halogen bond corr.         0.000000000000 Eh    ::
         :: add. restraining           0.000000000000 Eh    ::
         :: total charge               0.000000000000 e     ::
         :::::::::::::::::::::::::::::::::::::::::::::::::::::

           -------------------------------------------------
          |                Property Printout                |
           -------------------------------------------------

    * Orbital Energies and Occupations

         #    Occupation            Energy/Eh            Energy/eV
      -------------------------------------------------------------
         1        2.0000           -0.8230613             -22.3966
       ...           ...                  ...                  ...
        18        2.0000           -0.5461965             -14.8628
        19        2.0000           -0.5371541             -14.6167
        20        2.0000           -0.5356325             -14.5753
        21        2.0000           -0.5344793             -14.5439
        22        2.0000           -0.5259385             -14.3115
        23        2.0000           -0.5083946             -13.8341
        24        2.0000           -0.4923662             -13.3980
        25        2.0000           -0.4879444             -13.2776
        26        2.0000           -0.4634788             -12.6119
        27        2.0000           -0.4514819             -12.2854
        28        2.0000           -0.4485624             -12.2060
        29        2.0000           -0.4369915             -11.8911
        30        2.0000           -0.4229437             -11.5089 (HOMO)
        31                         -0.2984435              -8.1211 (LUMO)
        32                         -0.2914676              -7.9312
        33                         -0.2390239              -6.5042
        34                         -0.2090222              -5.6878
        35                         -0.1436559              -3.9091
        36                         -0.1172434              -3.1904
        37                         -0.1144927              -3.1155
        38                         -0.1032583              -2.8098
        39                         -0.0986589              -2.6846
        40                         -0.0836889              -2.2773
        41                         -0.0742743              -2.0211
       ...                                ...                  ...
        64                          0.7222300              19.6529
      -------------------------------------------------------------
                  HL-Gap            0.1245002 Eh            3.3878 eV
             Fermi-level           -0.3606936 Eh           -9.8150 eV

  Mulliken/CM5 charges         n(s)   n(p)   n(d)
     1C     0.05345 -0.03220   0.986  2.961  0.000
     2N    -0.21945 -0.47739   1.448  3.772  0.000
     3C     0.27327  0.38208   0.985  2.741  0.000
     4N    -0.38753 -0.57618   1.531  3.857  0.000
     5C     0.15866  0.22601   1.045  2.797  0.000
     6C    -0.04862 -0.09604   1.061  2.987  0.000
     7C    -0.01731 -0.07314   1.063  2.954  0.000
     8C    -0.03683 -0.09290   1.058  2.979  0.000
     9C    -0.00762 -0.05947   1.061  2.946  0.000
    10C    -0.07486 -0.06635   1.085  2.990  0.000
    11C     0.45939  0.55874   0.993  2.548  0.000
    12O    -0.57743 -0.62225   1.727  4.851  0.000
    13H     0.06506  0.12957   0.935  0.000  0.000
    14H     0.06506  0.12956   0.935  0.000  0.000
    15H     0.05383  0.11675   0.946  0.000  0.000
    16H     0.05245  0.13073   0.948  0.000  0.000
    17H     0.04815  0.10849   0.952  0.000  0.000
    18H     0.04368  0.10022   0.956  0.000  0.000
    19H     0.04410  0.10065   0.956  0.000  0.000
    20H     0.05254  0.11313   0.947  0.000  0.000

Wiberg/Mayer (AO) data.
largest (>0.10) Wiberg bond orders for each atom

 ---------------------------------------------------------------------------
     #   Z sym  total        # sym  WBO       # sym  WBO       # sym  WBO
 ---------------------------------------------------------------------------
     1   6 C    3.934 --    15 H    0.986    14 H    0.978    13 H    0.978
                             2 N    0.941
     2   7 N    3.499 --     3 C    1.195    11 C    1.084     1 C    0.941
                            12 O    0.119
     3   6 C    3.941 --     4 N    1.625     2 N    1.195    16 H    0.964
     4   7 N    3.025 --     3 C    1.625     5 C    1.149
     5   6 C    3.968 --     6 C    1.334    10 C    1.305     4 N    1.149
     6   6 C    3.994 --     7 C    1.502     5 C    1.334    17 H    0.971
                             9 C    0.111
     7   6 C    3.993 --     6 C    1.502     8 C    1.379    18 H    0.973
     8   6 C    3.995 --     9 C    1.495     7 C    1.379    19 H    0.973
     9   6 C    3.992 --     8 C    1.495    10 C    1.354    20 H    0.969
                             6 C    0.111
    10   6 C    3.988 --     9 C    1.354     5 C    1.305    11 C    1.081
    11   6 C    3.897 --    12 O    1.606     2 N    1.084    10 C    1.081
    12   8 O    1.910 --    11 C    1.606     2 N    0.119
    13   1 H    1.003 --     1 C    0.978
    14   1 H    1.003 --     1 C    0.978
    15   1 H    0.999 --     1 C    0.986
    16   1 H    1.009 --     3 C    0.964
    17   1 H    1.002 --     6 C    0.971
    18   1 H    1.001 --     7 C    0.973
    19   1 H    1.001 --     8 C    0.973
    20   1 H    1.005 --     9 C    0.969
 ---------------------------------------------------------------------------

Topologies differ in total number of bonds
Writing topology from bond orders to xtbtopo.mol

 dipole moment from electron density (au)
     X       Y       Z   
  -0.4270  -0.9836  -0.0715  total (Debye):    2.731


           -------------------------------------------------
          | TOTAL ENERGY              -34.440090133752 Eh   |
          | GRADIENT NORM               0.029620758308 Eh/α |
          | HOMO-LUMO GAP               3.387821840793 eV   |
           -------------------------------------------------

------------------------------------------------------------------------
 * finished run on 2026/09/20 at 00:12:14.237     
------------------------------------------------------------------------
 total:
 * wall-time:     0 d,  0 h,  0 min,  0.066 sec
 *  cpu-time:     0 d,  0 h,  0 min,  0.000 sec
 * ratio c/w:     0.000 speedup
 SCF:
 * wall-time:     0 d,  0 h,  0 min,  0.049 sec
 *  cpu-time:     0 d,  0 h,  0 min,  0.000 sec
 * ratio c/w:     0.000 speedup

