43
Properties=species:S:1:pos:R:3 pbc="F F F"
O        0.14483832      -2.21290949      -0.64590664
C        0.30587957      -0.82044357      -0.47125691
N       -0.38971090      -0.36485804       0.70252584
C       -1.72548676      -0.01769919       0.70536640
C       -2.62282372      -0.50690054      -0.24519443
C       -3.95945831      -0.15936424      -0.18167495
C       -4.42991669       0.66507164       0.82633688
C       -3.54482286       1.14352204       1.78062519
C       -2.20697539       0.81153146       1.72249480
C        1.76063867      -0.39368446      -0.38325740
C        2.79788824      -1.31423566      -0.39547707
C        4.11171663      -0.88907258      -0.28299928
C        4.39936963       0.45894125      -0.15996617
C        3.36728159       1.38484442      -0.16222573
C        2.05513129       0.96181766      -0.27614678
H        0.28497376      -2.63849567       0.20926731
H       -0.13318026      -0.38383338      -1.38430571
H        0.17182311       0.10508739       1.40475491
H       -2.27563945      -1.16980271      -1.02342307
H       -4.64236727      -0.54363895      -0.92690159
H       -5.47626825       0.93012660       0.87085862
H       -3.90167741       1.78696497       2.57302979
H       -1.51290023       1.19120735       2.45870340
H        2.57840925      -2.36604290      -0.50554249
H        4.91145388      -1.61527338      -0.29071658
H        5.42386213       0.78982090      -0.06951062
H        3.58669364       2.43993381      -0.07900875
H        1.24966245       1.68275777      -0.28062280
C        0.44292796      -0.50272445       4.44048379
C        1.71996603       0.05441630       3.80961782
C        2.55529095       0.80261023       4.85421420
C        2.54665009      -1.07465470       3.18367282
O        1.29667482       0.96506686       2.79445366
H        0.68930894      -1.21384367       5.22351505
H       -0.16150227      -0.99869856       3.68488568
H       -0.14166630       0.30793200       4.86826693
H        3.47010965       1.18776939       4.40532395
H        1.98644006       1.63898241       5.25498561
H        2.82333062       0.13814976       5.67084669
H        3.43147506      -0.67394910       2.69038809
H        1.95446334      -1.60485351       2.44155816
H        2.86210100      -1.77804756       3.94924241
H        2.07801444       1.36393587       2.39260295
