58
Properties=species:S:1:pos:R:3:forces:R:3 energy:=T -81.947566433475=T gnorm:=T 0.000113435529=T xtb:=T 6.7.1=T (edcfbbe)=T energy=-2229.9068639638285 pbc="F F F"
Ru       0.07154953      -0.05591415      -0.31709910      -0.00211190       0.00002787       0.00164419
C        2.41388557      -2.19407679      -0.67287044       0.00011209      -0.00014065      -0.00007971
P        2.24952928      -0.33838134      -0.81955722       0.00004334       0.00033531       0.00024479
C        2.84668266      -0.01849682      -2.51476844       0.00047608      -0.00006782      -0.00030376
C        2.60252354      -0.89865321      -3.56411579      -0.00000759      -0.00056926      -0.00000676
C        2.99732645      -0.57479033      -4.84999279       0.00031768       0.00004649      -0.00020053
C        3.62745310       0.63291981      -5.10128298       0.00033211      -0.00095164       0.00023771
C        3.85248711       1.52489960      -4.06419403      -0.00001046      -0.00048955       0.00002522
C        3.45852808       1.20451627      -2.77861639      -0.00009407      -0.00062457      -0.00041237
C        3.70727957       0.20805402       0.13269723       0.00000584      -0.00043195      -0.00044000
C        3.52486945       1.13342457       1.15189993      -0.00063003       0.00033314      -0.00029614
C        4.61043663       1.56725359       1.89421861      -0.00033617       0.00039211      -0.00005230
C        5.87691955       1.07784080       1.61845616      -0.00070621       0.00053164       0.00008093
C        6.06208292       0.15801216       0.59662635       0.00004494       0.00067164       0.00044742
C        4.98220683      -0.27607450      -0.14951272      -0.00013579       0.00023992       0.00007091
C        1.04982002      -2.81851821      -0.69864241       0.00001528       0.00000618      -0.00012075
C        0.86154435      -4.15290377      -1.01880444       0.00002241      -0.00005636      -0.00064511
C       -0.40097239      -4.71945707      -0.90061978      -0.00030178       0.00026474      -0.00067464
C       -1.42392108      -3.93768590      -0.38016395      -0.00021998       0.00005475      -0.00073568
C       -1.16971521      -2.61177424      -0.07776300      -0.00024432       0.00005828       0.00003866
C       -2.15646891      -1.73360131       0.64600216       0.00016343       0.00007588      -0.00006913
N       -2.15718818      -0.35047492       0.13609035      -0.00011239      -0.00008184      -0.00037065
C       -2.63917219       0.58381055       1.17716722       0.00014163      -0.00024736       0.00024403
C       -4.06774139       0.36449058       1.68038152       0.00022529      -0.00007015       0.00032727
C       -3.02930616      -0.31332783      -1.05551980      -0.00002843       0.00013871       0.00013187
C       -3.18484497       1.07270813      -1.67147569       0.00011521       0.00048032       0.00021703
N        0.02472263      -2.03796257      -0.30658670       0.00053988      -0.00065368      -0.00052896
H        3.09072811      -2.63194116      -1.41151313       0.00017668      -0.00042239       0.00026860
H        2.83950708      -2.36596775       0.32667049      -0.00035955       0.00007900       0.00022783
H        2.08935948      -1.83513844      -3.38206536       0.00062166      -0.00007545      -0.00019383
H        2.80587388      -1.26423920      -5.66041208       0.00064153      -0.00043868       0.00018760
H        3.93331863       0.88300769      -6.10688040       0.00031575      -0.00048070      -0.00002937
H        4.33071647       2.47378839      -4.26103649       0.00013428      -0.00052154      -0.00009800
H        3.61560184       1.90007992      -1.96374982      -0.00007257      -0.00037168      -0.00023433
H        2.52087404       1.49251936       1.34125061      -0.00058193      -0.00018533      -0.00035651
H        4.46990984       2.28762478       2.68726531      -0.00085665       0.00057190      -0.00021426
H        6.72490883       1.41459868       2.19746064      -0.00049198       0.00102209       0.00011842
H        7.05215278      -0.21826163       0.38111545      -0.00015573       0.00085064       0.00035438
H        5.12421697      -0.98332517      -0.95644728       0.00014693       0.00011306       0.00023008
H        1.70089855      -4.74551211      -1.35054627      -0.00027378      -0.00014538      -0.00040664
H       -0.57240014      -5.74950072      -1.16975867      -0.00039175       0.00012891      -0.00103043
H       -2.40424263      -4.35364277      -0.20452394      -0.00038263       0.00005993      -0.00094122
H       -3.16152022      -2.17909460       0.60646416       0.00007580       0.00011193       0.00014478
H       -1.82933144      -1.70226447       1.69598899       0.00027904      -0.00028106      -0.00017080
H       -2.53964018       1.59509452       0.77804068       0.00024279      -0.00008926       0.00057598
H       -1.94684493       0.50744490       2.02037247       0.00002311      -0.00038018       0.00038859
H       -4.26139822       1.08521700       2.47121858       0.00021259      -0.00027727       0.00051991
H       -4.80757304       0.52365665       0.89999249       0.00015888       0.00022867       0.00029653
H       -4.20278169      -0.63110976       2.09707205       0.00000352      -0.00023551       0.00005392
H       -4.02434231      -0.70647751      -0.79626494       0.00004176       0.00047795       0.00030945
H       -2.60045147      -0.99337536      -1.80058170      -0.00018191       0.00022189       0.00017271
H       -3.55714975       0.97620055      -2.68895975       0.00078303       0.00072029       0.00064463
H       -3.88464180       1.68583472      -1.10924181       0.00029796       0.00016406       0.00010896
H       -2.21977926       1.57945929      -1.70262509       0.00017098       0.00021560       0.00078676
C       -0.22359918      -0.01679868      -2.13446880      -0.00041068       0.00061639      -0.00122683
O       -0.35084003      -0.05630145      -3.28699221       0.00063101      -0.00061577       0.00104874
H        0.33884347      -0.03946730       1.24362597       0.00075137      -0.00013385      -0.00026472
H        0.02539883       1.52378865      -0.25176673       0.00083439      -0.00020040      -0.00004450
