58
Properties=species:S:1:pos:R:3 energy:=T -81.947566433475=T gnorm:=T 0.000113435529=T xtb:=T 6.7.1=T (edcfbbe)=T pbc="F F F"
Ru       0.07154953      -0.05591415      -0.31709910
C        2.41388557      -2.19407679      -0.67287044
P        2.24952928      -0.33838134      -0.81955722
C        2.84668266      -0.01849682      -2.51476844
C        2.60252354      -0.89865321      -3.56411579
C        2.99732645      -0.57479033      -4.84999279
C        3.62745310       0.63291981      -5.10128298
C        3.85248711       1.52489960      -4.06419403
C        3.45852808       1.20451627      -2.77861639
C        3.70727957       0.20805402       0.13269723
C        3.52486945       1.13342457       1.15189993
C        4.61043663       1.56725359       1.89421861
C        5.87691955       1.07784080       1.61845616
C        6.06208292       0.15801216       0.59662635
C        4.98220683      -0.27607450      -0.14951272
C        1.04982002      -2.81851821      -0.69864241
C        0.86154435      -4.15290377      -1.01880444
C       -0.40097239      -4.71945707      -0.90061978
C       -1.42392108      -3.93768590      -0.38016395
C       -1.16971521      -2.61177424      -0.07776300
C       -2.15646891      -1.73360131       0.64600216
N       -2.15718818      -0.35047492       0.13609035
C       -2.63917219       0.58381055       1.17716722
C       -4.06774139       0.36449058       1.68038152
C       -3.02930616      -0.31332783      -1.05551980
C       -3.18484497       1.07270813      -1.67147569
N        0.02472263      -2.03796257      -0.30658670
H        3.09072811      -2.63194116      -1.41151313
H        2.83950708      -2.36596775       0.32667049
H        2.08935948      -1.83513844      -3.38206536
H        2.80587388      -1.26423920      -5.66041208
H        3.93331863       0.88300769      -6.10688040
H        4.33071647       2.47378839      -4.26103649
H        3.61560184       1.90007992      -1.96374982
H        2.52087404       1.49251936       1.34125061
H        4.46990984       2.28762478       2.68726531
H        6.72490883       1.41459868       2.19746064
H        7.05215278      -0.21826163       0.38111545
H        5.12421697      -0.98332517      -0.95644728
H        1.70089855      -4.74551211      -1.35054627
H       -0.57240014      -5.74950072      -1.16975867
H       -2.40424263      -4.35364277      -0.20452394
H       -3.16152022      -2.17909460       0.60646416
H       -1.82933144      -1.70226447       1.69598899
H       -2.53964018       1.59509452       0.77804068
H       -1.94684493       0.50744490       2.02037247
H       -4.26139822       1.08521700       2.47121858
H       -4.80757304       0.52365665       0.89999249
H       -4.20278169      -0.63110976       2.09707205
H       -4.02434231      -0.70647751      -0.79626494
H       -2.60045147      -0.99337536      -1.80058170
H       -3.55714975       0.97620055      -2.68895975
H       -3.88464180       1.68583472      -1.10924181
H       -2.21977926       1.57945929      -1.70262509
C       -0.22359918      -0.01679868      -2.13446880
O       -0.35084003      -0.05630145      -3.28699221
H        0.33884347      -0.03946730       1.24362597
H        0.02539883       1.52378865      -0.25176673
