      -----------------------------------------------------------      
     |                   =====================                   |     
     |                           x T B                           |     
     |                   =====================                   |     
     |                         S. Grimme                         |     
     |          Mulliken Center for Theoretical Chemistry        |     
     |                    University of Bonn                     |     
      -----------------------------------------------------------      

   * xtb version 6.7.1 (edcfbbe) compiled by 'VssAdministrator@runnervm171ch' on 2026-06-10

   xtb is free software: you can redistribute it and/or modify it under
   the terms of the GNU Lesser General Public License as published by
   the Free Software Foundation, either version 3 of the License, or
   (at your option) any later version.
   
   xtb is distributed in the hope that it will be useful,
   but WITHOUT ANY WARRANTY; without even the implied warranty of
   MERCHANTABILITY or FITNESS FOR A PARTICULAR PURPOSE.  See the
   GNU Lesser General Public License for more details.
   
   Cite this work as:
   * C. Bannwarth, E. Caldeweyher, S. Ehlert, A. Hansen, P. Pracht,
     J. Seibert, S. Spicher, S. Grimme, WIREs Comput. Mol. Sci., 2020, 11,
     e01493. DOI: 10.1002/wcms.1493
   
   for GFN2-xTB:
   * C. Bannwarth, S. Ehlert and S. Grimme., J. Chem. Theory Comput., 2019,
     15, 1652-1671. DOI: 10.1021/acs.jctc.8b01176
   for GFN1-xTB:
   * S. Grimme, C. Bannwarth, P. Shushkov, J. Chem. Theory Comput., 2017,
     13, 1989-2009. DOI: 10.1021/acs.jctc.7b00118
   for GFN0-xTB:
   * P. Pracht, E. Caldeweyher, S. Ehlert, S. Grimme, ChemRxiv, 2019, preprint.
     DOI: 10.26434/chemrxiv.8326202.v1
   for GFN-FF:
   * S. Spicher and S. Grimme, Angew. Chem. Int. Ed., 2020, 59, 15665-15673.
     DOI: 10.1002/anie.202004239
   
   for ALPB and GBSA implicit solvation:
   * S. Ehlert, M. Stahn, S. Spicher, S. Grimme, J. Chem. Theory Comput.,
     2021, 17, 4250-4261. DOI: 10.1021/acs.jctc.1c00471
   
   for ddCOSMO and CPCM-X implicit solvation:
   * M. Stahn, S. Ehlert, S. Grimme, J. Phys. Chem. A,
     2023, XX, XXXX-XXXX. DOI: 10.1021/acs.jpca.3c04382
   
   for DFT-D4:
   * E. Caldeweyher, C. Bannwarth and S. Grimme, J. Chem. Phys., 2017,
     147, 034112. DOI: 10.1063/1.4993215
   * E. Caldeweyher, S. Ehlert, A. Hansen, H. Neugebauer, S. Spicher,
     C. Bannwarth and S. Grimme, J. Chem. Phys., 2019, 150, 154122.
     DOI: 10.1063/1.5090222
   * E. Caldeweyher, J.-M. Mewes, S. Ehlert and S. Grimme, Phys. Chem. Chem. Phys.
     2020, 22, 8499-8512. DOI: 10.1039/D0CP00502A
   
   for sTDA-xTB:
   * S. Grimme and C. Bannwarth, J. Chem. Phys., 2016, 145, 054103.
     DOI: 10.1063/1.4959605
   
   in the mass-spec context:
   * V. Asgeirsson, C. Bauer and S. Grimme, Chem. Sci., 2017, 8, 4879.
     DOI: 10.1039/c7sc00601b
   * J. Koopman and S. Grimme, ACS Omega 2019, 4, 12, 15120-15133.
     DOI: 10.1021/acsomega.9b02011
   
   for metadynamics refer to:
   * S. Grimme, J. Chem. Theory Comput., 2019, 155, 2847-2862
     DOI: 10.1021/acs.jctc.9b00143
   
   for SPH calculations refer to:
   * S. Spicher and S. Grimme, J. Chem. Theory Comput., 2021, 17, 1701-1714
     DOI: 10.1021/acs.jctc.0c01306
   
   for ONIOM refer to:
   * C. Plett, A. Katbashev, S. Ehlert, S. Grimme, M. Bursch,
     Phys. Chem. Chem. Phys., 2023, 25, 17860-17868. DOI: 10.1039/D3CP02178E
   
   for DIPRO refer to:
   * J. Kohn, N. Gildemeister, S. Grimme, D. Fazzi, A. Hansen,
     J. Chem. Phys., 2023, just accepted.
   
   for PTB refer to:
   * S. Grimme, M. Mueller, A. Hansen, J. Chem. Phys., 2023, 158, 124111.
     DOI: 10.1063/5.0137838
   
   with help from (in alphabetical order)
   P. Atkinson, C. Bannwarth, F. Bohle, G. Brandenburg, E. Caldeweyher
   M. Checinski, S. Dohm, S. Ehlert, S. Ehrlich, I. Gerasimov, C. Hölzer
   A. Katbashev, J. Kohn, J. Koopman, C. Lavigne, S. Lehtola, F. März, M. Müller,
   F. Musil, H. Neugebauer, J. Pisarek, C. Plett, P. Pracht, F. Pultar,
   J. Seibert, P. Shushkov, S. Spicher, M. Stahn, M. Steiner, T. Strunk,
   J. Stückrath, T. Rose, and J. Unsleber
   
 * started run on 2026/09/20 at 00:12:14.493     
   ID    Z sym.   atoms
    1    6 C      1, 3, 5-11
    2    7 N      2, 4
    3    8 O      12
    4    1 H      13-20

           -------------------------------------------------
          |                Calculation Setup                |
           -------------------------------------------------

          program call               : C:\Users\HUIWEI\miniconda3\envs\phase2ff\Library\bin\xtb.exe input.xyz --gfn 2 --chrg 0 --uhf 0 --acc 0.1 --iterations 250 --alpb dmf
          coordinate file            : input.xyz
          omp threads                :                     2


           -------------------------------------------------
          |                 G F N 2 - x T B                 |
           -------------------------------------------------

        Reference                      10.1021/acs.jctc.8b01176
      * Hamiltonian:
        H0-scaling (s, p, d)           1.850000    2.230000    2.230000
        zeta-weighting                 0.500000
      * Dispersion:
        s8                             2.700000
        a1                             0.520000
        a2                             5.000000
        s9                             5.000000
      * Repulsion:
        kExp                           1.500000    1.000000
        rExp                           1.000000
      * Coulomb:
        alpha                          2.000000
        third order                    shell-resolved
        anisotropic                    true
        a3                             3.000000
        a5                             4.000000
        cn-shift                       1.200000
        cn-exp                         4.000000
        max-rad                        5.000000

      * Solvation model:               ALPB
        Solvent                        dmf
        Parameter file                 internal GFN2-xTB/ALPB
        Dielectric constant                3.7000E+01
        Reference state                gsolv [1 M gas/solution]
        Free energy shift                  6.0086E-03 Eh       3.7705E+00 kcal/mol
        Temperature                        2.9815E+02 K
        Density                            9.5000E-01 kg/L
        Solvent mass                       7.3100E+01 g/mol
        Interaction kernel             P16
        Born radius scaling (c1)           1.8540E+00
        Born radii integrator          GBOBC
        Born offset                        0.0000E+00 a0       0.0000E+00 AA
        H-bond correction              true
        Ion screening                  false
        Surface tension                    1.0000E-05 Eh       1.5569E+01 dyn/cm
        Grid points                               230 per atom

          ...................................................
          :                      SETUP                      :
          :.................................................:
          :  # basis functions                  56          :
          :  # atomic orbitals                  56          :
          :  # shells                           32          :
          :  # electrons                        60          :
          :  max. iterations                   250          :
          :  Hamiltonian                  GFN2-xTB          :
          :  restarted?                      false          :
          :  GBSA solvation                   true          :
          :  PC potential                    false          :
          :  electronic temp.          300.0000000     K    :
          :  accuracy                    0.1000000          :
          :  -> integral cutoff          0.3500000E+02      :
          :  -> integral neglect         0.1000000E-08      :
          :  -> SCF convergence          0.1000000E-06 Eh   :
          :  -> wf. convergence          0.1000000E-04 e    :
          :  Broyden damping             0.4000000          :
          :  net charge                          0          :
          :  unpaired electrons                  0          :
          ...................................................

 iter      E             dE          RMSdq      gap      omega  full diag
   1    -33.7463929 -0.337464E+02  0.488E+00    3.20       0.0  T
   2    -33.8102480 -0.638551E-01  0.292E+00    3.44       1.0  T
   3    -33.8101583  0.897214E-04  0.137E+00    3.47       1.0  T
   4    -33.8148232 -0.466489E-02  0.349E-01    3.26       1.0  T
   5    -33.8169817 -0.215851E-02  0.892E-02    3.31       1.0  T
   6    -33.8170185 -0.367958E-04  0.426E-02    3.31       1.0  T
   7    -33.8170246 -0.615762E-05  0.197E-02    3.31       1.1  T
   8    -33.8170258 -0.117587E-05  0.649E-03    3.31       3.4  T
   9    -33.8170261 -0.261848E-06  0.321E-03    3.31       7.0  T
  10    -33.8170261 -0.485636E-07  0.923E-04    3.31      24.2  T
  11    -33.8170261 -0.235805E-08  0.465E-04    3.31      48.1  T
  12    -33.8170261 -0.474969E-09  0.206E-04    3.31     108.7  T
  13    -33.8170261 -0.270838E-09  0.450E-05    3.31     496.9  T
  14    -33.8170261 -0.909495E-12  0.145E-05    3.31    1542.2  T

   *** convergence criteria satisfied after 14 iterations ***

         #    Occupation            Energy/Eh            Energy/eV
      -------------------------------------------------------------
         1        2.0000           -0.7122681             -19.3818
       ...           ...                  ...                  ...
        24        2.0000           -0.4481263             -12.1941
        25        2.0000           -0.4429490             -12.0533
        26        2.0000           -0.4369406             -11.8898
        27        2.0000           -0.4183984             -11.3852
        28        2.0000           -0.4057439             -11.0409
        29        2.0000           -0.3947138             -10.7407
        30        2.0000           -0.3893838             -10.5957 (HOMO)
        31                         -0.2675963              -7.2817 (LUMO)
        32                         -0.2615743              -7.1178
        33                         -0.2057560              -5.5989
        34                         -0.1745058              -4.7485
        35                         -0.0772910              -2.1032
       ...                                ...                  ...
        56                          0.6876009              18.7106
      -------------------------------------------------------------
                  HL-Gap            0.1217875 Eh            3.3140 eV
             Fermi-level           -0.3284900 Eh           -8.9387 eV

 SCC (total)                   0 d,  0 h,  0 min,  0.020 sec
 SCC setup                      ...        0 min,  0.000 sec (  2.275%)
 Dispersion                     ...        0 min,  0.000 sec (  0.633%)
 classical contributions        ...        0 min,  0.000 sec (  0.369%)
 integral evaluation            ...        0 min,  0.001 sec (  5.663%)
 iterations                     ...        0 min,  0.015 sec ( 76.313%)
 molecular gradient             ...        0 min,  0.003 sec ( 13.791%)
 printout                       ...        0 min,  0.000 sec (  0.894%)

         :::::::::::::::::::::::::::::::::::::::::::::::::::::
         ::                     SUMMARY                     ::
         :::::::::::::::::::::::::::::::::::::::::::::::::::::
         :: total energy             -33.307692478877 Eh    ::
         :: total w/o Gsasa/hb       -33.292697039484 Eh    ::
         :: gradient norm              0.015020918577 Eh/a0 ::
         :: HOMO-LUMO gap              3.314006753198 eV    ::
         ::.................................................::
         :: SCC energy               -33.817011936404 Eh    ::
         :: -> isotropic ES            0.050172469291 Eh    ::
         :: -> anisotropic ES          0.002711663860 Eh    ::
         :: -> anisotropic XC          0.018103424916 Eh    ::
         :: -> dispersion             -0.019076711222 Eh    ::
         :: -> Gsolv                  -0.019538076510 Eh    ::
         ::    -> Gelec               -0.004542637116 Eh    ::
         ::    -> Gsasa               -0.019932183886 Eh    ::
         ::    -> Ghb                 -0.001071851959 Eh    ::
         ::    -> Gshift               0.006008596451 Eh    ::
         :: repulsion energy           0.509319457527 Eh    ::
         :: add. restraining           0.000000000000 Eh    ::
         :: total charge               0.000000000000 e     ::
         :::::::::::::::::::::::::::::::::::::::::::::::::::::

           -------------------------------------------------
          |                Property Printout                |
           -------------------------------------------------

    * Orbital Energies and Occupations

         #    Occupation            Energy/Eh            Energy/eV
      -------------------------------------------------------------
         1        2.0000           -0.7122681             -19.3818
       ...           ...                  ...                  ...
        18        2.0000           -0.5089079             -13.8481
        19        2.0000           -0.5065491             -13.7839
        20        2.0000           -0.4956069             -13.4861
        21        2.0000           -0.4895484             -13.3213
        22        2.0000           -0.4851031             -13.2003
        23        2.0000           -0.4786813             -13.0256
        24        2.0000           -0.4481263             -12.1941
        25        2.0000           -0.4429490             -12.0533
        26        2.0000           -0.4369406             -11.8898
        27        2.0000           -0.4183984             -11.3852
        28        2.0000           -0.4057439             -11.0409
        29        2.0000           -0.3947138             -10.7407
        30        2.0000           -0.3893838             -10.5957 (HOMO)
        31                         -0.2675963              -7.2817 (LUMO)
        32                         -0.2615743              -7.1178
        33                         -0.2057560              -5.5989
        34                         -0.1745058              -4.7485
        35                         -0.0772910              -2.1032
        36                         -0.0013573              -0.0369
        37                          0.0813169               2.2127
        38                          0.1136091               3.0915
        39                          0.1203994               3.2762
        40                          0.1438267               3.9137
        41                          0.1550362               4.2188
       ...                                ...                  ...
        56                          0.6876009              18.7106
      -------------------------------------------------------------
                  HL-Gap            0.1217875 Eh            3.3140 eV
             Fermi-level           -0.3284900 Eh           -8.9387 eV

     #   Z          covCN         q      C6AA      α(0)
     1   6 C        3.702    -0.059    21.798     6.676
     2   7 N        2.741    -0.061    22.417     7.032
     3   6 C        2.845     0.117    25.427     8.264
     4   7 N        1.837    -0.259    27.582     7.783
     5   6 C        2.979     0.088    26.028     8.369
     6   6 C        2.921    -0.043    29.058     8.840
     7   6 C        2.919    -0.026    28.641     8.776
     8   6 C        2.918    -0.033    28.825     8.804
     9   6 C        2.920    -0.024    28.599     8.770
    10   6 C        2.980    -0.041    29.000     8.834
    11   6 C        2.783     0.266    22.508     7.771
    12   8 O        0.858    -0.462    22.953     6.423
    13   1 H        0.924     0.082     1.960     2.189
    14   1 H        0.924     0.082     1.960     2.189
    15   1 H        0.925     0.077     2.014     2.219
    16   1 H        0.925     0.071     2.074     2.252
    17   1 H        0.926     0.065     2.136     2.285
    18   1 H        0.926     0.054     2.270     2.356
    19   1 H        0.926     0.050     2.319     2.381
    20   1 H        0.926     0.054     2.276     2.359

 Mol. C6AA /au·bohr⁶  :       5287.710195
 Mol. C8AA /au·bohr⁸  :     128129.049357
 Mol. α(0) /au        :        114.572405


Wiberg/Mayer (AO) data.
largest (>0.10) Wiberg bond orders for each atom

 ---------------------------------------------------------------------------
     #   Z sym  total        # sym  WBO       # sym  WBO       # sym  WBO
 ---------------------------------------------------------------------------
     1   6 C    3.952 --     2 N    0.988    15 H    0.979    14 H    0.970
                            13 H    0.970
     2   7 N    3.618 --     3 C    1.219    11 C    1.097     1 C    0.988
                            12 O    0.140     4 N    0.101
     3   6 C    3.962 --     4 N    1.640     2 N    1.219    16 H    0.948
     4   7 N    3.065 --     3 C    1.640     5 C    1.169     2 N    0.101
     5   6 C    3.981 --     6 C    1.327    10 C    1.296     4 N    1.169
     6   6 C    3.988 --     7 C    1.499     5 C    1.327    17 H    0.966
                             9 C    0.111
     7   6 C    3.989 --     6 C    1.499     8 C    1.378    18 H    0.969
     8   6 C    3.990 --     9 C    1.492     7 C    1.378    19 H    0.969
     9   6 C    3.990 --     8 C    1.492    10 C    1.351    20 H    0.966
                             6 C    0.111
    10   6 C    3.988 --     9 C    1.351     5 C    1.296    11 C    1.077
    11   6 C    3.947 --    12 O    1.657     2 N    1.097    10 C    1.077
    12   8 O    1.992 --    11 C    1.657     2 N    0.140
    13   1 H    0.992 --     1 C    0.970
    14   1 H    0.992 --     1 C    0.970
    15   1 H    0.994 --     1 C    0.979
    16   1 H    0.994 --     3 C    0.948
    17   1 H    0.995 --     6 C    0.966
    18   1 H    0.996 --     7 C    0.969
    19   1 H    0.997 --     8 C    0.969
    20   1 H    0.997 --     9 C    0.966
 ---------------------------------------------------------------------------

Topologies differ in total number of bonds
Writing topology from bond orders to xtbtopo.mol

molecular dipole:
                 x           y           z       tot (Debye)
 q only:       -0.183      -1.036      -0.082
   full:       -0.319      -0.833      -0.062       2.272
molecular quadrupole (traceless):
                xx          xy          yy          xz          yz          zz
 q only:       14.742       6.043     -10.699      -0.024      -1.058      -4.043
  q+dip:       17.252       7.718     -12.050      -0.021      -1.049      -5.202
   full:       15.715       7.724     -14.165       0.111      -1.536      -1.550


           -------------------------------------------------
          | TOTAL ENERGY              -33.307692478877 Eh   |
          | GRADIENT NORM               0.015020918577 Eh/α |
          | HOMO-LUMO GAP               3.314006753198 eV   |
           -------------------------------------------------

------------------------------------------------------------------------
 * finished run on 2026/09/20 at 00:12:14.526     
------------------------------------------------------------------------
 total:
 * wall-time:     0 d,  0 h,  0 min,  0.033 sec
 *  cpu-time:     0 d,  0 h,  0 min,  0.000 sec
 * ratio c/w:     0.000 speedup
 SCF:
 * wall-time:     0 d,  0 h,  0 min,  0.020 sec
 *  cpu-time:     0 d,  0 h,  0 min,  0.000 sec
 * ratio c/w:     0.000 speedup

