      -----------------------------------------------------------      
     |                   =====================                   |     
     |                           x T B                           |     
     |                   =====================                   |     
     |                         S. Grimme                         |     
     |          Mulliken Center for Theoretical Chemistry        |     
     |                    University of Bonn                     |     
      -----------------------------------------------------------      

   * xtb version 6.7.1 (edcfbbe) compiled by 'VssAdministrator@runnervm171ch' on 2026-06-10

   xtb is free software: you can redistribute it and/or modify it under
   the terms of the GNU Lesser General Public License as published by
   the Free Software Foundation, either version 3 of the License, or
   (at your option) any later version.
   
   xtb is distributed in the hope that it will be useful,
   but WITHOUT ANY WARRANTY; without even the implied warranty of
   MERCHANTABILITY or FITNESS FOR A PARTICULAR PURPOSE.  See the
   GNU Lesser General Public License for more details.
   
   Cite this work as:
   * C. Bannwarth, E. Caldeweyher, S. Ehlert, A. Hansen, P. Pracht,
     J. Seibert, S. Spicher, S. Grimme, WIREs Comput. Mol. Sci., 2020, 11,
     e01493. DOI: 10.1002/wcms.1493
   
   for GFN2-xTB:
   * C. Bannwarth, S. Ehlert and S. Grimme., J. Chem. Theory Comput., 2019,
     15, 1652-1671. DOI: 10.1021/acs.jctc.8b01176
   for GFN1-xTB:
   * S. Grimme, C. Bannwarth, P. Shushkov, J. Chem. Theory Comput., 2017,
     13, 1989-2009. DOI: 10.1021/acs.jctc.7b00118
   for GFN0-xTB:
   * P. Pracht, E. Caldeweyher, S. Ehlert, S. Grimme, ChemRxiv, 2019, preprint.
     DOI: 10.26434/chemrxiv.8326202.v1
   for GFN-FF:
   * S. Spicher and S. Grimme, Angew. Chem. Int. Ed., 2020, 59, 15665-15673.
     DOI: 10.1002/anie.202004239
   
   for ALPB and GBSA implicit solvation:
   * S. Ehlert, M. Stahn, S. Spicher, S. Grimme, J. Chem. Theory Comput.,
     2021, 17, 4250-4261. DOI: 10.1021/acs.jctc.1c00471
   
   for ddCOSMO and CPCM-X implicit solvation:
   * M. Stahn, S. Ehlert, S. Grimme, J. Phys. Chem. A,
     2023, XX, XXXX-XXXX. DOI: 10.1021/acs.jpca.3c04382
   
   for DFT-D4:
   * E. Caldeweyher, C. Bannwarth and S. Grimme, J. Chem. Phys., 2017,
     147, 034112. DOI: 10.1063/1.4993215
   * E. Caldeweyher, S. Ehlert, A. Hansen, H. Neugebauer, S. Spicher,
     C. Bannwarth and S. Grimme, J. Chem. Phys., 2019, 150, 154122.
     DOI: 10.1063/1.5090222
   * E. Caldeweyher, J.-M. Mewes, S. Ehlert and S. Grimme, Phys. Chem. Chem. Phys.
     2020, 22, 8499-8512. DOI: 10.1039/D0CP00502A
   
   for sTDA-xTB:
   * S. Grimme and C. Bannwarth, J. Chem. Phys., 2016, 145, 054103.
     DOI: 10.1063/1.4959605
   
   in the mass-spec context:
   * V. Asgeirsson, C. Bauer and S. Grimme, Chem. Sci., 2017, 8, 4879.
     DOI: 10.1039/c7sc00601b
   * J. Koopman and S. Grimme, ACS Omega 2019, 4, 12, 15120-15133.
     DOI: 10.1021/acsomega.9b02011
   
   for metadynamics refer to:
   * S. Grimme, J. Chem. Theory Comput., 2019, 155, 2847-2862
     DOI: 10.1021/acs.jctc.9b00143
   
   for SPH calculations refer to:
   * S. Spicher and S. Grimme, J. Chem. Theory Comput., 2021, 17, 1701-1714
     DOI: 10.1021/acs.jctc.0c01306
   
   for ONIOM refer to:
   * C. Plett, A. Katbashev, S. Ehlert, S. Grimme, M. Bursch,
     Phys. Chem. Chem. Phys., 2023, 25, 17860-17868. DOI: 10.1039/D3CP02178E
   
   for DIPRO refer to:
   * J. Kohn, N. Gildemeister, S. Grimme, D. Fazzi, A. Hansen,
     J. Chem. Phys., 2023, just accepted.
   
   for PTB refer to:
   * S. Grimme, M. Mueller, A. Hansen, J. Chem. Phys., 2023, 158, 124111.
     DOI: 10.1063/5.0137838
   
   with help from (in alphabetical order)
   P. Atkinson, C. Bannwarth, F. Bohle, G. Brandenburg, E. Caldeweyher
   M. Checinski, S. Dohm, S. Ehlert, S. Ehrlich, I. Gerasimov, C. Hölzer
   A. Katbashev, J. Kohn, J. Koopman, C. Lavigne, S. Lehtola, F. März, M. Müller,
   F. Musil, H. Neugebauer, J. Pisarek, C. Plett, P. Pracht, F. Pultar,
   J. Seibert, P. Shushkov, S. Spicher, M. Stahn, M. Steiner, T. Strunk,
   J. Stückrath, T. Rose, and J. Unsleber
   
 * started run on 2026/09/13 at 01:17:17.919     
   ID    Z sym.   atoms
    1   44 Ru     1
    2    7 N      2
    3    6 C      3, 4, 6-13, 15-20, 57, 61-67
    4   15 P      5, 14
    5    1 H      21-56, 59, 68-75
    6    8 O      58, 60

           -------------------------------------------------
          |                Calculation Setup                |
           -------------------------------------------------

          program call               : C:\Users\HUIWEI\miniconda3\envs\phase2ff\Library\bin\xtb.exe input.xyz --gfn 2 --chrg 0 --uhf 0 --etemp 300.0 --iterations 500 --acc 0.5 --opt tight --cycles 250 --grad --alpb toluene gsolv
          coordinate file            : input.xyz
          omp threads                :                     2

########################################################################
[WARNING] Please study the warnings concerning your input carefully
-1- prog_main_parseArguments: Unknown reference state 'gsolv'
########################################################################

           -------------------------------------------------
          |                 G F N 2 - x T B                 |
           -------------------------------------------------

        Reference                      10.1021/acs.jctc.8b01176
      * Hamiltonian:
        H0-scaling (s, p, d)           1.850000    2.230000    2.230000
        zeta-weighting                 0.500000
      * Dispersion:
        s8                             2.700000
        a1                             0.520000
        a2                             5.000000
        s9                             5.000000
      * Repulsion:
        kExp                           1.500000    1.000000
        rExp                           1.000000
      * Coulomb:
        alpha                          2.000000
        third order                    shell-resolved
        anisotropic                    true
        a3                             3.000000
        a5                             4.000000
        cn-shift                       1.200000
        cn-exp                         4.000000
        max-rad                        5.000000

      * Solvation model:               ALPB
        Solvent                        toluene
        Parameter file                 internal GFN2-xTB/ALPB
        Dielectric constant                7.0000E+00
        Reference state                gsolv [1 M gas/solution]
        Free energy shift                  2.2081E-03 Eh       1.3856E+00 kcal/mol
        Temperature                        2.9815E+02 K
        Density                            8.6700E-01 kg/L
        Solvent mass                       7.8110E+01 g/mol
        Interaction kernel             P16
        Born radius scaling (c1)           1.7172E+00
        Born radii integrator          GBOBC
        Born offset                        0.0000E+00 a0       0.0000E+00 AA
        H-bond correction              false
        Ion screening                  false
        Surface tension                    1.0000E-05 Eh       1.5569E+01 dyn/cm
        Grid points                               230 per atom

          ...................................................
          :                      SETUP                      :
          :.................................................:
          :  # basis functions                 183          :
          :  # atomic orbitals                 180          :
          :  # shells                          108          :
          :  # electrons                       176          :
          :  max. iterations                   500          :
          :  Hamiltonian                  GFN2-xTB          :
          :  restarted?                      false          :
          :  GBSA solvation                   true          :
          :  PC potential                    false          :
          :  electronic temp.          300.0000000     K    :
          :  accuracy                    0.5000000          :
          :  -> integral cutoff          0.2801030E+02      :
          :  -> integral neglect         0.5000000E-08      :
          :  -> SCF convergence          0.5000000E-06 Eh   :
          :  -> wf. convergence          0.5000000E-04 e    :
          :  Broyden damping             0.4000000          :
          :  net charge                          0          :
          :  unpaired electrons                  0          :
          ...................................................

 iter      E             dE          RMSdq      gap      omega  full diag
   1    -92.0739848 -0.920740E+02  0.597E+00    0.71       0.0  T
   2    -86.2960916  0.577789E+01  0.945E+00    0.23       1.0  T
   3    -93.3662931 -0.707020E+01  0.363E+00    0.67       1.0  T
   4    -93.9889484 -0.622655E+00  0.247E+00    1.34       1.0  T
   5    -94.1509137 -0.161965E+00  0.126E+00    1.32       1.0  T
   6    -94.1496803  0.123339E-02  0.596E-01    1.28       1.0  T
   7    -94.1509769 -0.129662E-02  0.408E-01    1.45       1.0  T
   8    -94.1552486 -0.427166E-02  0.275E-01    1.40       1.0  T
   9    -94.1570171 -0.176848E-02  0.129E-01    1.37       1.0  T
  10    -94.1575549 -0.537881E-03  0.663E-02    1.36       1.0  T
  11    -94.1577660 -0.211102E-03  0.272E-02    1.38       1.0  T
  12    -94.1577703 -0.424998E-05  0.162E-02    1.38       1.0  T
  13    -94.1577797 -0.939357E-05  0.765E-03    1.38       1.5  T
  14    -94.1577810 -0.136405E-05  0.515E-03    1.38       2.2  T
  15    -94.1577820 -0.914480E-06  0.248E-03    1.38       4.7  T
  16    -94.1577824 -0.398685E-06  0.105E-03    1.38      11.0  T
  17    -94.1577824 -0.215436E-07  0.352E-04    1.38      32.8  T
  18    -94.1577824 -0.600991E-09  0.165E-04    1.38      70.2  T

   *** convergence criteria satisfied after 18 iterations ***

         #    Occupation            Energy/Eh            Energy/eV
      -------------------------------------------------------------
         1        2.0000           -0.8196035             -22.3025
       ...           ...                  ...                  ...
        82        2.0000           -0.4239410             -11.5360
        83        2.0000           -0.4005828             -10.9004
        84        2.0000           -0.3887005             -10.5771
        85        2.0000           -0.3804319             -10.3521
        86        2.0000           -0.3745821             -10.1929
        87        2.0000           -0.3560178              -9.6877
        88        2.0000           -0.3445300              -9.3751 (HOMO)
        89                         -0.2937861              -7.9943 (LUMO)
        90                         -0.2809269              -7.6444
        91                         -0.2594609              -7.0603
        92                         -0.2449670              -6.6659
        93                         -0.2229006              -6.0654
       ...                                ...                  ...
       180                          3.8484632             104.7220
      -------------------------------------------------------------
                  HL-Gap            0.0507439 Eh            1.3808 eV
             Fermi-level           -0.3191581 Eh           -8.6847 eV

 SCC (total)                   0 d,  0 h,  0 min,  0.259 sec
 SCC setup                      ...        0 min,  0.002 sec (  0.963%)
 Dispersion                     ...        0 min,  0.002 sec (  0.597%)
 classical contributions        ...        0 min,  0.000 sec (  0.131%)
 integral evaluation            ...        0 min,  0.013 sec (  5.085%)
 iterations                     ...        0 min,  0.183 sec ( 70.823%)
 molecular gradient             ...        0 min,  0.057 sec ( 22.146%)
 printout                       ...        0 min,  0.001 sec (  0.245%)

         :::::::::::::::::::::::::::::::::::::::::::::::::::::
         ::                     SUMMARY                     ::
         :::::::::::::::::::::::::::::::::::::::::::::::::::::
         :: total energy             -92.807859883307 Eh    ::
         :: total w/o Gsasa/hb       -92.775226031212 Eh    ::
         :: gradient norm              0.584838175296 Eh/a0 ::
         :: HOMO-LUMO gap              1.380813144792 eV    ::
         ::.................................................::
         :: SCC energy               -94.153283790248 Eh    ::
         :: -> isotropic ES            0.108103411350 Eh    ::
         :: -> anisotropic ES          0.011343136115 Eh    ::
         :: -> anisotropic XC          0.041491456592 Eh    ::
         :: -> dispersion             -0.114251388897 Eh    ::
         :: -> Gsolv                  -0.069354866408 Eh    ::
         ::    -> Gelec               -0.036721014313 Eh    ::
         ::    -> Gsasa               -0.034841995234 Eh    ::
         ::    -> Ghb                  0.000000000000 Eh    ::
         ::    -> Gshift               0.002208143139 Eh    ::
         :: repulsion energy           1.345423906941 Eh    ::
         :: add. restraining           0.000000000000 Eh    ::
         :: total charge              -0.000000000000 e     ::
         :::::::::::::::::::::::::::::::::::::::::::::::::::::

      ----------------------------------------------------------- 
     |                   =====================                   |
     |                        A N C O P T                        |
     |                   =====================                   |
     |               Approximate Normal Coordinate               |
     |                Rational Function Optimizer                |
      ----------------------------------------------------------- 
      ----------------------------------------------------------- 
     |                   =====================                   |
     |                        A N C O P T                        |
     |                   =====================                   |
     |               Approximate Normal Coordinate               |
     |                Rational Function Optimizer                |
      ----------------------------------------------------------- 

          ...................................................
          :                      SETUP                      :
          :.................................................:
          :   optimization level             tight          :
          :   max. optcycles                   250          :
          :   ANC micro-cycles                  20          :
          :   degrees of freedom               219          :
          :.................................................:
          :   RF solver                   davidson          :
          :   write xtbopt.log                true          :
          :   linear?                        false          :
          :   energy convergence         0.1000000E-05 Eh   :
          :   grad. convergence          0.8000000E-03 Eh/α :
          :   maxmium RF displ.          1.0000000          :
          :   Hlow (freq-cutoff)         0.1000000E-01      :
          :   Hmax (freq-cutoff)         5.0000000          :
          :   S6 in model hess.         20.0000000          :
          ...................................................

generating ANC from exact Hessian ...
Using Lindh-Hessian (1995)
 Shifting diagonal of input Hessian by    9.8147279714122758E-003
 Lowest  eigenvalues of input Hessian
    0.000000    0.000000    0.000000    0.000000    0.000000    0.000000
    0.010000    0.010425    0.010473    0.010677    0.010860    0.010916
    0.011631    0.011937    0.012457    0.012660    0.013059    0.013285
 Highest eigenvalues
    1.857389    1.874850    1.998346    2.065246    2.205790    2.516821


........................................................................
.............................. CYCLE    1 ..............................
........................................................................

 iter      E             dE          RMSdq      gap      omega  full diag
   1    -94.1577824 -0.941578E+02  0.555E-05    1.38       0.0  T
   2    -94.1577824  0.162842E-09  0.716E-05    1.38     161.3  T
   3    -94.1577824 -0.206768E-09  0.326E-05    1.38     354.5  T
     SCC iter.                  ...        0 min,  0.035 sec
     gradient                   ...        0 min,  0.053 sec
 * total energy  :   -92.8078599 Eh     change       -0.4512231E-09 Eh
   gradient norm :     0.5848371 Eh/α   predicted     0.0000000E+00 (-100.00%)
   displ. norm   :     0.6498974 α      lambda       -0.3428092E+00
   maximum displ.:     0.1492746 α      in ANC's #166, #130, #147, ...

........................................................................
.............................. CYCLE    2 ..............................
........................................................................

 iter      E             dE          RMSdq      gap      omega  full diag
   1    -94.3886258 -0.943886E+02  0.660E-01    1.70       0.0  T
   2    -94.3748861  0.137397E-01  0.725E-01    1.91       1.0  T
   3    -94.3945430 -0.196568E-01  0.445E-01    1.78       1.0  T
   4    -94.4007485 -0.620549E-02  0.242E-01    1.78       1.0  T
   5    -94.4024305 -0.168199E-02  0.161E-01    1.84       1.0  T
   6    -94.4034441 -0.101368E-02  0.406E-02    1.80       1.0  T
   7    -94.4034524 -0.821290E-05  0.137E-02    1.80       1.0  T
   8    -94.4034539 -0.157024E-05  0.693E-03    1.81       1.7  T
   9    -94.4034541 -0.212987E-06  0.348E-03    1.81       3.3  T
  10    -94.4034545 -0.317121E-06  0.160E-03    1.81       7.2  T
  11    -94.4034545 -0.439758E-07  0.681E-04    1.81      17.0  T
  12    -94.4034545 -0.156938E-08  0.431E-04    1.81      26.8  T
  13    -94.4034545 -0.278239E-08  0.194E-04    1.81      59.4  T
     SCC iter.                  ...        0 min,  0.146 sec
     gradient                   ...        0 min,  0.049 sec
 * total energy  :   -93.0850329 Eh     change       -0.2771731E+00 Eh
   gradient norm :     0.3737160 Eh/α   predicted    -0.2438134E+00 ( -12.04%)
   displ. norm   :     0.7000808 α      lambda       -0.2480613E+00
   maximum displ.:     0.2264644 α      in ANC's #166, #145, #174, ...

........................................................................
.............................. CYCLE    3 ..............................
........................................................................

 iter      E             dE          RMSdq      gap      omega  full diag
   1    -94.6071337 -0.946071E+02  0.682E-01    2.03       0.0  T
   2    -94.6012418  0.589194E-02  0.608E-01    2.29       1.0  T
   3    -94.6045520 -0.331020E-02  0.518E-01    1.90       1.0  T
   4    -94.6188006 -0.142487E-01  0.243E-01    2.15       1.0  T
   5    -94.6209120 -0.211142E-02  0.802E-02    2.07       1.0  T
   6    -94.6209904 -0.783702E-04  0.567E-02    2.08       1.0  T
   7    -94.6210785 -0.881209E-04  0.141E-02    2.08       1.0  T
   8    -94.6210795 -0.920971E-06  0.729E-03    2.08       1.6  T
   9    -94.6210800 -0.532807E-06  0.344E-03    2.08       3.4  T
  10    -94.6210801 -0.762673E-07  0.199E-03    2.08       5.8  T
  11    -94.6210802 -0.105742E-06  0.708E-04    2.08      16.3  T
  12    -94.6210802 -0.258808E-08  0.342E-04    2.08      33.8  T
  13    -94.6210802 -0.233743E-08  0.142E-04    2.08      81.4  T
     SCC iter.                  ...        0 min,  0.122 sec
     gradient                   ...        0 min,  0.053 sec
 * total energy  :   -93.2889231 Eh     change       -0.2038901E+00 Eh
   gradient norm :     0.2524898 Eh/α   predicted    -0.1848197E+00 (  -9.35%)
   displ. norm   :     0.7397321 α      lambda       -0.1754978E+00
   maximum displ.:     0.2599511 α      in ANC's #166, #174, #145, ...

........................................................................
.............................. CYCLE    4 ..............................
........................................................................

 iter      E             dE          RMSdq      gap      omega  full diag
   1    -94.7750356 -0.947750E+02  0.524E-01    2.17       0.0  T
   2    -94.7777717 -0.273604E-02  0.355E-01    2.22       1.0  T
   3    -94.7783224 -0.550718E-03  0.236E-01    2.09       1.0  T
   4    -94.7765898  0.173256E-02  0.256E-01    2.27       1.0  T
   5    -94.7808603 -0.427043E-02  0.447E-02    2.16       1.0  T
   6    -94.7808663 -0.604455E-05  0.250E-02    2.17       1.0  T
   7    -94.7808738 -0.749032E-05  0.146E-02    2.16       1.0  T
   8    -94.7808805 -0.670861E-05  0.591E-03    2.17       2.0  T
   9    -94.7808808 -0.284062E-06  0.292E-03    2.17       4.0  T
  10    -94.7808809 -0.109577E-06  0.153E-03    2.17       7.5  T
  11    -94.7808809 -0.179281E-07  0.602E-04    2.17      19.2  T
  12    -94.7808809 -0.239753E-08  0.225E-04    2.17      51.2  T
  13    -94.7808809 -0.562167E-09  0.113E-04    2.17     102.4  T
     SCC iter.                  ...        0 min,  0.130 sec
     gradient                   ...        0 min,  0.050 sec
 * total energy  :   -93.4306256 Eh     change       -0.1417026E+00 Eh
   gradient norm :     0.1573485 Eh/α   predicted    -0.1357654E+00 (  -4.19%)
   displ. norm   :     0.7447719 α      lambda       -0.1079321E+00
   maximum displ.:     0.2262317 α      in ANC's #166, #55, #50, ...

........................................................................
.............................. CYCLE    5 ..............................
........................................................................

 iter      E             dE          RMSdq      gap      omega  full diag
   1    -94.8670822 -0.948671E+02  0.390E-01    2.18       0.0  T
   2    -94.8684938 -0.141158E-02  0.262E-01    2.17       1.0  T
   3    -94.8690111 -0.517266E-03  0.113E-01    2.19       1.0  T
   4    -94.8684887  0.522359E-03  0.925E-02    2.14       1.0  T
   5    -94.8687749 -0.286145E-03  0.689E-02    2.21       1.0  T
   6    -94.8690920 -0.317169E-03  0.179E-02    2.18       1.0  T
   7    -94.8690908  0.121156E-05  0.993E-03    2.17       1.2  T
   8    -94.8690939 -0.308487E-05  0.408E-03    2.18       2.8  T
   9    -94.8690940 -0.113331E-06  0.207E-03    2.18       5.6  T
  10    -94.8690940 -0.177341E-07  0.103E-03    2.18      11.2  T
  11    -94.8690940 -0.590958E-08  0.376E-04    2.18      30.7  T
  12    -94.8690940 -0.580542E-09  0.158E-04    2.18      73.2  T
     SCC iter.                  ...        0 min,  0.152 sec
     gradient                   ...        0 min,  0.059 sec
 * total energy  :   -93.5195348 Eh     change       -0.8890914E-01 Eh
   gradient norm :     0.1014926 Eh/α   predicted    -0.8390050E-01 (  -5.63%)
   displ. norm   :     0.7711640 α      lambda       -0.7288780E-01
   maximum displ.:     0.2145199 α      in ANC's #55, #166, #50, ...

........................................................................
.............................. CYCLE    6 ..............................
........................................................................

 iter      E             dE          RMSdq      gap      omega  full diag
   1    -94.9146357 -0.949146E+02  0.333E-01    2.17       0.0  T
   2    -94.9143491  0.286636E-03  0.265E-01    2.23       1.0  T
   3    -94.9144511 -0.101978E-03  0.165E-01    2.13       1.0  T
   4    -94.9147482 -0.297167E-03  0.137E-01    2.24       1.0  T
   5    -94.9158807 -0.113250E-02  0.362E-02    2.17       1.0  T
   6    -94.9159085 -0.278104E-04  0.200E-02    2.19       1.0  T
   7    -94.9159160 -0.744205E-05  0.731E-03    2.19       1.6  T
   8    -94.9159164 -0.445162E-06  0.343E-03    2.18       3.4  T
   9    -94.9159164 -0.210282E-07  0.178E-03    2.18       6.5  T
  10    -94.9159165 -0.368244E-07  0.787E-04    2.18      14.7  T
  11    -94.9159165 -0.652057E-08  0.382E-04    2.18      30.2  T
  12    -94.9159165 -0.352547E-08  0.203E-04    2.18      57.0  T
     SCC iter.                  ...        0 min,  0.128 sec
     gradient                   ...        0 min,  0.052 sec
 * total energy  :   -93.5810102 Eh     change       -0.6147540E-01 Eh
   gradient norm :     0.0716924 Eh/α   predicted    -0.5811686E-01 (  -5.46%)
   displ. norm   :     0.7873821 α      lambda       -0.5200143E-01
   maximum displ.:     0.2157365 α      in ANC's #55, #31, #50, ...

........................................................................
.............................. CYCLE    7 ..............................
........................................................................

 iter      E             dE          RMSdq      gap      omega  full diag
   1    -94.9428622 -0.949429E+02  0.299E-01    2.18       0.0  T
   2    -94.9410928  0.176938E-02  0.278E-01    2.25       1.0  T
   3    -94.9419891 -0.896243E-03  0.188E-01    2.12       1.0  T
   4    -94.9437266 -0.173751E-02  0.101E-01    2.23       1.0  T
   5    -94.9441716 -0.444980E-03  0.411E-02    2.18       1.0  T
   6    -94.9442187 -0.471645E-04  0.147E-02    2.19       1.0  T
   7    -94.9442195 -0.768204E-06  0.713E-03    2.19       1.6  T
   8    -94.9442207 -0.124465E-05  0.329E-03    2.19       3.5  T
   9    -94.9442208 -0.386271E-07  0.164E-03    2.19       7.1  T
  10    -94.9442208 -0.343681E-07  0.811E-04    2.19      14.2  T
  11    -94.9442208 -0.129431E-07  0.377E-04    2.19      30.7  T
  12    -94.9442208 -0.169602E-08  0.152E-04    2.19      76.1  T
     SCC iter.                  ...        0 min,  0.121 sec
     gradient                   ...        0 min,  0.053 sec
 * total energy  :   -93.6250114 Eh     change       -0.4400124E-01 Eh
   gradient norm :     0.0534498 Eh/α   predicted    -0.4212058E-01 (  -4.27%)
   displ. norm   :     0.7901804 α      lambda       -0.3722908E-01
   maximum displ.:     0.2227204 α      in ANC's #31, #55, #50, ...

........................................................................
.............................. CYCLE    8 ..............................
........................................................................

 iter      E             dE          RMSdq      gap      omega  full diag
   1    -94.9611433 -0.949611E+02  0.254E-01    2.20       0.0  T
   2    -94.9600832  0.106007E-02  0.225E-01    2.25       1.0  T
   3    -94.9604455 -0.362303E-03  0.159E-01    2.15       1.0  T
   4    -94.9615829 -0.113742E-02  0.927E-02    2.24       1.0  T
   5    -94.9619920 -0.409055E-03  0.350E-02    2.20       1.0  T
   6    -94.9620253 -0.333855E-04  0.117E-02    2.21       1.0  T
   7    -94.9620257 -0.373646E-06  0.584E-03    2.21       2.0  T
   8    -94.9620266 -0.921476E-06  0.268E-03    2.21       4.3  T
   9    -94.9620266 -0.186425E-08  0.143E-03    2.21       8.1  T
  10    -94.9620267 -0.441334E-07  0.649E-04    2.21      17.8  T
  11    -94.9620267 -0.490780E-08  0.292E-04    2.21      39.5  T
  12    -94.9620267 -0.899362E-09  0.119E-04    2.21      96.9  T
     SCC iter.                  ...        0 min,  0.128 sec
     gradient                   ...        0 min,  0.051 sec
 * total energy  :   -93.6567632 Eh     change       -0.3175180E-01 Eh
   gradient norm :     0.0444229 Eh/α   predicted    -0.3023730E-01 (  -4.77%)
   displ. norm   :     0.7919441 α      lambda       -0.2753625E-01
   maximum displ.:     0.2320006 α      in ANC's #31, #12, #55, ...

........................................................................
.............................. CYCLE    9 ..............................
........................................................................

 iter      E             dE          RMSdq      gap      omega  full diag
   1    -94.9734573 -0.949735E+02  0.214E-01    2.21       0.0  T
   2    -94.9728044  0.652905E-03  0.181E-01    2.26       1.0  T
   3    -94.9728340 -0.295930E-04  0.135E-01    2.17       1.0  T
   4    -94.9736153 -0.781342E-03  0.829E-02    2.25       1.0  T
   5    -94.9739665 -0.351174E-03  0.263E-02    2.22       1.0  T
   6    -94.9739835 -0.169989E-04  0.935E-03    2.22       1.2  T
   7    -94.9739840 -0.475168E-06  0.440E-03    2.22       2.6  T
   8    -94.9739844 -0.432543E-06  0.206E-03    2.22       5.6  T
   9    -94.9739844  0.106972E-07  0.115E-03    2.22      10.1  T
  10    -94.9739844 -0.352438E-07  0.484E-04    2.22      23.9  T
  11    -94.9739844 -0.124975E-08  0.232E-04    2.22      49.7  T
     SCC iter.                  ...        0 min,  0.120 sec
     gradient                   ...        0 min,  0.052 sec
 * total energy  :   -93.6803383 Eh     change       -0.2357512E-01 Eh
   gradient norm :     0.0367919 Eh/α   predicted    -0.2240316E-01 (  -4.97%)
   displ. norm   :     0.7931868 α      lambda       -0.2070762E-01
   maximum displ.:     0.2356859 α      in ANC's #12, #31, #49, ...

........................................................................
.............................. CYCLE   10 ..............................
........................................................................

 iter      E             dE          RMSdq      gap      omega  full diag
   1    -94.9829326 -0.949829E+02  0.187E-01    2.24       0.0  T
   2    -94.9823868  0.545781E-03  0.154E-01    2.29       1.0  T
   3    -94.9822359  0.150895E-03  0.127E-01    2.21       1.0  T
   4    -94.9830041 -0.768140E-03  0.735E-02    2.28       1.0  T
   5    -94.9832736 -0.269523E-03  0.198E-02    2.25       1.0  T
   6    -94.9832830 -0.944557E-05  0.853E-03    2.25       1.4  T
   7    -94.9832837 -0.726599E-06  0.335E-03    2.25       3.4  T
   8    -94.9832840 -0.233234E-06  0.162E-03    2.25       7.1  T
   9    -94.9832840  0.218108E-07  0.100E-03    2.25      11.5  T
  10    -94.9832840 -0.303196E-07  0.393E-04    2.25      29.4  T
  11    -94.9832840 -0.467992E-09  0.200E-04    2.25      57.7  T
     SCC iter.                  ...        0 min,  0.115 sec
     gradient                   ...        0 min,  0.053 sec
 * total energy  :   -93.6980871 Eh     change       -0.1774874E-01 Eh
   gradient norm :     0.0312281 Eh/α   predicted    -0.1686789E-01 (  -4.96%)
   displ. norm   :     0.7940160 α      lambda       -0.1591478E-01
   maximum displ.:     0.2697697 α      in ANC's #12, #31, #49, ...

........................................................................
.............................. CYCLE   11 ..............................
........................................................................

 iter      E             dE          RMSdq      gap      omega  full diag
   1    -94.9909969 -0.949910E+02  0.165E-01    2.25       0.0  T
   2    -94.9906375  0.359411E-03  0.129E-01    2.30       1.0  T
   3    -94.9903230  0.314424E-03  0.116E-01    2.23       1.0  T
   4    -94.9909712 -0.648133E-03  0.688E-02    2.29       1.0  T
   5    -94.9912111 -0.239878E-03  0.154E-02    2.27       1.0  T
   6    -94.9912121 -0.107285E-05  0.677E-03    2.27       1.7  T
   7    -94.9912128 -0.678948E-06  0.279E-03    2.27       4.1  T
   8    -94.9912129 -0.130481E-06  0.135E-03    2.27       8.6  T
   9    -94.9912129  0.240982E-08  0.720E-04    2.27      16.0  T
  10    -94.9912130 -0.108479E-07  0.282E-04    2.27      41.0  T
  11    -94.9912130 -0.199321E-09  0.139E-04    2.27      83.0  T
     SCC iter.                  ...        0 min,  0.111 sec
     gradient                   ...        0 min,  0.055 sec
 * total energy  :   -93.7116232 Eh     change       -0.1353616E-01 Eh
   gradient norm :     0.0273982 Eh/α   predicted    -0.1297421E-01 (  -4.15%)
   displ. norm   :     0.8047913 α      lambda       -0.1284362E-01
   maximum displ.:     0.2827340 α      in ANC's #12, #31, #10, ...

........................................................................
.............................. CYCLE   12 ..............................
........................................................................

 iter      E             dE          RMSdq      gap      omega  full diag
   1    -94.9977677 -0.949978E+02  0.172E-01    2.31       0.0  T
   2    -94.9973313  0.436416E-03  0.132E-01    2.35       1.0  T
   3    -94.9968382  0.493011E-03  0.131E-01    2.27       1.0  T
   4    -94.9977884 -0.950115E-03  0.659E-02    2.34       1.0  T
   5    -94.9979872 -0.198842E-03  0.133E-02    2.31       1.0  T
   6    -94.9979885 -0.130223E-05  0.112E-02    2.32       1.0  T
   7    -94.9979916 -0.309783E-05  0.259E-03    2.32       4.5  T
   8    -94.9979917 -0.679641E-07  0.149E-03    2.32       7.8  T
   9    -94.9979916  0.171808E-07  0.992E-04    2.32      11.6  T
  10    -94.9979917 -0.235650E-07  0.410E-04    2.32      28.2  T
  11    -94.9979917 -0.261531E-08  0.185E-04    2.32      62.3  T
     SCC iter.                  ...        0 min,  0.111 sec
     gradient                   ...        0 min,  0.051 sec
 * total energy  :   -93.7220970 Eh     change       -0.1047378E-01 Eh
   gradient norm :     0.0252932 Eh/α   predicted    -0.1058115E-01 (   1.03%)
   displ. norm   :     0.7932900 α      lambda       -0.1051151E-01
   maximum displ.:     0.3092202 α      in ANC's #12, #31, #15, ...

........................................................................
.............................. CYCLE   13 ..............................
........................................................................

 iter      E             dE          RMSdq      gap      omega  full diag
   1    -95.0054165 -0.950054E+02  0.157E-01    2.31       0.0  T
   2    -95.0053993  0.171841E-04  0.104E-01    2.35       1.0  T
   3    -95.0051279  0.271464E-03  0.904E-02    2.30       1.0  T
   4    -95.0049336  0.194320E-03  0.901E-02    2.36       1.0  T
   5    -95.0055303 -0.596774E-03  0.196E-02    2.33       1.0  T
   6    -95.0055348 -0.444463E-05  0.673E-03    2.33       1.7  T
   7    -95.0055351 -0.304432E-06  0.271E-03    2.33       4.3  T
   8    -95.0055351 -0.505285E-07  0.149E-03    2.33       7.8  T
   9    -95.0055351 -0.661883E-08  0.725E-04    2.33      15.9  T
  10    -95.0055351 -0.194102E-08  0.377E-04    2.33      30.6  T
  11    -95.0055351 -0.963553E-09  0.213E-04    2.33      54.2  T
     SCC iter.                  ...        0 min,  0.110 sec
     gradient                   ...        0 min,  0.052 sec
 * total energy  :   -93.7305755 Eh     change       -0.8478536E-02 Eh
   gradient norm :     0.0199358 Eh/α   predicted    -0.8563252E-02 (   1.00%)
   displ. norm   :     0.7663625 α      lambda       -0.7770981E-02
   maximum displ.:     0.2995226 α      in ANC's #12, #10, #31, ...

........................................................................
.............................. CYCLE   14 ..............................
........................................................................

 iter      E             dE          RMSdq      gap      omega  full diag
   1    -95.0114661 -0.950115E+02  0.126E-01    2.35       0.0  T
   2    -95.0112781  0.187942E-03  0.922E-02    2.38       1.0  T
   3    -95.0108767  0.401476E-03  0.998E-02    2.32       1.0  T
   4    -95.0114186 -0.541976E-03  0.507E-02    2.38       1.0  T
   5    -95.0115389 -0.120279E-03  0.514E-03    2.36       2.2  T
   6    -95.0115393 -0.351824E-06  0.358E-03    2.36       3.2  T
   7    -95.0115395 -0.235086E-06  0.119E-03    2.36       9.7  T
   8    -95.0115395 -0.368090E-08  0.533E-04    2.36      21.7  T
   9    -95.0115395 -0.359495E-08  0.287E-04    2.36      40.2  T
  10    -95.0115395 -0.546734E-09  0.117E-04    2.36      98.5  T
     SCC iter.                  ...        0 min,  0.105 sec
     gradient                   ...        0 min,  0.052 sec
 * total energy  :   -93.7372214 Eh     change       -0.6645855E-02 Eh
   gradient norm :     0.0178615 Eh/α   predicted    -0.6167486E-02 (  -7.20%)
   displ. norm   :     0.7645509 α      lambda       -0.6452285E-02
   maximum displ.:     0.2994201 α      in ANC's #12, #6, #2, ...

........................................................................
.............................. CYCLE   15 ..............................
........................................................................

 iter      E             dE          RMSdq      gap      omega  full diag
   1    -95.0191503 -0.950192E+02  0.117E-01    2.37       0.0  T
   2    -95.0191672 -0.169565E-04  0.701E-02    2.37       1.0  T
   3    -95.0191190  0.482061E-04  0.448E-02    2.38       1.0  T
   4    -95.0189914  0.127645E-03  0.484E-02    2.35       1.0  T
   5    -95.0191754 -0.184033E-03  0.772E-03    2.38       1.5  T
   6    -95.0191787 -0.327186E-05  0.331E-03    2.37       3.5  T
   7    -95.0191788 -0.137770E-06  0.122E-03    2.37       9.4  T
   8    -95.0191788 -0.128755E-07  0.596E-04    2.37      19.4  T
   9    -95.0191789 -0.953806E-08  0.313E-04    2.37      36.9  T
  10    -95.0191789 -0.962245E-09  0.158E-04    2.37      73.1  T
     SCC iter.                  ...        0 min,  0.097 sec
     gradient                   ...        0 min,  0.053 sec
 * total energy  :   -93.7427263 Eh     change       -0.5504937E-02 Eh
   gradient norm :     0.0172171 Eh/α   predicted    -0.5111948E-02 (  -7.14%)
   displ. norm   :     0.7622550 α      lambda       -0.5476695E-02
   maximum displ.:     0.2764215 α      in ANC's #12, #2, #6, ...

........................................................................
.............................. CYCLE   16 ..............................
........................................................................

 iter      E             dE          RMSdq      gap      omega  full diag
   1    -95.0227054 -0.950227E+02  0.132E-01    2.37       0.0  T
   2    -95.0225029  0.202525E-03  0.101E-01    2.40       1.0  T
   3    -95.0221036  0.399214E-03  0.106E-01    2.33       1.0  T
   4    -95.0226341 -0.530490E-03  0.535E-02    2.40       1.0  T
   5    -95.0227748 -0.140708E-03  0.119E-02    2.37       1.0  T
   6    -95.0227828 -0.799676E-05  0.354E-03    2.38       3.3  T
   7    -95.0227831 -0.251548E-06  0.143E-03    2.38       8.1  T
   8    -95.0227831 -0.862535E-08  0.637E-04    2.38      18.1  T
   9    -95.0227831 -0.338407E-08  0.294E-04    2.38      39.2  T
  10    -95.0227831 -0.886587E-09  0.145E-04    2.38      79.6  T
     SCC iter.                  ...        0 min,  0.111 sec
     gradient                   ...        0 min,  0.050 sec
 * total energy  :   -93.7472503 Eh     change       -0.4524008E-02 Eh
   gradient norm :     0.0189433 Eh/α   predicted    -0.4329418E-02 (  -4.30%)
   displ. norm   :     0.7464241 α      lambda       -0.4602595E-02
   maximum displ.:     0.2485044 α      in ANC's #12, #6, #2, ...

........................................................................
.............................. CYCLE   17 ..............................
........................................................................

 iter      E             dE          RMSdq      gap      omega  full diag
   1    -95.0292093 -0.950292E+02  0.134E-01    2.39       0.0  T
   2    -95.0287250  0.484309E-03  0.115E-01    2.33       1.0  T
   3    -95.0285175  0.207457E-03  0.111E-01    2.42       1.0  T
   4    -95.0293427 -0.825208E-03  0.415E-02    2.36       1.0  T
   5    -95.0293679 -0.251568E-04  0.848E-03    2.38       1.4  T
   6    -95.0293700 -0.217809E-05  0.426E-03    2.37       2.7  T
   7    -95.0293704 -0.382770E-06  0.202E-03    2.37       5.7  T
   8    -95.0293705 -0.114650E-06  0.772E-04    2.37      15.0  T
   9    -95.0293705 -0.590794E-08  0.345E-04    2.37      33.5  T
  10    -95.0293705 -0.354476E-09  0.159E-04    2.37      72.8  T
     SCC iter.                  ...        0 min,  0.109 sec
     gradient                   ...        0 min,  0.050 sec
 * total energy  :   -93.7509087 Eh     change       -0.3658397E-02 Eh
   gradient norm :     0.0253185 Eh/α   predicted    -0.3583469E-02 (  -2.05%)
   displ. norm   :     0.6966383 α      lambda       -0.3585821E-02
   maximum displ.:     0.2174721 α      in ANC's #2, #12, #6, ...

........................................................................
.............................. CYCLE   18 ..............................
........................................................................

 iter      E             dE          RMSdq      gap      omega  full diag
   1    -95.0309039 -0.950309E+02  0.116E-01    2.34       0.0  T
   2    -95.0305833  0.320580E-03  0.104E-01    2.38       1.0  T
   3    -95.0305540  0.293288E-04  0.905E-02    2.32       1.0  T
   4    -95.0309214 -0.367429E-03  0.442E-02    2.37       1.0  T
   5    -95.0310186 -0.971234E-04  0.104E-02    2.35       1.1  T
   6    -95.0310235 -0.495735E-05  0.314E-03    2.35       3.7  T
   7    -95.0310235 -0.132368E-07  0.197E-03    2.35       5.9  T
   8    -95.0310236 -0.783761E-07  0.792E-04    2.35      14.6  T
   9    -95.0310236 -0.496867E-08  0.378E-04    2.35      30.6  T
  10    -95.0310236 -0.216534E-08  0.208E-04    2.35      55.5  T
     SCC iter.                  ...        0 min,  0.098 sec
     gradient                   ...        0 min,  0.050 sec
 * total energy  :   -93.7537733 Eh     change       -0.2864522E-02 Eh
   gradient norm :     0.0187009 Eh/α   predicted    -0.2663023E-02 (  -7.03%)
   displ. norm   :     0.6513969 α      lambda       -0.2940620E-02
   maximum displ.:     0.2068365 α      in ANC's #6, #2, #8, ...

........................................................................
.............................. CYCLE   19 ..............................
........................................................................

 iter      E             dE          RMSdq      gap      omega  full diag
   1    -95.0355742 -0.950356E+02  0.113E-01    2.36       0.0  T
   2    -95.0352639  0.310365E-03  0.947E-02    2.30       1.0  T
   3    -95.0349961  0.267723E-03  0.981E-02    2.38       1.0  T
   4    -95.0356559 -0.659760E-03  0.326E-02    2.33       1.0  T
   5    -95.0356664 -0.104737E-04  0.788E-03    2.34       1.5  T
   6    -95.0356676 -0.126018E-05  0.379E-03    2.34       3.0  T
   7    -95.0356676  0.663153E-07  0.232E-03    2.34       5.0  T
   8    -95.0356677 -0.147858E-06  0.838E-04    2.34      13.8  T
   9    -95.0356677 -0.618822E-08  0.364E-04    2.34      31.7  T
  10    -95.0356677 -0.518810E-09  0.176E-04    2.34      65.6  T
     SCC iter.                  ...        0 min,  0.103 sec
     gradient                   ...        0 min,  0.051 sec
 * total energy  :   -93.7560605 Eh     change       -0.2287267E-02 Eh
   gradient norm :     0.0228853 Eh/α   predicted    -0.2094191E-02 (  -8.44%)
   displ. norm   :     0.6084221 α      lambda       -0.2633898E-02
   maximum displ.:     0.1950365 α      in ANC's #6, #2, #8, ...

........................................................................
.............................. CYCLE   20 ..............................
........................................................................

 iter      E             dE          RMSdq      gap      omega  full diag
   1    -95.0387010 -0.950387E+02  0.111E-01    2.30       0.0  T
   2    -95.0383750  0.325905E-03  0.101E-01    2.35       1.0  T
   3    -95.0384137 -0.386121E-04  0.803E-02    2.28       1.0  T
   4    -95.0386784 -0.264765E-03  0.469E-02    2.34       1.0  T
   5    -95.0388060 -0.127546E-03  0.732E-03    2.32       1.6  T
   6    -95.0388072 -0.123973E-05  0.336E-03    2.32       3.4  T
   7    -95.0388074 -0.159186E-06  0.170E-03    2.32       6.8  T
   8    -95.0388075 -0.970285E-07  0.620E-04    2.32      18.6  T
   9    -95.0388075 -0.528757E-09  0.300E-04    2.32      38.5  T
  10    -95.0388075 -0.258207E-08  0.144E-04    2.32      80.1  T
     SCC iter.                  ...        0 min,  0.108 sec
     gradient                   ...        0 min,  0.055 sec
 * total energy  :   -93.7579828 Eh     change       -0.1922274E-02 Eh
   gradient norm :     0.0161138 Eh/α   predicted    -0.1804459E-02 (  -6.13%)
   displ. norm   :     0.5564021 α      lambda       -0.1918546E-02
   maximum displ.:     0.1971044 α      in ANC's #6, #2, #5, ...
 * RMSD in coord.:     1.3718549 α      energy gain  -0.9501229E+00 Eh

generating ANC from exact Hessian ...
Using Lindh-Hessian (1995)
 Shifting diagonal of input Hessian by    1.0143317364260558E-002
 Lowest  eigenvalues of input Hessian
    0.010000    0.010023    0.000000    0.000000    0.000000    0.000000
    0.000000    0.000000    0.010317    0.010347    0.010418    0.010515
    0.010609    0.010741    0.010896    0.011040    0.011094    0.011215
 Highest eigenvalues
    1.621063    1.799079    1.902677    2.007575    2.031786    2.287264


........................................................................
.............................. CYCLE   21 ..............................
........................................................................

 iter      E             dE          RMSdq      gap      omega  full diag
   1    -95.0401106 -0.950401E+02  0.109E-01    2.31       0.0  T
   2    -95.0401141 -0.352240E-05  0.684E-02    2.31       1.0  T
   3    -95.0400898  0.243491E-04  0.501E-02    2.29       1.0  T
   4    -95.0399587  0.131098E-03  0.454E-02    2.33       1.0  T
   5    -95.0401333 -0.174577E-03  0.960E-03    2.30       1.2  T
   6    -95.0401366 -0.334435E-05  0.385E-03    2.30       3.0  T
   7    -95.0401369 -0.285139E-06  0.188E-03    2.30       6.1  T
   8    -95.0401370 -0.580149E-07  0.834E-04    2.30      13.8  T
   9    -95.0401370 -0.328889E-08  0.352E-04    2.30      32.8  T
  10    -95.0401370 -0.267134E-08  0.168E-04    2.30      68.7  T
     SCC iter.                  ...        0 min,  0.104 sec
     gradient                   ...        0 min,  0.049 sec
 * total energy  :   -93.7594174 Eh     change       -0.1434554E-02 Eh
   gradient norm :     0.0155760 Eh/α   predicted     0.0000000E+00 (-100.00%)
   displ. norm   :     0.3080175 α      lambda       -0.2072092E-02
   maximum displ.:     0.1242015 α      in ANC's #9, #6, #18, ...

........................................................................
.............................. CYCLE   22 ..............................
........................................................................

 iter      E             dE          RMSdq      gap      omega  full diag
   1    -95.0395684 -0.950396E+02  0.144E-01    2.30       0.0  T
   2    -95.0394568  0.111661E-03  0.958E-02    2.34       1.0  T
   3    -95.0386813  0.775492E-03  0.119E-01    2.26       1.0  T
   4    -95.0394484 -0.767127E-03  0.566E-02    2.34       1.0  T
   5    -95.0396215 -0.173107E-03  0.126E-02    2.31       1.0  T
   6    -95.0396301 -0.857038E-05  0.476E-03    2.32       2.4  T
   7    -95.0396303 -0.241834E-06  0.146E-03    2.32       7.9  T
   8    -95.0396303 -0.137973E-09  0.701E-04    2.32      16.5  T
   9    -95.0396303 -0.880577E-08  0.329E-04    2.32      35.1  T
  10    -95.0396303 -0.671008E-09  0.161E-04    2.32      71.7  T
     SCC iter.                  ...        0 min,  0.101 sec
     gradient                   ...        0 min,  0.050 sec
 * total energy  :   -93.7603748 Eh     change       -0.9574480E-03 Eh
   gradient norm :     0.0202145 Eh/α   predicted    -0.1134349E-02 (  18.48%)
   displ. norm   :     0.5655745 α      lambda       -0.4141374E-02
   maximum displ.:     0.2623344 α      in ANC's #9, #7, #6, ...

........................................................................
.............................. CYCLE   23 ..............................
........................................................................

 iter      E             dE          RMSdq      gap      omega  full diag
   1    -95.0406756 -0.950407E+02  0.194E-01    2.36       0.0  T
   2    -95.0406487  0.269060E-04  0.118E-01    2.38       1.0  T
   3    -95.0396167  0.103199E-02  0.141E-01    2.30       1.0  T
   4    -95.0404206 -0.803886E-03  0.684E-02    2.40       1.0  T
   5    -95.0407492 -0.328563E-03  0.240E-02    2.35       1.0  T
   6    -95.0407729 -0.236647E-04  0.846E-03    2.36       1.4  T
   7    -95.0407733 -0.443543E-06  0.321E-03    2.36       3.6  T
   8    -95.0407733 -0.245790E-07  0.179E-03    2.36       6.5  T
   9    -95.0407734 -0.286655E-07  0.957E-04    2.36      12.1  T
  10    -95.0407734 -0.748443E-08  0.480E-04    2.36      24.0  T
  11    -95.0407734 -0.136670E-08  0.170E-04    2.36      67.8  T
     SCC iter.                  ...        0 min,  0.115 sec
     gradient                   ...        0 min,  0.051 sec
 * total energy  :   -93.7610999 Eh     change       -0.7250919E-03 Eh
   gradient norm :     0.0290707 Eh/α   predicted    -0.2733048E-02 ( 276.92%)
   displ. norm   :     0.2861097 α      lambda       -0.3191843E-02
   maximum displ.:     0.1105863 α      in ANC's #9, #6, #24, ...

........................................................................
.............................. CYCLE   24 ..............................
........................................................................

 iter      E             dE          RMSdq      gap      omega  full diag
   1    -95.0447253 -0.950447E+02  0.146E-01    2.38       0.0  T
   2    -95.0447352 -0.987938E-05  0.110E-01    2.36       1.0  T
   3    -95.0447563 -0.210938E-04  0.637E-02    2.39       1.0  T
   4    -95.0445147  0.241620E-03  0.698E-02    2.34       1.0  T
   5    -95.0448267 -0.312075E-03  0.247E-02    2.38       1.0  T
   6    -95.0448575 -0.307515E-04  0.104E-02    2.37       1.1  T
   7    -95.0448608 -0.328063E-05  0.305E-03    2.38       3.8  T
   8    -95.0448608 -0.886772E-08  0.195E-03    2.38       5.9  T
   9    -95.0448608 -0.302526E-08  0.942E-04    2.38      12.3  T
  10    -95.0448608 -0.143160E-07  0.414E-04    2.38      27.9  T
  11    -95.0448608 -0.343428E-08  0.184E-04    2.38      62.8  T
     SCC iter.                  ...        0 min,  0.113 sec
     gradient                   ...        0 min,  0.049 sec
 * total energy  :   -93.7627542 Eh     change       -0.1654288E-02 Eh
   gradient norm :     0.0131414 Eh/α   predicted    -0.1726570E-02 (   4.37%)
   displ. norm   :     0.3480588 α      lambda       -0.1567777E-02
   maximum displ.:     0.1738367 α      in ANC's #9, #6, #7, ...

........................................................................
.............................. CYCLE   25 ..............................
........................................................................

 iter      E             dE          RMSdq      gap      omega  full diag
   1    -95.0461167 -0.950461E+02  0.882E-02    2.39       0.0  T
   2    -95.0460807  0.360125E-04  0.602E-02    2.36       1.0  T
   3    -95.0459189  0.161794E-03  0.615E-02    2.41       1.0  T
   4    -95.0460101 -0.911796E-04  0.455E-02    2.36       1.0  T
   5    -95.0461455 -0.135476E-03  0.746E-03    2.38       1.5  T
   6    -95.0461458 -0.297295E-06  0.319E-03    2.38       3.6  T
   7    -95.0461458  0.740993E-07  0.192E-03    2.38       6.0  T
   8    -95.0461459 -0.993104E-07  0.797E-04    2.38      14.5  T
   9    -95.0461459 -0.132687E-07  0.307E-04    2.38      37.6  T
  10    -95.0461459 -0.156250E-08  0.122E-04    2.38      94.6  T
     SCC iter.                  ...        0 min,  0.119 sec
     gradient                   ...        0 min,  0.059 sec
 * total energy  :   -93.7637594 Eh     change       -0.1005242E-02 Eh
   gradient norm :     0.0084530 Eh/α   predicted    -0.8788558E-03 ( -12.57%)
   displ. norm   :     0.5472772 α      lambda       -0.1426147E-02
   maximum displ.:     0.2811047 α      in ANC's #9, #6, #7, ...

........................................................................
.............................. CYCLE   26 ..............................
........................................................................

 iter      E             dE          RMSdq      gap      omega  full diag
   1    -95.0469148 -0.950469E+02  0.888E-02    2.38       0.0  T
   2    -95.0469173 -0.249811E-05  0.556E-02    2.38       1.0  T
   3    -95.0468931  0.242020E-04  0.414E-02    2.39       1.0  T
   4    -95.0468136  0.794646E-04  0.403E-02    2.36       1.0  T
   5    -95.0469308 -0.117161E-03  0.105E-02    2.39       1.1  T
   6    -95.0469368 -0.603220E-05  0.350E-03    2.38       3.3  T
   7    -95.0469371 -0.279277E-06  0.125E-03    2.38       9.3  T
   8    -95.0469371  0.151230E-08  0.806E-04    2.38      14.3  T
   9    -95.0469371 -0.135835E-07  0.286E-04    2.38      40.4  T
  10    -95.0469371 -0.110008E-08  0.135E-04    2.38      85.3  T
     SCC iter.                  ...        0 min,  0.112 sec
     gradient                   ...        0 min,  0.058 sec
 * total energy  :   -93.7650111 Eh     change       -0.1251683E-02 Eh
   gradient norm :     0.0099010 Eh/α   predicted    -0.9266533E-03 ( -25.97%)
   displ. norm   :     0.7752045 α      lambda       -0.1943130E-02
   maximum displ.:     0.3942165 α      in ANC's #9, #6, #7, ...

........................................................................
.............................. CYCLE   27 ..............................
........................................................................

 iter      E             dE          RMSdq      gap      omega  full diag
   1    -95.0487078 -0.950487E+02  0.102E-01    2.40       0.0  T
   2    -95.0486436  0.641052E-04  0.672E-02    2.37       1.0  T
   3    -95.0482344  0.409251E-03  0.829E-02    2.43       1.0  T
   4    -95.0486737 -0.439355E-03  0.386E-02    2.38       1.0  T
   5    -95.0487388 -0.650768E-04  0.496E-03    2.39       2.3  T
   6    -95.0487394 -0.582284E-06  0.232E-03    2.39       5.0  T
   7    -95.0487394 -0.141767E-07  0.131E-03    2.39       8.8  T
   8    -95.0487394 -0.216265E-07  0.674E-04    2.39      17.1  T
   9    -95.0487395 -0.721417E-08  0.232E-04    2.39      49.7  T
  10    -95.0487395 -0.116830E-08  0.107E-04    2.39     107.9  T
     SCC iter.                  ...        0 min,  0.126 sec
     gradient                   ...        0 min,  0.058 sec
 * total energy  :   -93.7667333 Eh     change       -0.1722230E-02 Eh
   gradient norm :     0.0083824 Eh/α   predicted    -0.1555422E-02 (  -9.69%)
   displ. norm   :     0.8406324 α      lambda       -0.1881747E-02
   maximum displ.:     0.4296616 α      in ANC's #9, #6, #7, ...

........................................................................
.............................. CYCLE   28 ..............................
........................................................................

 iter      E             dE          RMSdq      gap      omega  full diag
   1    -95.0494615 -0.950495E+02  0.116E-01    2.40       0.0  T
   2    -95.0494853 -0.237945E-04  0.691E-02    2.38       1.0  T
   3    -95.0494628  0.224718E-04  0.458E-02    2.40       1.0  T
   4    -95.0493683  0.945228E-04  0.394E-02    2.37       1.0  T
   5    -95.0494782 -0.109948E-03  0.160E-02    2.39       1.0  T
   6    -95.0494942 -0.159637E-04  0.310E-03    2.39       3.7  T
   7    -95.0494942 -0.271747E-07  0.175E-03    2.39       6.6  T
   8    -95.0494942  0.519965E-08  0.876E-04    2.39      13.2  T
   9    -95.0494942 -0.189896E-07  0.256E-04    2.39      45.2  T
  10    -95.0494942 -0.450953E-09  0.120E-04    2.39      95.9  T
     SCC iter.                  ...        0 min,  0.119 sec
     gradient                   ...        0 min,  0.053 sec
 * total energy  :   -93.7684079 Eh     change       -0.1674513E-02 Eh
   gradient norm :     0.0104784 Eh/α   predicted    -0.1605761E-02 (  -4.11%)
   displ. norm   :     0.8245503 α      lambda       -0.1836813E-02
   maximum displ.:     0.4258316 α      in ANC's #9, #6, #7, ...

........................................................................
.............................. CYCLE   29 ..............................
........................................................................

 iter      E             dE          RMSdq      gap      omega  full diag
   1    -95.0549059 -0.950549E+02  0.976E-02    2.42       0.0  T
   2    -95.0547644  0.141489E-03  0.725E-02    2.38       1.0  T
   3    -95.0544102  0.354184E-03  0.865E-02    2.44       1.0  T
   4    -95.0549339 -0.523749E-03  0.309E-02    2.39       1.0  T
   5    -95.0549555 -0.215379E-04  0.557E-03    2.40       2.1  T
   6    -95.0549562 -0.761746E-06  0.321E-03    2.40       3.6  T
   7    -95.0549564 -0.182966E-06  0.112E-03    2.40      10.3  T
   8    -95.0549564  0.214470E-08  0.557E-04    2.40      20.7  T
   9    -95.0549564 -0.732955E-08  0.207E-04    2.40      55.7  T
  10    -95.0549564 -0.978517E-09  0.112E-04    2.40     103.0  T
     SCC iter.                  ...        0 min,  0.108 sec
     gradient                   ...        0 min,  0.058 sec
 * total energy  :   -93.7699813 Eh     change       -0.1573489E-02 Eh
   gradient norm :     0.0126911 Eh/α   predicted    -0.1542822E-02 (  -1.95%)
   displ. norm   :     0.8191983 α      lambda       -0.1709509E-02
   maximum displ.:     0.4205017 α      in ANC's #9, #6, #7, ...

........................................................................
.............................. CYCLE   30 ..............................
........................................................................

 iter      E             dE          RMSdq      gap      omega  full diag
   1    -95.0535783 -0.950536E+02  0.122E-01    2.39       0.0  T
   2    -95.0533566  0.221733E-03  0.976E-02    2.41       1.0  T
   3    -95.0530199  0.336730E-03  0.105E-01    2.34       1.0  T
   4    -95.0536327 -0.612819E-03  0.438E-02    2.41       1.0  T
   5    -95.0537062 -0.735046E-04  0.178E-02    2.38       1.0  T
   6    -95.0537197 -0.135376E-04  0.354E-03    2.39       3.3  T
   7    -95.0537198 -0.412065E-07  0.200E-03    2.39       5.8  T
   8    -95.0537198 -0.107093E-07  0.930E-04    2.39      12.4  T
   9    -95.0537198 -0.334683E-08  0.516E-04    2.39      22.4  T
  10    -95.0537198 -0.649651E-08  0.214E-04    2.39      53.9  T
  11    -95.0537198 -0.168899E-08  0.864E-05    2.39     133.7  T
     SCC iter.                  ...        0 min,  0.143 sec
     gradient                   ...        0 min,  0.065 sec
 * total energy  :   -93.7714111 Eh     change       -0.1429791E-02 Eh
   gradient norm :     0.0138246 Eh/α   predicted    -0.1428371E-02 (  -0.10%)
   displ. norm   :     0.7483575 α      lambda       -0.1637656E-02
   maximum displ.:     0.3601083 α      in ANC's #9, #6, #11, ...

........................................................................
.............................. CYCLE   31 ..............................
........................................................................

 iter      E             dE          RMSdq      gap      omega  full diag
   1    -95.0634833 -0.950635E+02  0.996E-02    2.42       0.0  T
   2    -95.0629278  0.555445E-03  0.106E-01    2.35       1.0  T
   3    -95.0633409 -0.413054E-03  0.727E-02    2.43       1.0  T
   4    -95.0636305 -0.289596E-03  0.273E-02    2.40       1.0  T
   5    -95.0636372 -0.673007E-05  0.124E-02    2.40       1.0  T
   6    -95.0636410 -0.381650E-05  0.432E-03    2.40       2.7  T
   7    -95.0636412 -0.191721E-06  0.161E-03    2.40       7.2  T
   8    -95.0636412 -0.166035E-07  0.880E-04    2.40      13.1  T
   9    -95.0636412 -0.103767E-07  0.340E-04    2.40      33.9  T
  10    -95.0636412 -0.940403E-09  0.180E-04    2.40      64.2  T
     SCC iter.                  ...        0 min,  0.143 sec
     gradient                   ...        0 min,  0.071 sec
 * total energy  :   -93.7725823 Eh     change       -0.1171117E-02 Eh
   gradient norm :     0.0112067 Eh/α   predicted    -0.1277407E-02 (   9.08%)
   displ. norm   :     0.7896494 α      lambda       -0.1466468E-02
   maximum displ.:     0.3602228 α      in ANC's #9, #6, #7, ...

........................................................................
.............................. CYCLE   32 ..............................
........................................................................

 iter      E             dE          RMSdq      gap      omega  full diag
   1    -95.0555112 -0.950555E+02  0.115E-01    2.40       0.0  T
   2    -95.0553274  0.183751E-03  0.873E-02    2.43       1.0  T
   3    -95.0547291  0.598290E-03  0.110E-01    2.36       1.0  T
   4    -95.0555472 -0.818076E-03  0.300E-02    2.42       1.0  T
   5    -95.0555758 -0.285754E-04  0.108E-02    2.40       1.1  T
   6    -95.0555807 -0.488260E-05  0.279E-03    2.41       4.1  T
   7    -95.0555807 -0.380724E-07  0.140E-03    2.41       8.3  T
   8    -95.0555807 -0.702671E-08  0.650E-04    2.41      17.8  T
   9    -95.0555807 -0.397200E-08  0.320E-04    2.41      36.1  T
  10    -95.0555807 -0.222099E-08  0.162E-04    2.41      71.4  T
     SCC iter.                  ...        0 min,  0.137 sec
     gradient                   ...        0 min,  0.061 sec
 * total energy  :   -93.7735221 Eh     change       -0.9398873E-03 Eh
   gradient norm :     0.0131522 Eh/α   predicted    -0.1190441E-02 (  26.66%)
   displ. norm   :     0.5743430 α      lambda       -0.1002237E-02
   maximum displ.:     0.2568720 α      in ANC's #9, #6, #11, ...

........................................................................
.............................. CYCLE   33 ..............................
........................................................................

 iter      E             dE          RMSdq      gap      omega  full diag
   1    -95.0567140 -0.950567E+02  0.880E-02    2.38       0.0  T
   2    -95.0564293  0.284618E-03  0.829E-02    2.43       1.0  T
   3    -95.0564866 -0.572386E-04  0.728E-02    2.36       1.0  T
   4    -95.0568004 -0.313828E-03  0.257E-02    2.40       1.0  T
   5    -95.0568093 -0.890245E-05  0.129E-02    2.39       1.0  T
   6    -95.0568151 -0.576638E-05  0.247E-03    2.40       4.7  T
   7    -95.0568151 -0.114104E-07  0.118E-03    2.40       9.8  T
   8    -95.0568151 -0.218204E-07  0.592E-04    2.40      19.5  T
   9    -95.0568151 -0.179639E-08  0.310E-04    2.40      37.2  T
  10    -95.0568151 -0.140813E-08  0.139E-04    2.40      83.1  T
     SCC iter.                  ...        0 min,  0.140 sec
     gradient                   ...        0 min,  0.069 sec
 * total energy  :   -93.7741326 Eh     change       -0.6104850E-03 Eh
   gradient norm :     0.0223170 Eh/α   predicted    -0.6664290E-03 (   9.16%)
   displ. norm   :     0.5788353 α      lambda       -0.1016098E-02
   maximum displ.:     0.2597805 α      in ANC's #6, #9, #11, ...

........................................................................
.............................. CYCLE   34 ..............................
........................................................................

 iter      E             dE          RMSdq      gap      omega  full diag
   1    -95.0611114 -0.950611E+02  0.935E-02    2.43       0.0  T
   2    -95.0595560  0.155536E-02  0.155E-01    2.33       1.0  T
   3    -95.0614543 -0.189830E-02  0.453E-02    2.42       1.0  T
   4    -95.0615038 -0.494931E-04  0.258E-02    2.40       1.0  T
   5    -95.0615076 -0.376689E-05  0.165E-02    2.40       1.0  T
   6    -95.0615145 -0.689722E-05  0.389E-03    2.40       3.0  T
   7    -95.0615145 -0.490098E-08  0.141E-03    2.40       8.2  T
   8    -95.0615145 -0.431664E-07  0.730E-04    2.40      15.8  T
   9    -95.0615146 -0.291040E-08  0.376E-04    2.40      30.7  T
  10    -95.0615146 -0.160082E-08  0.146E-04    2.40      79.3  T
     SCC iter.                  ...        0 min,  0.119 sec
     gradient                   ...        0 min,  0.050 sec
 * total energy  :   -93.7747054 Eh     change       -0.5727465E-03 Eh
   gradient norm :     0.0111759 Eh/α   predicted    -0.6782729E-03 (  18.42%)
   displ. norm   :     0.5509301 α      lambda       -0.5920361E-03
   maximum displ.:     0.2449275 α      in ANC's #6, #9, #4, ...

........................................................................
.............................. CYCLE   35 ..............................
........................................................................

 iter      E             dE          RMSdq      gap      omega  full diag
   1    -95.0600053 -0.950600E+02  0.736E-02    2.40       0.0  T
   2    -95.0598687  0.136559E-03  0.620E-02    2.43       1.0  T
   3    -95.0597463  0.122397E-03  0.673E-02    2.38       1.0  T
   4    -95.0600462 -0.299816E-03  0.173E-02    2.41       1.0  T
   5    -95.0600466 -0.406404E-06  0.913E-03    2.41       1.3  T
   6    -95.0600496 -0.300974E-05  0.174E-03    2.41       6.6  T
   7    -95.0600496 -0.186449E-07  0.898E-04    2.41      12.9  T
   8    -95.0600496 -0.469350E-08  0.366E-04    2.41      31.5  T
   9    -95.0600496 -0.409685E-09  0.185E-04    2.41      62.3  T
     SCC iter.                  ...        0 min,  0.102 sec
     gradient                   ...        0 min,  0.059 sec
 * total energy  :   -93.7751075 Eh     change       -0.4021636E-03 Eh
   gradient norm :     0.0071072 Eh/α   predicted    -0.3858724E-03 (  -4.05%)
   displ. norm   :     0.4465013 α      lambda       -0.5104223E-03
   maximum displ.:     0.1893599 α      in ANC's #6, #4, #11, ...

........................................................................
.............................. CYCLE   36 ..............................
........................................................................

 iter      E             dE          RMSdq      gap      omega  full diag
   1    -95.0634005 -0.950634E+02  0.549E-02    2.42       0.0  T
   2    -95.0633328  0.676280E-04  0.447E-02    2.44       1.0  T
   3    -95.0632510  0.818456E-04  0.501E-02    2.40       1.0  T
   4    -95.0634191 -0.168095E-03  0.147E-02    2.43       1.0  T
   5    -95.0634221 -0.304256E-05  0.411E-03    2.43       2.8  T
   6    -95.0634227 -0.575423E-06  0.149E-03    2.43       7.7  T
   7    -95.0634227 -0.314662E-07  0.899E-04    2.43      12.8  T
   8    -95.0634227 -0.974680E-08  0.375E-04    2.43      30.8  T
   9    -95.0634227 -0.191730E-08  0.127E-04    2.43      90.6  T
     SCC iter.                  ...        0 min,  0.092 sec
     gradient                   ...        0 min,  0.055 sec
 * total energy  :   -93.7753842 Eh     change       -0.2766297E-03 Eh
   gradient norm :     0.0107349 Eh/α   predicted    -0.3060918E-03 (  10.65%)
   displ. norm   :     0.4711927 α      lambda       -0.3696604E-03
   maximum displ.:     0.2205528 α      in ANC's #6, #11, #4, ...

........................................................................
.............................. CYCLE   37 ..............................
........................................................................

 iter      E             dE          RMSdq      gap      omega  full diag
   1    -95.0604037 -0.950604E+02  0.708E-02    2.42       0.0  T
   2    -95.0603912  0.124547E-04  0.436E-02    2.41       1.0  T
   3    -95.0602448  0.146404E-03  0.499E-02    2.44       1.0  T
   4    -95.0603529 -0.108049E-03  0.302E-02    2.40       1.0  T
   5    -95.0604167 -0.637945E-04  0.457E-03    2.42       2.5  T
   6    -95.0604168 -0.138622E-06  0.223E-03    2.42       5.2  T
   7    -95.0604169 -0.957610E-07  0.990E-04    2.42      11.7  T
   8    -95.0604169 -0.559997E-08  0.444E-04    2.42      26.0  T
   9    -95.0604169 -0.232920E-08  0.149E-04    2.42      77.6  T
     SCC iter.                  ...        0 min,  0.101 sec
     gradient                   ...        0 min,  0.048 sec
 * total energy  :   -93.7756127 Eh     change       -0.2285209E-03 Eh
   gradient norm :     0.0091436 Eh/α   predicted    -0.2258716E-03 (  -1.16%)
   displ. norm   :     0.2704041 α      lambda       -0.1989467E-03
   maximum displ.:     0.1064279 α      in ANC's #6, #4, #11, ...

........................................................................
.............................. CYCLE   38 ..............................
........................................................................

 iter      E             dE          RMSdq      gap      omega  full diag
   1    -95.0624584 -0.950625E+02  0.447E-02    2.43       0.0  T
   2    -95.0623849  0.735162E-04  0.405E-02    2.40       1.0  T
   3    -95.0623793  0.562915E-05  0.382E-02    2.44       1.0  T
   4    -95.0624756 -0.963672E-04  0.117E-02    2.42       1.0  T
   5    -95.0624773 -0.165899E-05  0.376E-03    2.42       3.1  T
   6    -95.0624777 -0.379384E-06  0.133E-03    2.42       8.7  T
   7    -95.0624777 -0.210211E-07  0.528E-04    2.42      21.8  T
   8    -95.0624777 -0.733536E-09  0.265E-04    2.42      43.6  T
   9    -95.0624777  0.312909E-09  0.153E-04    2.42      75.3  T
     SCC iter.                  ...        0 min,  0.106 sec
     gradient                   ...        0 min,  0.050 sec
 * total energy  :   -93.7757411 Eh     change       -0.1283897E-03 Eh
   gradient norm :     0.0042059 Eh/α   predicted    -0.1067478E-03 ( -16.86%)
   displ. norm   :     0.2789318 α      lambda       -0.1470615E-03
   maximum displ.:     0.1236875 α      in ANC's #6, #7, #11, ...

........................................................................
.............................. CYCLE   39 ..............................
........................................................................

 iter      E             dE          RMSdq      gap      omega  full diag
   1    -95.0608804 -0.950609E+02  0.432E-02    2.43       0.0  T
   2    -95.0608763  0.407147E-05  0.284E-02    2.42       1.0  T
   3    -95.0608394  0.368960E-04  0.277E-02    2.44       1.0  T
   4    -95.0608456 -0.615422E-05  0.233E-02    2.42       1.0  T
   5    -95.0608851 -0.395148E-04  0.457E-03    2.43       2.5  T
   6    -95.0608853 -0.184282E-06  0.110E-03    2.43      10.5  T
   7    -95.0608853 -0.634985E-08  0.570E-04    2.43      20.3  T
   8    -95.0608853 -0.129096E-08  0.212E-04    2.43      54.5  T
   9    -95.0608853  0.455742E-10  0.917E-05    2.43     125.9  T
     SCC iter.                  ...        0 min,  0.086 sec
     gradient                   ...        0 min,  0.047 sec
 * total energy  :   -93.7758291 Eh     change       -0.8801108E-04 Eh
   gradient norm :     0.0043330 Eh/α   predicted    -0.7925430E-04 (  -9.95%)
   displ. norm   :     0.1761621 α      lambda       -0.9419208E-04
   maximum displ.:     0.0781991 α      in ANC's #9, #8, #7, ...

........................................................................
.............................. CYCLE   40 ..............................
........................................................................

 iter      E             dE          RMSdq      gap      omega  full diag
   1    -95.0624511 -0.950625E+02  0.297E-02    2.43       0.0  T
   2    -95.0624521 -0.106444E-05  0.194E-02    2.43       1.0  T
   3    -95.0624496  0.256370E-05  0.166E-02    2.43       1.0  T
   4    -95.0624491  0.512689E-06  0.863E-03    2.43       1.3  T
   5    -95.0624509 -0.187280E-05  0.603E-03    2.42       1.9  T
   6    -95.0624541 -0.314248E-05  0.752E-04    2.43      15.4  T
   7    -95.0624541 -0.143367E-07  0.371E-04    2.43      31.1  T
   8    -95.0624541 -0.194025E-08  0.140E-04    2.43      82.6  T
     SCC iter.                  ...        0 min,  0.082 sec
     gradient                   ...        0 min,  0.052 sec
 * total energy  :   -93.7758920 Eh     change       -0.6293880E-04 Eh
   gradient norm :     0.0028765 Eh/α   predicted    -0.4856215E-04 ( -22.84%)
   displ. norm   :     0.1660350 α      lambda       -0.8151014E-04
   maximum displ.:     0.0770969 α      in ANC's #9, #7, #8, ...

........................................................................
.............................. CYCLE   41 ..............................
........................................................................

 iter      E             dE          RMSdq      gap      omega  full diag
   1    -95.0626929 -0.950627E+02  0.316E-02    2.43       0.0  T
   2    -95.0626942 -0.123134E-05  0.223E-02    2.43       1.0  T
   3    -95.0626954 -0.124042E-05  0.147E-02    2.43       1.0  T
   4    -95.0626949  0.480733E-06  0.539E-03    2.43       2.1  T
   5    -95.0626946  0.339639E-06  0.456E-03    2.43       2.5  T
   6    -95.0626963 -0.175262E-05  0.853E-04    2.43      13.5  T
   7    -95.0626964 -0.266258E-07  0.410E-04    2.43      28.2  T
   8    -95.0626964 -0.677801E-09  0.175E-04    2.43      66.1  T
     SCC iter.                  ...        0 min,  0.092 sec
     gradient                   ...        0 min,  0.050 sec
 * total energy  :   -93.7759491 Eh     change       -0.5709622E-04 Eh
   gradient norm :     0.0031773 Eh/α   predicted    -0.4188005E-04 ( -26.65%)
   displ. norm   :     0.1922382 α      lambda       -0.7597351E-04
   maximum displ.:     0.0949389 α      in ANC's #9, #12, #7, ...

........................................................................
.............................. CYCLE   42 ..............................
........................................................................

 iter      E             dE          RMSdq      gap      omega  full diag
   1    -95.0631188 -0.950631E+02  0.350E-02    2.43       0.0  T
   2    -95.0631137  0.508145E-05  0.254E-02    2.42       1.0  T
   3    -95.0630979  0.157878E-04  0.220E-02    2.44       1.0  T
   4    -95.0630902  0.765073E-05  0.214E-02    2.42       1.0  T
   5    -95.0631228 -0.325921E-04  0.246E-03    2.43       4.7  T
   6    -95.0631229 -0.956336E-07  0.689E-04    2.43      16.7  T
   7    -95.0631229 -0.102623E-07  0.405E-04    2.43      28.5  T
   8    -95.0631229 -0.280693E-09  0.177E-04    2.43      65.3  T
     SCC iter.                  ...        0 min,  0.081 sec
     gradient                   ...        0 min,  0.048 sec
 * total energy  :   -93.7760038 Eh     change       -0.5470300E-04 Eh
   gradient norm :     0.0026463 Eh/α   predicted    -0.3939577E-04 ( -27.98%)
   displ. norm   :     0.2187696 α      lambda       -0.7399157E-04
   maximum displ.:     0.0973291 α      in ANC's #9, #12, #7, ...
 * RMSD in coord.:     1.0314339 α      energy gain  -0.1802102E-01 Eh

generating ANC from exact Hessian ...
Using Lindh-Hessian (1995)
 Shifting diagonal of input Hessian by    1.0099749525055690E-002
 Lowest  eigenvalues of input Hessian
    0.010000    0.000000    0.000000    0.000000    0.000000    0.000000
    0.000000    0.010222    0.010242    0.010301    0.010352    0.010431
    0.010550    0.010563    0.010678    0.010906    0.010945    0.011025
 Highest eigenvalues
    1.619582    1.834343    1.897825    2.001760    2.024477    2.334145


........................................................................
.............................. CYCLE   43 ..............................
........................................................................

 iter      E             dE          RMSdq      gap      omega  full diag
   1    -95.0627760 -0.950628E+02  0.379E-02    2.43       0.0  T
   2    -95.0627766 -0.599453E-06  0.245E-02    2.43       1.0  T
   3    -95.0627732  0.344957E-05  0.196E-02    2.43       1.0  T
   4    -95.0627697  0.350588E-05  0.110E-02    2.43       1.0  T
   5    -95.0627782 -0.847413E-05  0.355E-03    2.43       3.3  T
   6    -95.0627792 -0.101002E-05  0.694E-04    2.43      16.6  T
   7    -95.0627792 -0.392623E-08  0.405E-04    2.43      28.5  T
   8    -95.0627792 -0.916359E-09  0.176E-04    2.43      65.4  T
     SCC iter.                  ...        0 min,  0.089 sec
     gradient                   ...        0 min,  0.050 sec
 * total energy  :   -93.7760573 Eh     change       -0.5346805E-04 Eh
   gradient norm :     0.0027912 Eh/α   predicted     0.0000000E+00 (-100.00%)
   displ. norm   :     0.0439646 α      lambda       -0.4092536E-04
   maximum displ.:     0.0150194 α      in ANC's #5, #2, #15, ...

........................................................................
.............................. CYCLE   44 ..............................
........................................................................

 iter      E             dE          RMSdq      gap      omega  full diag
   1    -95.0632003 -0.950632E+02  0.148E-02    2.43       0.0  T
   2    -95.0632005 -0.202638E-06  0.102E-02    2.43       1.1  T
   3    -95.0632005  0.336488E-07  0.583E-03    2.43       2.0  T
   4    -95.0631979  0.261896E-05  0.656E-03    2.42       1.8  T
   5    -95.0632004 -0.256757E-05  0.257E-03    2.43       4.5  T
   6    -95.0632010 -0.523722E-06  0.362E-04    2.43      31.9  T
   7    -95.0632010 -0.843940E-09  0.181E-04    2.43      63.8  T
   8    -95.0632010 -0.253181E-09  0.663E-05    2.43     174.0  T
     SCC iter.                  ...        0 min,  0.086 sec
     gradient                   ...        0 min,  0.055 sec
 * total energy  :   -93.7760902 Eh     change       -0.3293839E-04 Eh
   gradient norm :     0.0014641 Eh/α   predicted    -0.2053996E-04 ( -37.64%)
   displ. norm   :     0.2421791 α      lambda       -0.1070502E-03
   maximum displ.:     0.0863805 α      in ANC's #2, #5, #36, ...

........................................................................
.............................. CYCLE   45 ..............................
........................................................................

 iter      E             dE          RMSdq      gap      omega  full diag
   1    -95.0637994 -0.950638E+02  0.605E-02    2.43       0.0  T
   2    -95.0638118 -0.123363E-04  0.473E-02    2.44       1.0  T
   3    -95.0638313 -0.195811E-04  0.233E-02    2.43       1.0  T
   4    -95.0638328 -0.150027E-05  0.106E-02    2.44       1.1  T
   5    -95.0638331 -0.276739E-06  0.246E-03    2.44       4.7  T
   6    -95.0638332 -0.433662E-07  0.127E-03    2.44       9.1  T
   7    -95.0638331  0.647118E-07  0.126E-03    2.44       9.2  T
   8    -95.0638332 -0.696007E-07  0.566E-04    2.44      20.4  T
   9    -95.0638332 -0.193881E-07  0.296E-04    2.44      39.0  T
  10    -95.0638332 -0.371536E-08  0.111E-04    2.44     103.6  T
     SCC iter.                  ...        0 min,  0.100 sec
     gradient                   ...        0 min,  0.064 sec
 * total energy  :   -93.7760519 Eh     change        0.3829718E-04 Eh
   gradient norm :     0.0076895 Eh/α   predicted    -0.5492034E-04 (-243.41%)
   displ. norm   :     0.0936765 α      lambda       -0.1929123E-03
   maximum displ.:     0.0340015 α      in ANC's #5, #2, #48, ...

........................................................................
.............................. CYCLE   46 ..............................
........................................................................

 iter      E             dE          RMSdq      gap      omega  full diag
   1    -95.0633546 -0.950634E+02  0.351E-02    2.43       0.0  T
   2    -95.0633498  0.473185E-05  0.229E-02    2.43       1.0  T
   3    -95.0633048  0.450503E-04  0.284E-02    2.42       1.0  T
   4    -95.0633464 -0.416648E-04  0.141E-02    2.44       1.0  T
   5    -95.0633594 -0.129900E-04  0.400E-03    2.43       2.9  T
   6    -95.0633598 -0.411633E-06  0.137E-03    2.43       8.4  T
   7    -95.0633599 -0.134593E-07  0.549E-04    2.43      21.0  T
   8    -95.0633599 -0.107266E-08  0.309E-04    2.43      37.4  T
   9    -95.0633599 -0.939139E-09  0.125E-04    2.43      92.0  T
     SCC iter.                  ...        0 min,  0.093 sec
     gradient                   ...        0 min,  0.047 sec
 * total energy  :   -93.7761188 Eh     change       -0.6689202E-04 Eh
   gradient norm :     0.0058952 Eh/α   predicted    -0.9730760E-04 (  45.47%)
   displ. norm   :     0.0944634 α      lambda       -0.1563206E-03
   maximum displ.:     0.0314200 α      in ANC's #45, #36, #24, ...

........................................................................
.............................. CYCLE   47 ..............................
........................................................................

 iter      E             dE          RMSdq      gap      omega  full diag
   1    -95.0631873 -0.950632E+02  0.331E-02    2.42       0.0  T
   2    -95.0631903 -0.304348E-05  0.221E-02    2.42       1.0  T
   3    -95.0631857  0.464710E-05  0.176E-02    2.42       1.0  T
   4    -95.0631780  0.774641E-05  0.155E-02    2.43       1.0  T
   5    -95.0631939 -0.159406E-04  0.582E-03    2.42       2.0  T
   6    -95.0631960 -0.211290E-05  0.219E-03    2.42       5.3  T
   7    -95.0631961 -0.597801E-07  0.939E-04    2.42      12.3  T
   8    -95.0631961 -0.325527E-07  0.428E-04    2.42      27.0  T
   9    -95.0631961 -0.161106E-08  0.190E-04    2.42      60.8  T
     SCC iter.                  ...        0 min,  0.104 sec
     gradient                   ...        0 min,  0.052 sec
 * total energy  :   -93.7761502 Eh     change       -0.3133126E-04 Eh
   gradient norm :     0.0031718 Eh/α   predicted    -0.7885991E-04 ( 151.70%)
   displ. norm   :     0.0451108 α      lambda       -0.8484357E-04
   maximum displ.:     0.0194293 α      in ANC's #21, #23, #19, ...

........................................................................
.............................. CYCLE   48 ..............................
........................................................................

 iter      E             dE          RMSdq      gap      omega  full diag
   1    -95.0634592 -0.950635E+02  0.261E-02    2.43       0.0  T
   2    -95.0634586  0.603247E-06  0.187E-02    2.43       1.0  T
   3    -95.0634554  0.323099E-05  0.133E-02    2.43       1.0  T
   4    -95.0634425  0.128534E-04  0.158E-02    2.42       1.0  T
   5    -95.0634622 -0.196879E-04  0.292E-03    2.43       4.0  T
   6    -95.0634624 -0.147483E-06  0.134E-03    2.43       8.6  T
   7    -95.0634624 -0.352705E-08  0.456E-04    2.43      25.3  T
   8    -95.0634624 -0.381648E-08  0.222E-04    2.43      52.0  T
     SCC iter.                  ...        0 min,  0.086 sec
     gradient                   ...        0 min,  0.050 sec
 * total energy  :   -93.7761848 Eh     change       -0.3468308E-04 Eh
   gradient norm :     0.0016457 Eh/α   predicted    -0.4250902E-04 (  22.56%)
   displ. norm   :     0.1194379 α      lambda       -0.3543404E-04
   maximum displ.:     0.0495893 α      in ANC's #2, #5, #3, ...

........................................................................
.............................. CYCLE   49 ..............................
........................................................................

 iter      E             dE          RMSdq      gap      omega  full diag
   1    -95.0633193 -0.950633E+02  0.241E-02    2.43       0.0  T
   2    -95.0633195 -0.289203E-06  0.159E-02    2.43       1.0  T
   3    -95.0633185  0.105402E-05  0.130E-02    2.43       1.0  T
   4    -95.0633170  0.145815E-05  0.892E-03    2.43       1.3  T
   5    -95.0633223 -0.530013E-05  0.437E-03    2.43       2.6  T
   6    -95.0633235 -0.116391E-05  0.854E-04    2.43      13.5  T
   7    -95.0633235 -0.243199E-08  0.407E-04    2.43      28.4  T
   8    -95.0633235 -0.750391E-08  0.164E-04    2.43      70.6  T
     SCC iter.                  ...        0 min,  0.089 sec
     gradient                   ...        0 min,  0.061 sec
 * total energy  :   -93.7762002 Eh     change       -0.1535802E-04 Eh
   gradient norm :     0.0026639 Eh/α   predicted    -0.1782968E-04 (  16.09%)
   displ. norm   :     0.0746875 α      lambda       -0.3257066E-04
   maximum displ.:     0.0350112 α      in ANC's #5, #2, #3, ...

........................................................................
.............................. CYCLE   50 ..............................
........................................................................

 iter      E             dE          RMSdq      gap      omega  full diag
   1    -95.0631413 -0.950631E+02  0.127E-02    2.43       0.0  T
   2    -95.0631400  0.128151E-05  0.967E-03    2.43       1.2  T
   3    -95.0631389  0.111799E-05  0.753E-03    2.43       1.5  T
   4    -95.0631389  0.206677E-07  0.685E-03    2.43       1.7  T
   5    -95.0631422 -0.335293E-05  0.115E-03    2.43      10.1  T
   6    -95.0631423 -0.185054E-07  0.506E-04    2.43      22.8  T
   7    -95.0631423 -0.156632E-08  0.202E-04    2.43      57.1  T
   8    -95.0631423 -0.680316E-09  0.106E-04    2.43     109.1  T
     SCC iter.                  ...        0 min,  0.098 sec
     gradient                   ...        0 min,  0.050 sec
 * total energy  :   -93.7762264 Eh     change       -0.2621079E-04 Eh
   gradient norm :     0.0017943 Eh/α   predicted    -0.1637662E-04 ( -37.52%)
   displ. norm   :     0.2919582 α      lambda       -0.6888666E-04
   maximum displ.:     0.1363235 α      in ANC's #5, #2, #3, ...

........................................................................
.............................. CYCLE   51 ..............................
........................................................................

 iter      E             dE          RMSdq      gap      omega  full diag
   1    -95.0626984 -0.950627E+02  0.406E-02    2.43       0.0  T
   2    -95.0626986 -0.215190E-06  0.259E-02    2.42       1.0  T
   3    -95.0626813  0.172848E-04  0.244E-02    2.42       1.0  T
   4    -95.0626861 -0.486322E-05  0.169E-02    2.43       1.0  T
   5    -95.0627058 -0.196313E-04  0.601E-03    2.42       1.9  T
   6    -95.0627080 -0.226368E-05  0.139E-03    2.42       8.3  T
   7    -95.0627081 -0.354133E-07  0.587E-04    2.42      19.7  T
   8    -95.0627081 -0.131783E-07  0.239E-04    2.42      48.3  T
   9    -95.0627081 -0.179540E-09  0.117E-04    2.42      98.6  T
     SCC iter.                  ...        0 min,  0.086 sec
     gradient                   ...        0 min,  0.046 sec
 * total energy  :   -93.7762770 Eh     change       -0.5060980E-04 Eh
   gradient norm :     0.0029230 Eh/α   predicted    -0.3574853E-04 ( -29.36%)
   displ. norm   :     0.1454430 α      lambda       -0.3762550E-04
   maximum displ.:     0.0675825 α      in ANC's #5, #2, #3, ...

........................................................................
.............................. CYCLE   52 ..............................
........................................................................

 iter      E             dE          RMSdq      gap      omega  full diag
   1    -95.0628278 -0.950628E+02  0.196E-02    2.43       0.0  T
   2    -95.0628277  0.155257E-06  0.120E-02    2.43       1.0  T
   3    -95.0628206  0.701936E-05  0.124E-02    2.42       1.0  T
   4    -95.0628230 -0.235176E-05  0.796E-03    2.43       1.5  T
   5    -95.0628283 -0.535094E-05  0.134E-03    2.43       8.6  T
   6    -95.0628284 -0.696810E-07  0.627E-04    2.43      18.4  T
   7    -95.0628284 -0.491353E-08  0.234E-04    2.43      49.4  T
   8    -95.0628284 -0.105103E-09  0.115E-04    2.43     100.8  T
     SCC iter.                  ...        0 min,  0.074 sec
     gradient                   ...        0 min,  0.049 sec
 * total energy  :   -93.7763063 Eh     change       -0.2925852E-04 Eh
   gradient norm :     0.0025157 Eh/α   predicted    -0.1921085E-04 ( -34.34%)
   displ. norm   :     0.2833516 α      lambda       -0.6548362E-04
   maximum displ.:     0.1349712 α      in ANC's #5, #2, #3, ...

........................................................................
.............................. CYCLE   53 ..............................
........................................................................

 iter      E             dE          RMSdq      gap      omega  full diag
   1    -95.0630485 -0.950630E+02  0.358E-02    2.43       0.0  T
   2    -95.0630489 -0.395090E-06  0.213E-02    2.43       1.0  T
   3    -95.0630459  0.293312E-05  0.131E-02    2.43       1.0  T
   4    -95.0630462 -0.232434E-06  0.637E-03    2.43       1.8  T
   5    -95.0630487 -0.252109E-05  0.262E-03    2.43       4.4  T
   6    -95.0630492 -0.508573E-06  0.760E-04    2.43      15.2  T
   7    -95.0630492 -0.854747E-08  0.304E-04    2.43      38.0  T
   8    -95.0630492 -0.333415E-09  0.151E-04    2.43      76.6  T
     SCC iter.                  ...        0 min,  0.088 sec
     gradient                   ...        0 min,  0.050 sec
 * total energy  :   -93.7763562 Eh     change       -0.4989445E-04 Eh
   gradient norm :     0.0013862 Eh/α   predicted    -0.3537187E-04 ( -29.11%)
   displ. norm   :     0.4876960 α      lambda       -0.5732148E-04
   maximum displ.:     0.2368926 α      in ANC's #5, #2, #3, ...

........................................................................
.............................. CYCLE   54 ..............................
........................................................................

 iter      E             dE          RMSdq      gap      omega  full diag
   1    -95.0629923 -0.950630E+02  0.647E-02    2.43       0.0  T
   2    -95.0629938 -0.156025E-05  0.391E-02    2.43       1.0  T
   3    -95.0629853  0.852166E-05  0.280E-02    2.42       1.0  T
   4    -95.0629847  0.663926E-06  0.130E-02    2.43       1.0  T
   5    -95.0629923 -0.766451E-05  0.631E-03    2.42       1.8  T
   6    -95.0629956 -0.328632E-05  0.132E-03    2.43       8.7  T
   7    -95.0629956 -0.368647E-07  0.586E-04    2.43      19.7  T
   8    -95.0629956 -0.298718E-08  0.245E-04    2.43      47.2  T
   9    -95.0629956 -0.749907E-10  0.122E-04    2.43      94.4  T
     SCC iter.                  ...        0 min,  0.091 sec
     gradient                   ...        0 min,  0.049 sec
 * total energy  :   -93.7764090 Eh     change       -0.5283148E-04 Eh
   gradient norm :     0.0023256 Eh/α   predicted    -0.3169418E-04 ( -40.01%)
   displ. norm   :     0.1915659 α      lambda       -0.3688781E-04
   maximum displ.:     0.0946688 α      in ANC's #5, #3, #2, ...

........................................................................
.............................. CYCLE   55 ..............................
........................................................................

 iter      E             dE          RMSdq      gap      omega  full diag
   1    -95.0634646 -0.950635E+02  0.274E-02    2.43       0.0  T
   2    -95.0634642  0.434315E-06  0.174E-02    2.42       1.0  T
   3    -95.0634560  0.819038E-05  0.158E-02    2.42       1.0  T
   4    -95.0634556  0.352477E-06  0.125E-02    2.43       1.0  T
   5    -95.0634670 -0.113829E-04  0.331E-03    2.42       3.5  T
   6    -95.0634676 -0.606545E-06  0.700E-04    2.42      16.5  T
   7    -95.0634676 -0.622342E-08  0.320E-04    2.42      36.1  T
   8    -95.0634676 -0.241184E-08  0.164E-04    2.42      70.5  T
     SCC iter.                  ...        0 min,  0.082 sec
     gradient                   ...        0 min,  0.049 sec
 * total energy  :   -93.7764390 Eh     change       -0.2998795E-04 Eh
   gradient norm :     0.0018937 Eh/α   predicted    -0.1912345E-04 ( -36.23%)
   displ. norm   :     0.4685437 α      lambda       -0.6973284E-04
   maximum displ.:     0.2267527 α      in ANC's #5, #3, #2, ...

........................................................................
.............................. CYCLE   56 ..............................
........................................................................

 iter      E             dE          RMSdq      gap      omega  full diag
   1    -95.0645728 -0.950646E+02  0.685E-02    2.42       0.0  T
   2    -95.0645704  0.232465E-05  0.419E-02    2.42       1.0  T
   3    -95.0644641  0.106286E-03  0.433E-02    2.41       1.0  T
   4    -95.0645272 -0.630885E-04  0.270E-02    2.43       1.0  T
   5    -95.0645814 -0.541929E-04  0.647E-03    2.42       1.8  T
   6    -95.0645833 -0.188849E-05  0.158E-03    2.42       7.3  T
   7    -95.0645833 -0.308078E-07  0.769E-04    2.42      15.0  T
   8    -95.0645834 -0.176056E-07  0.331E-04    2.42      34.8  T
   9    -95.0645834 -0.680430E-09  0.126E-04    2.42      91.8  T
     SCC iter.                  ...        0 min,  0.095 sec
     gradient                   ...        0 min,  0.054 sec
 * total energy  :   -93.7765096 Eh     change       -0.7061088E-04 Eh
   gradient norm :     0.0023460 Eh/α   predicted    -0.3827084E-04 ( -45.80%)
   displ. norm   :     0.3458022 α      lambda       -0.5719358E-04
   maximum displ.:     0.1668198 α      in ANC's #5, #3, #2, ...

........................................................................
.............................. CYCLE   57 ..............................
........................................................................

 iter      E             dE          RMSdq      gap      omega  full diag
   1    -95.0628331 -0.950628E+02  0.515E-02    2.42       0.0  T
   2    -95.0628265  0.663039E-05  0.329E-02    2.42       1.0  T
   3    -95.0627294  0.971237E-04  0.396E-02    2.40       1.0  T
   4    -95.0628042 -0.747914E-04  0.219E-02    2.43       1.0  T
   5    -95.0628388 -0.346120E-04  0.375E-03    2.42       3.1  T
   6    -95.0628392 -0.367183E-06  0.105E-03    2.42      10.9  T
   7    -95.0628392  0.237721E-08  0.620E-04    2.42      18.6  T
   8    -95.0628392 -0.871403E-08  0.279E-04    2.42      41.3  T
   9    -95.0628392 -0.366768E-09  0.972E-05    2.42     118.7  T
     SCC iter.                  ...        0 min,  0.101 sec
     gradient                   ...        0 min,  0.051 sec
 * total energy  :   -93.7765502 Eh     change       -0.4061018E-04 Eh
   gradient norm :     0.0023050 Eh/α   predicted    -0.3201847E-04 ( -21.16%)
   displ. norm   :     0.2874181 α      lambda       -0.5558663E-04
   maximum displ.:     0.1299412 α      in ANC's #5, #3, #4, ...

........................................................................
.............................. CYCLE   58 ..............................
........................................................................

 iter      E             dE          RMSdq      gap      omega  full diag
   1    -95.0630096 -0.950630E+02  0.422E-02    2.42       0.0  T
   2    -95.0630076  0.196331E-05  0.257E-02    2.42       1.0  T
   3    -95.0629230  0.845654E-04  0.333E-02    2.41       1.0  T
   4    -95.0630055 -0.824748E-04  0.899E-03    2.43       1.3  T
   5    -95.0630107 -0.520868E-05  0.115E-03    2.42      10.1  T
   6    -95.0630107 -0.730364E-08  0.709E-04    2.42      16.3  T
   7    -95.0630107 -0.289347E-09  0.344E-04    2.42      33.6  T
   8    -95.0630107 -0.239881E-08  0.131E-04    2.42      88.0  T
     SCC iter.                  ...        0 min,  0.088 sec
     gradient                   ...        0 min,  0.050 sec
 * total energy  :   -93.7765925 Eh     change       -0.4232837E-04 Eh
   gradient norm :     0.0017303 Eh/α   predicted    -0.3009351E-04 ( -28.90%)
   displ. norm   :     0.3960418 α      lambda       -0.4801377E-04
   maximum displ.:     0.1756692 α      in ANC's #3, #5, #4, ...

........................................................................
.............................. CYCLE   59 ..............................
........................................................................

 iter      E             dE          RMSdq      gap      omega  full diag
   1    -95.0626034 -0.950626E+02  0.604E-02    2.42       0.0  T
   2    -95.0626016  0.186449E-05  0.366E-02    2.43       1.0  T
   3    -95.0625190  0.825293E-04  0.380E-02    2.41       1.0  T
   4    -95.0625756 -0.565572E-04  0.194E-02    2.43       1.0  T
   5    -95.0626058 -0.302212E-04  0.221E-03    2.42       5.2  T
   6    -95.0626059 -0.561601E-07  0.110E-03    2.42      10.5  T
   7    -95.0626059 -0.143503E-07  0.459E-04    2.42      25.2  T
   8    -95.0626059 -0.763407E-09  0.235E-04    2.42      49.0  T
     SCC iter.                  ...        0 min,  0.088 sec
     gradient                   ...        0 min,  0.052 sec
 * total energy  :   -93.7766345 Eh     change       -0.4200274E-04 Eh
   gradient norm :     0.0026774 Eh/α   predicted    -0.2568414E-04 ( -38.85%)
   displ. norm   :     0.0959283 α      lambda       -0.2712534E-04
   maximum displ.:     0.0419450 α      in ANC's #4, #6, #1, ...

........................................................................
.............................. CYCLE   60 ..............................
........................................................................

 iter      E             dE          RMSdq      gap      omega  full diag
   1    -95.0637901 -0.950638E+02  0.149E-02    2.42       0.0  T
   2    -95.0637899  0.189400E-06  0.902E-03    2.43       1.3  T
   3    -95.0637833  0.658005E-05  0.101E-02    2.42       1.1  T
   4    -95.0637882 -0.485405E-05  0.518E-03    2.43       2.2  T
   5    -95.0637903 -0.209549E-05  0.560E-04    2.42      20.6  T
   6    -95.0637903 -0.103169E-07  0.267E-04    2.42      43.2  T
   7    -95.0637903 -0.422290E-09  0.131E-04    2.42      88.0  T
     SCC iter.                  ...        0 min,  0.081 sec
     gradient                   ...        0 min,  0.060 sec
 * total energy  :   -93.7766563 Eh     change       -0.2175286E-04 Eh
   gradient norm :     0.0017377 Eh/α   predicted    -0.1368932E-04 ( -37.07%)
   displ. norm   :     0.5015287 α      lambda       -0.7362106E-04
   maximum displ.:     0.2183260 α      in ANC's #3, #4, #5, ...

........................................................................
.............................. CYCLE   61 ..............................
........................................................................

 iter      E             dE          RMSdq      gap      omega  full diag
   1    -95.0630845 -0.950631E+02  0.810E-02    2.43       0.0  T
   2    -95.0630838  0.693972E-06  0.484E-02    2.43       1.0  T
   3    -95.0629835  0.100297E-03  0.419E-02    2.41       1.0  T
   4    -95.0630165 -0.329194E-04  0.298E-02    2.44       1.0  T
   5    -95.0630890 -0.725852E-04  0.353E-03    2.42       3.3  T
   6    -95.0630895 -0.489238E-06  0.142E-03    2.42       8.1  T
   7    -95.0630895 -0.964133E-08  0.812E-04    2.42      14.2  T
   8    -95.0630896 -0.722412E-08  0.274E-04    2.42      42.1  T
   9    -95.0630896 -0.708809E-09  0.105E-04    2.42     109.9  T
     SCC iter.                  ...        0 min,  0.098 sec
     gradient                   ...        0 min,  0.051 sec
 * total energy  :   -93.7767232 Eh     change       -0.6692168E-04 Eh
   gradient norm :     0.0036201 Eh/α   predicted    -0.4092787E-04 ( -38.84%)
   displ. norm   :     0.2169170 α      lambda       -0.6560158E-04
   maximum displ.:     0.1007359 α      in ANC's #4, #6, #1, ...

........................................................................
.............................. CYCLE   62 ..............................
........................................................................

 iter      E             dE          RMSdq      gap      omega  full diag
   1    -95.0638797 -0.950639E+02  0.339E-02    2.43       0.0  T
   2    -95.0638802 -0.496302E-06  0.202E-02    2.42       1.0  T
   3    -95.0638741  0.608349E-05  0.139E-02    2.42       1.0  T
   4    -95.0638649  0.925562E-05  0.142E-02    2.43       1.0  T
   5    -95.0638807 -0.158371E-04  0.256E-03    2.42       4.5  T
   6    -95.0638811 -0.384378E-06  0.673E-04    2.42      17.2  T
   7    -95.0638811 -0.228273E-08  0.371E-04    2.42      31.2  T
   8    -95.0638811 -0.866720E-09  0.119E-04    2.42      97.2  T
     SCC iter.                  ...        0 min,  0.087 sec
     gradient                   ...        0 min,  0.048 sec
 * total energy  :   -93.7767749 Eh     change       -0.5164458E-04 Eh
   gradient norm :     0.0027974 Eh/α   predicted    -0.3434572E-04 ( -33.50%)
   displ. norm   :     0.4609780 α      lambda       -0.1148743E-03
   maximum displ.:     0.2186246 α      in ANC's #4, #3, #6, ...

........................................................................
.............................. CYCLE   63 ..............................
........................................................................

 iter      E             dE          RMSdq      gap      omega  full diag
   1    -95.0627322 -0.950627E+02  0.707E-02    2.43       0.0  T
   2    -95.0627364 -0.425502E-05  0.419E-02    2.42       1.0  T
   3    -95.0627182  0.182197E-04  0.286E-02    2.42       1.0  T
   4    -95.0627248 -0.660995E-05  0.170E-02    2.43       1.0  T
   5    -95.0627331 -0.834594E-05  0.973E-03    2.42       1.2  T
   6    -95.0627412 -0.800829E-05  0.160E-03    2.42       7.2  T
   7    -95.0627412 -0.560495E-07  0.817E-04    2.42      14.1  T
   8    -95.0627412 -0.521074E-08  0.280E-04    2.42      41.3  T
   9    -95.0627412 -0.116412E-08  0.148E-04    2.42      78.0  T
     SCC iter.                  ...        0 min,  0.111 sec
     gradient                   ...        0 min,  0.051 sec
 * total energy  :   -93.7768610 Eh     change       -0.8617492E-04 Eh
   gradient norm :     0.0025468 Eh/α   predicted    -0.6964438E-04 ( -19.18%)
   displ. norm   :     0.3398158 α      lambda       -0.1014756E-03
   maximum displ.:     0.1655432 α      in ANC's #4, #1, #6, ...

........................................................................
.............................. CYCLE   64 ..............................
........................................................................

 iter      E             dE          RMSdq      gap      omega  full diag
   1    -95.0635858 -0.950636E+02  0.506E-02    2.43       0.0  T
   2    -95.0635857  0.308992E-07  0.304E-02    2.42       1.0  T
   3    -95.0635412  0.445476E-04  0.307E-02    2.44       1.0  T
   4    -95.0635530 -0.118019E-04  0.228E-02    2.41       1.0  T
   5    -95.0635918 -0.388107E-04  0.758E-03    2.42       1.5  T
   6    -95.0635938 -0.198297E-05  0.139E-03    2.42       8.3  T
   7    -95.0635938 -0.398638E-07  0.637E-04    2.42      18.1  T
   8    -95.0635938 -0.175160E-08  0.283E-04    2.42      40.8  T
   9    -95.0635938 -0.168285E-08  0.119E-04    2.42      96.7  T
     SCC iter.                  ...        0 min,  0.101 sec
     gradient                   ...        0 min,  0.062 sec
 * total energy  :   -93.7769254 Eh     change       -0.6438565E-04 Eh
   gradient norm :     0.0025926 Eh/α   predicted    -0.5659972E-04 ( -12.09%)
   displ. norm   :     0.3853516 α      lambda       -0.6716987E-04
   maximum displ.:     0.1891891 α      in ANC's #4, #1, #3, ...

........................................................................
.............................. CYCLE   65 ..............................
........................................................................

 iter      E             dE          RMSdq      gap      omega  full diag
   1    -95.0616420 -0.950616E+02  0.572E-02    2.43       0.0  T
   2    -95.0616441 -0.213294E-05  0.338E-02    2.42       1.0  T
   3    -95.0616248  0.192450E-04  0.236E-02    2.42       1.0  T
   4    -95.0616311 -0.626374E-05  0.154E-02    2.43       1.0  T
   5    -95.0616427 -0.116179E-04  0.733E-03    2.42       1.6  T
   6    -95.0616470 -0.427624E-05  0.139E-03    2.42       8.3  T
   7    -95.0616470 -0.329114E-07  0.728E-04    2.42      15.9  T
   8    -95.0616470 -0.625704E-08  0.229E-04    2.42      50.3  T
   9    -95.0616470 -0.225782E-09  0.127E-04    2.42      90.9  T
     SCC iter.                  ...        0 min,  0.121 sec
     gradient                   ...        0 min,  0.065 sec
 * total energy  :   -93.7769589 Eh     change       -0.3352213E-04 Eh
   gradient norm :     0.0046656 Eh/α   predicted    -0.3857478E-04 (  15.07%)
   displ. norm   :     0.1317852 α      lambda       -0.7862828E-04
   maximum displ.:     0.0487695 α      in ANC's #15, #2, #12, ...

........................................................................
.............................. CYCLE   66 ..............................
........................................................................

 iter      E             dE          RMSdq      gap      omega  full diag
   1    -95.0650234 -0.950650E+02  0.212E-02    2.42       0.0  T
   2    -95.0650214  0.197414E-05  0.139E-02    2.42       1.0  T
   3    -95.0650073  0.140851E-04  0.162E-02    2.43       1.0  T
   4    -95.0650176 -0.102988E-04  0.959E-03    2.42       1.2  T
   5    -95.0650245 -0.692086E-05  0.124E-03    2.42       9.3  T
   6    -95.0650246 -0.193759E-07  0.691E-04    2.42      16.7  T
   7    -95.0650246 -0.112723E-07  0.284E-04    2.42      40.7  T
   8    -95.0650246 -0.268429E-09  0.113E-04    2.42     102.0  T
     SCC iter.                  ...        0 min,  0.108 sec
     gradient                   ...        0 min,  0.057 sec
 * total energy  :   -93.7769995 Eh     change       -0.4054551E-04 Eh
   gradient norm :     0.0030491 Eh/α   predicted    -0.3999805E-04 (  -1.35%)
   displ. norm   :     0.1309116 α      lambda       -0.3814652E-04
   maximum displ.:     0.0633842 α      in ANC's #4, #1, #6, ...
 * RMSD in coord.:     0.5306783 α      energy gain  -0.9956661E-03 Eh

generating ANC from exact Hessian ...
Using Lindh-Hessian (1995)
 Shifting diagonal of input Hessian by    1.0105848392645942E-002
 Lowest  eigenvalues of input Hessian
    0.010000    0.000000    0.000000    0.000000    0.000000    0.000000
    0.000000    0.010229    0.010287    0.010326    0.010372    0.010500
    0.010568    0.010610    0.010791    0.010943    0.010993    0.011128
 Highest eigenvalues
    1.620725    1.842415    1.899791    2.003041    2.026717    2.333588


........................................................................
.............................. CYCLE   67 ..............................
........................................................................

 iter      E             dE          RMSdq      gap      omega  full diag
   1    -95.0644139 -0.950644E+02  0.206E-02    2.42       0.0  T
   2    -95.0644138  0.691184E-07  0.127E-02    2.42       1.0  T
   3    -95.0644093  0.448958E-05  0.116E-02    2.42       1.0  T
   4    -95.0644078  0.159089E-05  0.922E-03    2.43       1.3  T
   5    -95.0644144 -0.659540E-05  0.119E-03    2.42       9.7  T
   6    -95.0644144 -0.574621E-07  0.451E-04    2.42      25.6  T
   7    -95.0644144 -0.229394E-08  0.220E-04    2.42      52.6  T
     SCC iter.                  ...        0 min,  0.095 sec
     gradient                   ...        0 min,  0.061 sec
 * total energy  :   -93.7770288 Eh     change       -0.2933032E-04 Eh
   gradient norm :     0.0016036 Eh/α   predicted     0.0000000E+00 (-100.00%)
   displ. norm   :     0.0475083 α      lambda       -0.1897396E-04
   maximum displ.:     0.0175227 α      in ANC's #9, #19, #3, ...

........................................................................
.............................. CYCLE   68 ..............................
........................................................................

 iter      E             dE          RMSdq      gap      omega  full diag
   1    -95.0641766 -0.950642E+02  0.124E-02    2.42       0.0  T
   2    -95.0641736  0.305542E-05  0.984E-03    2.43       1.2  T
   3    -95.0641680  0.561768E-05  0.117E-02    2.42       1.0  T
   4    -95.0641772 -0.921114E-05  0.366E-03    2.43       3.2  T
   5    -95.0641776 -0.423169E-06  0.143E-03    2.43       8.1  T
   6    -95.0641777 -0.710309E-07  0.523E-04    2.43      22.1  T
   7    -95.0641777 -0.884710E-08  0.171E-04    2.43      67.7  T
   8    -95.0641777 -0.106327E-08  0.649E-05    2.43     177.9  T
     SCC iter.                  ...        0 min,  0.108 sec
     gradient                   ...        0 min,  0.060 sec
 * total energy  :   -93.7770496 Eh     change       -0.2073368E-04 Eh
   gradient norm :     0.0009599 Eh/α   predicted    -0.9512810E-05 ( -54.12%)
   displ. norm   :     0.1989146 α      lambda       -0.5868906E-04
   maximum displ.:     0.0727894 α      in ANC's #9, #26, #3, ...

........................................................................
.............................. CYCLE   69 ..............................
........................................................................

 iter      E             dE          RMSdq      gap      omega  full diag
   1    -95.0631622 -0.950632E+02  0.483E-02    2.42       0.0  T
   2    -95.0631475  0.146513E-04  0.323E-02    2.43       1.0  T
   3    -95.0630534  0.941401E-04  0.405E-02    2.40       1.0  T
   4    -95.0631434 -0.899747E-04  0.208E-02    2.43       1.0  T
   5    -95.0631689 -0.255547E-04  0.335E-03    2.42       3.5  T
   6    -95.0631691 -0.195361E-06  0.131E-03    2.42       8.8  T
   7    -95.0631691 -0.108911E-07  0.522E-04    2.42      22.1  T
   8    -95.0631691 -0.692467E-09  0.273E-04    2.42      42.2  T
   9    -95.0631691 -0.396909E-10  0.128E-04    2.42      90.4  T
     SCC iter.                  ...        0 min,  0.112 sec
     gradient                   ...        0 min,  0.064 sec
 * total energy  :   -93.7769968 Eh     change        0.5271495E-04 Eh
   gradient norm :     0.0062309 Eh/α   predicted    -0.2986111E-04 (-156.65%)
   displ. norm   :     0.0443736 α      lambda       -0.1307198E-03
   maximum displ.:     0.0162264 α      in ANC's #25, #9, #5, ...

........................................................................
.............................. CYCLE   70 ..............................
........................................................................

 iter      E             dE          RMSdq      gap      omega  full diag
   1    -95.0636680 -0.950637E+02  0.221E-02    2.42       0.0  T
   2    -95.0636637  0.426269E-05  0.169E-02    2.42       1.0  T
   3    -95.0636558  0.791436E-05  0.168E-02    2.43       1.0  T
   4    -95.0636650 -0.916909E-05  0.108E-02    2.42       1.1  T
   5    -95.0636714 -0.643759E-05  0.279E-03    2.43       4.1  T
   6    -95.0636718 -0.382146E-06  0.920E-04    2.43      12.5  T
   7    -95.0636718 -0.856862E-08  0.423E-04    2.43      27.3  T
   8    -95.0636718 -0.169415E-08  0.200E-04    2.43      57.8  T
     SCC iter.                  ...        0 min,  0.100 sec
     gradient                   ...        0 min,  0.057 sec
 * total energy  :   -93.7770767 Eh     change       -0.7985180E-04 Eh
   gradient norm :     0.0028989 Eh/α   predicted    -0.6548874E-04 ( -17.99%)
   displ. norm   :     0.0524611 α      lambda       -0.6140708E-04
   maximum displ.:     0.0194985 α      in ANC's #15, #48, #20, ...

........................................................................
.............................. CYCLE   71 ..............................
........................................................................

 iter      E             dE          RMSdq      gap      omega  full diag
   1    -95.0644425 -0.950644E+02  0.244E-02    2.43       0.0  T
   2    -95.0644437 -0.121888E-05  0.175E-02    2.43       1.0  T
   3    -95.0644448 -0.111154E-05  0.100E-02    2.43       1.2  T
   4    -95.0644369  0.792346E-05  0.108E-02    2.43       1.1  T
   5    -95.0644449 -0.800481E-05  0.441E-03    2.44       2.6  T
   6    -95.0644461 -0.119690E-05  0.150E-03    2.43       7.7  T
   7    -95.0644461 -0.347877E-07  0.437E-04    2.43      26.4  T
   8    -95.0644461 -0.451878E-08  0.204E-04    2.43      56.5  T
     SCC iter.                  ...        0 min,  0.118 sec
     gradient                   ...        0 min,  0.067 sec
 * total energy  :   -93.7770815 Eh     change       -0.4850778E-05 Eh
   gradient norm :     0.0025111 Eh/α   predicted    -0.3078858E-04 ( 534.71%)
   displ. norm   :     0.0369685 α      lambda       -0.4448201E-04
   maximum displ.:     0.0129817 α      in ANC's #20, #5, #23, ...

........................................................................
.............................. CYCLE   72 ..............................
........................................................................

 iter      E             dE          RMSdq      gap      omega  full diag
   1    -95.0644949 -0.950645E+02  0.167E-02    2.43       0.0  T
   2    -95.0644953 -0.441926E-06  0.113E-02    2.43       1.0  T
   3    -95.0644944  0.908408E-06  0.778E-03    2.43       1.5  T
   4    -95.0644888  0.563994E-05  0.947E-03    2.44       1.2  T
   5    -95.0644960 -0.724035E-05  0.212E-03    2.43       5.5  T
   6    -95.0644962 -0.172390E-06  0.969E-04    2.43      11.9  T
   7    -95.0644962 -0.373666E-08  0.331E-04    2.43      34.9  T
   8    -95.0644962 -0.109118E-08  0.167E-04    2.43      69.1  T
     SCC iter.                  ...        0 min,  0.107 sec
     gradient                   ...        0 min,  0.063 sec
 * total energy  :   -93.7771027 Eh     change       -0.2117762E-04 Eh
   gradient norm :     0.0013766 Eh/α   predicted    -0.2227181E-04 (   5.17%)
   displ. norm   :     0.0790453 α      lambda       -0.1647629E-04
   maximum displ.:     0.0293971 α      in ANC's #5, #9, #8, ...

........................................................................
.............................. CYCLE   73 ..............................
........................................................................

 iter      E             dE          RMSdq      gap      omega  full diag
   1    -95.0639697 -0.950640E+02  0.222E-02    2.43       0.0  T
   2    -95.0639702 -0.517308E-06  0.146E-02    2.43       1.0  T
   3    -95.0639710 -0.738700E-06  0.101E-02    2.43       1.1  T
   4    -95.0639714 -0.463620E-06  0.434E-03    2.43       2.7  T
   5    -95.0639711  0.314722E-06  0.375E-03    2.43       3.1  T
   6    -95.0639722 -0.107644E-05  0.811E-04    2.43      14.2  T
   7    -95.0639722 -0.130299E-07  0.340E-04    2.43      34.0  T
   8    -95.0639722 -0.405839E-08  0.151E-04    2.43      76.6  T
     SCC iter.                  ...        0 min,  0.098 sec
     gradient                   ...        0 min,  0.053 sec
 * total energy  :   -93.7771091 Eh     change       -0.6378818E-05 Eh
   gradient norm :     0.0016254 Eh/α   predicted    -0.8261794E-05 (  29.52%)
   displ. norm   :     0.0795814 α      lambda       -0.1698958E-04
   maximum displ.:     0.0324001 α      in ANC's #5, #8, #9, ...

........................................................................
.............................. CYCLE   74 ..............................
........................................................................

 iter      E             dE          RMSdq      gap      omega  full diag
   1    -95.0638876 -0.950639E+02  0.192E-02    2.43       0.0  T
   2    -95.0638873  0.314066E-06  0.122E-02    2.43       1.0  T
   3    -95.0638830  0.429701E-05  0.105E-02    2.43       1.1  T
   4    -95.0638784  0.460175E-05  0.109E-02    2.42       1.1  T
   5    -95.0638883 -0.993831E-05  0.120E-03    2.43       9.6  T
   6    -95.0638883 -0.198710E-07  0.631E-04    2.43      18.3  T
   7    -95.0638884 -0.428803E-08  0.231E-04    2.43      50.0  T
   8    -95.0638884 -0.389335E-09  0.123E-04    2.43      94.2  T
     SCC iter.                  ...        0 min,  0.083 sec
     gradient                   ...        0 min,  0.054 sec
 * total energy  :   -93.7771276 Eh     change       -0.1847146E-04 Eh
   gradient norm :     0.0010142 Eh/α   predicted    -0.8519893E-05 ( -53.88%)
   displ. norm   :     0.1950363 α      lambda       -0.2794902E-04
   maximum displ.:     0.0876916 α      in ANC's #5, #8, #9, ...

........................................................................
.............................. CYCLE   75 ..............................
........................................................................

 iter      E             dE          RMSdq      gap      omega  full diag
   1    -95.0641025 -0.950641E+02  0.447E-02    2.43       0.0  T
   2    -95.0641010  0.158176E-05  0.284E-02    2.44       1.0  T
   3    -95.0640725  0.284911E-04  0.276E-02    2.42       1.0  T
   4    -95.0640713  0.121619E-05  0.208E-02    2.44       1.0  T
   5    -95.0641044 -0.331466E-04  0.388E-03    2.43       3.0  T
   6    -95.0641054 -0.989383E-06  0.107E-03    2.43      10.7  T
   7    -95.0641054 -0.504654E-08  0.472E-04    2.43      24.5  T
   8    -95.0641054 -0.684992E-09  0.239E-04    2.43      48.4  T
     SCC iter.                  ...        0 min,  0.081 sec
     gradient                   ...        0 min,  0.050 sec
 * total energy  :   -93.7771490 Eh     change       -0.2138507E-04 Eh
   gradient norm :     0.0019994 Eh/α   predicted    -0.1421146E-04 ( -33.54%)
   displ. norm   :     0.1758587 α      lambda       -0.1813775E-04
   maximum displ.:     0.0820841 α      in ANC's #5, #8, #9, ...

........................................................................
.............................. CYCLE   76 ..............................
........................................................................

 iter      E             dE          RMSdq      gap      omega  full diag
   1    -95.0637048 -0.950637E+02  0.391E-02    2.44       0.0  T
   2    -95.0637044  0.415694E-06  0.239E-02    2.43       1.0  T
   3    -95.0636831  0.212637E-04  0.223E-02    2.44       1.0  T
   4    -95.0636865 -0.342313E-05  0.151E-02    2.43       1.0  T
   5    -95.0637062 -0.197157E-04  0.303E-03    2.43       3.8  T
   6    -95.0637066 -0.402801E-06  0.786E-04    2.43      14.7  T
   7    -95.0637066 -0.110052E-07  0.352E-04    2.43      32.8  T
   8    -95.0637066 -0.826901E-09  0.178E-04    2.43      64.9  T
     SCC iter.                  ...        0 min,  0.098 sec
     gradient                   ...        0 min,  0.054 sec
 * total energy  :   -93.7771669 Eh     change       -0.1790469E-04 Eh
   gradient norm :     0.0017883 Eh/α   predicted    -0.9197515E-05 ( -48.63%)
   displ. norm   :     0.1910451 α      lambda       -0.2141341E-04
   maximum displ.:     0.0958160 α      in ANC's #5, #9, #8, ...

........................................................................
.............................. CYCLE   77 ..............................
........................................................................

 iter      E             dE          RMSdq      gap      omega  full diag
   1    -95.0638238 -0.950638E+02  0.434E-02    2.44       0.0  T
   2    -95.0638203  0.346830E-05  0.263E-02    2.43       1.0  T
   3    -95.0637253  0.949664E-04  0.359E-02    2.45       1.0  T
   4    -95.0638169 -0.915446E-04  0.109E-02    2.43       1.1  T
   5    -95.0638256 -0.866891E-05  0.156E-03    2.43       7.4  T
   6    -95.0638256 -0.572090E-07  0.859E-04    2.43      13.4  T
   7    -95.0638256 -0.244705E-07  0.335E-04    2.43      34.5  T
   8    -95.0638256 -0.808441E-09  0.176E-04    2.43      65.5  T
     SCC iter.                  ...        0 min,  0.085 sec
     gradient                   ...        0 min,  0.057 sec
 * total energy  :   -93.7771865 Eh     change       -0.1962263E-04 Eh
   gradient norm :     0.0013836 Eh/α   predicted    -0.1088258E-04 ( -44.54%)
   displ. norm   :     0.1689800 α      lambda       -0.1885324E-04
   maximum displ.:     0.0915696 α      in ANC's #5, #8, #9, ...

........................................................................
.............................. CYCLE   78 ..............................
........................................................................

 iter      E             dE          RMSdq      gap      omega  full diag
   1    -95.0645034 -0.950645E+02  0.384E-02    2.44       0.0  T
   2    -95.0645035 -0.597636E-07  0.230E-02    2.44       1.0  T
   3    -95.0644881  0.154218E-04  0.194E-02    2.43       1.0  T
   4    -95.0644941 -0.602127E-05  0.117E-02    2.44       1.0  T
   5    -95.0645042 -0.101266E-04  0.279E-03    2.44       4.1  T
   6    -95.0645047 -0.542452E-06  0.560E-04    2.44      20.6  T
   7    -95.0645047 -0.240136E-08  0.280E-04    2.44      41.3  T
   8    -95.0645047 -0.419732E-09  0.151E-04    2.44      76.5  T
     SCC iter.                  ...        0 min,  0.098 sec
     gradient                   ...        0 min,  0.060 sec
 * total energy  :   -93.7772044 Eh     change       -0.1786768E-04 Eh
   gradient norm :     0.0013407 Eh/α   predicted    -0.9549446E-05 ( -46.55%)
   displ. norm   :     0.2021463 α      lambda       -0.1459344E-04
   maximum displ.:     0.1073411 α      in ANC's #5, #8, #9, ...

........................................................................
.............................. CYCLE   79 ..............................
........................................................................

 iter      E             dE          RMSdq      gap      omega  full diag
   1    -95.0636450 -0.950636E+02  0.464E-02    2.44       0.0  T
   2    -95.0636455 -0.493668E-06  0.274E-02    2.44       1.0  T
   3    -95.0636426  0.288780E-05  0.154E-02    2.44       1.0  T
   4    -95.0636434 -0.794722E-06  0.620E-03    2.43       1.9  T
   5    -95.0636455 -0.205937E-05  0.308E-03    2.44       3.7  T
   6    -95.0636461 -0.683248E-06  0.744E-04    2.44      15.5  T
   7    -95.0636462 -0.920559E-08  0.305E-04    2.44      37.9  T
   8    -95.0636462 -0.146353E-08  0.153E-04    2.44      75.6  T
     SCC iter.                  ...        0 min,  0.101 sec
     gradient                   ...        0 min,  0.051 sec
 * total energy  :   -93.7772175 Eh     change       -0.1314851E-04 Eh
   gradient norm :     0.0011417 Eh/α   predicted    -0.7433985E-05 ( -43.46%)
   displ. norm   :     0.1241227 α      lambda       -0.1233972E-04
   maximum displ.:     0.0723950 α      in ANC's #5, #8, #4, ...

........................................................................
.............................. CYCLE   80 ..............................
........................................................................

 iter      E             dE          RMSdq      gap      omega  full diag
   1    -95.0644154 -0.950644E+02  0.280E-02    2.44       0.0  T
   2    -95.0644153  0.884772E-07  0.165E-02    2.44       1.0  T
   3    -95.0644055  0.983498E-05  0.136E-02    2.44       1.0  T
   4    -95.0644070 -0.153470E-05  0.104E-02    2.43       1.1  T
   5    -95.0644159 -0.889765E-05  0.137E-03    2.44       8.5  T
   6    -95.0644160 -0.603717E-07  0.448E-04    2.44      25.8  T
   7    -95.0644160 -0.119979E-08  0.189E-04    2.44      61.3  T
     SCC iter.                  ...        0 min,  0.073 sec
     gradient                   ...        0 min,  0.055 sec
 * total energy  :   -93.7772302 Eh     change       -0.1267381E-04 Eh
   gradient norm :     0.0010044 Eh/α   predicted    -0.6216130E-05 ( -50.95%)
   displ. norm   :     0.1621307 α      lambda       -0.1031956E-04
   maximum displ.:     0.0975330 α      in ANC's #5, #8, #4, ...

........................................................................
.............................. CYCLE   81 ..............................
........................................................................

 iter      E             dE          RMSdq      gap      omega  full diag
   1    -95.0643405 -0.950643E+02  0.364E-02    2.44       0.0  T
   2    -95.0643408 -0.241615E-06  0.214E-02    2.44       1.0  T
   3    -95.0643363  0.442533E-05  0.121E-02    2.44       1.0  T
   4    -95.0643327  0.364810E-05  0.983E-03    2.44       1.2  T
   5    -95.0643411 -0.836550E-05  0.120E-03    2.44       9.7  T
   6    -95.0643411 -0.380365E-07  0.571E-04    2.44      20.2  T
   7    -95.0643411 -0.245535E-08  0.235E-04    2.44      49.1  T
   8    -95.0643411 -0.541078E-09  0.125E-04    2.44      92.6  T
     SCC iter.                  ...        0 min,  0.092 sec
     gradient                   ...        0 min,  0.049 sec
 * total energy  :   -93.7772404 Eh     change       -0.1025099E-04 Eh
   gradient norm :     0.0007810 Eh/α   predicted    -0.5222623E-05 ( -49.05%)
   displ. norm   :     0.1063938 α      lambda       -0.6099142E-05
   maximum displ.:     0.0667892 α      in ANC's #5, #4, #8, ...

........................................................................
.............................. CYCLE   82 ..............................
........................................................................

 iter      E             dE          RMSdq      gap      omega  full diag
   1    -95.0642462 -0.950642E+02  0.237E-02    2.44       0.0  T
   2    -95.0642463 -0.888565E-07  0.141E-02    2.44       1.0  T
   3    -95.0642447  0.152924E-05  0.920E-03    2.44       1.3  T
   4    -95.0642450 -0.246957E-06  0.405E-03    2.44       2.8  T
   5    -95.0642463 -0.131302E-05  0.111E-03    2.44      10.4  T
   6    -95.0642464 -0.799272E-07  0.299E-04    2.44      38.6  T
   7    -95.0642464 -0.190767E-09  0.141E-04    2.44      81.8  T
     SCC iter.                  ...        0 min,  0.095 sec
     gradient                   ...        0 min,  0.058 sec
 * total energy  :   -93.7772470 Eh     change       -0.6536174E-05 Eh
   gradient norm :     0.0005355 Eh/α   predicted    -0.3069209E-05 ( -53.04%)
   displ. norm   :     0.0843224 α      lambda       -0.6232002E-05
   maximum displ.:     0.0558203 α      in ANC's #5, #4, #1, ...

........................................................................
.............................. CYCLE   83 ..............................
........................................................................

 iter      E             dE          RMSdq      gap      omega  full diag
   1    -95.0648518 -0.950649E+02  0.173E-02    2.44       0.0  T
   2    -95.0648516  0.206964E-06  0.105E-02    2.44       1.1  T
   3    -95.0648435  0.809185E-05  0.117E-02    2.44       1.0  T
   4    -95.0648497 -0.614026E-05  0.543E-03    2.44       2.1  T
   5    -95.0648520 -0.232550E-05  0.719E-04    2.44      16.1  T
   6    -95.0648520 -0.223233E-07  0.243E-04    2.44      47.5  T
   7    -95.0648520 -0.556099E-09  0.104E-04    2.44     110.7  T
     SCC iter.                  ...        0 min,  0.080 sec
     gradient                   ...        0 min,  0.055 sec
 * total energy  :   -93.7772532 Eh     change       -0.6282674E-05 Eh
   gradient norm :     0.0007344 Eh/α   predicted    -0.3130214E-05 ( -50.18%)
   displ. norm   :     0.1209741 α      lambda       -0.7893143E-05
   maximum displ.:     0.0756093 α      in ANC's #5, #1, #4, ...

........................................................................
.............................. CYCLE   84 ..............................
........................................................................

 iter      E             dE          RMSdq      gap      omega  full diag
   1    -95.0643307 -0.950643E+02  0.252E-02    2.44       0.0  T
   2    -95.0643301  0.575647E-06  0.151E-02    2.44       1.0  T
   3    -95.0642984  0.316542E-04  0.195E-02    2.43       1.0  T
   4    -95.0643305 -0.320840E-04  0.335E-03    2.44       3.5  T
   5    -95.0643310 -0.458070E-06  0.582E-04    2.44      19.8  T
   6    -95.0643310 -0.539261E-08  0.339E-04    2.44      34.0  T
   7    -95.0643310 -0.906468E-09  0.153E-04    2.44      75.6  T
     SCC iter.                  ...        0 min,  0.071 sec
     gradient                   ...        0 min,  0.048 sec
 * total energy  :   -93.7772611 Eh     change       -0.7844694E-05 Eh
   gradient norm :     0.0007734 Eh/α   predicted    -0.3975707E-05 ( -49.32%)
   displ. norm   :     0.1175501 α      lambda       -0.6730689E-05
   maximum displ.:     0.0746383 α      in ANC's #5, #1, #4, ...

........................................................................
.............................. CYCLE   85 ..............................
........................................................................

 iter      E             dE          RMSdq      gap      omega  full diag
   1    -95.0641600 -0.950642E+02  0.246E-02    2.44       0.0  T
   2    -95.0641602 -0.204196E-06  0.146E-02    2.44       1.0  T
   3    -95.0641594  0.838146E-06  0.973E-03    2.44       1.2  T
   4    -95.0641588  0.583936E-06  0.474E-03    2.44       2.4  T
   5    -95.0641601 -0.127959E-05  0.189E-03    2.44       6.1  T
   6    -95.0641604 -0.286466E-06  0.489E-04    2.44      23.6  T
   7    -95.0641604 -0.915510E-08  0.184E-04    2.44      62.7  T
     SCC iter.                  ...        0 min,  0.079 sec
     gradient                   ...        0 min,  0.054 sec
 * total energy  :   -93.7772676 Eh     change       -0.6497684E-05 Eh
   gradient norm :     0.0007316 Eh/α   predicted    -0.3388794E-05 ( -47.85%)
   displ. norm   :     0.1297255 α      lambda       -0.5996825E-05
   maximum displ.:     0.0811707 α      in ANC's #5, #1, #8, ...

........................................................................
.............................. CYCLE   86 ..............................
........................................................................

 iter      E             dE          RMSdq      gap      omega  full diag
   1    -95.0640619 -0.950641E+02  0.266E-02    2.44       0.0  T
   2    -95.0640620 -0.794109E-07  0.158E-02    2.44       1.0  T
   3    -95.0640577  0.428508E-05  0.114E-02    2.45       1.0  T
   4    -95.0640553  0.239447E-05  0.886E-03    2.44       1.3  T
   5    -95.0640622 -0.687445E-05  0.189E-03    2.44       6.1  T
   6    -95.0640623 -0.115778E-06  0.398E-04    2.44      29.0  T
   7    -95.0640623 -0.213646E-08  0.162E-04    2.44      71.2  T
     SCC iter.                  ...        0 min,  0.072 sec
     gradient                   ...        0 min,  0.050 sec
 * total energy  :   -93.7772736 Eh     change       -0.5970637E-05 Eh
   gradient norm :     0.0006253 Eh/α   predicted    -0.3024078E-05 ( -49.35%)
   displ. norm   :     0.1182063 α      lambda       -0.4728545E-05
   maximum displ.:     0.0736706 α      in ANC's #5, #1, #8, ...

........................................................................
.............................. CYCLE   87 ..............................
........................................................................

 iter      E             dE          RMSdq      gap      omega  full diag
   1    -95.0643179 -0.950643E+02  0.244E-02    2.44       0.0  T
   2    -95.0643179 -0.306887E-07  0.144E-02    2.44       1.0  T
   3    -95.0643108  0.710746E-05  0.122E-02    2.45       1.0  T
   4    -95.0643106  0.158047E-06  0.947E-03    2.44       1.2  T
   5    -95.0643183 -0.765105E-05  0.185E-03    2.44       6.3  T
   6    -95.0643184 -0.855349E-07  0.406E-04    2.44      28.4  T
   7    -95.0643184 -0.331613E-08  0.141E-04    2.44      81.9  T
     SCC iter.                  ...        0 min,  0.087 sec
     gradient                   ...        0 min,  0.054 sec
 * total energy  :   -93.7772780 Eh     change       -0.4424991E-05 Eh
   gradient norm :     0.0004747 Eh/α   predicted    -0.2381198E-05 ( -46.19%)
   displ. norm   :     0.0965417 α      lambda       -0.3302897E-05
   maximum displ.:     0.0580425 α      in ANC's #5, #1, #8, ...

........................................................................
.............................. CYCLE   88 ..............................
........................................................................

 iter      E             dE          RMSdq      gap      omega  full diag
   1    -95.0643160 -0.950643E+02  0.211E-02    2.44       0.0  T
   2    -95.0643163 -0.225554E-06  0.124E-02    2.44       1.0  T
   3    -95.0643153  0.969149E-06  0.735E-03    2.45       1.6  T
   4    -95.0643143  0.986521E-06  0.510E-03    2.44       2.3  T
   5    -95.0643161 -0.179157E-05  0.216E-03    2.44       5.3  T
   6    -95.0643164 -0.303623E-06  0.297E-04    2.44      38.9  T
   7    -95.0643164 -0.921148E-10  0.158E-04    2.44      73.2  T
     SCC iter.                  ...        0 min,  0.078 sec
     gradient                   ...        0 min,  0.055 sec
 * total energy  :   -93.7772814 Eh     change       -0.3398331E-05 Eh
   gradient norm :     0.0005057 Eh/α   predicted    -0.1660919E-05 ( -51.13%)
   displ. norm   :     0.1033298 α      lambda       -0.3563945E-05
   maximum displ.:     0.0599893 α      in ANC's #5, #1, #8, ...

........................................................................
.............................. CYCLE   89 ..............................
........................................................................

 iter      E             dE          RMSdq      gap      omega  full diag
   1    -95.0643645 -0.950644E+02  0.223E-02    2.44       0.0  T
   2    -95.0643648 -0.247992E-06  0.130E-02    2.44       1.0  T
   3    -95.0643642  0.531882E-06  0.570E-03    2.44       2.0  T
   4    -95.0643634  0.862862E-06  0.443E-03    2.45       2.6  T
   5    -95.0643648 -0.142447E-05  0.997E-04    2.44      11.6  T
   6    -95.0643648 -0.619000E-07  0.396E-04    2.44      29.2  T
   7    -95.0643648 -0.444459E-08  0.177E-04    2.44      65.1  T
     SCC iter.                  ...        0 min,  0.095 sec
     gradient                   ...        0 min,  0.057 sec
 * total energy  :   -93.7772853 Eh     change       -0.3932323E-05 Eh
   gradient norm :     0.0005503 Eh/α   predicted    -0.1791681E-05 ( -54.44%)
   displ. norm   :     0.1450464 α      lambda       -0.4582610E-05
   maximum displ.:     0.0826131 α      in ANC's #5, #1, #8, ...

........................................................................
.............................. CYCLE   90 ..............................
........................................................................

 iter      E             dE          RMSdq      gap      omega  full diag
   1    -95.0642691 -0.950643E+02  0.314E-02    2.44       0.0  T
   2    -95.0642693 -0.260989E-06  0.184E-02    2.44       1.0  T
   3    -95.0642656  0.371329E-05  0.101E-02    2.44       1.1  T
   4    -95.0642624  0.323513E-05  0.916E-03    2.45       1.3  T
   5    -95.0642695 -0.715723E-05  0.842E-04    2.44      13.7  T
   6    -95.0642696 -0.216275E-07  0.399E-04    2.44      29.0  T
   7    -95.0642696 -0.104039E-08  0.205E-04    2.44      56.4  T
     SCC iter.                  ...        0 min,  0.087 sec
     gradient                   ...        0 min,  0.057 sec
 * total energy  :   -93.7772900 Eh     change       -0.4672592E-05 Eh
   gradient norm :     0.0007663 Eh/α   predicted    -0.2315717E-05 ( -50.44%)
   displ. norm   :     0.1206051 α      lambda       -0.4133461E-05
   maximum displ.:     0.0666103 α      in ANC's #5, #1, #9, ...

........................................................................
.............................. CYCLE   91 ..............................
........................................................................

 iter      E             dE          RMSdq      gap      omega  full diag
   1    -95.0644158 -0.950644E+02  0.245E-02    2.44       0.0  T
   2    -95.0644156  0.229665E-06  0.146E-02    2.45       1.0  T
   3    -95.0644018  0.137508E-04  0.142E-02    2.44       1.0  T
   4    -95.0644113 -0.948725E-05  0.773E-03    2.45       1.5  T
   5    -95.0644161 -0.481529E-05  0.659E-04    2.44      17.5  T
   6    -95.0644161 -0.552755E-08  0.334E-04    2.44      34.6  T
   7    -95.0644161  0.121872E-09  0.177E-04    2.44      65.3  T
     SCC iter.                  ...        0 min,  0.095 sec
     gradient                   ...        0 min,  0.061 sec
 * total energy  :   -93.7772943 Eh     change       -0.4362860E-05 Eh
   gradient norm :     0.0006262 Eh/α   predicted    -0.2082276E-05 ( -52.27%)
   displ. norm   :     0.1181359 α      lambda       -0.4393168E-05
   maximum displ.:     0.0624823 α      in ANC's #5, #1, #9, ...

........................................................................
.............................. CYCLE   92 ..............................
........................................................................

 iter      E             dE          RMSdq      gap      omega  full diag
   1    -95.0645070 -0.950645E+02  0.227E-02    2.44       0.0  T
   2    -95.0645067  0.317548E-06  0.135E-02    2.45       1.0  T
   3    -95.0644889  0.178047E-04  0.152E-02    2.44       1.0  T
   4    -95.0645053 -0.164004E-04  0.534E-03    2.45       2.2  T
   5    -95.0645073 -0.201209E-05  0.602E-04    2.44      19.2  T
   6    -95.0645073 -0.230227E-08  0.317E-04    2.44      36.5  T
   7    -95.0645073 -0.363798E-11  0.164E-04    2.44      70.5  T
     SCC iter.                  ...        0 min,  0.083 sec
     gradient                   ...        0 min,  0.055 sec
 * total energy  :   -93.7772994 Eh     change       -0.5038886E-05 Eh
   gradient norm :     0.0005803 Eh/α   predicted    -0.2214138E-05 ( -56.06%)
   displ. norm   :     0.1596572 α      lambda       -0.6031132E-05
   maximum displ.:     0.0800614 α      in ANC's #1, #5, #9, ...
 * RMSD in coord.:     0.3026217 α      energy gain  -0.2998947E-03 Eh

generating ANC from exact Hessian ...
Using Lindh-Hessian (1995)
 Shifting diagonal of input Hessian by    1.0110547789260608E-002
 Lowest  eigenvalues of input Hessian
    0.010000    0.000000    0.000000    0.000000    0.000000    0.000000
    0.000000    0.010233    0.010288    0.010325    0.010380    0.010496
    0.010573    0.010584    0.010805    0.010952    0.010959    0.011140
 Highest eigenvalues
    1.621647    1.844727    1.899274    2.002647    2.025829    2.331946


........................................................................
.............................. CYCLE   93 ..............................
........................................................................

 iter      E             dE          RMSdq      gap      omega  full diag
   1    -95.0645257 -0.950645E+02  0.292E-02    2.44       0.0  T
   2    -95.0645251  0.642664E-06  0.175E-02    2.45       1.0  T
   3    -95.0644946  0.304386E-04  0.206E-02    2.44       1.0  T
   4    -95.0645224 -0.277478E-04  0.732E-03    2.45       1.6  T
   5    -95.0645262 -0.383086E-05  0.105E-03    2.45      11.0  T
   6    -95.0645262 -0.344307E-07  0.438E-04    2.45      26.3  T
   7    -95.0645262 -0.822510E-09  0.231E-04    2.45      50.0  T
     SCC iter.                  ...        0 min,  0.079 sec
     gradient                   ...        0 min,  0.050 sec
 * total energy  :   -93.7773061 Eh     change       -0.6704870E-05 Eh
   gradient norm :     0.0005939 Eh/α   predicted     0.0000000E+00 (-100.00%)
   displ. norm   :     0.0204653 α      lambda       -0.3163529E-05
   maximum displ.:     0.0092867 α      in ANC's #13, #2, #11, ...

........................................................................
.............................. CYCLE   94 ..............................
........................................................................

 iter      E             dE          RMSdq      gap      omega  full diag
   1    -95.0646500 -0.950647E+02  0.464E-03    2.45       0.0  T
   2    -95.0646500  0.333209E-07  0.305E-03    2.45       3.8  T
   3    -95.0646498  0.184864E-06  0.249E-03    2.45       4.6  T
   4    -95.0646496  0.250713E-06  0.259E-03    2.44       4.5  T
   5    -95.0646501 -0.533796E-06  0.703E-04    2.45      16.4  T
   6    -95.0646501 -0.145382E-07  0.126E-04    2.45      91.6  T
   7    -95.0646501 -0.208431E-09  0.577E-05    2.45     200.0  T
     SCC iter.                  ...        0 min,  0.088 sec
     gradient                   ...        0 min,  0.056 sec
 * total energy  :   -93.7773095 Eh     change       -0.3426554E-05 Eh
   gradient norm :     0.0003059 Eh/α   predicted    -0.1588283E-05 ( -53.65%)
   displ. norm   :     0.0614245 α      lambda       -0.6480608E-05
   maximum displ.:     0.0281859 α      in ANC's #13, #2, #18, ...

........................................................................
.............................. CYCLE   95 ..............................
........................................................................

 iter      E             dE          RMSdq      gap      omega  full diag
   1    -95.0647845 -0.950648E+02  0.114E-02    2.45       0.0  T
   2    -95.0647845 -0.396906E-07  0.692E-03    2.45       1.7  T
   3    -95.0647841  0.472890E-06  0.499E-03    2.45       2.3  T
   4    -95.0647809  0.314954E-05  0.662E-03    2.44       1.7  T
   5    -95.0647848 -0.385489E-05  0.852E-04    2.45      13.6  T
   6    -95.0647848 -0.913603E-08  0.348E-04    2.45      33.2  T
   7    -95.0647848 -0.154613E-08  0.217E-04    2.45      53.3  T
     SCC iter.                  ...        0 min,  0.090 sec
     gradient                   ...        0 min,  0.056 sec
 * total energy  :   -93.7773117 Eh     change       -0.2184260E-05 Eh
   gradient norm :     0.0012731 Eh/α   predicted    -0.3248910E-05 (  48.74%)
   displ. norm   :     0.0713998 α      lambda       -0.1003199E-04
   maximum displ.:     0.0324205 α      in ANC's #2, #13, #1, ...

........................................................................
.............................. CYCLE   96 ..............................
........................................................................

 iter      E             dE          RMSdq      gap      omega  full diag
   1    -95.0646356 -0.950646E+02  0.169E-02    2.44       0.0  T
   2    -95.0646362 -0.595143E-06  0.107E-02    2.44       1.1  T
   3    -95.0646362 -0.860399E-07  0.776E-03    2.44       1.5  T
   4    -95.0646360  0.261368E-06  0.434E-03    2.44       2.7  T
   5    -95.0646355  0.483352E-06  0.430E-03    2.44       2.7  T
   6    -95.0646370 -0.151368E-05  0.511E-04    2.44      22.6  T
   7    -95.0646370 -0.119377E-08  0.240E-04    2.44      48.1  T
   8    -95.0646370 -0.940219E-09  0.112E-04    2.44     103.1  T
     SCC iter.                  ...        0 min,  0.105 sec
     gradient                   ...        0 min,  0.059 sec
 * total energy  :   -93.7773087 Eh     change        0.3021308E-05 Eh
   gradient norm :     0.0018368 Eh/α   predicted    -0.5028156E-05 (-266.42%)
   displ. norm   :     0.0283793 α      lambda       -0.1439680E-04
   maximum displ.:     0.0145301 α      in ANC's #19, #18, #16, ...

........................................................................
.............................. CYCLE   97 ..............................
........................................................................

 iter      E             dE          RMSdq      gap      omega  full diag
   1    -95.0645566 -0.950646E+02  0.116E-02    2.45       0.0  T
   2    -95.0645568 -0.202017E-06  0.746E-03    2.45       1.5  T
   3    -95.0645568  0.209670E-08  0.504E-03    2.45       2.3  T
   4    -95.0645567  0.854487E-07  0.304E-03    2.45       3.8  T
   5    -95.0645568 -0.117624E-06  0.193E-03    2.45       6.0  T
   6    -95.0645571 -0.298834E-06  0.820E-04    2.45      14.1  T
   7    -95.0645571 -0.310094E-07  0.235E-04    2.45      49.0  T
   8    -95.0645571 -0.191244E-08  0.933E-05    2.45     123.8  T
     SCC iter.                  ...        0 min,  0.111 sec
     gradient                   ...        0 min,  0.062 sec
 * total energy  :   -93.7773156 Eh     change       -0.6878742E-05 Eh
   gradient norm :     0.0009276 Eh/α   predicted    -0.7202158E-05 (   4.70%)
   displ. norm   :     0.0346343 α      lambda       -0.1025956E-04
   maximum displ.:     0.0125449 α      in ANC's #13, #21, #16, ...

........................................................................
.............................. CYCLE   98 ..............................
........................................................................

 iter      E             dE          RMSdq      gap      omega  full diag
   1    -95.0646105 -0.950646E+02  0.166E-02    2.44       0.0  T
   2    -95.0646112 -0.671837E-06  0.119E-02    2.45       1.0  T
   3    -95.0646116 -0.453240E-06  0.585E-03    2.44       2.0  T
   4    -95.0646096  0.201704E-05  0.562E-03    2.45       2.1  T
   5    -95.0646111 -0.144257E-05  0.334E-03    2.44       3.5  T
   6    -95.0646119 -0.809440E-06  0.849E-04    2.45      13.6  T
   7    -95.0646119 -0.835672E-08  0.310E-04    2.45      37.2  T
   8    -95.0646119 -0.123170E-08  0.159E-04    2.45      72.6  T
     SCC iter.                  ...        0 min,  0.097 sec
     gradient                   ...        0 min,  0.057 sec
 * total energy  :   -93.7773135 Eh     change        0.2102890E-05 Eh
   gradient norm :     0.0019625 Eh/α   predicted    -0.5134422E-05 (-344.16%)
   displ. norm   :     0.0313269 α      lambda       -0.1206918E-04
   maximum displ.:     0.0145699 α      in ANC's #2, #13, #21, ...

........................................................................
.............................. CYCLE   99 ..............................
........................................................................

 iter      E             dE          RMSdq      gap      omega  full diag
   1    -95.0646363 -0.950646E+02  0.123E-02    2.45       0.0  T
   2    -95.0646366 -0.361697E-06  0.739E-03    2.45       1.6  T
   3    -95.0646366  0.366771E-07  0.506E-03    2.45       2.3  T
   4    -95.0646361  0.499885E-06  0.368E-03    2.45       3.1  T
   5    -95.0646364 -0.283417E-06  0.253E-03    2.44       4.6  T
   6    -95.0646369 -0.465846E-06  0.876E-04    2.45      13.2  T
   7    -95.0646369 -0.410379E-07  0.185E-04    2.45      62.4  T
   8    -95.0646369 -0.195868E-09  0.104E-04    2.45     111.3  T
     SCC iter.                  ...        0 min,  0.108 sec
     gradient                   ...        0 min,  0.060 sec
 * total energy  :   -93.7773195 Eh     change       -0.6023321E-05 Eh
   gradient norm :     0.0009656 Eh/α   predicted    -0.6038871E-05 (   0.26%)
   displ. norm   :     0.0547314 α      lambda       -0.8326528E-05
   maximum displ.:     0.0252087 α      in ANC's #2, #13, #1, ...

........................................................................
.............................. CYCLE  100 ..............................
........................................................................

 iter      E             dE          RMSdq      gap      omega  full diag
   1    -95.0645553 -0.950646E+02  0.135E-02    2.45       0.0  T
   2    -95.0645559 -0.559852E-06  0.829E-03    2.45       1.4  T
   3    -95.0645560 -0.134738E-06  0.488E-03    2.44       2.4  T
   4    -95.0645558  0.273731E-06  0.297E-03    2.45       3.9  T
   5    -95.0645557  0.968442E-07  0.248E-03    2.44       4.7  T
   6    -95.0645561 -0.451734E-06  0.659E-04    2.45      17.5  T
   7    -95.0645561 -0.201460E-07  0.254E-04    2.44      45.4  T
   8    -95.0645561 -0.241803E-08  0.113E-04    2.45     101.9  T
     SCC iter.                  ...        0 min,  0.111 sec
     gradient                   ...        0 min,  0.061 sec
 * total energy  :   -93.7773208 Eh     change       -0.1297072E-05 Eh
   gradient norm :     0.0011450 Eh/α   predicted    -0.4172402E-05 ( 221.68%)
   displ. norm   :     0.0179804 α      lambda       -0.5429516E-05
   maximum displ.:     0.0064266 α      in ANC's #2, #6, #18, ...

........................................................................
.............................. CYCLE  101 ..............................
........................................................................

 iter      E             dE          RMSdq      gap      omega  full diag
   1    -95.0645942 -0.950646E+02  0.716E-03    2.45       0.0  T
   2    -95.0645943 -0.953445E-07  0.450E-03    2.45       2.6  T
   3    -95.0645943  0.581657E-07  0.273E-03    2.45       4.2  T
   4    -95.0645936  0.686811E-06  0.323E-03    2.45       3.6  T
   5    -95.0645944 -0.835983E-06  0.735E-04    2.45      15.7  T
   6    -95.0645944 -0.182352E-07  0.314E-04    2.45      36.7  T
   7    -95.0645944 -0.962501E-10  0.119E-04    2.45      97.3  T
     SCC iter.                  ...        0 min,  0.091 sec
     gradient                   ...        0 min,  0.053 sec
 * total energy  :   -93.7773258 Eh     change       -0.4990652E-05 Eh
   gradient norm :     0.0002513 Eh/α   predicted    -0.2715831E-05 ( -45.58%)
   displ. norm   :     0.0380838 α      lambda       -0.2918938E-05
   maximum displ.:     0.0203177 α      in ANC's #2, #1, #6, ...

........................................................................
.............................. CYCLE  102 ..............................
........................................................................

 iter      E             dE          RMSdq      gap      omega  full diag
   1    -95.0646149 -0.950646E+02  0.726E-03    2.45       0.0  T
   2    -95.0646150 -0.683293E-07  0.452E-03    2.45       2.6  T
   3    -95.0646150 -0.140204E-07  0.293E-03    2.45       3.9  T
   4    -95.0646150  0.109933E-07  0.105E-03    2.45      10.9  T
   5    -95.0646149  0.914264E-08  0.713E-04    2.45      16.2  T
   6    -95.0646150 -0.264569E-07  0.369E-04    2.45      31.3  T
   7    -95.0646150 -0.995831E-08  0.106E-04    2.45     108.5  T
     SCC iter.                  ...        0 min,  0.080 sec
     gradient                   ...        0 min,  0.053 sec
 * total energy  :   -93.7773287 Eh     change       -0.2973200E-05 Eh
   gradient norm :     0.0003992 Eh/α   predicted    -0.1466146E-05 ( -50.69%)
   displ. norm   :     0.0380838 α      lambda        0.0000000E+00
   maximum displ.:     0.0203177 α      in ANC's #2, #1, #6, ...

........................................................................
.............................. CYCLE  103 ..............................
........................................................................

 iter      E             dE          RMSdq      gap      omega  full diag
   1    -95.0646170 -0.950646E+02  0.725E-03    2.45       0.0  T
   2    -95.0646171 -0.692254E-07  0.451E-03    2.44       2.6  T
   3    -95.0646171 -0.699319E-08  0.292E-03    2.44       4.0  T
   4    -95.0646170  0.715824E-07  0.128E-03    2.45       9.0  T
   5    -95.0646170 -0.183087E-07  0.969E-04    2.44      11.9  T
   6    -95.0646171 -0.753085E-07  0.308E-04    2.44      37.5  T
   7    -95.0646171 -0.305199E-08  0.963E-05    2.44     119.9  T
     SCC iter.                  ...        0 min,  0.076 sec
     gradient                   ...        0 min,  0.057 sec
 * total energy  :   -93.7773289 Eh     change       -0.1290990E-06 Eh
   gradient norm :     0.0009162 Eh/α   predicted     0.2271658E-08 (-101.76%)
   displ. norm   :     0.0696903 α      lambda       -0.5086224E-05
   maximum displ.:     0.0369466 α      in ANC's #2, #1, #6, ...

........................................................................
.............................. CYCLE  104 ..............................
........................................................................

 iter      E             dE          RMSdq      gap      omega  full diag
   1    -95.0646054 -0.950646E+02  0.920E-03    2.45       0.0  T
   2    -95.0646041  0.126529E-05  0.711E-03    2.45       1.6  T
   3    -95.0646014  0.276852E-05  0.801E-03    2.44       1.4  T
   4    -95.0646053 -0.391264E-05  0.334E-03    2.45       3.5  T
   5    -95.0646058 -0.557447E-06  0.966E-04    2.45      12.0  T
   6    -95.0646059 -0.376515E-07  0.325E-04    2.45      35.6  T
   7    -95.0646059 -0.170893E-08  0.116E-04    2.45      99.7  T
     SCC iter.                  ...        0 min,  0.075 sec
     gradient                   ...        0 min,  0.051 sec
 * total energy  :   -93.7773348 Eh     change       -0.5907299E-05 Eh
   gradient norm :     0.0007730 Eh/α   predicted    -0.2550236E-05 ( -56.83%)
   displ. norm   :     0.1947823 α      lambda       -0.1047268E-04
   maximum displ.:     0.1040436 α      in ANC's #2, #1, #6, ...

........................................................................
.............................. CYCLE  105 ..............................
........................................................................

 iter      E             dE          RMSdq      gap      omega  full diag
   1    -95.0643871 -0.950644E+02  0.253E-02    2.45       0.0  T
   2    -95.0643851  0.198180E-05  0.163E-02    2.45       1.0  T
   3    -95.0643637  0.214095E-04  0.194E-02    2.44       1.0  T
   4    -95.0643820 -0.182327E-04  0.105E-02    2.45       1.1  T
   5    -95.0643890 -0.701118E-05  0.224E-03    2.45       5.2  T
   6    -95.0643892 -0.198309E-06  0.718E-04    2.45      16.1  T
   7    -95.0643892 -0.255645E-08  0.349E-04    2.45      33.1  T
   8    -95.0643892 -0.823420E-09  0.170E-04    2.45      67.9  T
     SCC iter.                  ...        0 min,  0.085 sec
     gradient                   ...        0 min,  0.053 sec
 * total energy  :   -93.7773459 Eh     change       -0.1116356E-04 Eh
   gradient norm :     0.0009171 Eh/α   predicted    -0.5326219E-05 ( -52.29%)
   displ. norm   :     0.2744161 α      lambda       -0.1090039E-04
   maximum displ.:     0.1479671 α      in ANC's #2, #1, #6, ...

........................................................................
.............................. CYCLE  106 ..............................
........................................................................

 iter      E             dE          RMSdq      gap      omega  full diag
   1    -95.0639572 -0.950640E+02  0.377E-02    2.45       0.0  T
   2    -95.0639527  0.447853E-05  0.241E-02    2.45       1.0  T
   3    -95.0639043  0.483937E-04  0.289E-02    2.44       1.0  T
   4    -95.0639450 -0.406760E-04  0.159E-02    2.46       1.0  T
   5    -95.0639613 -0.163559E-04  0.304E-03    2.45       3.8  T
   6    -95.0639617 -0.332086E-06  0.988E-04    2.45      11.7  T
   7    -95.0639617 -0.732035E-08  0.515E-04    2.45      22.4  T
   8    -95.0639617 -0.283288E-08  0.231E-04    2.45      50.1  T
   9    -95.0639617 -0.309626E-09  0.876E-05    2.45     131.8  T
     SCC iter.                  ...        0 min,  0.108 sec
     gradient                   ...        0 min,  0.056 sec
 * total energy  :   -93.7773587 Eh     change       -0.1276768E-04 Eh
   gradient norm :     0.0015167 Eh/α   predicted    -0.5636584E-05 ( -55.85%)
   displ. norm   :     0.4122630 α      lambda       -0.1743313E-04
   maximum displ.:     0.2235053 α      in ANC's #2, #1, #6, ...

........................................................................
.............................. CYCLE  107 ..............................
........................................................................

 iter      E             dE          RMSdq      gap      omega  full diag
   1    -95.0632193 -0.950632E+02  0.578E-02    2.45       0.0  T
   2    -95.0632045  0.147781E-04  0.379E-02    2.46       1.0  T
   3    -95.0630925  0.112029E-03  0.452E-02    2.43       1.0  T
   4    -95.0631963 -0.103796E-03  0.239E-02    2.46       1.0  T
   5    -95.0632311 -0.347975E-04  0.512E-03    2.45       2.3  T
   6    -95.0632321 -0.956290E-06  0.161E-03    2.45       7.2  T
   7    -95.0632321 -0.162464E-07  0.833E-04    2.45      13.9  T
   8    -95.0632321 -0.656992E-08  0.362E-04    2.45      31.9  T
   9    -95.0632321 -0.126052E-08  0.149E-04    2.45      77.6  T
     SCC iter.                  ...        0 min,  0.112 sec
     gradient                   ...        0 min,  0.064 sec
 * total energy  :   -93.7773804 Eh     change       -0.2167750E-04 Eh
   gradient norm :     0.0030749 Eh/α   predicted    -0.9377481E-05 ( -56.74%)
   displ. norm   :     0.4672540 α      lambda       -0.4156502E-04
   maximum displ.:     0.2548246 α      in ANC's #2, #1, #6, ...

........................................................................
.............................. CYCLE  108 ..............................
........................................................................

 iter      E             dE          RMSdq      gap      omega  full diag
   1    -95.0621543 -0.950622E+02  0.673E-02    2.45       0.0  T
   2    -95.0621270  0.273354E-04  0.449E-02    2.46       1.0  T
   3    -95.0619461  0.180889E-03  0.565E-02    2.43       1.0  T
   4    -95.0621413 -0.195175E-03  0.249E-02    2.46       1.0  T
   5    -95.0621740 -0.327199E-04  0.565E-03    2.45       2.0  T
   6    -95.0621749 -0.932842E-06  0.189E-03    2.45       6.1  T
   7    -95.0621749 -0.201540E-07  0.101E-03    2.45      11.4  T
   8    -95.0621749 -0.873504E-08  0.443E-04    2.45      26.1  T
   9    -95.0621749 -0.224722E-08  0.178E-04    2.45      65.0  T
     SCC iter.                  ...        0 min,  0.105 sec
     gradient                   ...        0 min,  0.058 sec
 * total energy  :   -93.7774172 Eh     change       -0.3680164E-04 Eh
   gradient norm :     0.0054347 Eh/α   predicted    -0.2532319E-04 ( -31.19%)
   displ. norm   :     0.5460093 α      lambda       -0.8932358E-04
   maximum displ.:     0.2996096 α      in ANC's #2, #1, #6, ...

........................................................................
.............................. CYCLE  109 ..............................
........................................................................

 iter      E             dE          RMSdq      gap      omega  full diag
   1    -95.0612622 -0.950613E+02  0.825E-02    2.45       0.0  T
   2    -95.0612022  0.600249E-04  0.573E-02    2.47       1.0  T
   3    -95.0609334  0.268804E-03  0.716E-02    2.42       1.0  T
   4    -95.0612621 -0.328673E-03  0.289E-02    2.46       1.0  T
   5    -95.0612992 -0.371548E-04  0.818E-03    2.45       1.4  T
   6    -95.0613011 -0.193107E-05  0.250E-03    2.45       4.6  T
   7    -95.0613012 -0.364545E-07  0.128E-03    2.45       9.0  T
   8    -95.0613012 -0.974542E-08  0.578E-04    2.45      20.0  T
   9    -95.0613012 -0.438514E-08  0.243E-04    2.45      47.6  T
  10    -95.0613012 -0.386521E-09  0.971E-05    2.45     119.0  T
     SCC iter.                  ...        0 min,  0.121 sec
     gradient                   ...        0 min,  0.053 sec
 * total energy  :   -93.7774751 Eh     change       -0.5794167E-04 Eh
   gradient norm :     0.0088418 Eh/α   predicted    -0.5797981E-04 (   0.07%)
   displ. norm   :     0.2655847 α      lambda       -0.2116475E-03
   maximum displ.:     0.1195004 α      in ANC's #2, #6, #1, ...

........................................................................
.............................. CYCLE  110 ..............................
........................................................................

 iter      E             dE          RMSdq      gap      omega  full diag
   1    -95.0674309 -0.950674E+02  0.478E-02    2.45       0.0  T
   2    -95.0674283  0.255961E-05  0.297E-02    2.44       1.0  T
   3    -95.0673774  0.509318E-04  0.307E-02    2.46       1.0  T
   4    -95.0673995 -0.220839E-04  0.240E-02    2.44       1.0  T
   5    -95.0674397 -0.402051E-04  0.438E-03    2.45       2.6  T
   6    -95.0674400 -0.358103E-06  0.161E-03    2.45       7.2  T
   7    -95.0674401 -0.189133E-07  0.713E-04    2.45      16.2  T
   8    -95.0674401 -0.263917E-08  0.384E-04    2.45      30.1  T
   9    -95.0674401 -0.993069E-09  0.144E-04    2.45      80.1  T
     SCC iter.                  ...        0 min,  0.114 sec
     gradient                   ...        0 min,  0.060 sec
 * total energy  :   -93.7775295 Eh     change       -0.5435498E-04 Eh
   gradient norm :     0.0076715 Eh/α   predicted    -0.1132930E-03 ( 108.43%)
   displ. norm   :     0.3967551 α      lambda       -0.1897800E-03
   maximum displ.:     0.2165783 α      in ANC's #2, #1, #6, ...

........................................................................
.............................. CYCLE  111 ..............................
........................................................................

 iter      E             dE          RMSdq      gap      omega  full diag
   1    -95.0646451 -0.950646E+02  0.506E-02    2.45       0.0  T
   2    -95.0646484 -0.333332E-05  0.305E-02    2.45       1.0  T
   3    -95.0646368  0.115879E-04  0.226E-02    2.46       1.0  T
   4    -95.0645989  0.379207E-04  0.254E-02    2.44       1.0  T
   5    -95.0646505 -0.515910E-04  0.628E-03    2.45       1.8  T
   6    -95.0646525 -0.196521E-05  0.148E-03    2.45       7.8  T
   7    -95.0646525 -0.129963E-08  0.821E-04    2.45      14.1  T
   8    -95.0646525 -0.118856E-07  0.311E-04    2.45      37.2  T
   9    -95.0646525 -0.695849E-09  0.149E-04    2.45      77.5  T
     SCC iter.                  ...        0 min,  0.109 sec
     gradient                   ...        0 min,  0.058 sec
 * total energy  :   -93.7776681 Eh     change       -0.1386405E-03 Eh
   gradient norm :     0.0054641 Eh/α   predicted    -0.1098331E-03 ( -20.78%)
   displ. norm   :     0.3229037 α      lambda       -0.1471505E-03
   maximum displ.:     0.1696334 α      in ANC's #2, #1, #6, ...

........................................................................
.............................. CYCLE  112 ..............................
........................................................................

 iter      E             dE          RMSdq      gap      omega  full diag
   1    -95.0623930 -0.950624E+02  0.433E-02    2.45       0.0  T
   2    -95.0623832  0.985407E-05  0.297E-02    2.46       1.0  T
   3    -95.0623116  0.715638E-04  0.362E-02    2.44       1.0  T
   4    -95.0623823 -0.706608E-04  0.172E-02    2.46       1.0  T
   5    -95.0624004 -0.181371E-04  0.527E-03    2.45       2.2  T
   6    -95.0624015 -0.105570E-05  0.131E-03    2.45       8.8  T
   7    -95.0624015  0.151040E-08  0.755E-04    2.45      15.3  T
   8    -95.0624015 -0.100051E-07  0.327E-04    2.45      35.3  T
   9    -95.0624015 -0.142830E-08  0.125E-04    2.45      92.3  T
     SCC iter.                  ...        0 min,  0.108 sec
     gradient                   ...        0 min,  0.055 sec
 * total energy  :   -93.7777649 Eh     change       -0.9680774E-04 Eh
   gradient norm :     0.0055268 Eh/α   predicted    -0.8124831E-04 ( -16.07%)
   displ. norm   :     0.1354271 α      lambda       -0.1372977E-03
   maximum displ.:     0.0520344 α      in ANC's #14, #7, #13, ...

........................................................................
.............................. CYCLE  113 ..............................
........................................................................

 iter      E             dE          RMSdq      gap      omega  full diag
   1    -95.0643252 -0.950643E+02  0.362E-02    2.46       0.0  T
   2    -95.0642633  0.618935E-04  0.334E-02    2.44       1.0  T
   3    -95.0642644 -0.106396E-05  0.333E-02    2.48       1.0  T
   4    -95.0643410 -0.765918E-04  0.900E-03    2.46       1.3  T
   5    -95.0643413 -0.339901E-06  0.299E-03    2.46       3.9  T
   6    -95.0643415 -0.130239E-06  0.165E-03    2.46       7.0  T
   7    -95.0643415 -0.534071E-07  0.375E-04    2.46      30.8  T
   8    -95.0643415 -0.191974E-09  0.206E-04    2.46      56.2  T
     SCC iter.                  ...        0 min,  0.104 sec
     gradient                   ...        0 min,  0.058 sec
 * total energy  :   -93.7778213 Eh     change       -0.5637023E-04 Eh
   gradient norm :     0.0077558 Eh/α   predicted    -0.6990939E-04 (  24.02%)
   displ. norm   :     0.4869817 α      lambda       -0.1646836E-03
   maximum displ.:     0.2465401 α      in ANC's #2, #1, #6, ...

........................................................................
.............................. CYCLE  114 ..............................
........................................................................

 iter      E             dE          RMSdq      gap      omega  full diag
   1    -95.0635109 -0.950635E+02  0.662E-02    2.46       0.0  T
   2    -95.0634195  0.913776E-04  0.540E-02    2.48       1.0  T
   3    -95.0632992  0.120313E-03  0.595E-02    2.43       1.0  T
   4    -95.0635358 -0.236543E-03  0.208E-02    2.47       1.0  T
   5    -95.0635468 -0.110543E-04  0.825E-03    2.46       1.4  T
   6    -95.0635486 -0.175538E-05  0.203E-03    2.46       5.7  T
   7    -95.0635486 -0.128486E-07  0.104E-03    2.46      11.1  T
   8    -95.0635486 -0.177494E-10  0.485E-04    2.46      23.8  T
   9    -95.0635486 -0.581380E-08  0.217E-04    2.46      53.2  T
     SCC iter.                  ...        0 min,  0.154 sec
     gradient                   ...        0 min,  0.066 sec
 * total energy  :   -93.7779276 Eh     change       -0.1062483E-03 Eh
   gradient norm :     0.0047385 Eh/α   predicted    -0.1018713E-03 (  -4.12%)
   displ. norm   :     0.2058314 α      lambda       -0.1163709E-03
   maximum displ.:     0.0787546 α      in ANC's #2, #9, #3, ...

........................................................................
.............................. CYCLE  115 ..............................
........................................................................

 iter      E             dE          RMSdq      gap      omega  full diag
   1    -95.0648454 -0.950648E+02  0.275E-02    2.46       0.0  T
   2    -95.0648449  0.522852E-06  0.175E-02    2.46       1.0  T
   3    -95.0648288  0.161512E-04  0.197E-02    2.45       1.0  T
   4    -95.0648383 -0.957264E-05  0.124E-02    2.46       1.0  T
   5    -95.0648478 -0.950688E-05  0.377E-03    2.45       3.1  T
   6    -95.0648487 -0.851721E-06  0.758E-04    2.46      15.2  T
   7    -95.0648487 -0.583650E-08  0.330E-04    2.46      35.0  T
   8    -95.0648487 -0.165852E-08  0.163E-04    2.46      70.6  T
     SCC iter.                  ...        0 min,  0.112 sec
     gradient                   ...        0 min,  0.064 sec
 * total energy  :   -93.7780168 Eh     change       -0.8921731E-04 Eh
   gradient norm :     0.0025344 Eh/α   predicted    -0.6065415E-04 ( -32.02%)
   displ. norm   :     0.4011495 α      lambda       -0.1590995E-03
   maximum displ.:     0.1534999 α      in ANC's #2, #3, #9, ...

........................................................................
.............................. CYCLE  116 ..............................
........................................................................

 iter      E             dE          RMSdq      gap      omega  full diag
   1    -95.0656956 -0.950657E+02  0.499E-02    2.46       0.0  T
   2    -95.0656470  0.486528E-04  0.380E-02    2.44       1.0  T
   3    -95.0654983  0.148686E-03  0.522E-02    2.48       1.0  T
   4    -95.0657063 -0.207996E-03  0.123E-02    2.45       1.0  T
   5    -95.0657068 -0.521680E-06  0.422E-03    2.45       2.7  T
   6    -95.0657072 -0.343597E-06  0.122E-03    2.45       9.4  T
   7    -95.0657072 -0.177274E-07  0.496E-04    2.45      23.3  T
   8    -95.0657072 -0.373119E-08  0.253E-04    2.45      45.7  T
     SCC iter.                  ...        0 min,  0.116 sec
     gradient                   ...        0 min,  0.063 sec
 * total energy  :   -93.7781277 Eh     change       -0.1109366E-03 Eh
   gradient norm :     0.0043727 Eh/α   predicted    -0.9235432E-04 ( -16.75%)
   displ. norm   :     0.3355766 α      lambda       -0.1297272E-03
   maximum displ.:     0.1050325 α      in ANC's #41, #3, #14, ...

........................................................................
.............................. CYCLE  117 ..............................
........................................................................

 iter      E             dE          RMSdq      gap      omega  full diag
   1    -95.0642049 -0.950642E+02  0.500E-02    2.44       0.0  T
   2    -95.0641730  0.318158E-04  0.385E-02    2.45       1.0  T
   3    -95.0640933  0.796949E-04  0.424E-02    2.42       1.0  T
   4    -95.0641946 -0.101290E-03  0.214E-02    2.45       1.0  T
   5    -95.0642178 -0.231242E-04  0.500E-03    2.44       2.3  T
   6    -95.0642186 -0.793907E-06  0.130E-03    2.44       8.9  T
   7    -95.0642186 -0.372529E-08  0.654E-04    2.44      17.7  T
   8    -95.0642186 -0.567405E-08  0.361E-04    2.44      32.0  T
   9    -95.0642186 -0.181566E-08  0.144E-04    2.44      79.9  T
     SCC iter.                  ...        0 min,  0.120 sec
     gradient                   ...        0 min,  0.064 sec
 * total energy  :   -93.7781890 Eh     change       -0.6131250E-04 Eh
   gradient norm :     0.0039013 Eh/α   predicted    -0.7216878E-04 (  17.71%)
   displ. norm   :     0.3299642 α      lambda       -0.7894790E-04
   maximum displ.:     0.1589476 α      in ANC's #2, #3, #1, ...

........................................................................
.............................. CYCLE  118 ..............................
........................................................................

 iter      E             dE          RMSdq      gap      omega  full diag
   1    -95.0621668 -0.950622E+02  0.385E-02    2.44       0.0  T
   2    -95.0621598  0.698304E-05  0.251E-02    2.43       1.0  T
   3    -95.0620829  0.769290E-04  0.343E-02    2.46       1.0  T
   4    -95.0621581 -0.752159E-04  0.150E-02    2.43       1.0  T
   5    -95.0621701 -0.120129E-04  0.299E-03    2.44       3.9  T
   6    -95.0621704 -0.244585E-06  0.946E-04    2.44      12.2  T
   7    -95.0621704 -0.637405E-08  0.423E-04    2.44      27.3  T
   8    -95.0621704 -0.168390E-08  0.163E-04    2.44      70.6  T
     SCC iter.                  ...        0 min,  0.102 sec
     gradient                   ...        0 min,  0.055 sec
 * total energy  :   -93.7782067 Eh     change       -0.1770922E-04 Eh
   gradient norm :     0.0054022 Eh/α   predicted    -0.4377644E-04 ( 147.20%)
   displ. norm   :     0.1592776 α      lambda       -0.9059790E-04
   maximum displ.:     0.0625284 α      in ANC's #9, #2, #6, ...

........................................................................
.............................. CYCLE  119 ..............................
........................................................................

 iter      E             dE          RMSdq      gap      omega  full diag
   1    -95.0645960 -0.950646E+02  0.289E-02    2.44       0.0  T
   2    -95.0645964 -0.390708E-06  0.186E-02    2.44       1.0  T
   3    -95.0645904  0.597242E-05  0.161E-02    2.45       1.0  T
   4    -95.0645850  0.543786E-05  0.137E-02    2.43       1.0  T
   5    -95.0645978 -0.128318E-04  0.520E-03    2.44       2.2  T
   6    -95.0645997 -0.184410E-05  0.841E-04    2.44      13.7  T
   7    -95.0645997 -0.246354E-08  0.328E-04    2.44      35.2  T
   8    -95.0645997 -0.552433E-09  0.188E-04    2.44      61.6  T
     SCC iter.                  ...        0 min,  0.098 sec
     gradient                   ...        0 min,  0.058 sec
 * total energy  :   -93.7782552 Eh     change       -0.4845247E-04 Eh
   gradient norm :     0.0025339 Eh/α   predicted    -0.4644881E-04 (  -4.14%)
   displ. norm   :     0.0940011 α      lambda       -0.2998395E-04
   maximum displ.:     0.0406615 α      in ANC's #3, #4, #41, ...

........................................................................
.............................. CYCLE  120 ..............................
........................................................................

 iter      E             dE          RMSdq      gap      omega  full diag
   1    -95.0647182 -0.950647E+02  0.159E-02    2.44       0.0  T
   2    -95.0647121  0.615951E-05  0.135E-02    2.44       1.0  T
   3    -95.0647074  0.465896E-05  0.134E-02    2.43       1.0  T
   4    -95.0647186 -0.111930E-04  0.571E-03    2.44       2.0  T
   5    -95.0647200 -0.137143E-05  0.142E-03    2.44       8.1  T
   6    -95.0647200 -0.683415E-07  0.456E-04    2.44      25.3  T
   7    -95.0647200 -0.237732E-08  0.210E-04    2.44      55.0  T
     SCC iter.                  ...        0 min,  0.078 sec
     gradient                   ...        0 min,  0.054 sec
 * total energy  :   -93.7782789 Eh     change       -0.2371788E-04 Eh
   gradient norm :     0.0011693 Eh/α   predicted    -0.1512960E-04 ( -36.21%)
   displ. norm   :     0.3094093 α      lambda       -0.5079977E-04
   maximum displ.:     0.1488057 α      in ANC's #3, #4, #2, ...
 * RMSD in coord.:     0.4954580 α      energy gain  -0.9795106E-03 Eh

generating ANC from exact Hessian ...
Using Lindh-Hessian (1995)
 Shifting diagonal of input Hessian by    1.0100033643338576E-002
 Lowest  eigenvalues of input Hessian
    0.010000    0.000000    0.000000    0.000000    0.000000    0.000000
    0.000000    0.010209    0.010215    0.010299    0.010340    0.010455
    0.010542    0.010578    0.010746    0.010935    0.010977    0.011169
 Highest eigenvalues
    1.627626    1.858234    1.900649    2.004274    2.026312    2.318812


........................................................................
.............................. CYCLE  121 ..............................
........................................................................

 iter      E             dE          RMSdq      gap      omega  full diag
   1    -95.0646743 -0.950647E+02  0.426E-02    2.43       0.0  T
   2    -95.0646655  0.875438E-05  0.281E-02    2.44       1.0  T
   3    -95.0645592  0.106318E-03  0.396E-02    2.42       1.0  T
   4    -95.0646650 -0.105798E-03  0.147E-02    2.44       1.0  T
   5    -95.0646779 -0.129530E-04  0.184E-03    2.44       6.3  T
   6    -95.0646780 -0.945123E-07  0.897E-04    2.44      12.9  T
   7    -95.0646780 -0.298721E-08  0.402E-04    2.44      28.7  T
   8    -95.0646780  0.451976E-09  0.243E-04    2.44      47.5  T
     SCC iter.                  ...        0 min,  0.082 sec
     gradient                   ...        0 min,  0.051 sec
 * total energy  :   -93.7783250 Eh     change       -0.4609743E-04 Eh
   gradient norm :     0.0030502 Eh/α   predicted     0.0000000E+00 (-100.00%)
   displ. norm   :     0.0359810 α      lambda       -0.1634259E-04
   maximum displ.:     0.0099151 α      in ANC's #6, #15, #24, ...

........................................................................
.............................. CYCLE  122 ..............................
........................................................................

 iter      E             dE          RMSdq      gap      omega  full diag
   1    -95.0650076 -0.950650E+02  0.148E-02    2.44       0.0  T
   2    -95.0649978  0.974776E-05  0.150E-02    2.43       1.0  T
   3    -95.0650021 -0.427960E-05  0.107E-02    2.44       1.1  T
   4    -95.0650090 -0.686396E-05  0.547E-03    2.44       2.1  T
   5    -95.0650102 -0.126020E-05  0.114E-03    2.44      10.2  T
   6    -95.0650102 -0.157498E-07  0.526E-04    2.44      22.0  T
   7    -95.0650102  0.792028E-09  0.294E-04    2.44      39.2  T
   8    -95.0650102 -0.309906E-08  0.118E-04    2.44      97.6  T
     SCC iter.                  ...        0 min,  0.084 sec
     gradient                   ...        0 min,  0.048 sec
 * total energy  :   -93.7783408 Eh     change       -0.1576781E-04 Eh
   gradient norm :     0.0010646 Eh/α   predicted    -0.1526055E-04 (  -3.22%)
   displ. norm   :     0.0810909 α      lambda       -0.2534575E-04
   maximum displ.:     0.0359443 α      in ANC's #24, #28, #6, ...

........................................................................
.............................. CYCLE  123 ..............................
........................................................................

 iter      E             dE          RMSdq      gap      omega  full diag
   1    -95.0654685 -0.950655E+02  0.213E-02    2.44       0.0  T
   2    -95.0654357  0.327521E-04  0.243E-02    2.43       1.0  T
   3    -95.0654638 -0.281117E-04  0.156E-02    2.44       1.0  T
   4    -95.0654768 -0.129716E-04  0.687E-03    2.44       1.7  T
   5    -95.0654776 -0.802125E-06  0.348E-03    2.44       3.3  T
   6    -95.0654779 -0.314816E-06  0.110E-03    2.44      10.5  T
   7    -95.0654779 -0.462690E-08  0.396E-04    2.44      29.2  T
   8    -95.0654779 -0.593531E-09  0.221E-04    2.44      52.3  T
     SCC iter.                  ...        0 min,  0.094 sec
     gradient                   ...        0 min,  0.051 sec
 * total energy  :   -93.7783413 Eh     change       -0.5014750E-06 Eh
   gradient norm :     0.0037828 Eh/α   predicted    -0.1272589E-04 (2437.69%)
   displ. norm   :     0.1042967 α      lambda       -0.6564907E-04
   maximum displ.:     0.0350781 α      in ANC's #6, #24, #28, ...

........................................................................
.............................. CYCLE  124 ..............................
........................................................................

 iter      E             dE          RMSdq      gap      omega  full diag
   1    -95.0656997 -0.950657E+02  0.286E-02    2.45       0.0  T
   2    -95.0656920  0.761026E-05  0.204E-02    2.44       1.0  T
   3    -95.0656756  0.164648E-04  0.214E-02    2.45       1.0  T
   4    -95.0656964 -0.208270E-04  0.127E-02    2.44       1.0  T
   5    -95.0657053 -0.892215E-05  0.378E-03    2.45       3.1  T
   6    -95.0657057 -0.344943E-06  0.167E-03    2.44       6.9  T
   7    -95.0657057 -0.197965E-07  0.561E-04    2.45      20.6  T
   8    -95.0657057 -0.109905E-08  0.327E-04    2.45      35.3  T
   9    -95.0657057 -0.102986E-09  0.161E-04    2.45      71.9  T
     SCC iter.                  ...        0 min,  0.106 sec
     gradient                   ...        0 min,  0.060 sec
 * total energy  :   -93.7783372 Eh     change        0.4025808E-05 Eh
   gradient norm :     0.0058970 Eh/α   predicted    -0.3318648E-04 (-924.34%)
   displ. norm   :     0.0403227 α      lambda       -0.7287476E-04
   maximum displ.:     0.0190408 α      in ANC's #16, #41, #18, ...

........................................................................
.............................. CYCLE  125 ..............................
........................................................................

 iter      E             dE          RMSdq      gap      omega  full diag
   1    -95.0652415 -0.950652E+02  0.213E-02    2.44       0.0  T
   2    -95.0652154  0.261330E-04  0.231E-02    2.45       1.0  T
   3    -95.0652354 -0.200142E-04  0.161E-02    2.43       1.0  T
   4    -95.0652508 -0.154499E-04  0.656E-03    2.44       1.8  T
   5    -95.0652515 -0.646600E-06  0.359E-03    2.44       3.2  T
   6    -95.0652519 -0.444722E-06  0.831E-04    2.44      13.9  T
   7    -95.0652519 -0.250509E-08  0.365E-04    2.44      31.6  T
   8    -95.0652519 -0.942080E-09  0.230E-04    2.44      50.2  T
     SCC iter.                  ...        0 min,  0.102 sec
     gradient                   ...        0 min,  0.065 sec
 * total energy  :   -93.7783777 Eh     change       -0.4046798E-04 Eh
   gradient norm :     0.0015392 Eh/α   predicted    -0.3649710E-04 (  -9.81%)
   displ. norm   :     0.0532666 α      lambda       -0.1465548E-04
   maximum displ.:     0.0221803 α      in ANC's #24, #9, #6, ...

........................................................................
.............................. CYCLE  126 ..............................
........................................................................

 iter      E             dE          RMSdq      gap      omega  full diag
   1    -95.0649211 -0.950649E+02  0.147E-02    2.43       0.0  T
   2    -95.0649074  0.136363E-04  0.163E-02    2.44       1.0  T
   3    -95.0649180 -0.105451E-04  0.107E-02    2.43       1.1  T
   4    -95.0649245 -0.653386E-05  0.490E-03    2.44       2.4  T
   5    -95.0649252 -0.630963E-06  0.224E-03    2.44       5.2  T
   6    -95.0649253 -0.124022E-06  0.579E-04    2.44      19.9  T
   7    -95.0649253 -0.543892E-09  0.258E-04    2.44      44.8  T
   8    -95.0649253 -0.159460E-08  0.123E-04    2.44      93.6  T
     SCC iter.                  ...        0 min,  0.087 sec
     gradient                   ...        0 min,  0.049 sec
 * total energy  :   -93.7783906 Eh     change       -0.1294302E-04 Eh
   gradient norm :     0.0013160 Eh/α   predicted    -0.7337339E-05 ( -43.31%)
   displ. norm   :     0.1647997 α      lambda       -0.2460149E-04
   maximum displ.:     0.0779360 α      in ANC's #24, #6, #9, ...

........................................................................
.............................. CYCLE  127 ..............................
........................................................................

 iter      E             dE          RMSdq      gap      omega  full diag
   1    -95.0644241 -0.950644E+02  0.310E-02    2.43       0.0  T
   2    -95.0644218  0.237799E-05  0.197E-02    2.44       1.0  T
   3    -95.0643870  0.348082E-04  0.237E-02    2.42       1.0  T
   4    -95.0644125 -0.255276E-04  0.142E-02    2.44       1.0  T
   5    -95.0644255 -0.130222E-04  0.206E-03    2.43       5.6  T
   6    -95.0644257 -0.162535E-06  0.648E-04    2.44      17.8  T
   7    -95.0644257 -0.218080E-08  0.271E-04    2.44      42.6  T
   8    -95.0644257 -0.328384E-09  0.153E-04    2.44      75.6  T
     SCC iter.                  ...        0 min,  0.088 sec
     gradient                   ...        0 min,  0.051 sec
 * total energy  :   -93.7784133 Eh     change       -0.2269387E-04 Eh
   gradient norm :     0.0031130 Eh/α   predicted    -0.1244896E-04 ( -45.14%)
   displ. norm   :     0.2046962 α      lambda       -0.3783804E-04
   maximum displ.:     0.0925841 α      in ANC's #24, #6, #9, ...

........................................................................
.............................. CYCLE  128 ..............................
........................................................................

 iter      E             dE          RMSdq      gap      omega  full diag
   1    -95.0641605 -0.950642E+02  0.329E-02    2.44       0.0  T
   2    -95.0641564  0.403754E-05  0.209E-02    2.43       1.0  T
   3    -95.0640668  0.896315E-04  0.338E-02    2.45       1.0  T
   4    -95.0641601 -0.933166E-04  0.750E-03    2.43       1.5  T
   5    -95.0641620 -0.185802E-05  0.146E-03    2.44       7.9  T
   6    -95.0641620 -0.422707E-07  0.748E-04    2.44      15.4  T
   7    -95.0641620 -0.454615E-08  0.360E-04    2.44      32.1  T
   8    -95.0641620 -0.794898E-09  0.149E-04    2.44      77.7  T
     SCC iter.                  ...        0 min,  0.087 sec
     gradient                   ...        0 min,  0.056 sec
 * total energy  :   -93.7784311 Eh     change       -0.1779236E-04 Eh
   gradient norm :     0.0024858 Eh/α   predicted    -0.1971206E-04 (  10.79%)
   displ. norm   :     0.0830609 α      lambda       -0.2165712E-04
   maximum displ.:     0.0388917 α      in ANC's #24, #9, #6, ...

........................................................................
.............................. CYCLE  129 ..............................
........................................................................

 iter      E             dE          RMSdq      gap      omega  full diag
   1    -95.0647191 -0.950647E+02  0.169E-02    2.44       0.0  T
   2    -95.0647123  0.682034E-05  0.135E-02    2.43       1.0  T
   3    -95.0646981  0.142236E-04  0.173E-02    2.44       1.0  T
   4    -95.0647206 -0.225165E-04  0.301E-03    2.44       3.8  T
   5    -95.0647206 -0.201569E-07  0.103E-03    2.44      11.3  T
   6    -95.0647206 -0.356003E-07  0.413E-04    2.44      28.0  T
   7    -95.0647206 -0.290284E-08  0.153E-04    2.44      75.6  T
     SCC iter.                  ...        0 min,  0.068 sec
     gradient                   ...        0 min,  0.051 sec
 * total energy  :   -93.7784448 Eh     change       -0.1368812E-04 Eh
   gradient norm :     0.0011847 Eh/α   predicted    -0.1090470E-04 ( -20.33%)
   displ. norm   :     0.1326968 α      lambda       -0.1989862E-04
   maximum displ.:     0.0582415 α      in ANC's #24, #9, #5, ...

........................................................................
.............................. CYCLE  130 ..............................
........................................................................

 iter      E             dE          RMSdq      gap      omega  full diag
   1    -95.0660663 -0.950661E+02  0.256E-02    2.44       0.0  T
   2    -95.0660545  0.117985E-04  0.200E-02    2.43       1.0  T
   3    -95.0660250  0.294869E-04  0.250E-02    2.45       1.0  T
   4    -95.0660676 -0.425387E-04  0.911E-03    2.43       1.3  T
   5    -95.0660710 -0.337200E-05  0.222E-03    2.44       5.2  T
   6    -95.0660712 -0.238660E-06  0.639E-04    2.44      18.1  T
   7    -95.0660712 -0.115547E-07  0.296E-04    2.44      39.0  T
   8    -95.0660712 -0.154904E-08  0.158E-04    2.44      73.0  T
     SCC iter.                  ...        0 min,  0.087 sec
     gradient                   ...        0 min,  0.056 sec
 * total energy  :   -93.7784606 Eh     change       -0.1581339E-04 Eh
   gradient norm :     0.0018464 Eh/α   predicted    -0.1002900E-04 ( -36.58%)
   displ. norm   :     0.2005055 α      lambda       -0.1736590E-04
   maximum displ.:     0.0956433 α      in ANC's #24, #9, #5, ...

........................................................................
.............................. CYCLE  131 ..............................
........................................................................

 iter      E             dE          RMSdq      gap      omega  full diag
   1    -95.0656601 -0.950657E+02  0.352E-02    2.44       0.0  T
   2    -95.0656604 -0.281296E-06  0.208E-02    2.44       1.0  T
   3    -95.0656569  0.351028E-05  0.112E-02    2.44       1.0  T
   4    -95.0656554  0.153447E-05  0.813E-03    2.43       1.4  T
   5    -95.0656605 -0.516476E-05  0.199E-03    2.44       5.8  T
   6    -95.0656608 -0.266503E-06  0.669E-04    2.44      17.3  T
   7    -95.0656608 -0.421535E-08  0.251E-04    2.44      45.9  T
   8    -95.0656608 -0.507924E-09  0.135E-04    2.44      85.5  T
     SCC iter.                  ...        0 min,  0.125 sec
     gradient                   ...        0 min,  0.092 sec
 * total energy  :   -93.7784794 Eh     change       -0.1872750E-04 Eh
   gradient norm :     0.0014276 Eh/α   predicted    -0.8839949E-05 ( -52.80%)
   displ. norm   :     0.2045398 α      lambda       -0.2073925E-04
   maximum displ.:     0.0832631 α      in ANC's #24, #3, #5, ...

........................................................................
.............................. CYCLE  132 ..............................
........................................................................

 iter      E             dE          RMSdq      gap      omega  full diag
   1    -95.0653945 -0.950654E+02  0.358E-02    2.43       0.0  T
   2    -95.0653949 -0.327706E-06  0.211E-02    2.43       1.0  T
   3    -95.0653938  0.111642E-05  0.861E-03    2.43       1.3  T
   4    -95.0653936  0.178736E-06  0.421E-03    2.44       2.7  T
   5    -95.0653950 -0.139715E-05  0.963E-04    2.43      12.0  T
   6    -95.0653950 -0.477102E-07  0.498E-04    2.43      23.2  T
   7    -95.0653950 -0.655146E-08  0.212E-04    2.43      54.4  T
     SCC iter.                  ...        0 min,  0.144 sec
     gradient                   ...        0 min,  0.083 sec
 * total energy  :   -93.7784994 Eh     change       -0.2000026E-04 Eh
   gradient norm :     0.0011361 Eh/α   predicted    -0.1056760E-04 ( -47.16%)
   displ. norm   :     0.1515758 α      lambda       -0.1526390E-04
   maximum displ.:     0.0707888 α      in ANC's #3, #5, #24, ...

........................................................................
.............................. CYCLE  133 ..............................
........................................................................

 iter      E             dE          RMSdq      gap      omega  full diag
   1    -95.0653924 -0.950654E+02  0.284E-02    2.43       0.0  T
   2    -95.0653900  0.243388E-05  0.180E-02    2.44       1.0  T
   3    -95.0653576  0.323940E-04  0.224E-02    2.43       1.0  T
   4    -95.0653826 -0.250314E-04  0.118E-02    2.44       1.0  T
   5    -95.0653936 -0.109779E-04  0.944E-04    2.44      12.2  T
   6    -95.0653936 -0.201083E-07  0.598E-04    2.44      19.3  T
   7    -95.0653936 -0.728345E-08  0.222E-04    2.44      51.9  T
   8    -95.0653936 -0.752522E-09  0.123E-04    2.44      93.9  T
     SCC iter.                  ...        0 min,  0.121 sec
     gradient                   ...        0 min,  0.058 sec
 * total energy  :   -93.7785119 Eh     change       -0.1251703E-04 Eh
   gradient norm :     0.0012245 Eh/α   predicted    -0.7710886E-05 ( -38.40%)
   displ. norm   :     0.1253401 α      lambda       -0.1477486E-04
   maximum displ.:     0.0637593 α      in ANC's #3, #5, #24, ...

........................................................................
.............................. CYCLE  134 ..............................
........................................................................

 iter      E             dE          RMSdq      gap      omega  full diag
   1    -95.0652728 -0.950653E+02  0.238E-02    2.44       0.0  T
   2    -95.0652696  0.317022E-05  0.156E-02    2.43       1.0  T
   3    -95.0652294  0.402523E-04  0.234E-02    2.45       1.0  T
   4    -95.0652715 -0.421457E-04  0.764E-03    2.43       1.5  T
   5    -95.0652739 -0.236567E-05  0.149E-03    2.44       7.8  T
   6    -95.0652740 -0.474096E-07  0.367E-04    2.43      31.5  T
   7    -95.0652740 -0.918789E-09  0.146E-04    2.43      79.3  T
     SCC iter.                  ...        0 min,  0.090 sec
     gradient                   ...        0 min,  0.055 sec
 * total energy  :   -93.7785273 Eh     change       -0.1537397E-04 Eh
   gradient norm :     0.0009949 Eh/α   predicted    -0.7441600E-05 ( -51.60%)
   displ. norm   :     0.1262285 α      lambda       -0.1655033E-04
   maximum displ.:     0.0673995 α      in ANC's #3, #7, #4, ...

........................................................................
.............................. CYCLE  135 ..............................
........................................................................

 iter      E             dE          RMSdq      gap      omega  full diag
   1    -95.0661648 -0.950662E+02  0.241E-02    2.44       0.0  T
   2    -95.0661633  0.149385E-05  0.153E-02    2.43       1.0  T
   3    -95.0661351  0.282722E-04  0.202E-02    2.45       1.0  T
   4    -95.0661603 -0.252010E-04  0.915E-03    2.43       1.3  T
   5    -95.0661656 -0.536621E-05  0.145E-03    2.43       8.0  T
   6    -95.0661657 -0.407878E-07  0.471E-04    2.43      24.5  T
   7    -95.0661657 -0.292236E-08  0.223E-04    2.43      51.8  T
     SCC iter.                  ...        0 min,  0.092 sec
     gradient                   ...        0 min,  0.062 sec
 * total energy  :   -93.7785420 Eh     change       -0.1474970E-04 Eh
   gradient norm :     0.0012119 Eh/α   predicted    -0.8337281E-05 ( -43.47%)
   displ. norm   :     0.1887617 α      lambda       -0.1738681E-04
   maximum displ.:     0.1026691 α      in ANC's #3, #24, #5, ...

........................................................................
.............................. CYCLE  136 ..............................
........................................................................

 iter      E             dE          RMSdq      gap      omega  full diag
   1    -95.0653264 -0.950653E+02  0.356E-02    2.44       0.0  T
   2    -95.0653248  0.156857E-05  0.217E-02    2.43       1.0  T
   3    -95.0652573  0.675214E-04  0.296E-02    2.45       1.0  T
   4    -95.0653237 -0.663535E-04  0.845E-03    2.43       1.4  T
   5    -95.0653273 -0.361578E-05  0.116E-03    2.44       9.9  T
   6    -95.0653273 -0.225931E-07  0.464E-04    2.44      24.9  T
   7    -95.0653273 -0.894303E-09  0.207E-04    2.44      55.8  T
     SCC iter.                  ...        0 min,  0.088 sec
     gradient                   ...        0 min,  0.059 sec
 * total energy  :   -93.7785573 Eh     change       -0.1529585E-04 Eh
   gradient norm :     0.0012574 Eh/α   predicted    -0.8833089E-05 ( -42.25%)
   displ. norm   :     0.0922302 α      lambda       -0.9508595E-05
   maximum displ.:     0.0582398 α      in ANC's #3, #4, #9, ...

........................................................................
.............................. CYCLE  137 ..............................
........................................................................

 iter      E             dE          RMSdq      gap      omega  full diag
   1    -95.0653604 -0.950654E+02  0.172E-02    2.44       0.0  T
   2    -95.0653603  0.577769E-07  0.102E-02    2.44       1.1  T
   3    -95.0653540  0.636368E-05  0.998E-03    2.43       1.2  T
   4    -95.0653594 -0.545764E-05  0.387E-03    2.44       3.0  T
   5    -95.0653605 -0.109497E-05  0.663E-04    2.44      17.4  T
   6    -95.0653605 -0.232840E-07  0.216E-04    2.44      53.5  T
   7    -95.0653605 -0.362832E-09  0.106E-04    2.44     108.5  T
     SCC iter.                  ...        0 min,  0.086 sec
     gradient                   ...        0 min,  0.059 sec
 * total energy  :   -93.7785690 Eh     change       -0.1165644E-04 Eh
   gradient norm :     0.0007680 Eh/α   predicted    -0.4773670E-05 ( -59.05%)
   displ. norm   :     0.1546848 α      lambda       -0.1516310E-04
   maximum displ.:     0.0977507 α      in ANC's #3, #9, #4, ...

........................................................................
.............................. CYCLE  138 ..............................
........................................................................

 iter      E             dE          RMSdq      gap      omega  full diag
   1    -95.0654603 -0.950655E+02  0.278E-02    2.44       0.0  T
   2    -95.0654601  0.140209E-06  0.166E-02    2.44       1.0  T
   3    -95.0654440  0.160715E-04  0.166E-02    2.44       1.0  T
   4    -95.0654584 -0.143247E-04  0.561E-03    2.44       2.1  T
   5    -95.0654605 -0.218009E-05  0.106E-03    2.44      10.9  T
   6    -95.0654606 -0.726260E-07  0.293E-04    2.44      39.4  T
   7    -95.0654606 -0.564782E-09  0.145E-04    2.44      79.9  T
     SCC iter.                  ...        0 min,  0.097 sec
     gradient                   ...        0 min,  0.056 sec
 * total energy  :   -93.7785861 Eh     change       -0.1713876E-04 Eh
   gradient norm :     0.0008625 Eh/α   predicted    -0.7664212E-05 ( -55.28%)
   displ. norm   :     0.1952885 α      lambda       -0.1506330E-04
   maximum displ.:     0.1238219 α      in ANC's #3, #9, #4, ...

........................................................................
.............................. CYCLE  139 ..............................
........................................................................

 iter      E             dE          RMSdq      gap      omega  full diag
   1    -95.0653661 -0.950654E+02  0.356E-02    2.44       0.0  T
   2    -95.0653650  0.105080E-05  0.212E-02    2.44       1.0  T
   3    -95.0653096  0.554461E-04  0.270E-02    2.43       1.0  T
   4    -95.0653642 -0.545758E-04  0.551E-03    2.44       2.1  T
   5    -95.0653667 -0.251317E-05  0.125E-03    2.44       9.2  T
   6    -95.0653667 -0.618865E-07  0.528E-04    2.44      21.8  T
   7    -95.0653667 -0.621098E-08  0.153E-04    2.44      75.4  T
   8    -95.0653667 -0.778755E-10  0.788E-05    2.44     146.5  T
     SCC iter.                  ...        0 min,  0.102 sec
     gradient                   ...        0 min,  0.059 sec
 * total energy  :   -93.7786044 Eh     change       -0.1830947E-04 Eh
   gradient norm :     0.0013497 Eh/α   predicted    -0.7662150E-05 ( -58.15%)
   displ. norm   :     0.2294621 α      lambda       -0.1819036E-04
   maximum displ.:     0.1473355 α      in ANC's #3, #4, #9, ...

........................................................................
.............................. CYCLE  140 ..............................
........................................................................

 iter      E             dE          RMSdq      gap      omega  full diag
   1    -95.0652255 -0.950652E+02  0.416E-02    2.44       0.0  T
   2    -95.0652251  0.420781E-06  0.246E-02    2.44       1.0  T
   3    -95.0651900  0.350813E-04  0.220E-02    2.45       1.0  T
   4    -95.0652191 -0.290415E-04  0.102E-02    2.44       1.1  T
   5    -95.0652261 -0.706713E-05  0.207E-03    2.44       5.6  T
   6    -95.0652263 -0.226214E-06  0.394E-04    2.44      29.3  T
   7    -95.0652263  0.927443E-09  0.212E-04    2.44      54.5  T
     SCC iter.                  ...        0 min,  0.096 sec
     gradient                   ...        0 min,  0.052 sec
 * total energy  :   -93.7786282 Eh     change       -0.2384201E-04 Eh
   gradient norm :     0.0013249 Eh/α   predicted    -0.9312422E-05 ( -60.94%)
   displ. norm   :     0.2926921 α      lambda       -0.2588503E-04
   maximum displ.:     0.1928650 α      in ANC's #3, #4, #1, ...

........................................................................
.............................. CYCLE  141 ..............................
........................................................................

 iter      E             dE          RMSdq      gap      omega  full diag
   1    -95.0653758 -0.950654E+02  0.526E-02    2.44       0.0  T
   2    -95.0653762 -0.442962E-06  0.309E-02    2.44       1.0  T
   3    -95.0653683  0.797972E-05  0.166E-02    2.45       1.0  T
   4    -95.0653616  0.661741E-05  0.138E-02    2.43       1.0  T
   5    -95.0653765 -0.148680E-04  0.254E-03    2.44       4.6  T
   6    -95.0653769 -0.381046E-06  0.754E-04    2.44      15.3  T
   7    -95.0653769 -0.732655E-08  0.306E-04    2.44      37.7  T
   8    -95.0653769 -0.171558E-08  0.124E-04    2.44      93.0  T
     SCC iter.                  ...        0 min,  0.113 sec
     gradient                   ...        0 min,  0.057 sec
 * total energy  :   -93.7786609 Eh     change       -0.3262620E-04 Eh
   gradient norm :     0.0010673 Eh/α   predicted    -0.1343635E-04 ( -58.82%)
   displ. norm   :     0.3523631 α      lambda       -0.2976828E-04
   maximum displ.:     0.2356372 α      in ANC's #3, #1, #6, ...

........................................................................
.............................. CYCLE  142 ..............................
........................................................................

 iter      E             dE          RMSdq      gap      omega  full diag
   1    -95.0652479 -0.950652E+02  0.624E-02    2.44       0.0  T
   2    -95.0652487 -0.776322E-06  0.365E-02    2.44       1.0  T
   3    -95.0652458  0.284565E-05  0.146E-02    2.44       1.0  T
   4    -95.0652464 -0.638326E-06  0.686E-03    2.44       1.7  T
   5    -95.0652487 -0.226390E-05  0.276E-03    2.44       4.2  T
   6    -95.0652493 -0.548260E-06  0.110E-03    2.44      10.5  T
   7    -95.0652493 -0.430417E-07  0.354E-04    2.44      32.6  T
   8    -95.0652493 -0.182663E-08  0.144E-04    2.44      80.1  T
     SCC iter.                  ...        0 min,  0.134 sec
     gradient                   ...        0 min,  0.067 sec
 * total energy  :   -93.7786958 Eh     change       -0.3497234E-04 Eh
   gradient norm :     0.0012253 Eh/α   predicted    -0.1570750E-04 ( -55.09%)
   displ. norm   :     0.4210171 α      lambda       -0.3298712E-04
   maximum displ.:     0.2850647 α      in ANC's #3, #6, #1, ...

........................................................................
.............................. CYCLE  143 ..............................
........................................................................

 iter      E             dE          RMSdq      gap      omega  full diag
   1    -95.0651743 -0.950652E+02  0.713E-02    2.44       0.0  T
   2    -95.0651743  0.193588E-07  0.419E-02    2.44       1.0  T
   3    -95.0651292  0.450909E-04  0.294E-02    2.45       1.0  T
   4    -95.0651255  0.372144E-05  0.252E-02    2.43       1.0  T
   5    -95.0651760 -0.505342E-04  0.307E-03    2.44       3.8  T
   6    -95.0651764 -0.380588E-06  0.120E-03    2.44       9.7  T
   7    -95.0651764 -0.144252E-07  0.448E-04    2.44      25.8  T
   8    -95.0651764 -0.527066E-09  0.217E-04    2.44      53.2  T
     SCC iter.                  ...        0 min,  0.097 sec
     gradient                   ...        0 min,  0.055 sec
 * total energy  :   -93.7787324 Eh     change       -0.3656129E-04 Eh
   gradient norm :     0.0015777 Eh/α   predicted    -0.1779639E-04 ( -51.32%)
   displ. norm   :     0.5276985 α      lambda       -0.3508938E-04
   maximum displ.:     0.3582470 α      in ANC's #3, #6, #1, ...

........................................................................
.............................. CYCLE  144 ..............................
........................................................................

 iter      E             dE          RMSdq      gap      omega  full diag
   1    -95.0641633 -0.950642E+02  0.879E-02    2.44       0.0  T
   2    -95.0641635 -0.144849E-06  0.517E-02    2.44       1.0  T
   3    -95.0641058  0.577011E-04  0.347E-02    2.43       1.0  T
   4    -95.0641039  0.183634E-05  0.262E-02    2.46       1.0  T
   5    -95.0641659 -0.619394E-04  0.276E-03    2.44       4.2  T
   6    -95.0641660 -0.120670E-06  0.133E-03    2.44       8.7  T
   7    -95.0641660 -0.162588E-07  0.500E-04    2.44      23.1  T
   8    -95.0641660 -0.108999E-08  0.190E-04    2.44      60.7  T
   9    -95.0641660 -0.669473E-10  0.776E-05    2.44     148.8  T
     SCC iter.                  ...        0 min,  0.116 sec
     gradient                   ...        0 min,  0.060 sec
 * total energy  :   -93.7787673 Eh     change       -0.3489838E-04 Eh
   gradient norm :     0.0026991 Eh/α   predicted    -0.1972126E-04 ( -43.49%)
   displ. norm   :     0.2947740 α      lambda       -0.4912550E-04
   maximum displ.:     0.1940548 α      in ANC's #3, #6, #1, ...

........................................................................
.............................. CYCLE  145 ..............................
........................................................................

 iter      E             dE          RMSdq      gap      omega  full diag
   1    -95.0664354 -0.950664E+02  0.430E-02    2.44       0.0  T
   2    -95.0664351  0.285461E-06  0.254E-02    2.45       1.0  T
   3    -95.0664054  0.297039E-04  0.222E-02    2.43       1.0  T
   4    -95.0664199 -0.144525E-04  0.137E-02    2.45       1.0  T
   5    -95.0664363 -0.164631E-04  0.192E-03    2.44       6.0  T
   6    -95.0664364 -0.398279E-07  0.792E-04    2.44      14.6  T
   7    -95.0664364 -0.767467E-08  0.281E-04    2.44      41.0  T
   8    -95.0664364 -0.381121E-09  0.124E-04    2.44      93.1  T
     SCC iter.                  ...        0 min,  0.102 sec
     gradient                   ...        0 min,  0.056 sec
 * total energy  :   -93.7787915 Eh     change       -0.2424008E-04 Eh
   gradient norm :     0.0025614 Eh/α   predicted    -0.2669817E-04 (  10.14%)
   displ. norm   :     0.3748262 α      lambda       -0.4922566E-04
   maximum displ.:     0.2525999 α      in ANC's #3, #9, #1, ...

........................................................................
.............................. CYCLE  146 ..............................
........................................................................

 iter      E             dE          RMSdq      gap      omega  full diag
   1    -95.0646059 -0.950646E+02  0.633E-02    2.45       0.0  T
   2    -95.0646056  0.305710E-06  0.374E-02    2.44       1.0  T
   3    -95.0645514  0.542081E-04  0.296E-02    2.46       1.0  T
   4    -95.0645897 -0.382391E-04  0.151E-02    2.44       1.0  T
   5    -95.0646071 -0.173950E-04  0.245E-03    2.45       4.7  T
   6    -95.0646074 -0.293972E-06  0.788E-04    2.45      14.7  T
   7    -95.0646074 -0.762962E-08  0.264E-04    2.45      43.7  T
   8    -95.0646074 -0.324007E-10  0.117E-04    2.45      98.6  T
     SCC iter.                  ...        0 min,  0.105 sec
     gradient                   ...        0 min,  0.068 sec
 * total energy  :   -93.7788229 Eh     change       -0.3132969E-04 Eh
   gradient norm :     0.0027429 Eh/α   predicted    -0.2807355E-04 ( -10.39%)
   displ. norm   :     0.2093928 α      lambda       -0.3931723E-04
   maximum displ.:     0.1328230 α      in ANC's #3, #9, #1, ...

........................................................................
.............................. CYCLE  147 ..............................
........................................................................

 iter      E             dE          RMSdq      gap      omega  full diag
   1    -95.0646150 -0.950646E+02  0.341E-02    2.45       0.0  T
   2    -95.0646129  0.202373E-05  0.210E-02    2.45       1.0  T
   3    -95.0645428  0.700812E-04  0.312E-02    2.46       1.0  T
   4    -95.0646131 -0.702488E-04  0.692E-03    2.45       1.7  T
   5    -95.0646158 -0.266895E-05  0.125E-03    2.45       9.3  T
   6    -95.0646158 -0.769368E-07  0.406E-04    2.45      28.4  T
   7    -95.0646158 -0.227489E-08  0.180E-04    2.45      64.2  T
     SCC iter.                  ...        0 min,  0.100 sec
     gradient                   ...        0 min,  0.070 sec
 * total energy  :   -93.7788486 Eh     change       -0.2575797E-04 Eh
   gradient norm :     0.0031447 Eh/α   predicted    -0.2052269E-04 ( -20.32%)
   displ. norm   :     0.1666609 α      lambda       -0.3973569E-04
   maximum displ.:     0.0914632 α      in ANC's #3, #9, #1, ...

........................................................................
.............................. CYCLE  148 ..............................
........................................................................

 iter      E             dE          RMSdq      gap      omega  full diag
   1    -95.0655063 -0.950655E+02  0.261E-02    2.45       0.0  T
   2    -95.0655047  0.156064E-05  0.158E-02    2.45       1.0  T
   3    -95.0654607  0.440033E-04  0.235E-02    2.44       1.0  T
   4    -95.0655053 -0.445571E-04  0.618E-03    2.45       1.9  T
   5    -95.0655069 -0.163103E-05  0.881E-04    2.45      13.1  T
   6    -95.0655069 -0.163886E-07  0.472E-04    2.45      24.4  T
   7    -95.0655069 -0.353850E-09  0.233E-04    2.45      49.6  T
     SCC iter.                  ...        0 min,  0.096 sec
     gradient                   ...        0 min,  0.068 sec
 * total energy  :   -93.7788746 Eh     change       -0.2598270E-04 Eh
   gradient norm :     0.0026646 Eh/α   predicted    -0.2042438E-04 ( -21.39%)
   displ. norm   :     0.2846577 α      lambda       -0.3086874E-04
   maximum displ.:     0.1825707 α      in ANC's #3, #9, #1, ...

........................................................................
.............................. CYCLE  149 ..............................
........................................................................

 iter      E             dE          RMSdq      gap      omega  full diag
   1    -95.0642151 -0.950642E+02  0.450E-02    2.45       0.0  T
   2    -95.0642115  0.359733E-05  0.274E-02    2.45       1.0  T
   3    -95.0640747  0.136814E-03  0.414E-02    2.43       1.0  T
   4    -95.0642136 -0.138981E-03  0.759E-03    2.45       1.5  T
   5    -95.0642164 -0.279090E-05  0.110E-03    2.45      10.5  T
   6    -95.0642165 -0.391316E-07  0.574E-04    2.45      20.1  T
   7    -95.0642165 -0.110651E-08  0.246E-04    2.45      47.0  T
   8    -95.0642165 -0.756060E-09  0.123E-04    2.45      93.8  T
     SCC iter.                  ...        0 min,  0.123 sec
     gradient                   ...        0 min,  0.061 sec
 * total energy  :   -93.7788961 Eh     change       -0.2148573E-04 Eh
   gradient norm :     0.0024968 Eh/α   predicted    -0.1668735E-04 ( -22.33%)
   displ. norm   :     0.1946646 α      lambda       -0.4219333E-04
   maximum displ.:     0.1072375 α      in ANC's #9, #3, #1, ...

........................................................................
.............................. CYCLE  150 ..............................
........................................................................

 iter      E             dE          RMSdq      gap      omega  full diag
   1    -95.0655906 -0.950656E+02  0.306E-02    2.45       0.0  T
   2    -95.0655909 -0.368938E-06  0.185E-02    2.45       1.0  T
   3    -95.0655894  0.152351E-05  0.126E-02    2.45       1.0  T
   4    -95.0655876  0.180678E-05  0.699E-03    2.45       1.7  T
   5    -95.0655908 -0.319740E-05  0.247E-03    2.45       4.7  T
   6    -95.0655913 -0.481948E-06  0.516E-04    2.45      22.4  T
   7    -95.0655913 -0.214879E-08  0.239E-04    2.45      48.3  T
   8    -95.0655913 -0.401570E-09  0.131E-04    2.45      88.4  T
     SCC iter.                  ...        0 min,  0.107 sec
     gradient                   ...        0 min,  0.055 sec
 * total energy  :   -93.7789209 Eh     change       -0.2482996E-04 Eh
   gradient norm :     0.0024178 Eh/α   predicted    -0.2189980E-04 ( -11.80%)
   displ. norm   :     0.4084193 α      lambda       -0.4707211E-04
   maximum displ.:     0.2512862 α      in ANC's #3, #9, #1, ...
 * RMSD in coord.:     0.5536189 α      energy gain  -0.6420350E-03 Eh

generating ANC from exact Hessian ...
Using Lindh-Hessian (1995)
 Shifting diagonal of input Hessian by    1.0100903676544539E-002
 Lowest  eigenvalues of input Hessian
    0.010000    0.000000    0.000000    0.000000    0.000000    0.000000
    0.000000    0.010158    0.010210    0.010278    0.010374    0.010444
    0.010565    0.010636    0.010769    0.010949    0.010982    0.011161
 Highest eigenvalues
    1.624015    1.855594    1.897466    1.999507    2.021612    2.323143


........................................................................
.............................. CYCLE  151 ..............................
........................................................................

 iter      E             dE          RMSdq      gap      omega  full diag
   1    -95.0634732 -0.950635E+02  0.676E-02    2.45       0.0  T
   2    -95.0634738 -0.575765E-06  0.400E-02    2.45       1.0  T
   3    -95.0634530  0.208378E-04  0.257E-02    2.44       1.0  T
   4    -95.0634465  0.649428E-05  0.182E-02    2.46       1.0  T
   5    -95.0634750 -0.285000E-04  0.256E-03    2.44       4.5  T
   6    -95.0634753 -0.303104E-06  0.804E-04    2.45      14.4  T
   7    -95.0634753 -0.339267E-08  0.415E-04    2.45      27.8  T
   8    -95.0634753 -0.366072E-09  0.151E-04    2.45      76.3  T
     SCC iter.                  ...        0 min,  0.103 sec
     gradient                   ...        0 min,  0.054 sec
 * total energy  :   -93.7789483 Eh     change       -0.2733895E-04 Eh
   gradient norm :     0.0028517 Eh/α   predicted     0.0000000E+00 (-100.00%)
   displ. norm   :     0.0353931 α      lambda       -0.3988441E-04
   maximum displ.:     0.0112128 α      in ANC's #27, #41, #19, ...

........................................................................
.............................. CYCLE  152 ..............................
........................................................................

 iter      E             dE          RMSdq      gap      omega  full diag
   1    -95.0654492 -0.950654E+02  0.159E-02    2.45       0.0  T
   2    -95.0654487  0.415141E-06  0.103E-02    2.45       1.1  T
   3    -95.0654454  0.337896E-05  0.958E-03    2.45       1.2  T
   4    -95.0654445  0.874992E-06  0.845E-03    2.44       1.4  T
   5    -95.0654499 -0.546003E-05  0.186E-03    2.45       6.2  T
   6    -95.0654501 -0.151315E-06  0.820E-04    2.45      14.1  T
   7    -95.0654501 -0.581895E-08  0.250E-04    2.45      46.2  T
   8    -95.0654501 -0.533475E-10  0.137E-04    2.45      84.3  T
     SCC iter.                  ...        0 min,  0.101 sec
     gradient                   ...        0 min,  0.057 sec
 * total energy  :   -93.7789649 Eh     change       -0.1667070E-04 Eh
   gradient norm :     0.0020363 Eh/α   predicted    -0.2004162E-04 (  20.22%)
   displ. norm   :     0.1018564 α      lambda       -0.9329757E-04
   maximum displ.:     0.0423040 α      in ANC's #27, #18, #36, ...

........................................................................
.............................. CYCLE  153 ..............................
........................................................................

 iter      E             dE          RMSdq      gap      omega  full diag
   1    -95.0702279 -0.950702E+02  0.397E-02    2.45       0.0  T
   2    -95.0702123  0.156198E-04  0.284E-02    2.43       1.0  T
   3    -95.0701642  0.480455E-04  0.318E-02    2.46       1.0  T
   4    -95.0702221 -0.578795E-04  0.164E-02    2.43       1.0  T
   5    -95.0702349 -0.128411E-04  0.456E-03    2.44       2.5  T
   6    -95.0702355 -0.548766E-06  0.237E-03    2.44       4.9  T
   7    -95.0702356 -0.106098E-06  0.711E-04    2.44      16.2  T
   8    -95.0702356 -0.136194E-08  0.404E-04    2.44      28.6  T
   9    -95.0702356 -0.182411E-09  0.156E-04    2.44      74.2  T
     SCC iter.                  ...        0 min,  0.112 sec
     gradient                   ...        0 min,  0.056 sec
 * total energy  :   -93.7789035 Eh     change        0.6142359E-04 Eh
   gradient norm :     0.0064570 Eh/α   predicted    -0.4713418E-04 (-176.74%)
   displ. norm   :     0.0492313 α      lambda       -0.1676422E-03
   maximum displ.:     0.0179107 α      in ANC's #27, #18, #29, ...

........................................................................
.............................. CYCLE  154 ..............................
........................................................................

 iter      E             dE          RMSdq      gap      omega  full diag
   1    -95.0670623 -0.950671E+02  0.258E-02    2.44       0.0  T
   2    -95.0670474  0.148660E-04  0.222E-02    2.45       1.0  T
   3    -95.0670404  0.702461E-05  0.200E-02    2.44       1.0  T
   4    -95.0670621 -0.216878E-04  0.109E-02    2.45       1.1  T
   5    -95.0670673 -0.525092E-05  0.337E-03    2.44       3.4  T
   6    -95.0670676 -0.334589E-06  0.153E-03    2.45       7.6  T
   7    -95.0670677 -0.270461E-07  0.474E-04    2.45      24.4  T
   8    -95.0670677 -0.523912E-09  0.263E-04    2.45      43.9  T
     SCC iter.                  ...        0 min,  0.107 sec
     gradient                   ...        0 min,  0.057 sec
 * total energy  :   -93.7789918 Eh     change       -0.8826607E-04 Eh
   gradient norm :     0.0011115 Eh/α   predicted    -0.8402582E-04 (  -4.80%)
   displ. norm   :     0.0404443 α      lambda       -0.1010592E-04
   maximum displ.:     0.0157329 α      in ANC's #8, #6, #9, ...

........................................................................
.............................. CYCLE  155 ..............................
........................................................................

 iter      E             dE          RMSdq      gap      omega  full diag
   1    -95.0661759 -0.950662E+02  0.107E-02    2.44       0.0  T
   2    -95.0661760 -0.847512E-07  0.635E-03    2.44       1.8  T
   3    -95.0661754  0.558226E-06  0.490E-03    2.44       2.4  T
   4    -95.0661760 -0.542140E-06  0.188E-03    2.44       6.2  T
   5    -95.0661760 -0.343068E-07  0.139E-03    2.44       8.3  T
   6    -95.0661762 -0.150792E-06  0.349E-04    2.44      33.1  T
   7    -95.0661762 -0.632603E-08  0.124E-04    2.44      92.7  T
     SCC iter.                  ...        0 min,  0.099 sec
     gradient                   ...        0 min,  0.073 sec
 * total energy  :   -93.7790026 Eh     change       -0.1084065E-04 Eh
   gradient norm :     0.0005764 Eh/α   predicted    -0.5056987E-05 ( -53.35%)
   displ. norm   :     0.1512588 α      lambda       -0.2406159E-04
   maximum displ.:     0.0593543 α      in ANC's #8, #6, #9, ...

........................................................................
.............................. CYCLE  156 ..............................
........................................................................

 iter      E             dE          RMSdq      gap      omega  full diag
   1    -95.0651042 -0.950651E+02  0.379E-02    2.44       0.0  T
   2    -95.0651046 -0.322677E-06  0.226E-02    2.44       1.0  T
   3    -95.0650994  0.515545E-05  0.155E-02    2.44       1.0  T
   4    -95.0650845  0.149301E-04  0.154E-02    2.45       1.0  T
   5    -95.0651052 -0.206964E-04  0.143E-03    2.44       8.1  T
   6    -95.0651052 -0.726508E-07  0.491E-04    2.44      23.5  T
   7    -95.0651052 -0.134835E-08  0.219E-04    2.44      52.7  T
     SCC iter.                  ...        0 min,  0.099 sec
     gradient                   ...        0 min,  0.085 sec
 * total energy  :   -93.7790210 Eh     change       -0.1840154E-04 Eh
   gradient norm :     0.0015779 Eh/α   predicted    -0.1215481E-04 ( -33.95%)
   displ. norm   :     0.1092102 α      lambda       -0.1537290E-04
   maximum displ.:     0.0438614 α      in ANC's #8, #9, #6, ...

........................................................................
.............................. CYCLE  157 ..............................
........................................................................

 iter      E             dE          RMSdq      gap      omega  full diag
   1    -95.0655924 -0.950656E+02  0.276E-02    2.44       0.0  T
   2    -95.0655927 -0.353647E-06  0.160E-02    2.44       1.0  T
   3    -95.0655909  0.180531E-05  0.956E-03    2.44       1.2  T
   4    -95.0655904  0.489047E-06  0.564E-03    2.44       2.0  T
   5    -95.0655925 -0.212243E-05  0.225E-03    2.44       5.1  T
   6    -95.0655929 -0.378322E-06  0.590E-04    2.44      19.6  T
   7    -95.0655929 -0.120550E-07  0.248E-04    2.44      46.6  T
   8    -95.0655929 -0.114105E-08  0.127E-04    2.44      90.6  T
     SCC iter.                  ...        0 min,  0.118 sec
     gradient                   ...        0 min,  0.063 sec
 * total energy  :   -93.7790323 Eh     change       -0.1124454E-04 Eh
   gradient norm :     0.0014062 Eh/α   predicted    -0.7731902E-05 ( -31.24%)
   displ. norm   :     0.0985788 α      lambda       -0.1494591E-04
   maximum displ.:     0.0459464 α      in ANC's #9, #8, #6, ...

........................................................................
.............................. CYCLE  158 ..............................
........................................................................

 iter      E             dE          RMSdq      gap      omega  full diag
   1    -95.0661902 -0.950662E+02  0.238E-02    2.44       0.0  T
   2    -95.0661895  0.747971E-06  0.145E-02    2.44       1.0  T
   3    -95.0661569  0.326061E-04  0.203E-02    2.45       1.0  T
   4    -95.0661896 -0.326840E-04  0.429E-03    2.44       2.7  T
   5    -95.0661906 -0.103451E-05  0.642E-04    2.44      18.0  T
   6    -95.0661906 -0.153872E-07  0.289E-04    2.44      40.0  T
   7    -95.0661906 -0.316945E-09  0.150E-04    2.44      77.2  T
     SCC iter.                  ...        0 min,  0.096 sec
     gradient                   ...        0 min,  0.060 sec
 * total energy  :   -93.7790467 Eh     change       -0.1442849E-04 Eh
   gradient norm :     0.0012504 Eh/α   predicted    -0.7509637E-05 ( -47.95%)
   displ. norm   :     0.1698131 α      lambda       -0.2361964E-04
   maximum displ.:     0.0859557 α      in ANC's #9, #8, #6, ...

........................................................................
.............................. CYCLE  159 ..............................
........................................................................

 iter      E             dE          RMSdq      gap      omega  full diag
   1    -95.0665376 -0.950665E+02  0.426E-02    2.44       0.0  T
   2    -95.0665384 -0.872446E-06  0.249E-02    2.44       1.0  T
   3    -95.0665361  0.238633E-05  0.157E-02    2.44       1.0  T
   4    -95.0665388 -0.270882E-05  0.227E-03    2.44       5.1  T
   5    -95.0665385  0.290723E-06  0.233E-03    2.44       5.0  T
   6    -95.0665388 -0.356549E-06  0.129E-03    2.44       9.0  T
   7    -95.0665389 -0.109678E-06  0.371E-04    2.44      31.1  T
   8    -95.0665389 -0.144142E-08  0.183E-04    2.44      63.2  T
     SCC iter.                  ...        0 min,  0.100 sec
     gradient                   ...        0 min,  0.058 sec
 * total energy  :   -93.7790653 Eh     change       -0.1859497E-04 Eh
   gradient norm :     0.0015164 Eh/α   predicted    -0.1196260E-04 ( -35.67%)
   displ. norm   :     0.1719176 α      lambda       -0.2073715E-04
   maximum displ.:     0.0837048 α      in ANC's #9, #8, #6, ...

........................................................................
.............................. CYCLE  160 ..............................
........................................................................

 iter      E             dE          RMSdq      gap      omega  full diag
   1    -95.0661128 -0.950661E+02  0.441E-02    2.44       0.0  T
   2    -95.0661136 -0.792217E-06  0.265E-02    2.44       1.0  T
   3    -95.0661108  0.282934E-05  0.173E-02    2.44       1.0  T
   4    -95.0661056  0.517873E-05  0.104E-02    2.45       1.1  T
   5    -95.0661135 -0.789270E-05  0.295E-03    2.44       3.9  T
   6    -95.0661142 -0.670612E-06  0.973E-04    2.44      11.9  T
   7    -95.0661142 -0.250651E-07  0.250E-04    2.44      46.3  T
   8    -95.0661142 -0.317797E-09  0.125E-04    2.44      92.7  T
     SCC iter.                  ...        0 min,  0.112 sec
     gradient                   ...        0 min,  0.064 sec
 * total energy  :   -93.7790769 Eh     change       -0.1158287E-04 Eh
   gradient norm :     0.0015995 Eh/α   predicted    -0.1050546E-04 (  -9.30%)
   displ. norm   :     0.1444180 α      lambda       -0.2143238E-04
   maximum displ.:     0.0692206 α      in ANC's #9, #8, #6, ...

........................................................................
.............................. CYCLE  161 ..............................
........................................................................

 iter      E             dE          RMSdq      gap      omega  full diag
   1    -95.0658177 -0.950658E+02  0.362E-02    2.44       0.0  T
   2    -95.0658173  0.415304E-06  0.218E-02    2.44       1.0  T
   3    -95.0657879  0.294199E-04  0.229E-02    2.43       1.0  T
   4    -95.0658076 -0.196720E-04  0.115E-02    2.45       1.0  T
   5    -95.0658186 -0.109706E-04  0.130E-03    2.44       8.9  T
   6    -95.0658186 -0.872843E-07  0.512E-04    2.44      22.6  T
   7    -95.0658186 -0.166392E-08  0.236E-04    2.44      48.9  T
   8    -95.0658186 -0.230870E-09  0.125E-04    2.44      92.7  T
     SCC iter.                  ...        0 min,  0.109 sec
     gradient                   ...        0 min,  0.072 sec
 * total energy  :   -93.7790974 Eh     change       -0.2049084E-04 Eh
   gradient norm :     0.0014037 Eh/α   predicted    -0.1081587E-04 ( -47.22%)
   displ. norm   :     0.2417483 α      lambda       -0.3373174E-04
   maximum displ.:     0.1133737 α      in ANC's #9, #6, #8, ...

........................................................................
.............................. CYCLE  162 ..............................
........................................................................

 iter      E             dE          RMSdq      gap      omega  full diag
   1    -95.0658270 -0.950658E+02  0.575E-02    2.44       0.0  T
   2    -95.0658278 -0.861673E-06  0.339E-02    2.44       1.0  T
   3    -95.0658155  0.123336E-04  0.182E-02    2.45       1.0  T
   4    -95.0658262 -0.106858E-04  0.615E-03    2.44       1.9  T
   5    -95.0658278 -0.160437E-05  0.390E-03    2.44       3.0  T
   6    -95.0658290 -0.118515E-05  0.705E-04    2.44      16.4  T
   7    -95.0658290 -0.748467E-08  0.336E-04    2.44      34.3  T
   8    -95.0658290 -0.980251E-09  0.157E-04    2.44      73.5  T
     SCC iter.                  ...        0 min,  0.115 sec
     gradient                   ...        0 min,  0.065 sec
 * total energy  :   -93.7791342 Eh     change       -0.3682000E-04 Eh
   gradient norm :     0.0017383 Eh/α   predicted    -0.1730558E-04 ( -53.00%)
   displ. norm   :     0.4436667 α      lambda       -0.4252685E-04
   maximum displ.:     0.2128453 α      in ANC's #9, #6, #8, ...

........................................................................
.............................. CYCLE  163 ..............................
........................................................................

 iter      E             dE          RMSdq      gap      omega  full diag
   1    -95.0644102 -0.950644E+02  0.103E-01    2.44       0.0  T
   2    -95.0644085  0.173809E-05  0.609E-02    2.43       1.0  T
   3    -95.0642071  0.201339E-03  0.520E-02    2.47       1.0  T
   4    -95.0643964 -0.189281E-03  0.153E-02    2.43       1.0  T
   5    -95.0644139 -0.174648E-04  0.295E-03    2.44       3.9  T
   6    -95.0644141 -0.266710E-06  0.109E-03    2.44      10.6  T
   7    -95.0644142 -0.175338E-07  0.446E-04    2.44      25.9  T
   8    -95.0644142 -0.122189E-08  0.228E-04    2.44      50.6  T
     SCC iter.                  ...        0 min,  0.107 sec
     gradient                   ...        0 min,  0.068 sec
 * total energy  :   -93.7791770 Eh     change       -0.4281595E-04 Eh
   gradient norm :     0.0032146 Eh/α   predicted    -0.2312637E-04 ( -45.99%)
   displ. norm   :     0.2589876 α      lambda       -0.5736046E-04
   maximum displ.:     0.1137307 α      in ANC's #9, #6, #8, ...

........................................................................
.............................. CYCLE  164 ..............................
........................................................................

 iter      E             dE          RMSdq      gap      omega  full diag
   1    -95.0655856 -0.950656E+02  0.526E-02    2.44       0.0  T
   2    -95.0655858 -0.153306E-06  0.311E-02    2.44       1.0  T
   3    -95.0655623  0.234479E-04  0.213E-02    2.43       1.0  T
   4    -95.0655787 -0.164013E-04  0.101E-02    2.44       1.1  T
   5    -95.0655866 -0.784133E-05  0.208E-03    2.44       5.5  T
   6    -95.0655868 -0.251807E-06  0.589E-04    2.44      19.6  T
   7    -95.0655868 -0.882167E-09  0.280E-04    2.44      41.2  T
   8    -95.0655868 -0.321350E-09  0.131E-04    2.44      88.1  T
     SCC iter.                  ...        0 min,  0.106 sec
     gradient                   ...        0 min,  0.063 sec
 * total energy  :   -93.7792146 Eh     change       -0.3756290E-04 Eh
   gradient norm :     0.0021383 Eh/α   predicted    -0.3060515E-04 ( -18.52%)
   displ. norm   :     0.4408624 α      lambda       -0.6142079E-04
   maximum displ.:     0.2099694 α      in ANC's #9, #6, #8, ...

........................................................................
.............................. CYCLE  165 ..............................
........................................................................

 iter      E             dE          RMSdq      gap      omega  full diag
   1    -95.0631242 -0.950631E+02  0.992E-02    2.44       0.0  T
   2    -95.0631232  0.102594E-05  0.584E-02    2.44       1.0  T
   3    -95.0629907  0.132520E-03  0.429E-02    2.42       1.0  T
   4    -95.0631028 -0.112166E-03  0.170E-02    2.45       1.0  T
   5    -95.0631265 -0.236848E-04  0.226E-03    2.44       5.1  T
   6    -95.0631267 -0.144244E-06  0.939E-04    2.44      12.3  T
   7    -95.0631267 -0.888355E-08  0.419E-04    2.44      27.6  T
   8    -95.0631267 -0.389960E-09  0.196E-04    2.44      59.0  T
     SCC iter.                  ...        0 min,  0.094 sec
     gradient                   ...        0 min,  0.055 sec
 * total energy  :   -93.7792446 Eh     change       -0.3005279E-04 Eh
   gradient norm :     0.0042123 Eh/α   predicted    -0.3668081E-04 (  22.05%)
   displ. norm   :     0.1220856 α      lambda       -0.7888754E-04
   maximum displ.:     0.0533009 α      in ANC's #6, #13, #1, ...

........................................................................
.............................. CYCLE  166 ..............................
........................................................................

 iter      E             dE          RMSdq      gap      omega  full diag
   1    -95.0656504 -0.950657E+02  0.241E-02    2.44       0.0  T
   2    -95.0656504 -0.105087E-07  0.152E-02    2.44       1.0  T
   3    -95.0656411  0.923413E-05  0.155E-02    2.45       1.0  T
   4    -95.0656425 -0.132117E-05  0.112E-02    2.43       1.0  T
   5    -95.0656512 -0.872730E-05  0.313E-03    2.44       3.7  T
   6    -95.0656519 -0.722307E-06  0.440E-04    2.44      26.2  T
   7    -95.0656519 -0.238653E-08  0.242E-04    2.44      47.8  T
   8    -95.0656519 -0.191150E-09  0.109E-04    2.44     105.8  T
     SCC iter.                  ...        0 min,  0.090 sec
     gradient                   ...        0 min,  0.052 sec
 * total energy  :   -93.7792998 Eh     change       -0.5516800E-04 Eh
   gradient norm :     0.0019989 Eh/α   predicted    -0.4003429E-04 ( -27.43%)
   displ. norm   :     0.5359621 α      lambda       -0.6711177E-04
   maximum displ.:     0.2554046 α      in ANC's #6, #9, #8, ...

........................................................................
.............................. CYCLE  167 ..............................
........................................................................

 iter      E             dE          RMSdq      gap      omega  full diag
   1    -95.0650829 -0.950651E+02  0.111E-01    2.44       0.0  T
   2    -95.0650863 -0.347100E-05  0.663E-02    2.44       1.0  T
   3    -95.0650769  0.944279E-05  0.438E-02    2.44       1.0  T
   4    -95.0650843 -0.735652E-05  0.100E-02    2.43       1.1  T
   5    -95.0650841  0.162256E-06  0.733E-03    2.44       1.6  T
   6    -95.0650887 -0.463852E-05  0.131E-03    2.44       8.8  T
   7    -95.0650888 -0.537971E-07  0.637E-04    2.44      18.1  T
   8    -95.0650888 -0.962373E-09  0.208E-04    2.44      55.4  T
   9    -95.0650888 -0.735440E-09  0.103E-04    2.44     112.0  T
     SCC iter.                  ...        0 min,  0.105 sec
     gradient                   ...        0 min,  0.057 sec
 * total energy  :   -93.7793619 Eh     change       -0.6214767E-04 Eh
   gradient norm :     0.0033456 Eh/α   predicted    -0.3784430E-04 ( -39.11%)
   displ. norm   :     0.1395771 α      lambda       -0.5216262E-04
   maximum displ.:     0.0708063 α      in ANC's #6, #1, #9, ...

........................................................................
.............................. CYCLE  168 ..............................
........................................................................

 iter      E             dE          RMSdq      gap      omega  full diag
   1    -95.0670642 -0.950671E+02  0.266E-02    2.44       0.0  T
   2    -95.0670615  0.262296E-05  0.180E-02    2.44       1.0  T
   3    -95.0670453  0.162247E-04  0.188E-02    2.43       1.0  T
   4    -95.0670491 -0.381084E-05  0.147E-02    2.45       1.0  T
   5    -95.0670659 -0.167950E-04  0.186E-03    2.44       6.2  T
   6    -95.0670659 -0.226638E-07  0.625E-04    2.44      18.5  T
   7    -95.0670660 -0.122372E-07  0.263E-04    2.44      43.9  T
   8    -95.0670660 -0.807049E-09  0.107E-04    2.44     107.8  T
     SCC iter.                  ...        0 min,  0.087 sec
     gradient                   ...        0 min,  0.051 sec
 * total energy  :   -93.7793942 Eh     change       -0.3222990E-04 Eh
   gradient norm :     0.0019439 Eh/α   predicted    -0.2659380E-04 ( -17.49%)
   displ. norm   :     0.5900392 α      lambda       -0.5835042E-04
   maximum displ.:     0.3099913 α      in ANC's #6, #9, #1, ...

........................................................................
.............................. CYCLE  169 ..............................
........................................................................

 iter      E             dE          RMSdq      gap      omega  full diag
   1    -95.0637763 -0.950638E+02  0.120E-01    2.44       0.0  T
   2    -95.0637720  0.429482E-05  0.716E-02    2.44       1.0  T
   3    -95.0635120  0.260038E-03  0.659E-02    2.41       1.0  T
   4    -95.0636562 -0.144197E-03  0.381E-02    2.46       1.0  T
   5    -95.0637820 -0.125823E-03  0.404E-03    2.44       2.9  T
   6    -95.0637821 -0.110501E-06  0.149E-03    2.44       7.7  T
   7    -95.0637822 -0.437889E-07  0.670E-04    2.44      17.2  T
   8    -95.0637822 -0.161751E-08  0.254E-04    2.44      45.4  T
   9    -95.0637822 -0.191946E-09  0.760E-05    2.44     152.0  T
     SCC iter.                  ...        0 min,  0.106 sec
     gradient                   ...        0 min,  0.052 sec
 * total energy  :   -93.7794336 Eh     change       -0.3940042E-04 Eh
   gradient norm :     0.0040963 Eh/α   predicted    -0.3369204E-04 ( -14.49%)
   displ. norm   :     0.0628043 α      lambda       -0.5070245E-04
   maximum displ.:     0.0287286 α      in ANC's #6, #1, #11, ...

........................................................................
.............................. CYCLE  170 ..............................
........................................................................

 iter      E             dE          RMSdq      gap      omega  full diag
   1    -95.0654679 -0.950655E+02  0.126E-02    2.44       0.0  T
   2    -95.0654678  0.552588E-07  0.779E-03    2.44       1.5  T
   3    -95.0654649  0.291248E-05  0.735E-03    2.44       1.6  T
   4    -95.0654650 -0.126146E-06  0.634E-03    2.44       1.8  T
   5    -95.0654681 -0.308115E-05  0.880E-04    2.44      13.1  T
   6    -95.0654682 -0.438125E-07  0.318E-04    2.44      36.3  T
   7    -95.0654682 -0.171175E-08  0.115E-04    2.44     100.3  T
     SCC iter.                  ...        0 min,  0.085 sec
     gradient                   ...        0 min,  0.050 sec
 * total energy  :   -93.7794702 Eh     change       -0.3661035E-04 Eh
   gradient norm :     0.0024733 Eh/α   predicted    -0.2545221E-04 ( -30.48%)
   displ. norm   :     0.1982674 α      lambda       -0.6037714E-04
   maximum displ.:     0.1241499 α      in ANC's #6, #1, #9, ...

........................................................................
.............................. CYCLE  171 ..............................
........................................................................

 iter      E             dE          RMSdq      gap      omega  full diag
   1    -95.0668757 -0.950669E+02  0.362E-02    2.44       0.0  T
   2    -95.0668761 -0.348362E-06  0.217E-02    2.44       1.0  T
   3    -95.0668744  0.163630E-05  0.145E-02    2.44       1.0  T
   4    -95.0668765 -0.207350E-05  0.289E-03    2.44       4.0  T
   5    -95.0668766 -0.109084E-06  0.174E-03    2.44       6.6  T
   6    -95.0668768 -0.154195E-06  0.108E-03    2.44      10.7  T
   7    -95.0668769 -0.742969E-07  0.335E-04    2.44      34.5  T
   8    -95.0668769 -0.117865E-08  0.148E-04    2.44      77.8  T
     SCC iter.                  ...        0 min,  0.081 sec
     gradient                   ...        0 min,  0.052 sec
 * total energy  :   -93.7795123 Eh     change       -0.4216825E-04 Eh
   gradient norm :     0.0021328 Eh/α   predicted    -0.3137611E-04 ( -25.59%)
   displ. norm   :     0.3856701 α      lambda       -0.6280166E-04
   maximum displ.:     0.2386722 α      in ANC's #6, #1, #9, ...

........................................................................
.............................. CYCLE  172 ..............................
........................................................................

 iter      E             dE          RMSdq      gap      omega  full diag
   1    -95.0660854 -0.950661E+02  0.723E-02    2.44       0.0  T
   2    -95.0660841  0.131995E-05  0.429E-02    2.44       1.0  T
   3    -95.0660078  0.763083E-04  0.378E-02    2.43       1.0  T
   4    -95.0660350 -0.272170E-04  0.246E-02    2.45       1.0  T
   5    -95.0660877 -0.526919E-04  0.235E-03    2.44       4.9  T
   6    -95.0660878 -0.116373E-06  0.965E-04    2.44      12.0  T
   7    -95.0660878 -0.138017E-07  0.503E-04    2.44      23.0  T
   8    -95.0660878 -0.150837E-08  0.190E-04    2.44      60.7  T
   9    -95.0660878  0.713385E-11  0.852E-05    2.44     135.5  T
     SCC iter.                  ...        0 min,  0.087 sec
     gradient                   ...        0 min,  0.054 sec
 * total energy  :   -93.7795566 Eh     change       -0.4425161E-04 Eh
   gradient norm :     0.0025444 Eh/α   predicted    -0.3607172E-04 ( -18.48%)
   displ. norm   :     0.4544363 α      lambda       -0.6303411E-04
   maximum displ.:     0.2870005 α      in ANC's #6, #1, #9, ...

........................................................................
.............................. CYCLE  173 ..............................
........................................................................

 iter      E             dE          RMSdq      gap      omega  full diag
   1    -95.0643369 -0.950643E+02  0.841E-02    2.44       0.0  T
   2    -95.0643319  0.493208E-05  0.501E-02    2.44       1.0  T
   3    -95.0641287  0.203277E-03  0.547E-02    2.42       1.0  T
   4    -95.0642859 -0.157221E-03  0.255E-02    2.45       1.0  T
   5    -95.0643399 -0.540279E-04  0.242E-03    2.44       4.8  T
   6    -95.0643400 -0.965357E-07  0.111E-03    2.44      10.4  T
   7    -95.0643400 -0.293927E-07  0.521E-04    2.44      22.1  T
   8    -95.0643400 -0.148532E-08  0.199E-04    2.44      58.0  T
   9    -95.0643400 -0.518554E-10  0.780E-05    2.44     148.1  T
     SCC iter.                  ...        0 min,  0.106 sec
     gradient                   ...        0 min,  0.058 sec
 * total energy  :   -93.7795988 Eh     change       -0.4219372E-04 Eh
   gradient norm :     0.0034362 Eh/α   predicted    -0.3802606E-04 (  -9.88%)
   displ. norm   :     0.2476538 α      lambda       -0.5774802E-04
   maximum displ.:     0.1672864 α      in ANC's #6, #1, #9, ...

........................................................................
.............................. CYCLE  174 ..............................
........................................................................

 iter      E             dE          RMSdq      gap      omega  full diag
   1    -95.0655776 -0.950656E+02  0.412E-02    2.44       0.0  T
   2    -95.0655767  0.963355E-06  0.245E-02    2.45       1.0  T
   3    -95.0655331  0.435949E-04  0.258E-02    2.43       1.0  T
   4    -95.0655629 -0.297984E-04  0.135E-02    2.45       1.0  T
   5    -95.0655785 -0.156319E-04  0.110E-03    2.44      10.5  T
   6    -95.0655785  0.190957E-08  0.648E-04    2.44      17.8  T
   7    -95.0655785 -0.163932E-07  0.268E-04    2.44      43.2  T
   8    -95.0655785 -0.145930E-08  0.137E-04    2.44      84.1  T
     SCC iter.                  ...        0 min,  0.094 sec
     gradient                   ...        0 min,  0.047 sec
 * total energy  :   -93.7796373 Eh     change       -0.3848926E-04 Eh
   gradient norm :     0.0036283 Eh/α   predicted    -0.3064946E-04 ( -20.37%)
   displ. norm   :     0.4184769 α      lambda       -0.8129344E-04
   maximum displ.:     0.2793393 α      in ANC's #6, #1, #9, ...

........................................................................
.............................. CYCLE  175 ..............................
........................................................................

 iter      E             dE          RMSdq      gap      omega  full diag
   1    -95.0650788 -0.950651E+02  0.713E-02    2.45       0.0  T
   2    -95.0650803 -0.152760E-05  0.421E-02    2.45       1.0  T
   3    -95.0650783  0.204657E-05  0.244E-02    2.45       1.0  T
   4    -95.0650787 -0.437520E-06  0.767E-03    2.44       1.5  T
   5    -95.0650795 -0.798751E-06  0.427E-03    2.45       2.7  T
   6    -95.0650810 -0.148490E-05  0.136E-03    2.45       8.5  T
   7    -95.0650811 -0.931749E-07  0.460E-04    2.45      25.1  T
   8    -95.0650811 -0.848175E-09  0.199E-04    2.45      58.0  T
     SCC iter.                  ...        0 min,  0.081 sec
     gradient                   ...        0 min,  0.063 sec
 * total energy  :   -93.7796963 Eh     change       -0.5898617E-04 Eh
   gradient norm :     0.0036579 Eh/α   predicted    -0.4776788E-04 ( -19.02%)
   displ. norm   :     0.3686135 α      lambda       -0.1063250E-03
   maximum displ.:     0.2501517 α      in ANC's #6, #1, #9, ...

........................................................................
.............................. CYCLE  176 ..............................
........................................................................

 iter      E             dE          RMSdq      gap      omega  full diag
   1    -95.0666197 -0.950666E+02  0.593E-02    2.45       0.0  T
   2    -95.0666097  0.100093E-04  0.385E-02    2.44       1.0  T
   3    -95.0665052  0.104481E-03  0.435E-02    2.47       1.0  T
   4    -95.0665714 -0.662396E-04  0.290E-02    2.43       1.0  T
   5    -95.0666248 -0.533828E-04  0.538E-03    2.45       2.1  T
   6    -95.0666265 -0.171069E-05  0.944E-04    2.45      12.2  T
   7    -95.0666265 -0.448352E-09  0.512E-04    2.45      22.5  T
   8    -95.0666265 -0.367046E-08  0.260E-04    2.45      44.5  T
   9    -95.0666265 -0.976911E-09  0.133E-04    2.45      87.0  T
     SCC iter.                  ...        0 min,  0.094 sec
     gradient                   ...        0 min,  0.054 sec
 * total energy  :   -93.7797643 Eh     change       -0.6803994E-04 Eh
   gradient norm :     0.0039425 Eh/α   predicted    -0.6038867E-04 ( -11.25%)
   displ. norm   :     0.5244049 α      lambda       -0.8962138E-04
   maximum displ.:     0.3587534 α      in ANC's #6, #1, #9, ...

........................................................................
.............................. CYCLE  177 ..............................
........................................................................

 iter      E             dE          RMSdq      gap      omega  full diag
   1    -95.0639023 -0.950639E+02  0.879E-02    2.45       0.0  T
   2    -95.0639041 -0.188305E-05  0.520E-02    2.45       1.0  T
   3    -95.0639000  0.411556E-05  0.310E-02    2.44       1.0  T
   4    -95.0638957  0.429836E-05  0.111E-02    2.45       1.0  T
   5    -95.0639028 -0.710652E-05  0.593E-03    2.44       1.9  T
   6    -95.0639054 -0.256083E-05  0.128E-03    2.45       9.0  T
   7    -95.0639054 -0.561526E-08  0.650E-04    2.45      17.8  T
   8    -95.0639054 -0.124732E-08  0.267E-04    2.45      43.3  T
   9    -95.0639054 -0.325002E-09  0.111E-04    2.45     103.8  T
     SCC iter.                  ...        0 min,  0.110 sec
     gradient                   ...        0 min,  0.061 sec
 * total energy  :   -93.7798173 Eh     change       -0.5304326E-04 Eh
   gradient norm :     0.0038192 Eh/α   predicted    -0.5713514E-04 (   7.71%)
   displ. norm   :     0.2421566 α      lambda       -0.1145569E-03
   maximum displ.:     0.1462654 α      in ANC's #6, #1, #5, ...

........................................................................
.............................. CYCLE  178 ..............................
........................................................................

 iter      E             dE          RMSdq      gap      omega  full diag
   1    -95.0690346 -0.950690E+02  0.361E-02    2.45       0.0  T
   2    -95.0690355 -0.962219E-06  0.220E-02    2.45       1.0  T
   3    -95.0690290  0.653554E-05  0.163E-02    2.44       1.0  T
   4    -95.0690072  0.218135E-04  0.183E-02    2.46       1.0  T
   5    -95.0690368 -0.296312E-04  0.170E-03    2.45       6.8  T
   6    -95.0690369 -0.785537E-07  0.114E-03    2.45      10.1  T
   7    -95.0690369 -0.309432E-07  0.442E-04    2.45      26.1  T
   8    -95.0690369 -0.105901E-08  0.217E-04    2.45      53.3  T
     SCC iter.                  ...        0 min,  0.087 sec
     gradient                   ...        0 min,  0.053 sec
 * total energy  :   -93.7798070 Eh     change        0.1035485E-04 Eh
   gradient norm :     0.0076584 Eh/α   predicted    -0.6063974E-04 (-685.62%)
   displ. norm   :     0.2605777 α      lambda       -0.1746599E-03
   maximum displ.:     0.1740576 α      in ANC's #6, #1, #9, ...

........................................................................
.............................. CYCLE  179 ..............................
........................................................................

 iter      E             dE          RMSdq      gap      omega  full diag
   1    -95.0661641 -0.950662E+02  0.516E-02    2.45       0.0  T
   2    -95.0661501  0.140371E-04  0.337E-02    2.45       1.0  T
   3    -95.0660040  0.146110E-03  0.475E-02    2.43       1.0  T
   4    -95.0661462 -0.142210E-03  0.184E-02    2.46       1.0  T
   5    -95.0661694 -0.232555E-04  0.304E-03    2.45       3.8  T
   6    -95.0661697 -0.226070E-06  0.926E-04    2.45      12.5  T
   7    -95.0661697 -0.209975E-07  0.440E-04    2.45      26.3  T
   8    -95.0661697 -0.736620E-09  0.215E-04    2.45      53.8  T
     SCC iter.                  ...        0 min,  0.093 sec
     gradient                   ...        0 min,  0.053 sec
 * total energy  :   -93.7798957 Eh     change       -0.8869430E-04 Eh
   gradient norm :     0.0042813 Eh/α   predicted    -0.9326444E-04 (   5.15%)
   displ. norm   :     0.1798950 α      lambda       -0.5142317E-04
   maximum displ.:     0.1231061 α      in ANC's #6, #1, #9, ...

........................................................................
.............................. CYCLE  180 ..............................
........................................................................

 iter      E             dE          RMSdq      gap      omega  full diag
   1    -95.0654523 -0.950655E+02  0.312E-02    2.45       0.0  T
   2    -95.0654407  0.115610E-04  0.219E-02    2.44       1.0  T
   3    -95.0653565  0.841767E-04  0.347E-02    2.47       1.0  T
   4    -95.0654550 -0.984631E-04  0.613E-03    2.45       1.9  T
   5    -95.0654554 -0.363091E-06  0.188E-03    2.45       6.1  T
   6    -95.0654555 -0.110200E-06  0.590E-04    2.45      19.6  T
   7    -95.0654555 -0.305519E-08  0.276E-04    2.45      41.8  T
   8    -95.0654555 -0.828010E-09  0.134E-04    2.45      86.3  T
     SCC iter.                  ...        0 min,  0.096 sec
     gradient                   ...        0 min,  0.056 sec
 * total energy  :   -93.7799305 Eh     change       -0.3483167E-04 Eh
   gradient norm :     0.0029441 Eh/α   predicted    -0.2654765E-04 ( -23.78%)
   displ. norm   :     0.2673780 α      lambda       -0.6186259E-04
   maximum displ.:     0.1844176 α      in ANC's #6, #1, #9, ...

........................................................................
.............................. CYCLE  181 ..............................
........................................................................

 iter      E             dE          RMSdq      gap      omega  full diag
   1    -95.0659464 -0.950659E+02  0.421E-02    2.45       0.0  T
   2    -95.0659384  0.792978E-05  0.265E-02    2.44       1.0  T
   3    -95.0657899  0.148579E-03  0.432E-02    2.47       1.0  T
   4    -95.0659470 -0.157143E-03  0.862E-03    2.45       1.3  T
   5    -95.0659487 -0.168175E-05  0.129E-03    2.45       8.9  T
   6    -95.0659487 -0.362888E-07  0.610E-04    2.45      18.9  T
   7    -95.0659487 -0.248123E-08  0.287E-04    2.45      40.2  T
   8    -95.0659487 -0.399822E-09  0.142E-04    2.45      81.4  T
     SCC iter.                  ...        0 min,  0.081 sec
     gradient                   ...        0 min,  0.061 sec
 * total energy  :   -93.7799774 Eh     change       -0.4692063E-04 Eh
   gradient norm :     0.0031595 Eh/α   predicted    -0.3314675E-04 ( -29.36%)
   displ. norm   :     0.3925520 α      lambda       -0.8206330E-04
   maximum displ.:     0.2642673 α      in ANC's #6, #1, #9, ...

........................................................................
.............................. CYCLE  182 ..............................
........................................................................

 iter      E             dE          RMSdq      gap      omega  full diag
   1    -95.0665757 -0.950666E+02  0.609E-02    2.45       0.0  T
   2    -95.0665764 -0.670713E-06  0.357E-02    2.45       1.0  T
   3    -95.0665662  0.101407E-04  0.195E-02    2.46       1.0  T
   4    -95.0665462  0.200212E-04  0.190E-02    2.44       1.0  T
   5    -95.0665771 -0.308852E-04  0.185E-03    2.45       6.3  T
   6    -95.0665772 -0.120541E-06  0.818E-04    2.45      14.1  T
   7    -95.0665772 -0.783797E-08  0.414E-04    2.45      27.9  T
   8    -95.0665772 -0.208020E-08  0.160E-04    2.45      72.2  T
     SCC iter.                  ...        0 min,  0.098 sec
     gradient                   ...        0 min,  0.049 sec
 * total energy  :   -93.7800245 Eh     change       -0.4708146E-04 Eh
   gradient norm :     0.0039436 Eh/α   predicted    -0.4735945E-04 (   0.59%)
   displ. norm   :     0.3727417 α      lambda       -0.6107961E-04
   maximum displ.:     0.2500676 α      in ANC's #6, #1, #9, ...

........................................................................
.............................. CYCLE  183 ..............................
........................................................................

 iter      E             dE          RMSdq      gap      omega  full diag
   1    -95.0660200 -0.950660E+02  0.594E-02    2.45       0.0  T
   2    -95.0660193  0.751322E-06  0.353E-02    2.45       1.0  T
   3    -95.0659760  0.432994E-04  0.298E-02    2.44       1.0  T
   4    -95.0659693  0.669130E-05  0.242E-02    2.46       1.0  T
   5    -95.0660218 -0.525158E-04  0.146E-03    2.45       7.9  T
   6    -95.0660218 -0.297727E-07  0.694E-04    2.45      16.6  T
   7    -95.0660218 -0.319726E-08  0.382E-04    2.45      30.2  T
   8    -95.0660218 -0.203548E-08  0.160E-04    2.45      72.3  T
     SCC iter.                  ...        0 min,  0.099 sec
     gradient                   ...        0 min,  0.052 sec
 * total energy  :   -93.7800604 Eh     change       -0.3588771E-04 Eh
   gradient norm :     0.0029092 Eh/α   predicted    -0.3478555E-04 (  -3.07%)
   displ. norm   :     0.1574236 α      lambda       -0.3244603E-04
   maximum displ.:     0.0964055 α      in ANC's #1, #6, #5, ...
 * RMSD in coord.:     0.8084551 α      energy gain  -0.1139477E-02 Eh

generating ANC from exact Hessian ...
Using Lindh-Hessian (1995)
 Shifting diagonal of input Hessian by    1.0104458539037580E-002
 Lowest  eigenvalues of input Hessian
    0.010000    0.000000    0.000000    0.000000    0.000000    0.000000
    0.000000    0.010156    0.010234    0.010281    0.010391    0.010457
    0.010599    0.010800    0.010911    0.010978    0.011014    0.011164
 Highest eigenvalues
    1.621502    1.854580    1.899695    2.003148    2.025002    2.324903


........................................................................
.............................. CYCLE  184 ..............................
........................................................................

 iter      E             dE          RMSdq      gap      omega  full diag
   1    -95.0674613 -0.950675E+02  0.248E-02    2.45       0.0  T
   2    -95.0674611  0.182805E-06  0.151E-02    2.45       1.0  T
   3    -95.0674540  0.708588E-05  0.131E-02    2.44       1.0  T
   4    -95.0674502  0.386478E-05  0.114E-02    2.45       1.0  T
   5    -95.0674617 -0.115354E-04  0.107E-03    2.45      10.8  T
   6    -95.0674617 -0.108962E-07  0.330E-04    2.45      35.0  T
   7    -95.0674617 -0.112726E-08  0.171E-04    2.45      67.5  T
     SCC iter.                  ...        0 min,  0.073 sec
     gradient                   ...        0 min,  0.049 sec
 * total energy  :   -93.7800844 Eh     change       -0.2395803E-04 Eh
   gradient norm :     0.0022156 Eh/α   predicted     0.0000000E+00 (-100.00%)
   displ. norm   :     0.0382126 α      lambda       -0.2670936E-04
   maximum displ.:     0.0133895 α      in ANC's #25, #9, #15, ...

........................................................................
.............................. CYCLE  185 ..............................
........................................................................

 iter      E             dE          RMSdq      gap      omega  full diag
   1    -95.0677969 -0.950678E+02  0.105E-02    2.45       0.0  T
   2    -95.0677968  0.642262E-07  0.643E-03    2.45       1.8  T
   3    -95.0677942  0.264891E-05  0.713E-03    2.45       1.6  T
   4    -95.0677956 -0.137607E-05  0.438E-03    2.45       2.6  T
   5    -95.0677971 -0.149351E-05  0.896E-04    2.45      12.9  T
   6    -95.0677971 -0.247215E-07  0.321E-04    2.45      36.0  T
   7    -95.0677971 -0.102560E-08  0.131E-04    2.45      88.3  T
     SCC iter.                  ...        0 min,  0.075 sec
     gradient                   ...        0 min,  0.053 sec
 * total energy  :   -93.7801047 Eh     change       -0.2035283E-04 Eh
   gradient norm :     0.0013044 Eh/α   predicted    -0.1359755E-04 ( -33.19%)
   displ. norm   :     0.3783239 α      lambda       -0.1476765E-03
   maximum displ.:     0.1321331 α      in ANC's #9, #18, #39, ...

........................................................................
.............................. CYCLE  186 ..............................
........................................................................

 iter      E             dE          RMSdq      gap      omega  full diag
   1    -95.0685457 -0.950685E+02  0.994E-02    2.46       0.0  T
   2    -95.0685490 -0.331310E-05  0.597E-02    2.47       1.0  T
   3    -95.0684985  0.505324E-04  0.441E-02    2.45       1.0  T
   4    -95.0684091  0.894530E-04  0.418E-02    2.48       1.0  T
   5    -95.0685526 -0.143529E-03  0.717E-03    2.46       1.6  T
   6    -95.0685549 -0.233140E-05  0.282E-03    2.46       4.1  T
   7    -95.0685550 -0.102283E-06  0.100E-03    2.46      11.5  T
   8    -95.0685550 -0.351137E-08  0.495E-04    2.46      23.3  T
   9    -95.0685550 -0.172209E-08  0.185E-04    2.46      62.4  T
     SCC iter.                  ...        0 min,  0.104 sec
     gradient                   ...        0 min,  0.051 sec
 * total energy  :   -93.7797956 Eh     change        0.3090721E-03 Eh
   gradient norm :     0.0139478 Eh/α   predicted    -0.7853639E-04 (-125.41%)
   displ. norm   :     0.0842834 α      lambda       -0.4897774E-03
   maximum displ.:     0.0350875 α      in ANC's #16, #18, #23, ...

........................................................................
.............................. CYCLE  187 ..............................
........................................................................

 iter      E             dE          RMSdq      gap      omega  full diag
   1    -95.0684500 -0.950685E+02  0.373E-02    2.46       0.0  T
   2    -95.0684475  0.251667E-05  0.239E-02    2.45       1.0  T
   3    -95.0684209  0.265512E-04  0.236E-02    2.46       1.0  T
   4    -95.0684236 -0.269508E-05  0.207E-02    2.44       1.0  T
   5    -95.0684538 -0.301636E-04  0.359E-03    2.46       3.2  T
   6    -95.0684540 -0.219257E-06  0.209E-03    2.45       5.5  T
   7    -95.0684541 -0.539336E-07  0.703E-04    2.45      16.4  T
   8    -95.0684541 -0.396560E-08  0.322E-04    2.45      35.9  T
   9    -95.0684541 -0.120389E-08  0.143E-04    2.45      80.9  T
     SCC iter.                  ...        0 min,  0.095 sec
     gradient                   ...        0 min,  0.052 sec
 * total energy  :   -93.7801194 Eh     change       -0.3237376E-03 Eh
   gradient norm :     0.0068458 Eh/α   predicted    -0.2466303E-03 ( -23.82%)
   displ. norm   :     0.0915991 α      lambda       -0.1495653E-03
   maximum displ.:     0.0335948 α      in ANC's #19, #17, #53, ...

........................................................................
.............................. CYCLE  188 ..............................
........................................................................

 iter      E             dE          RMSdq      gap      omega  full diag
   1    -95.0677044 -0.950677E+02  0.300E-02    2.45       0.0  T
   2    -95.0677035  0.836000E-06  0.186E-02    2.45       1.0  T
   3    -95.0676771  0.264483E-04  0.217E-02    2.44       1.0  T
   4    -95.0676944 -0.172969E-04  0.127E-02    2.46       1.0  T
   5    -95.0677064 -0.120631E-04  0.286E-03    2.45       4.0  T
   6    -95.0677067 -0.306933E-06  0.963E-04    2.45      12.0  T
   7    -95.0677068 -0.754608E-08  0.306E-04    2.45      37.8  T
   8    -95.0677068 -0.205773E-09  0.168E-04    2.45      68.8  T
     SCC iter.                  ...        0 min,  0.083 sec
     gradient                   ...        0 min,  0.054 sec
 * total energy  :   -93.7801704 Eh     change       -0.5106112E-04 Eh
   gradient norm :     0.0024087 Eh/α   predicted    -0.7541213E-04 (  47.69%)
   displ. norm   :     0.0623569 α      lambda       -0.5641206E-04
   maximum displ.:     0.0207558 α      in ANC's #25, #9, #22, ...

........................................................................
.............................. CYCLE  189 ..............................
........................................................................

 iter      E             dE          RMSdq      gap      omega  full diag
   1    -95.0675973 -0.950676E+02  0.238E-02    2.45       0.0  T
   2    -95.0675967  0.561778E-06  0.146E-02    2.45       1.0  T
   3    -95.0675763  0.204239E-04  0.177E-02    2.46       1.0  T
   4    -95.0675922 -0.159066E-04  0.871E-03    2.44       1.3  T
   5    -95.0675982 -0.594425E-05  0.152E-03    2.45       7.6  T
   6    -95.0675982 -0.603763E-07  0.692E-04    2.45      16.7  T
   7    -95.0675982 -0.842475E-08  0.207E-04    2.45      55.9  T
   8    -95.0675982 -0.180975E-09  0.122E-04    2.45      94.7  T
     SCC iter.                  ...        0 min,  0.085 sec
     gradient                   ...        0 min,  0.052 sec
 * total energy  :   -93.7801927 Eh     change       -0.2228555E-04 Eh
   gradient norm :     0.0012755 Eh/α   predicted    -0.2831613E-04 (  27.06%)
   displ. norm   :     0.0990466 α      lambda       -0.2396166E-04
   maximum displ.:     0.0345351 α      in ANC's #9, #3, #8, ...

........................................................................
.............................. CYCLE  190 ..............................
........................................................................

 iter      E             dE          RMSdq      gap      omega  full diag
   1    -95.0677090 -0.950677E+02  0.260E-02    2.45       0.0  T
   2    -95.0677079  0.114485E-05  0.165E-02    2.45       1.0  T
   3    -95.0676919  0.160181E-04  0.176E-02    2.46       1.0  T
   4    -95.0676966 -0.472004E-05  0.135E-02    2.44       1.0  T
   5    -95.0677101 -0.134741E-04  0.139E-03    2.45       8.3  T
   6    -95.0677101 -0.602748E-07  0.511E-04    2.45      22.6  T
   7    -95.0677101 -0.281779E-08  0.226E-04    2.45      51.2  T
   8    -95.0677101 -0.522832E-09  0.109E-04    2.45     105.7  T
     SCC iter.                  ...        0 min,  0.079 sec
     gradient                   ...        0 min,  0.048 sec
 * total energy  :   -93.7802130 Eh     change       -0.2024855E-04 Eh
   gradient norm :     0.0016801 Eh/α   predicted    -0.1203426E-04 ( -40.57%)
   displ. norm   :     0.1967742 α      lambda       -0.3775732E-04
   maximum displ.:     0.0724627 α      in ANC's #9, #6, #8, ...

........................................................................
.............................. CYCLE  191 ..............................
........................................................................

 iter      E             dE          RMSdq      gap      omega  full diag
   1    -95.0673045 -0.950673E+02  0.489E-02    2.45       0.0  T
   2    -95.0673045  0.377526E-08  0.294E-02    2.45       1.0  T
   3    -95.0672860  0.184808E-04  0.230E-02    2.46       1.0  T
   4    -95.0672727  0.132895E-04  0.193E-02    2.44       1.0  T
   5    -95.0673059 -0.331616E-04  0.118E-03    2.45       9.8  T
   6    -95.0673059 -0.569960E-08  0.643E-04    2.45      18.0  T
   7    -95.0673059  0.911797E-09  0.356E-04    2.45      32.4  T
   8    -95.0673059 -0.239760E-08  0.144E-04    2.45      79.9  T
     SCC iter.                  ...        0 min,  0.084 sec
     gradient                   ...        0 min,  0.055 sec
 * total energy  :   -93.7802491 Eh     change       -0.3613593E-04 Eh
   gradient norm :     0.0023030 Eh/α   predicted    -0.1920456E-04 ( -46.85%)
   displ. norm   :     0.2525511 α      lambda       -0.6017197E-04
   maximum displ.:     0.0946616 α      in ANC's #6, #9, #27, ...

........................................................................
.............................. CYCLE  192 ..............................
........................................................................

 iter      E             dE          RMSdq      gap      omega  full diag
   1    -95.0663792 -0.950664E+02  0.615E-02    2.45       0.0  T
   2    -95.0663799 -0.684358E-06  0.361E-02    2.45       1.0  T
   3    -95.0663782  0.169315E-05  0.130E-02    2.45       1.0  T
   4    -95.0663793 -0.117764E-05  0.374E-03    2.45       3.1  T
   5    -95.0663799 -0.566975E-06  0.207E-03    2.45       5.6  T
   6    -95.0663802 -0.311334E-06  0.774E-04    2.45      14.9  T
   7    -95.0663802 -0.253547E-07  0.280E-04    2.45      41.3  T
   8    -95.0663802 -0.185163E-08  0.131E-04    2.45      88.3  T
     SCC iter.                  ...        0 min,  0.089 sec
     gradient                   ...        0 min,  0.050 sec
 * total energy  :   -93.7802931 Eh     change       -0.4401723E-04 Eh
   gradient norm :     0.0020089 Eh/α   predicted    -0.3200899E-04 ( -27.28%)
   displ. norm   :     0.2506256 α      lambda       -0.4948303E-04
   maximum displ.:     0.1030085 α      in ANC's #6, #8, #27, ...

........................................................................
.............................. CYCLE  193 ..............................
........................................................................

 iter      E             dE          RMSdq      gap      omega  full diag
   1    -95.0662390 -0.950662E+02  0.595E-02    2.45       0.0  T
   2    -95.0662396 -0.638331E-06  0.348E-02    2.45       1.0  T
   3    -95.0662335  0.611640E-05  0.119E-02    2.44       1.0  T
   4    -95.0662294  0.413494E-05  0.113E-02    2.45       1.0  T
   5    -95.0662400 -0.105949E-04  0.136E-03    2.45       8.5  T
   6    -95.0662400 -0.678029E-07  0.683E-04    2.45      16.9  T
   7    -95.0662400 -0.539320E-08  0.274E-04    2.45      42.2  T
   8    -95.0662400 -0.519378E-09  0.111E-04    2.45     104.1  T
     SCC iter.                  ...        0 min,  0.089 sec
     gradient                   ...        0 min,  0.056 sec
 * total energy  :   -93.7803286 Eh     change       -0.3545470E-04 Eh
   gradient norm :     0.0022330 Eh/α   predicted    -0.2629639E-04 ( -25.83%)
   displ. norm   :     0.2153600 α      lambda       -0.4403573E-04
   maximum displ.:     0.1005576 α      in ANC's #6, #8, #3, ...

........................................................................
.............................. CYCLE  194 ..............................
........................................................................

 iter      E             dE          RMSdq      gap      omega  full diag
   1    -95.0672036 -0.950672E+02  0.485E-02    2.44       0.0  T
   2    -95.0672034  0.191624E-06  0.286E-02    2.45       1.0  T
   3    -95.0671643  0.390467E-04  0.224E-02    2.43       1.0  T
   4    -95.0672009 -0.365313E-04  0.702E-03    2.45       1.6  T
   5    -95.0672043 -0.347305E-05  0.116E-03    2.44      10.0  T
   6    -95.0672044 -0.506763E-07  0.527E-04    2.45      21.9  T
   7    -95.0672044 -0.743437E-08  0.221E-04    2.45      52.3  T
   8    -95.0672044 -0.419320E-09  0.122E-04    2.45      94.7  T
     SCC iter.                  ...        0 min,  0.082 sec
     gradient                   ...        0 min,  0.048 sec
 * total energy  :   -93.7803611 Eh     change       -0.3249803E-04 Eh
   gradient norm :     0.0019870 Eh/α   predicted    -0.2304346E-04 ( -29.09%)
   displ. norm   :     0.3968988 α      lambda       -0.4597226E-04
   maximum displ.:     0.2012598 α      in ANC's #6, #8, #3, ...

........................................................................
.............................. CYCLE  195 ..............................
........................................................................

 iter      E             dE          RMSdq      gap      omega  full diag
   1    -95.0676874 -0.950677E+02  0.869E-02    2.44       0.0  T
   2    -95.0676878 -0.394826E-06  0.511E-02    2.44       1.0  T
   3    -95.0676414  0.463273E-04  0.280E-02    2.45       1.0  T
   4    -95.0676754 -0.339386E-04  0.124E-02    2.43       1.0  T
   5    -95.0676891 -0.137057E-04  0.220E-03    2.44       5.2  T
   6    -95.0676893 -0.167896E-06  0.829E-04    2.44      13.9  T
   7    -95.0676893 -0.207004E-08  0.311E-04    2.44      37.1  T
   8    -95.0676893 -0.557577E-09  0.133E-04    2.44      86.5  T
     SCC iter.                  ...        0 min,  0.089 sec
     gradient                   ...        0 min,  0.050 sec
 * total energy  :   -93.7804121 Eh     change       -0.5096850E-04 Eh
   gradient norm :     0.0016644 Eh/α   predicted    -0.2460020E-04 ( -51.73%)
   displ. norm   :     0.3714886 α      lambda       -0.5235116E-04
   maximum displ.:     0.2149408 α      in ANC's #6, #8, #3, ...

........................................................................
.............................. CYCLE  196 ..............................
........................................................................

 iter      E             dE          RMSdq      gap      omega  full diag
   1    -95.0686632 -0.950687E+02  0.749E-02    2.44       0.0  T
   2    -95.0686639 -0.632814E-06  0.442E-02    2.43       1.0  T
   3    -95.0686223  0.415196E-04  0.280E-02    2.44       1.0  T
   4    -95.0686530 -0.306356E-04  0.129E-02    2.43       1.0  T
   5    -95.0686651 -0.121323E-04  0.267E-03    2.44       4.3  T
   6    -95.0686656 -0.478767E-06  0.865E-04    2.43      13.3  T
   7    -95.0686656 -0.204153E-07  0.365E-04    2.43      31.6  T
   8    -95.0686656 -0.301014E-09  0.170E-04    2.43      67.8  T
     SCC iter.                  ...        0 min,  0.082 sec
     gradient                   ...        0 min,  0.047 sec
 * total energy  :   -93.7804762 Eh     change       -0.6415310E-04 Eh
   gradient norm :     0.0014735 Eh/α   predicted    -0.2778490E-04 ( -56.69%)
   displ. norm   :     0.4331689 α      lambda       -0.6153471E-04
   maximum displ.:     0.2629084 α      in ANC's #6, #8, #3, ...

........................................................................
.............................. CYCLE  197 ..............................
........................................................................

 iter      E             dE          RMSdq      gap      omega  full diag
   1    -95.0676094 -0.950676E+02  0.874E-02    2.43       0.0  T
   2    -95.0676102 -0.873550E-06  0.515E-02    2.42       1.0  T
   3    -95.0675950  0.152399E-04  0.243E-02    2.43       1.0  T
   4    -95.0676005 -0.552063E-05  0.115E-02    2.42       1.0  T
   5    -95.0676110 -0.104690E-04  0.203E-03    2.42       5.7  T
   6    -95.0676112 -0.219506E-06  0.819E-04    2.42      14.1  T
   7    -95.0676112 -0.936912E-08  0.290E-04    2.42      39.8  T
   8    -95.0676112 -0.409941E-09  0.120E-04    2.42      96.5  T
     SCC iter.                  ...        0 min,  0.080 sec
     gradient                   ...        0 min,  0.048 sec
 * total energy  :   -93.7805528 Eh     change       -0.7656716E-04 Eh
   gradient norm :     0.0018543 Eh/α   predicted    -0.3333558E-04 ( -56.46%)
   displ. norm   :     0.3526687 α      lambda       -0.7326603E-04
   maximum displ.:     0.2304816 α      in ANC's #6, #8, #14, ...

........................................................................
.............................. CYCLE  198 ..............................
........................................................................

 iter      E             dE          RMSdq      gap      omega  full diag
   1    -95.0712091 -0.950712E+02  0.513E-02    2.44       0.0  T
   2    -95.0712089  0.190841E-06  0.307E-02    2.43       1.0  T
   3    -95.0711803  0.285931E-04  0.259E-02    2.44       1.0  T
   4    -95.0711866 -0.636288E-05  0.174E-02    2.42       1.0  T
   5    -95.0712107 -0.240648E-04  0.305E-03    2.43       3.8  T
   6    -95.0712113 -0.575352E-06  0.725E-04    2.43      15.9  T
   7    -95.0712113 -0.241596E-08  0.280E-04    2.43      41.3  T
   8    -95.0712113 -0.529084E-09  0.135E-04    2.43      85.3  T
     SCC iter.                  ...        0 min,  0.088 sec
     gradient                   ...        0 min,  0.054 sec
 * total energy  :   -93.7805873 Eh     change       -0.3451060E-04 Eh
   gradient norm :     0.0049009 Eh/α   predicted    -0.3865915E-04 (  12.02%)
   displ. norm   :     0.4092542 α      lambda       -0.1207449E-03
   maximum displ.:     0.2641095 α      in ANC's #6, #8, #3, ...

........................................................................
.............................. CYCLE  199 ..............................
........................................................................

 iter      E             dE          RMSdq      gap      omega  full diag
   1    -95.0676835 -0.950677E+02  0.854E-02    2.41       0.0  T
   2    -95.0676847 -0.120142E-05  0.501E-02    2.41       1.0  T
   3    -95.0676638  0.208823E-04  0.205E-02    2.40       1.0  T
   4    -95.0676738 -0.993165E-05  0.119E-02    2.42       1.0  T
   5    -95.0676855 -0.117446E-04  0.226E-03    2.41       5.1  T
   6    -95.0676857 -0.212539E-06  0.101E-03    2.41      11.4  T
   7    -95.0676857 -0.707755E-08  0.441E-04    2.41      26.2  T
   8    -95.0676857 -0.365975E-08  0.186E-04    2.41      62.0  T
     SCC iter.                  ...        0 min,  0.082 sec
     gradient                   ...        0 min,  0.049 sec
 * total energy  :   -93.7806700 Eh     change       -0.8271732E-04 Eh
   gradient norm :     0.0023736 Eh/α   predicted    -0.7048417E-04 ( -14.79%)
   displ. norm   :     0.1121945 α      lambda       -0.4523954E-04
   maximum displ.:     0.0772186 α      in ANC's #6, #27, #3, ...

........................................................................
.............................. CYCLE  200 ..............................
........................................................................

 iter      E             dE          RMSdq      gap      omega  full diag
   1    -95.0671726 -0.950672E+02  0.255E-02    2.40       0.0  T
   2    -95.0671728 -0.170924E-06  0.151E-02    2.40       1.0  T
   3    -95.0671670  0.578774E-05  0.122E-02    2.40       1.0  T
   4    -95.0671698 -0.281517E-05  0.613E-03    2.41       1.9  T
   5    -95.0671729 -0.309716E-05  0.175E-03    2.40       6.6  T
   6    -95.0671731 -0.195523E-06  0.426E-04    2.40      27.1  T
   7    -95.0671731 -0.119095E-08  0.146E-04    2.40      79.3  T
     SCC iter.                  ...        0 min,  0.070 sec
     gradient                   ...        0 min,  0.056 sec
 * total energy  :   -93.7807024 Eh     change       -0.3237174E-04 Eh
   gradient norm :     0.0020023 Eh/α   predicted    -0.2290561E-04 ( -29.24%)
   displ. norm   :     0.1155295 α      lambda       -0.4503654E-04
   maximum displ.:     0.0864368 α      in ANC's #6, #1, #27, ...

........................................................................
.............................. CYCLE  201 ..............................
........................................................................

 iter      E             dE          RMSdq      gap      omega  full diag
   1    -95.0674395 -0.950674E+02  0.223E-02    2.40       0.0  T
   2    -95.0674379  0.164122E-05  0.142E-02    2.39       1.0  T
   3    -95.0674105  0.273461E-04  0.198E-02    2.41       1.0  T
   4    -95.0674363 -0.257673E-04  0.830E-03    2.39       1.4  T
   5    -95.0674402 -0.392706E-05  0.114E-03    2.40      10.1  T
   6    -95.0674402 -0.915753E-08  0.319E-04    2.40      36.2  T
   7    -95.0674402 -0.257231E-09  0.126E-04    2.40      91.3  T
     SCC iter.                  ...        0 min,  0.074 sec
     gradient                   ...        0 min,  0.049 sec
 * total energy  :   -93.7807403 Eh     change       -0.3795795E-04 Eh
   gradient norm :     0.0026865 Eh/α   predicted    -0.2282030E-04 ( -39.88%)
   displ. norm   :     0.2892538 α      lambda       -0.1054616E-03
   maximum displ.:     0.2198709 α      in ANC's #6, #1, #13, ...

........................................................................
.............................. CYCLE  202 ..............................
........................................................................

 iter      E             dE          RMSdq      gap      omega  full diag
   1    -95.0678825 -0.950679E+02  0.511E-02    2.40       0.0  T
   2    -95.0678805  0.201363E-05  0.313E-02    2.39       1.0  T
   3    -95.0677923  0.882219E-04  0.372E-02    2.41       1.0  T
   4    -95.0678664 -0.741648E-04  0.162E-02    2.38       1.0  T
   5    -95.0678847 -0.182381E-04  0.179E-03    2.39       6.4  T
   6    -95.0678848 -0.113022E-06  0.644E-04    2.39      17.9  T
   7    -95.0678848 -0.526700E-08  0.348E-04    2.39      33.1  T
   8    -95.0678848 -0.120993E-08  0.147E-04    2.39      78.6  T
     SCC iter.                  ...        0 min,  0.096 sec
     gradient                   ...        0 min,  0.049 sec
 * total energy  :   -93.7808191 Eh     change       -0.7879806E-04 Eh
   gradient norm :     0.0034924 Eh/α   predicted    -0.5714821E-04 ( -27.48%)
   displ. norm   :     0.3489784 α      lambda       -0.9368048E-04
   maximum displ.:     0.2746733 α      in ANC's #6, #1, #13, ...

........................................................................
.............................. CYCLE  203 ..............................
........................................................................

 iter      E             dE          RMSdq      gap      omega  full diag
   1    -95.0673409 -0.950673E+02  0.643E-02    2.39       0.0  T
   2    -95.0673406  0.344352E-06  0.384E-02    2.38       1.0  T
   3    -95.0672781  0.624612E-04  0.340E-02    2.40       1.0  T
   4    -95.0673114 -0.332979E-04  0.196E-02    2.38       1.0  T
   5    -95.0673429 -0.314565E-04  0.328E-03    2.39       3.5  T
   6    -95.0673432 -0.289308E-06  0.743E-04    2.39      15.6  T
   7    -95.0673432 -0.128482E-08  0.354E-04    2.39      32.7  T
   8    -95.0673432 -0.113423E-08  0.171E-04    2.39      67.7  T
     SCC iter.                  ...        0 min,  0.080 sec
     gradient                   ...        0 min,  0.048 sec
 * total energy  :   -93.7808851 Eh     change       -0.6595109E-04 Eh
   gradient norm :     0.0034294 Eh/α   predicted    -0.5254749E-04 ( -20.32%)
   displ. norm   :     0.3054540 α      lambda       -0.6845060E-04
   maximum displ.:     0.2478216 α      in ANC's #6, #1, #4, ...

........................................................................
.............................. CYCLE  204 ..............................
........................................................................

 iter      E             dE          RMSdq      gap      omega  full diag
   1    -95.0671964 -0.950672E+02  0.565E-02    2.39       0.0  T
   2    -95.0671968 -0.425292E-06  0.333E-02    2.39       1.0  T
   3    -95.0671804  0.164126E-04  0.191E-02    2.38       1.0  T
   4    -95.0671901 -0.966511E-05  0.938E-03    2.39       1.2  T
   5    -95.0671976 -0.752617E-05  0.165E-03    2.39       7.0  T
   6    -95.0671977 -0.125699E-06  0.667E-04    2.39      17.3  T
   7    -95.0671977 -0.428950E-08  0.304E-04    2.39      38.0  T
   8    -95.0671977 -0.677332E-09  0.175E-04    2.39      65.9  T
     SCC iter.                  ...        0 min,  0.085 sec
     gradient                   ...        0 min,  0.050 sec
 * total energy  :   -93.7809369 Eh     change       -0.5182558E-04 Eh
   gradient norm :     0.0026674 Eh/α   predicted    -0.3742163E-04 ( -27.79%)
   displ. norm   :     0.3733895 α      lambda       -0.8541153E-04
   maximum displ.:     0.3060359 α      in ANC's #6, #1, #7, ...

........................................................................
.............................. CYCLE  205 ..............................
........................................................................

 iter      E             dE          RMSdq      gap      omega  full diag
   1    -95.0670186 -0.950670E+02  0.735E-02    2.39       0.0  T
   2    -95.0670186 -0.681652E-07  0.433E-02    2.39       1.0  T
   3    -95.0669768  0.417944E-04  0.280E-02    2.38       1.0  T
   4    -95.0669977 -0.208056E-04  0.160E-02    2.40       1.0  T
   5    -95.0670200 -0.223459E-04  0.225E-03    2.39       5.1  T
   6    -95.0670201 -0.106473E-06  0.918E-04    2.39      12.6  T
   7    -95.0670201 -0.644974E-08  0.322E-04    2.39      35.9  T
   8    -95.0670201  0.800782E-10  0.185E-04    2.39      62.3  T
     SCC iter.                  ...        0 min,  0.083 sec
     gradient                   ...        0 min,  0.055 sec
 * total energy  :   -93.7810059 Eh     change       -0.6904048E-04 Eh
   gradient norm :     0.0025857 Eh/α   predicted    -0.4866214E-04 ( -29.52%)
   displ. norm   :     0.4915134 α      lambda       -0.1191868E-03
   maximum displ.:     0.3967772 α      in ANC's #6, #1, #7, ...

........................................................................
.............................. CYCLE  206 ..............................
........................................................................

 iter      E             dE          RMSdq      gap      omega  full diag
   1    -95.0664618 -0.950665E+02  0.103E-01    2.39       0.0  T
   2    -95.0664571  0.473599E-05  0.617E-02    2.39       1.0  T
   3    -95.0662564  0.200727E-03  0.607E-02    2.36       1.0  T
   4    -95.0663515 -0.951685E-04  0.366E-02    2.40       1.0  T
   5    -95.0664666 -0.115101E-03  0.430E-03    2.39       2.7  T
   6    -95.0664667 -0.985238E-07  0.132E-03    2.39       8.7  T
   7    -95.0664668 -0.272120E-07  0.513E-04    2.39      22.5  T
   8    -95.0664668 -0.150209E-08  0.221E-04    2.39      52.3  T
   9    -95.0664668 -0.590887E-10  0.915E-05    2.39     126.2  T
     SCC iter.                  ...        0 min,  0.099 sec
     gradient                   ...        0 min,  0.056 sec
 * total energy  :   -93.7811001 Eh     change       -0.9418575E-04 Eh
   gradient norm :     0.0042040 Eh/α   predicted    -0.7399346E-04 ( -21.44%)
   displ. norm   :     0.4477760 α      lambda       -0.1405536E-03
   maximum displ.:     0.3498251 α      in ANC's #6, #1, #7, ...

........................................................................
.............................. CYCLE  207 ..............................
........................................................................

 iter      E             dE          RMSdq      gap      omega  full diag
   1    -95.0676935 -0.950677E+02  0.949E-02    2.40       0.0  T
   2    -95.0676943 -0.809219E-06  0.581E-02    2.40       1.0  T
   3    -95.0676380  0.562941E-04  0.488E-02    2.38       1.0  T
   4    -95.0676147  0.233463E-04  0.316E-02    2.41       1.0  T
   5    -95.0676994 -0.847327E-04  0.940E-03    2.39       1.2  T
   6    -95.0677040 -0.459437E-05  0.154E-03    2.39       7.5  T
   7    -95.0677040 -0.180423E-07  0.768E-04    2.39      15.0  T
   8    -95.0677040 -0.150581E-07  0.313E-04    2.39      36.9  T
   9    -95.0677040 -0.221550E-08  0.140E-04    2.39      82.6  T
     SCC iter.                  ...        0 min,  0.101 sec
     gradient                   ...        0 min,  0.050 sec
 * total energy  :   -93.7811976 Eh     change       -0.9749278E-04 Eh
   gradient norm :     0.0043774 Eh/α   predicted    -0.8436984E-04 ( -13.46%)
   displ. norm   :     0.5168300 α      lambda       -0.1292547E-03
   maximum displ.:     0.3999786 α      in ANC's #6, #1, #7, ...

........................................................................
.............................. CYCLE  208 ..............................
........................................................................

 iter      E             dE          RMSdq      gap      omega  full diag
   1    -95.0643900 -0.950644E+02  0.116E-01    2.37       0.0  T
   2    -95.0643923 -0.222966E-05  0.689E-02    2.38       1.0  T
   3    -95.0643485  0.438085E-04  0.482E-02    2.36       1.0  T
   4    -95.0643502 -0.177560E-05  0.227E-02    2.39       1.0  T
   5    -95.0643921 -0.419006E-04  0.865E-03    2.37       1.3  T
   6    -95.0643967 -0.455726E-05  0.138E-03    2.37       8.3  T
   7    -95.0643967 -0.157220E-07  0.624E-04    2.38      18.5  T
   8    -95.0643967 -0.559444E-08  0.262E-04    2.38      44.0  T
   9    -95.0643967 -0.117009E-08  0.147E-04    2.38      78.4  T
     SCC iter.                  ...        0 min,  0.100 sec
     gradient                   ...        0 min,  0.053 sec
 * total energy  :   -93.7812546 Eh     change       -0.5701170E-04 Eh
   gradient norm :     0.0071591 Eh/α   predicted    -0.8189430E-04 (  43.64%)
   displ. norm   :     0.2450905 α      lambda       -0.2539669E-03
   maximum displ.:     0.1531509 α      in ANC's #13, #9, #1, ...

........................................................................
.............................. CYCLE  209 ..............................
........................................................................

 iter      E             dE          RMSdq      gap      omega  full diag
   1    -95.0708899 -0.950709E+02  0.545E-02    2.39       0.0  T
   2    -95.0708960 -0.607279E-05  0.333E-02    2.39       1.0  T
   3    -95.0708971 -0.109043E-05  0.236E-02    2.39       1.0  T
   4    -95.0708989 -0.182999E-05  0.834E-03    2.39       1.4  T
   5    -95.0708982  0.639210E-06  0.417E-03    2.39       2.8  T
   6    -95.0708992 -0.905863E-06  0.241E-03    2.39       4.8  T
   7    -95.0708996 -0.423113E-06  0.688E-04    2.39      16.8  T
   8    -95.0708996 -0.151601E-07  0.222E-04    2.39      52.1  T
   9    -95.0708996  0.419362E-10  0.131E-04    2.39      87.9  T
     SCC iter.                  ...        0 min,  0.097 sec
     gradient                   ...        0 min,  0.047 sec
 * total energy  :   -93.7813400 Eh     change       -0.8531346E-04 Eh
   gradient norm :     0.0068664 Eh/α   predicted    -0.1346123E-03 (  57.79%)
   displ. norm   :     0.1823305 α      lambda       -0.1849454E-03
   maximum displ.:     0.1178804 α      in ANC's #6, #1, #22, ...

........................................................................
.............................. CYCLE  210 ..............................
........................................................................

 iter      E             dE          RMSdq      gap      omega  full diag
   1    -95.0692568 -0.950693E+02  0.493E-02    2.39       0.0  T
   2    -95.0692506  0.620800E-05  0.311E-02    2.39       1.0  T
   3    -95.0691696  0.809398E-04  0.366E-02    2.40       1.0  T
   4    -95.0692224 -0.527479E-04  0.223E-02    2.38       1.0  T
   5    -95.0692610 -0.385912E-04  0.285E-03    2.39       4.1  T
   6    -95.0692612 -0.222003E-06  0.106E-03    2.39      10.9  T
   7    -95.0692612 -0.159042E-07  0.371E-04    2.39      31.1  T
   8    -95.0692612 -0.140102E-08  0.183E-04    2.39      63.3  T
     SCC iter.                  ...        0 min,  0.083 sec
     gradient                   ...        0 min,  0.049 sec
 * total energy  :   -93.7814328 Eh     change       -0.9281130E-04 Eh
   gradient norm :     0.0054405 Eh/α   predicted    -0.9554784E-04 (   2.95%)
   displ. norm   :     0.2461260 α      lambda       -0.1063520E-03
   maximum displ.:     0.1822253 α      in ANC's #6, #1, #3, ...

........................................................................
.............................. CYCLE  211 ..............................
........................................................................

 iter      E             dE          RMSdq      gap      omega  full diag
   1    -95.0668076 -0.950668E+02  0.572E-02    2.38       0.0  T
   2    -95.0668063  0.125752E-05  0.339E-02    2.37       1.0  T
   3    -95.0667212  0.851343E-04  0.347E-02    2.39       1.0  T
   4    -95.0667953 -0.740850E-04  0.127E-02    2.37       1.0  T
   5    -95.0668090 -0.137344E-04  0.244E-03    2.38       4.7  T
   6    -95.0668091 -0.145488E-06  0.718E-04    2.38      16.1  T
   7    -95.0668091 -0.152310E-07  0.286E-04    2.38      40.4  T
   8    -95.0668091 -0.331184E-09  0.140E-04    2.38      82.7  T
     SCC iter.                  ...        0 min,  0.090 sec
     gradient                   ...        0 min,  0.058 sec
 * total energy  :   -93.7814997 Eh     change       -0.6693601E-04 Eh
   gradient norm :     0.0042409 Eh/α   predicted    -0.5640071E-04 ( -15.74%)
   displ. norm   :     0.2079016 α      lambda       -0.1015445E-03
   maximum displ.:     0.1267820 α      in ANC's #6, #1, #15, ...

........................................................................
.............................. CYCLE  212 ..............................
........................................................................

 iter      E             dE          RMSdq      gap      omega  full diag
   1    -95.0664954 -0.950665E+02  0.499E-02    2.37       0.0  T
   2    -95.0664953  0.182243E-06  0.301E-02    2.37       1.0  T
   3    -95.0664699  0.253492E-04  0.272E-02    2.38       1.0  T
   4    -95.0664725 -0.260012E-05  0.171E-02    2.36       1.0  T
   5    -95.0664976 -0.250891E-04  0.451E-03    2.37       2.6  T
   6    -95.0664985 -0.943978E-06  0.764E-04    2.37      15.1  T
   7    -95.0664986 -0.968420E-08  0.360E-04    2.37      32.1  T
   8    -95.0664986 -0.207567E-08  0.169E-04    2.37      68.5  T
     SCC iter.                  ...        0 min,  0.089 sec
     gradient                   ...        0 min,  0.049 sec
 * total energy  :   -93.7815609 Eh     change       -0.6124171E-04 Eh
   gradient norm :     0.0038733 Eh/α   predicted    -0.5297080E-04 ( -13.51%)
   displ. norm   :     0.2119520 α      lambda       -0.9874364E-04
   maximum displ.:     0.1029941 α      in ANC's #6, #1, #13, ...

........................................................................
.............................. CYCLE  213 ..............................
........................................................................

 iter      E             dE          RMSdq      gap      omega  full diag
   1    -95.0679991 -0.950680E+02  0.491E-02    2.38       0.0  T
   2    -95.0679968  0.224939E-05  0.299E-02    2.37       1.0  T
   3    -95.0679400  0.568565E-04  0.323E-02    2.39       1.0  T
   4    -95.0679664 -0.263659E-04  0.202E-02    2.36       1.0  T
   5    -95.0680011 -0.347783E-04  0.283E-03    2.38       4.1  T
   6    -95.0680012 -0.106164E-06  0.733E-04    2.38      15.8  T
   7    -95.0680012 -0.963166E-08  0.352E-04    2.37      32.8  T
   8    -95.0680012 -0.820847E-09  0.153E-04    2.38      75.5  T
     SCC iter.                  ...        0 min,  0.079 sec
     gradient                   ...        0 min,  0.047 sec
 * total energy  :   -93.7815931 Eh     change       -0.3216490E-04 Eh
   gradient norm :     0.0054160 Eh/α   predicted    -0.5159467E-04 (  60.41%)
   displ. norm   :     0.2410924 α      lambda       -0.8500531E-04
   maximum displ.:     0.1587721 α      in ANC's #6, #1, #3, ...

........................................................................
.............................. CYCLE  214 ..............................
........................................................................

 iter      E             dE          RMSdq      gap      omega  full diag
   1    -95.0674704 -0.950675E+02  0.546E-02    2.37       0.0  T
   2    -95.0674699  0.469271E-06  0.324E-02    2.37       1.0  T
   3    -95.0674122  0.576978E-04  0.310E-02    2.38       1.0  T
   4    -95.0674588 -0.465427E-04  0.137E-02    2.37       1.0  T
   5    -95.0674716 -0.128606E-04  0.232E-03    2.37       5.0  T
   6    -95.0674720 -0.344159E-06  0.672E-04    2.37      17.2  T
   7    -95.0674720 -0.926697E-08  0.289E-04    2.37      39.9  T
   8    -95.0674720 -0.925013E-09  0.117E-04    2.37      98.6  T
     SCC iter.                  ...        0 min,  0.088 sec
     gradient                   ...        0 min,  0.051 sec
 * total energy  :   -93.7816400 Eh     change       -0.4690620E-04 Eh
   gradient norm :     0.0029915 Eh/α   predicted    -0.4497525E-04 (  -4.12%)
   displ. norm   :     0.1465170 α      lambda       -0.4597949E-04
   maximum displ.:     0.1093548 α      in ANC's #6, #1, #3, ...

........................................................................
.............................. CYCLE  215 ..............................
........................................................................

 iter      E             dE          RMSdq      gap      omega  full diag
   1    -95.0681964 -0.950682E+02  0.289E-02    2.38       0.0  T
   2    -95.0681967 -0.346203E-06  0.172E-02    2.38       1.0  T
   3    -95.0681935  0.327397E-05  0.127E-02    2.38       1.0  T
   4    -95.0681951 -0.164683E-05  0.615E-03    2.38       1.9  T
   5    -95.0681966 -0.147710E-05  0.306E-03    2.38       3.8  T
   6    -95.0681974 -0.825855E-06  0.678E-04    2.38      17.0  T
   7    -95.0681974 -0.170872E-07  0.234E-04    2.38      49.3  T
   8    -95.0681974 -0.133939E-08  0.120E-04    2.38      96.0  T
     SCC iter.                  ...        0 min,  0.084 sec
     gradient                   ...        0 min,  0.049 sec
 * total energy  :   -93.7816654 Eh     change       -0.2539685E-04 Eh
   gradient norm :     0.0024123 Eh/α   predicted    -0.2348672E-04 (  -7.52%)
   displ. norm   :     0.1235801 α      lambda       -0.3449100E-04
   maximum displ.:     0.0777872 α      in ANC's #6, #1, #3, ...

........................................................................
.............................. CYCLE  216 ..............................
........................................................................

 iter      E             dE          RMSdq      gap      omega  full diag
   1    -95.0697622 -0.950698E+02  0.224E-02    2.38       0.0  T
   2    -95.0697623 -0.115497E-06  0.131E-02    2.38       1.0  T
   3    -95.0697607  0.161318E-05  0.635E-03    2.38       1.8  T
   4    -95.0697616 -0.867815E-06  0.323E-03    2.38       3.6  T
   5    -95.0697624 -0.778696E-06  0.122E-03    2.38       9.5  T
   6    -95.0697625 -0.101513E-06  0.353E-04    2.38      32.7  T
   7    -95.0697625 -0.106425E-08  0.128E-04    2.38      90.4  T
     SCC iter.                  ...        0 min,  0.077 sec
     gradient                   ...        0 min,  0.051 sec
 * total energy  :   -93.7816881 Eh     change       -0.2265869E-04 Eh
   gradient norm :     0.0019314 Eh/α   predicted    -0.1751132E-04 ( -22.72%)
   displ. norm   :     0.4579583 α      lambda       -0.4630116E-04
   maximum displ.:     0.3087606 α      in ANC's #6, #1, #3, ...

........................................................................
.............................. CYCLE  217 ..............................
........................................................................

 iter      E             dE          RMSdq      gap      omega  full diag
   1    -95.0680908 -0.950681E+02  0.954E-02    2.36       0.0  T
   2    -95.0680918 -0.101199E-05  0.561E-02    2.36       1.0  T
   3    -95.0680767  0.151317E-04  0.203E-02    2.37       1.0  T
   4    -95.0680854 -0.870967E-05  0.949E-03    2.36       1.2  T
   5    -95.0680925 -0.714567E-05  0.201E-03    2.36       5.7  T
   6    -95.0680927 -0.184207E-06  0.965E-04    2.36      12.0  T
   7    -95.0680927 -0.173013E-07  0.293E-04    2.36      39.4  T
   8    -95.0680927 -0.250381E-09  0.150E-04    2.36      76.9  T
     SCC iter.                  ...        0 min,  0.092 sec
     gradient                   ...        0 min,  0.064 sec
 * total energy  :   -93.7816912 Eh     change       -0.3126523E-05 Eh
   gradient norm :     0.0053546 Eh/α   predicted    -0.2531026E-04 ( 709.53%)
   displ. norm   :     0.1372982 α      lambda       -0.9224689E-04
   maximum displ.:     0.0678583 α      in ANC's #6, #4, #13, ...

........................................................................
.............................. CYCLE  218 ..............................
........................................................................

 iter      E             dE          RMSdq      gap      omega  full diag
   1    -95.0719143 -0.950719E+02  0.254E-02    2.38       0.0  T
   2    -95.0719137  0.590435E-06  0.163E-02    2.38       1.0  T
   3    -95.0719023  0.113945E-04  0.164E-02    2.39       1.0  T
   4    -95.0719034 -0.104069E-05  0.123E-02    2.37       1.0  T
   5    -95.0719160 -0.125928E-04  0.266E-03    2.38       4.3  T
   6    -95.0719162 -0.220722E-06  0.693E-04    2.38      16.7  T
   7    -95.0719162 -0.986311E-08  0.291E-04    2.38      39.7  T
   8    -95.0719162 -0.316432E-08  0.120E-04    2.38      96.5  T
     SCC iter.                  ...        0 min,  0.104 sec
     gradient                   ...        0 min,  0.057 sec
 * total energy  :   -93.7817246 Eh     change       -0.3345489E-04 Eh
   gradient norm :     0.0046228 Eh/α   predicted    -0.4699741E-04 (  40.48%)
   displ. norm   :     0.0595349 α      lambda       -0.7921371E-04
   maximum displ.:     0.0242052 α      in ANC's #13, #17, #9, ...

........................................................................
.............................. CYCLE  219 ..............................
........................................................................

 iter      E             dE          RMSdq      gap      omega  full diag
   1    -95.0710727 -0.950711E+02  0.204E-02    2.38       0.0  T
   2    -95.0710707  0.195750E-05  0.135E-02    2.39       1.0  T
   3    -95.0710436  0.271284E-04  0.202E-02    2.37       1.0  T
   4    -95.0710715 -0.278860E-04  0.585E-03    2.39       2.0  T
   5    -95.0710734 -0.198290E-05  0.117E-03    2.38       9.9  T
   6    -95.0710735 -0.410176E-07  0.368E-04    2.38      31.3  T
   7    -95.0710735 -0.536163E-08  0.148E-04    2.38      77.9  T
     SCC iter.                  ...        0 min,  0.081 sec
     gradient                   ...        0 min,  0.053 sec
 * total energy  :   -93.7817611 Eh     change       -0.3649443E-04 Eh
   gradient norm :     0.0025692 Eh/α   predicted    -0.3974881E-04 (   8.92%)
   displ. norm   :     0.0878228 α      lambda       -0.4631063E-04
   maximum displ.:     0.0340451 α      in ANC's #3, #11, #4, ...
 * RMSD in coord.:     0.8181541 α      energy gain  -0.1700734E-02 Eh

generating ANC from exact Hessian ...
Using Lindh-Hessian (1995)
 Shifting diagonal of input Hessian by    1.0116182642435556E-002
 Lowest  eigenvalues of input Hessian
    0.010000    0.000000    0.000000    0.000000    0.000000    0.000000
    0.000000    0.010200    0.010233    0.010325    0.010405    0.010559
    0.010741    0.010900    0.010948    0.011051    0.011109    0.011234
 Highest eigenvalues
    1.616038    1.850636    1.896738    2.001365    2.023501    2.327467


........................................................................
.............................. CYCLE  220 ..............................
........................................................................

 iter      E             dE          RMSdq      gap      omega  full diag
   1    -95.0702766 -0.950703E+02  0.161E-02    2.37       0.0  T
   2    -95.0702768 -0.142774E-06  0.963E-03    2.38       1.2  T
   3    -95.0702758  0.980910E-06  0.539E-03    2.37       2.1  T
   4    -95.0702769 -0.109614E-05  0.863E-04    2.38      13.4  T
   5    -95.0702769 -0.964337E-08  0.433E-04    2.38      26.7  T
   6    -95.0702769  0.192587E-07  0.601E-04    2.38      19.2  T
   7    -95.0702769 -0.289167E-07  0.111E-04    2.38     103.9  T
     SCC iter.                  ...        0 min,  0.090 sec
     gradient                   ...        0 min,  0.068 sec
 * total energy  :   -93.7817893 Eh     change       -0.2817414E-04 Eh
   gradient norm :     0.0030683 Eh/α   predicted     0.0000000E+00 (-100.00%)
   displ. norm   :     0.0302431 α      lambda       -0.1973017E-04
   maximum displ.:     0.0110713 α      in ANC's #4, #11, #10, ...

........................................................................
.............................. CYCLE  221 ..............................
........................................................................

 iter      E             dE          RMSdq      gap      omega  full diag
   1    -95.0698300 -0.950698E+02  0.881E-03    2.38       0.0  T
   2    -95.0698301 -0.638419E-07  0.552E-03    2.38       2.1  T
   3    -95.0698300  0.551514E-07  0.377E-03    2.38       3.1  T
   4    -95.0698300 -0.261272E-07  0.159E-03    2.38       7.2  T
   5    -95.0698301 -0.425127E-07  0.104E-03    2.38      11.1  T
   6    -95.0698302 -0.878326E-07  0.315E-04    2.38      36.7  T
   7    -95.0698302 -0.499978E-08  0.760E-05    2.38     151.8  T
     SCC iter.                  ...        0 min,  0.076 sec
     gradient                   ...        0 min,  0.054 sec
 * total energy  :   -93.7818065 Eh     change       -0.1717457E-04 Eh
   gradient norm :     0.0010396 Eh/α   predicted    -0.1180936E-04 ( -31.24%)
   displ. norm   :     0.1107266 α      lambda       -0.3011289E-04
   maximum displ.:     0.0452278 α      in ANC's #11, #4, #10, ...

........................................................................
.............................. CYCLE  222 ..............................
........................................................................

 iter      E             dE          RMSdq      gap      omega  full diag
   1    -95.0687895 -0.950688E+02  0.271E-02    2.38       0.0  T
   2    -95.0687872  0.226499E-05  0.171E-02    2.39       1.0  T
   3    -95.0687459  0.413753E-04  0.243E-02    2.37       1.0  T
   4    -95.0687867 -0.408710E-04  0.864E-03    2.39       1.3  T
   5    -95.0687910 -0.430264E-05  0.182E-03    2.38       6.3  T
   6    -95.0687911 -0.479988E-07  0.878E-04    2.38      13.2  T
   7    -95.0687911 -0.122676E-07  0.367E-04    2.38      31.5  T
   8    -95.0687911 -0.734673E-09  0.179E-04    2.38      64.4  T
     SCC iter.                  ...        0 min,  0.099 sec
     gradient                   ...        0 min,  0.063 sec
 * total energy  :   -93.7817949 Eh     change        0.1154326E-04 Eh
   gradient norm :     0.0048930 Eh/α   predicted    -0.1513966E-04 (-231.16%)
   displ. norm   :     0.1148673 α      lambda       -0.8225728E-04
   maximum displ.:     0.0455328 α      in ANC's #4, #11, #10, ...

........................................................................
.............................. CYCLE  223 ..............................
........................................................................

 iter      E             dE          RMSdq      gap      omega  full diag
   1    -95.0681365 -0.950681E+02  0.285E-02    2.38       0.0  T
   2    -95.0681371 -0.587753E-06  0.169E-02    2.38       1.0  T
   3    -95.0681313  0.575879E-05  0.129E-02    2.38       1.0  T
   4    -95.0681225  0.882516E-05  0.142E-02    2.37       1.0  T
   5    -95.0681378 -0.153064E-04  0.326E-03    2.38       3.5  T
   6    -95.0681382 -0.396381E-06  0.155E-03    2.38       7.5  T
   7    -95.0681382 -0.674397E-07  0.482E-04    2.38      23.9  T
   8    -95.0681382 -0.742219E-09  0.266E-04    2.38      43.4  T
     SCC iter.                  ...        0 min,  0.112 sec
     gradient                   ...        0 min,  0.070 sec
 * total energy  :   -93.7818154 Eh     change       -0.2049153E-04 Eh
   gradient norm :     0.0064484 Eh/α   predicted    -0.4167169E-04 ( 103.36%)
   displ. norm   :     0.0400538 α      lambda       -0.6212839E-04
   maximum displ.:     0.0122032 α      in ANC's #16, #58, #26, ...

........................................................................
.............................. CYCLE  224 ..............................
........................................................................

 iter      E             dE          RMSdq      gap      omega  full diag
   1    -95.0692768 -0.950693E+02  0.193E-02    2.38       0.0  T
   2    -95.0692771 -0.336444E-06  0.133E-02    2.38       1.0  T
   3    -95.0692788 -0.166868E-05  0.774E-03    2.38       1.5  T
   4    -95.0692793 -0.508823E-06  0.306E-03    2.38       3.8  T
   5    -95.0692792  0.760039E-07  0.182E-03    2.38       6.3  T
   6    -95.0692793 -0.604815E-07  0.151E-03    2.38       7.6  T
   7    -95.0692795 -0.181730E-06  0.220E-04    2.38      52.6  T
   8    -95.0692795 -0.576762E-09  0.105E-04    2.38     110.4  T
     SCC iter.                  ...        0 min,  0.095 sec
     gradient                   ...        0 min,  0.067 sec
 * total energy  :   -93.7818480 Eh     change       -0.3257330E-04 Eh
   gradient norm :     0.0022665 Eh/α   predicted    -0.3111708E-04 (  -4.47%)
   displ. norm   :     0.0336373 α      lambda       -0.2013625E-04
   maximum displ.:     0.0141266 α      in ANC's #4, #10, #11, ...

........................................................................
.............................. CYCLE  225 ..............................
........................................................................

 iter      E             dE          RMSdq      gap      omega  full diag
   1    -95.0696601 -0.950697E+02  0.118E-02    2.38       0.0  T
   2    -95.0696602 -0.827059E-07  0.788E-03    2.38       1.5  T
   3    -95.0696605 -0.371948E-06  0.491E-03    2.38       2.4  T
   4    -95.0696595  0.983713E-06  0.433E-03    2.38       2.7  T
   5    -95.0696607 -0.116870E-05  0.175E-03    2.38       6.6  T
   6    -95.0696609 -0.210477E-06  0.498E-04    2.38      23.2  T
   7    -95.0696609 -0.819519E-08  0.163E-04    2.38      70.7  T
     SCC iter.                  ...        0 min,  0.078 sec
     gradient                   ...        0 min,  0.057 sec
 * total energy  :   -93.7818599 Eh     change       -0.1185849E-04 Eh
   gradient norm :     0.0006780 Eh/α   predicted    -0.1008056E-04 ( -14.99%)
   displ. norm   :     0.1436211 α      lambda       -0.2093006E-04
   maximum displ.:     0.0642916 α      in ANC's #4, #10, #11, ...

........................................................................
.............................. CYCLE  226 ..............................
........................................................................

 iter      E             dE          RMSdq      gap      omega  full diag
   1    -95.0695658 -0.950696E+02  0.248E-02    2.38       0.0  T
   2    -95.0695658  0.225119E-07  0.149E-02    2.38       1.0  T
   3    -95.0695546  0.112082E-04  0.151E-02    2.37       1.0  T
   4    -95.0695614 -0.680848E-05  0.830E-03    2.38       1.4  T
   5    -95.0695662 -0.483083E-05  0.175E-03    2.38       6.6  T
   6    -95.0695664 -0.206599E-06  0.482E-04    2.38      23.9  T
   7    -95.0695664 -0.192792E-08  0.176E-04    2.38      65.7  T
     SCC iter.                  ...        0 min,  0.084 sec
     gradient                   ...        0 min,  0.054 sec
 * total energy  :   -93.7818789 Eh     change       -0.1899567E-04 Eh
   gradient norm :     0.0017879 Eh/α   predicted    -0.1056171E-04 ( -44.40%)
   displ. norm   :     0.2825525 α      lambda       -0.3277835E-04
   maximum displ.:     0.1237359 α      in ANC's #4, #11, #10, ...

........................................................................
.............................. CYCLE  227 ..............................
........................................................................

 iter      E             dE          RMSdq      gap      omega  full diag
   1    -95.0685198 -0.950685E+02  0.502E-02    2.38       0.0  T
   2    -95.0685136  0.621092E-05  0.322E-02    2.38       1.0  T
   3    -95.0684375  0.760901E-04  0.362E-02    2.36       1.0  T
   4    -95.0684773 -0.397936E-04  0.242E-02    2.39       1.0  T
   5    -95.0685242 -0.468404E-04  0.314E-03    2.38       3.7  T
   6    -95.0685245 -0.304721E-06  0.101E-03    2.38      11.5  T
   7    -95.0685245 -0.617392E-08  0.492E-04    2.38      23.5  T
   8    -95.0685245 -0.385982E-08  0.254E-04    2.38      45.5  T
     SCC iter.                  ...        0 min,  0.092 sec
     gradient                   ...        0 min,  0.059 sec
 * total energy  :   -93.7818983 Eh     change       -0.1945190E-04 Eh
   gradient norm :     0.0022905 Eh/α   predicted    -0.1697180E-04 ( -12.75%)
   displ. norm   :     0.0583491 α      lambda       -0.1759630E-04
   maximum displ.:     0.0279699 α      in ANC's #4, #10, #11, ...

........................................................................
.............................. CYCLE  228 ..............................
........................................................................

 iter      E             dE          RMSdq      gap      omega  full diag
   1    -95.0689849 -0.950690E+02  0.124E-02    2.38       0.0  T
   2    -95.0689836  0.137000E-05  0.835E-03    2.38       1.4  T
   3    -95.0689725  0.110471E-04  0.128E-02    2.38       1.0  T
   4    -95.0689851 -0.125807E-04  0.287E-03    2.38       4.0  T
   5    -95.0689854 -0.267182E-06  0.698E-04    2.38      16.5  T
   6    -95.0689854 -0.122325E-07  0.274E-04    2.38      42.1  T
   7    -95.0689854 -0.249690E-08  0.123E-04    2.38      93.6  T
     SCC iter.                  ...        0 min,  0.084 sec
     gradient                   ...        0 min,  0.054 sec
 * total energy  :   -93.7819100 Eh     change       -0.1163633E-04 Eh
   gradient norm :     0.0010197 Eh/α   predicted    -0.8829864E-05 ( -24.12%)
   displ. norm   :     0.1014643 α      lambda       -0.1634327E-04
   maximum displ.:     0.0492520 α      in ANC's #4, #3, #9, ...

........................................................................
.............................. CYCLE  229 ..............................
........................................................................

 iter      E             dE          RMSdq      gap      omega  full diag
   1    -95.0704925 -0.950705E+02  0.222E-02    2.38       0.0  T
   2    -95.0704903  0.223934E-05  0.154E-02    2.38       1.0  T
   3    -95.0704825  0.781425E-05  0.141E-02    2.39       1.0  T
   4    -95.0704816  0.856108E-06  0.127E-02    2.37       1.0  T
   5    -95.0704941 -0.124655E-04  0.192E-03    2.38       6.0  T
   6    -95.0704941 -0.116575E-07  0.567E-04    2.38      20.4  T
   7    -95.0704941 -0.176504E-08  0.278E-04    2.38      41.5  T
   8    -95.0704941 -0.131969E-08  0.119E-04    2.38      97.0  T
     SCC iter.                  ...        0 min,  0.094 sec
     gradient                   ...        0 min,  0.052 sec
 * total energy  :   -93.7819200 Eh     change       -0.1006041E-04 Eh
   gradient norm :     0.0018154 Eh/α   predicted    -0.8209560E-05 ( -18.40%)
   displ. norm   :     0.1129781 α      lambda       -0.1280096E-04
   maximum displ.:     0.0525709 α      in ANC's #4, #3, #9, ...

........................................................................
.............................. CYCLE  230 ..............................
........................................................................

 iter      E             dE          RMSdq      gap      omega  full diag
   1    -95.0704353 -0.950704E+02  0.207E-02    2.38       0.0  T
   2    -95.0704348  0.547736E-06  0.131E-02    2.38       1.0  T
   3    -95.0704219  0.128697E-04  0.153E-02    2.37       1.0  T
   4    -95.0704308 -0.883942E-05  0.835E-03    2.38       1.4  T
   5    -95.0704360 -0.521572E-05  0.155E-03    2.38       7.4  T
   6    -95.0704361 -0.119879E-06  0.412E-04    2.38      28.1  T
   7    -95.0704361  0.896364E-09  0.234E-04    2.38      49.4  T
     SCC iter.                  ...        0 min,  0.087 sec
     gradient                   ...        0 min,  0.049 sec
 * total energy  :   -93.7819315 Eh     change       -0.1152630E-04 Eh
   gradient norm :     0.0013422 Eh/α   predicted    -0.6439147E-05 ( -44.14%)
   displ. norm   :     0.1537344 α      lambda       -0.1404513E-04
   maximum displ.:     0.0733466 α      in ANC's #4, #3, #9, ...

........................................................................
.............................. CYCLE  231 ..............................
........................................................................

 iter      E             dE          RMSdq      gap      omega  full diag
   1    -95.0691535 -0.950692E+02  0.269E-02    2.37       0.0  T
   2    -95.0691539 -0.365632E-06  0.160E-02    2.38       1.0  T
   3    -95.0691518  0.207173E-05  0.113E-02    2.37       1.0  T
   4    -95.0691527 -0.932352E-06  0.478E-03    2.38       2.4  T
   5    -95.0691536 -0.807840E-06  0.277E-03    2.37       4.2  T
   6    -95.0691542 -0.661130E-06  0.609E-04    2.38      19.0  T
   7    -95.0691542 -0.133925E-07  0.227E-04    2.38      51.0  T
   8    -95.0691542 -0.102007E-08  0.908E-05    2.38     127.2  T
     SCC iter.                  ...        0 min,  0.102 sec
     gradient                   ...        0 min,  0.054 sec
 * total energy  :   -93.7819431 Eh     change       -0.1156054E-04 Eh
   gradient norm :     0.0010439 Eh/α   predicted    -0.7098198E-05 ( -38.60%)
   displ. norm   :     0.0719936 α      lambda       -0.6705213E-05
   maximum displ.:     0.0341471 α      in ANC's #3, #7, #4, ...

........................................................................
.............................. CYCLE  232 ..............................
........................................................................

 iter      E             dE          RMSdq      gap      omega  full diag
   1    -95.0694006 -0.950694E+02  0.123E-02    2.38       0.0  T
   2    -95.0694006 -0.648827E-07  0.743E-03    2.38       1.6  T
   3    -95.0693994  0.122629E-05  0.663E-03    2.38       1.7  T
   4    -95.0694002 -0.816236E-06  0.313E-03    2.38       3.7  T
   5    -95.0694006 -0.384037E-06  0.181E-03    2.38       6.4  T
   6    -95.0694009 -0.282011E-06  0.240E-04    2.38      48.1  T
   7    -95.0694009 -0.918291E-09  0.120E-04    2.38      96.4  T
     SCC iter.                  ...        0 min,  0.091 sec
     gradient                   ...        0 min,  0.058 sec
 * total energy  :   -93.7819504 Eh     change       -0.7276150E-05 Eh
   gradient norm :     0.0006295 Eh/α   predicted    -0.3362806E-05 ( -53.78%)
   displ. norm   :     0.1179109 α      lambda       -0.8475527E-05
   maximum displ.:     0.0588480 α      in ANC's #3, #7, #4, ...

........................................................................
.............................. CYCLE  233 ..............................
........................................................................

 iter      E             dE          RMSdq      gap      omega  full diag
   1    -95.0696655 -0.950697E+02  0.196E-02    2.38       0.0  T
   2    -95.0696656 -0.514751E-07  0.116E-02    2.38       1.0  T
   3    -95.0696627  0.281283E-05  0.910E-03    2.38       1.3  T
   4    -95.0696635 -0.717421E-06  0.503E-03    2.37       2.3  T
   5    -95.0696657 -0.219608E-05  0.119E-03    2.38       9.7  T
   6    -95.0696657 -0.596397E-07  0.283E-04    2.38      40.8  T
   7    -95.0696657 -0.132587E-09  0.133E-04    2.38      86.5  T
     SCC iter.                  ...        0 min,  0.090 sec
     gradient                   ...        0 min,  0.055 sec
 * total energy  :   -93.7819603 Eh     change       -0.9887338E-05 Eh
   gradient norm :     0.0006714 Eh/α   predicted    -0.4268314E-05 ( -56.83%)
   displ. norm   :     0.1426034 α      lambda       -0.9558872E-05
   maximum displ.:     0.0767364 α      in ANC's #3, #7, #4, ...

........................................................................
.............................. CYCLE  234 ..............................
........................................................................

 iter      E             dE          RMSdq      gap      omega  full diag
   1    -95.0697727 -0.950698E+02  0.229E-02    2.38       0.0  T
   2    -95.0697725  0.254004E-06  0.136E-02    2.37       1.0  T
   3    -95.0697553  0.172031E-04  0.149E-02    2.38       1.0  T
   4    -95.0697719 -0.166516E-04  0.352E-03    2.37       3.3  T
   5    -95.0697729 -0.101122E-05  0.506E-04    2.37      22.8  T
   6    -95.0697729 -0.697105E-08  0.291E-04    2.37      39.7  T
   7    -95.0697729 -0.594866E-10  0.142E-04    2.37      81.6  T
     SCC iter.                  ...        0 min,  0.093 sec
     gradient                   ...        0 min,  0.061 sec
 * total energy  :   -93.7819714 Eh     change       -0.1115913E-04 Eh
   gradient norm :     0.0008572 Eh/α   predicted    -0.4825618E-05 ( -56.76%)
   displ. norm   :     0.1605786 α      lambda       -0.1016578E-04
   maximum displ.:     0.0895990 α      in ANC's #3, #7, #4, ...

........................................................................
.............................. CYCLE  235 ..............................
........................................................................

 iter      E             dE          RMSdq      gap      omega  full diag
   1    -95.0697990 -0.950698E+02  0.260E-02    2.37       0.0  T
   2    -95.0697982  0.794313E-06  0.158E-02    2.38       1.0  T
   3    -95.0697566  0.416068E-04  0.228E-02    2.36       1.0  T
   4    -95.0697986 -0.419748E-04  0.387E-03    2.38       3.0  T
   5    -95.0697996 -0.103406E-05  0.162E-03    2.38       7.1  T
   6    -95.0697997 -0.899070E-07  0.527E-04    2.38      21.9  T
   7    -95.0697997 -0.750634E-08  0.189E-04    2.38      61.1  T
   8    -95.0697997 -0.605468E-09  0.980E-05    2.38     117.9  T
     SCC iter.                  ...        0 min,  0.114 sec
     gradient                   ...        0 min,  0.065 sec
 * total energy  :   -93.7819812 Eh     change       -0.9794601E-05 Eh
   gradient norm :     0.0007629 Eh/α   predicted    -0.5145450E-05 ( -47.47%)
   displ. norm   :     0.1301609 α      lambda       -0.8203231E-05
   maximum displ.:     0.0769653 α      in ANC's #3, #7, #4, ...

........................................................................
.............................. CYCLE  236 ..............................
........................................................................

 iter      E             dE          RMSdq      gap      omega  full diag
   1    -95.0696645 -0.950697E+02  0.218E-02    2.37       0.0  T
   2    -95.0696645 -0.164469E-07  0.131E-02    2.37       1.0  T
   3    -95.0696615  0.307456E-05  0.108E-02    2.38       1.1  T
   4    -95.0696617 -0.220856E-06  0.614E-03    2.37       1.9  T
   5    -95.0696647 -0.299010E-05  0.111E-03    2.37      10.4  T
   6    -95.0696647 -0.806110E-07  0.388E-04    2.37      29.7  T
   7    -95.0696648 -0.488397E-08  0.130E-04    2.37      88.8  T
     SCC iter.                  ...        0 min,  0.087 sec
     gradient                   ...        0 min,  0.055 sec
 * total energy  :   -93.7819884 Eh     change       -0.7186344E-05 Eh
   gradient norm :     0.0005447 Eh/α   predicted    -0.4136957E-05 ( -42.43%)
   displ. norm   :     0.0573286 α      lambda       -0.3803453E-05
   maximum displ.:     0.0362704 α      in ANC's #3, #7, #4, ...

........................................................................
.............................. CYCLE  237 ..............................
........................................................................

 iter      E             dE          RMSdq      gap      omega  full diag
   1    -95.0696496 -0.950696E+02  0.104E-02    2.37       0.0  T
   2    -95.0696496 -0.783013E-07  0.634E-03    2.37       1.8  T
   3    -95.0696495  0.115737E-06  0.522E-03    2.37       2.2  T
   4    -95.0696496 -0.565312E-07  0.134E-03    2.37       8.6  T
   5    -95.0696495  0.713563E-07  0.147E-03    2.37       7.9  T
   6    -95.0696497 -0.184691E-06  0.194E-04    2.37      59.4  T
   7    -95.0696497 -0.858606E-09  0.843E-05    2.37     137.0  T
     SCC iter.                  ...        0 min,  0.090 sec
     gradient                   ...        0 min,  0.057 sec
 * total energy  :   -93.7819925 Eh     change       -0.4049638E-05 Eh
   gradient norm :     0.0004194 Eh/α   predicted    -0.1907289E-05 ( -52.90%)
   displ. norm   :     0.0547127 α      lambda       -0.3826516E-05
   maximum displ.:     0.0363112 α      in ANC's #3, #8, #7, ...

........................................................................
.............................. CYCLE  238 ..............................
........................................................................

 iter      E             dE          RMSdq      gap      omega  full diag
   1    -95.0697864 -0.950698E+02  0.888E-03    2.37       0.0  T
   2    -95.0697856  0.818670E-06  0.625E-03    2.38       1.8  T
   3    -95.0697794  0.614380E-05  0.956E-03    2.37       1.2  T
   4    -95.0697865 -0.703003E-05  0.159E-03    2.38       7.3  T
   5    -95.0697866 -0.143479E-06  0.849E-04    2.38      13.6  T
   6    -95.0697866 -0.266553E-07  0.302E-04    2.38      38.3  T
   7    -95.0697866 -0.392312E-08  0.695E-05    2.38     166.1  T
     SCC iter.                  ...        0 min,  0.097 sec
     gradient                   ...        0 min,  0.061 sec
 * total energy  :   -93.7819964 Eh     change       -0.3935080E-05 Eh
   gradient norm :     0.0003440 Eh/α   predicted    -0.1918725E-05 ( -51.24%)
   displ. norm   :     0.0426569 α      lambda       -0.2070290E-05
   maximum displ.:     0.0291341 α      in ANC's #3, #8, #7, ...

........................................................................
.............................. CYCLE  239 ..............................
........................................................................

 iter      E             dE          RMSdq      gap      omega  full diag
   1    -95.0696667 -0.950697E+02  0.621E-03    2.37       0.0  T
   2    -95.0696667  0.108743E-08  0.372E-03    2.37       3.1  T
   3    -95.0696659  0.736699E-06  0.374E-03    2.38       3.1  T
   4    -95.0696665 -0.519404E-06  0.174E-03    2.37       6.6  T
   5    -95.0696667 -0.250048E-06  0.294E-04    2.37      39.2  T
   6    -95.0696667 -0.378336E-08  0.999E-05    2.37     115.6  T
     SCC iter.                  ...        0 min,  0.075 sec
     gradient                   ...        0 min,  0.058 sec
 * total energy  :   -93.7819987 Eh     change       -0.2348753E-05 Eh
   gradient norm :     0.0002756 Eh/α   predicted    -0.1040978E-05 ( -55.68%)
   displ. norm   :     0.0347600 α      lambda       -0.1751429E-05
   maximum displ.:     0.0244232 α      in ANC's #3, #8, #13, ...

........................................................................
.............................. CYCLE  240 ..............................
........................................................................

 iter      E             dE          RMSdq      gap      omega  full diag
   1    -95.0697038 -0.950697E+02  0.396E-03    2.37       0.0  T
   2    -95.0697038 -0.215217E-07  0.247E-03    2.37       4.7  T
   3    -95.0697038  0.715929E-08  0.200E-03    2.37       5.8  T
   4    -95.0697038  0.405167E-08  0.614E-04    2.38      18.8  T
   5    -95.0697038  0.764288E-08  0.599E-04    2.37      19.3  T
   6    -95.0697039 -0.301066E-07  0.106E-04    2.37     109.0  T
   7    -95.0697039 -0.353296E-09  0.531E-05    2.37     217.5  T
     SCC iter.                  ...        0 min,  0.086 sec
     gradient                   ...        0 min,  0.057 sec
 * total energy  :   -93.7820008 Eh     change       -0.2098817E-05 Eh
   gradient norm :     0.0002222 Eh/α   predicted    -0.8780161E-06 ( -58.17%)
   displ. norm   :     0.0373031 α      lambda       -0.1731196E-05
   maximum displ.:     0.0262550 α      in ANC's #3, #8, #35, ...

........................................................................
.............................. CYCLE  241 ..............................
........................................................................

 iter      E             dE          RMSdq      gap      omega  full diag
   1    -95.0697680 -0.950698E+02  0.379E-03    2.37       0.0  T
   2    -95.0697679  0.109968E-06  0.257E-03    2.37       4.5  T
   3    -95.0697673  0.550276E-06  0.328E-03    2.38       3.5  T
   4    -95.0697679 -0.584817E-06  0.161E-03    2.37       7.2  T
   5    -95.0697681 -0.144417E-06  0.383E-04    2.37      30.2  T
   6    -95.0697681 -0.208709E-08  0.129E-04    2.37      89.3  T
     SCC iter.                  ...        0 min,  0.075 sec
     gradient                   ...        0 min,  0.066 sec
 * total energy  :   -93.7820029 Eh     change       -0.2060422E-05 Eh
   gradient norm :     0.0002037 Eh/α   predicted    -0.8709728E-06 ( -57.73%)
   displ. norm   :     0.0377034 α      lambda       -0.1455071E-05
   maximum displ.:     0.0272433 α      in ANC's #3, #8, #35, ...

........................................................................
.............................. CYCLE  242 ..............................
........................................................................

 iter      E             dE          RMSdq      gap      omega  full diag
   1    -95.0697328 -0.950697E+02  0.369E-03    2.37       0.0  T
   2    -95.0697328 -0.104759E-07  0.246E-03    2.37       4.7  T
   3    -95.0697328  0.592267E-07  0.203E-03    2.37       5.7  T
   4    -95.0697326  0.115579E-06  0.163E-03    2.37       7.1  T
   5    -95.0697328 -0.173937E-06  0.637E-04    2.37      18.1  T
   6    -95.0697329 -0.312210E-07  0.918E-05    2.37     125.8  T
   7    -95.0697329  0.252527E-10  0.560E-05    2.37     206.1  T
     SCC iter.                  ...        0 min,  0.102 sec
     gradient                   ...        0 min,  0.059 sec
 * total energy  :   -93.7820046 Eh     change       -0.1712504E-05 Eh
   gradient norm :     0.0002241 Eh/α   predicted    -0.7298035E-06 ( -57.38%)
   displ. norm   :     0.0345894 α      lambda       -0.1191452E-05
   maximum displ.:     0.0256678 α      in ANC's #3, #8, #2, ...

........................................................................
.............................. CYCLE  243 ..............................
........................................................................

 iter      E             dE          RMSdq      gap      omega  full diag
   1    -95.0697581 -0.950698E+02  0.352E-03    2.37       0.0  T
   2    -95.0697581 -0.990728E-08  0.211E-03    2.37       5.5  T
   3    -95.0697581  0.154265E-07  0.131E-03    2.37       8.8  T
   4    -95.0697581  0.147197E-07  0.824E-04    2.37      14.0  T
   5    -95.0697581 -0.297700E-07  0.401E-04    2.37      28.8  T
   6    -95.0697581 -0.119798E-07  0.114E-04    2.37     101.1  T
     SCC iter.                  ...        0 min,  0.072 sec
     gradient                   ...        0 min,  0.054 sec
 * total energy  :   -93.7820061 Eh     change       -0.1491548E-05 Eh
   gradient norm :     0.0001738 Eh/α   predicted    -0.5999627E-06 ( -59.78%)
   displ. norm   :     0.0342334 α      lambda       -0.1169289E-05
   maximum displ.:     0.0256482 α      in ANC's #3, #8, #2, ...

........................................................................
.............................. CYCLE  244 ..............................
........................................................................

 iter      E             dE          RMSdq      gap      omega  full diag
   1    -95.0697747 -0.950698E+02  0.370E-03    2.37       0.0  T
   2    -95.0697747  0.127358E-07  0.246E-03    2.37       4.7  T
   3    -95.0697747  0.612886E-07  0.184E-03    2.37       6.3  T
   4    -95.0697744  0.260417E-06  0.219E-03    2.37       5.3  T
   5    -95.0697748 -0.373899E-06  0.511E-04    2.37      22.6  T
   6    -95.0697748 -0.112851E-07  0.111E-04    2.37     103.6  T
   7    -95.0697748 -0.924985E-10  0.507E-05    2.37     227.6  T
     SCC iter.                  ...        0 min,  0.091 sec
     gradient                   ...        0 min,  0.066 sec
 * total energy  :   -93.7820076 Eh     change       -0.1528652E-05 Eh
   gradient norm :     0.0001506 Eh/α   predicted    -0.5877596E-06 ( -61.55%)
   displ. norm   :     0.0380129 α      lambda       -0.1255850E-05
   maximum displ.:     0.0284510 α      in ANC's #3, #8, #2, ...

........................................................................
.............................. CYCLE  245 ..............................
........................................................................

 iter      E             dE          RMSdq      gap      omega  full diag
   1    -95.0696824 -0.950697E+02  0.445E-03    2.37       0.0  T
   2    -95.0696824  0.624161E-07  0.323E-03    2.37       3.6  T
   3    -95.0696823  0.764901E-07  0.235E-03    2.37       4.9  T
   4    -95.0696820  0.357512E-06  0.277E-03    2.37       4.2  T
   5    -95.0696825 -0.586754E-06  0.538E-04    2.37      21.5  T
   6    -95.0696825 -0.898578E-08  0.135E-04    2.37      85.3  T
   7    -95.0696825 -0.169081E-09  0.646E-05    2.37     178.6  T
     SCC iter.                  ...        0 min,  0.084 sec
     gradient                   ...        0 min,  0.052 sec
 * total energy  :   -93.7820092 Eh     change       -0.1592057E-05 Eh
   gradient norm :     0.0001457 Eh/α   predicted    -0.6313038E-06 ( -60.35%)
   displ. norm   :     0.0393408 α      lambda       -0.1159706E-05
   maximum displ.:     0.0296752 α      in ANC's #3, #2, #5, ...

........................................................................
.............................. CYCLE  246 ..............................
........................................................................

 iter      E             dE          RMSdq      gap      omega  full diag
   1    -95.0696799 -0.950697E+02  0.450E-03    2.37       0.0  T
   2    -95.0696799  0.263966E-07  0.314E-03    2.37       3.7  T
   3    -95.0696798  0.493840E-07  0.216E-03    2.37       5.4  T
   4    -95.0696794  0.443875E-06  0.269E-03    2.37       4.3  T
   5    -95.0696800 -0.577979E-06  0.544E-04    2.37      21.2  T
   6    -95.0696800 -0.107194E-07  0.123E-04    2.37      93.8  T
   7    -95.0696800 -0.882352E-10  0.577E-05    2.37     200.2  T
     SCC iter.                  ...        0 min,  0.084 sec
     gradient                   ...        0 min,  0.054 sec
 * total energy  :   -93.7820107 Eh     change       -0.1438708E-05 Eh
   gradient norm :     0.0001635 Eh/α   predicted    -0.5829268E-06 ( -59.48%)
   displ. norm   :     0.0331524 α      lambda       -0.8975564E-06
   maximum displ.:     0.0251095 α      in ANC's #3, #2, #5, ...

........................................................................
.............................. CYCLE  247 ..............................
........................................................................

 iter      E             dE          RMSdq      gap      omega  full diag
   1    -95.0696811 -0.950697E+02  0.362E-03    2.37       0.0  T
   2    -95.0696811 -0.706677E-08  0.242E-03    2.37       4.8  T
   3    -95.0696811 -0.129921E-07  0.153E-03    2.37       7.6  T
   4    -95.0696811  0.166768E-07  0.721E-04    2.37      16.0  T
   5    -95.0696811 -0.908908E-08  0.531E-04    2.37      21.8  T
   6    -95.0696811 -0.220442E-07  0.862E-05    2.37     133.9  T
   7    -95.0696811 -0.209610E-10  0.418E-05    2.37     276.0  T
     SCC iter.                  ...        0 min,  0.094 sec
     gradient                   ...        0 min,  0.056 sec
 * total energy  :   -93.7820118 Eh     change       -0.1154338E-05 Eh
   gradient norm :     0.0001439 Eh/α   predicted    -0.4502976E-06 ( -60.99%)
   displ. norm   :     0.0290841 α      lambda       -0.7728033E-06
   maximum displ.:     0.0219439 α      in ANC's #3, #2, #5, ...

........................................................................
.............................. CYCLE  248 ..............................
........................................................................

 iter      E             dE          RMSdq      gap      omega  full diag
   1    -95.0696271 -0.950696E+02  0.287E-03    2.37       0.0  T
   2    -95.0696271  0.102638E-08  0.175E-03    2.37       6.6  T
   3    -95.0696270  0.688690E-07  0.141E-03    2.37       8.2  T
   4    -95.0696269  0.118673E-06  0.152E-03    2.37       7.6  T
   5    -95.0696271 -0.197186E-06  0.134E-04    2.37      86.4  T
   6    -95.0696271 -0.213589E-09  0.589E-05    2.37     196.2  T
     SCC iter.                  ...        0 min,  0.069 sec
     gradient                   ...        0 min,  0.058 sec
 * total energy  :   -93.7820128 Eh     change       -0.1024669E-05 Eh
   gradient norm :     0.0001213 Eh/α   predicted    -0.3887130E-06 ( -62.06%)
   displ. norm   :     0.0278060 α      lambda       -0.7208083E-06
   maximum displ.:     0.0210449 α      in ANC's #3, #2, #5, ...

........................................................................
.............................. CYCLE  249 ..............................
........................................................................

 iter      E             dE          RMSdq      gap      omega  full diag
   1    -95.0696690 -0.950697E+02  0.268E-03    2.37       0.0  T
   2    -95.0696690  0.357859E-08  0.159E-03    2.37       7.3  T
   3    -95.0696689  0.127871E-06  0.156E-03    2.37       7.4  T
   4    -95.0696689 -0.228212E-09  0.133E-03    2.37       8.7  T
   5    -95.0696690 -0.141040E-06  0.119E-04    2.37      96.9  T
   6    -95.0696690 -0.457476E-09  0.664E-05    2.37     174.0  T
     SCC iter.                  ...        0 min,  0.069 sec
     gradient                   ...        0 min,  0.054 sec
 * total energy  :   -93.7820138 Eh     change       -0.9415957E-06 Eh
   gradient norm :     0.0000877 Eh/α   predicted    -0.3611757E-06 ( -61.64%)
   displ. norm   :     0.0251730 α      lambda       -0.5831968E-06
   maximum displ.:     0.0192253 α      in ANC's #3, #5, #2, ...

   *** GEOMETRY OPTIMIZATION CONVERGED AFTER 249 ITERATIONS ***

------------------------------------------------------------------------
 total energy gain   :        -0.9741539 Eh     -611.2908 kcal/mol
 total RMSD          :         2.2712695 a0        1.2019 Å
 total power (kW/mol):       -10.2716495 (step)  -57.8712 (real)
------------------------------------------------------------------------

 ANCopt (total)                0 d,  0 h,  0 min, 44.196 sec
 optimizer setup                ...        0 min,  0.001 sec (  0.002%)
 model hessian                  ...        0 min,  0.756 sec (  1.712%)
 ANC generation                 ...        0 min,  0.114 sec (  0.258%)
 coordinate transformation      ...        0 min,  0.034 sec (  0.077%)
 single point calculation       ...        0 min, 43.022 sec ( 97.344%)
 optimization log               ...        0 min,  0.119 sec (  0.270%)
 hessian update                 ...        0 min,  0.029 sec (  0.065%)
 rational function              ...        0 min,  0.080 sec (  0.182%)

================
 final structure:
================
75
 xtb: 6.7.1 (edcfbbe)
Ru          -0.04122170564712        0.07512586419470        0.29207159413168
N           -0.22302468409775       -2.13752583198937        0.40792047586593
C            0.99310065794330       -2.90146033929528        0.21057538754380
C            2.06077569322276       -2.18901838833996       -0.62968122283724
P            2.17649403587083       -0.39954139845287       -0.15770896458803
C            3.14002005416384        0.32728317786429       -1.59442752879252
C            4.20122037801135       -0.60516507623290       -2.17638938563507
C            2.20534427093286        0.81811024226833       -2.69418082787386
C            3.52747330260198       -0.30190921490904        1.13934579146335
C            3.30095362323253       -1.26618368544288        2.29781837531890
C            3.57983409539015        1.13229766942440        1.66215407058790
C           -0.47859959006229       -1.71672093670698        1.61689209321318
C           -1.91146319758060       -1.39816093968372        2.02467087105201
P           -2.25772476057038        0.07397540001832        0.96596516726770
C           -3.04273346164892        1.36533423397987        2.05985902114940
C           -3.30581412131569        2.57765044123575        1.16660393674337
C           -2.12302257809168        1.76202768730616        3.20860052092204
C           -3.67395301700815       -0.47474336452029       -0.13907139723674
C           -5.04251892579257       -0.49701912802082        0.54015036429880
C           -3.37139252885114       -1.85386093350367       -0.73455589352928
H            1.42381671447744       -3.19214400588537        1.18366148558803
H            0.69316626836836       -3.81737270255753       -0.31684426554523
H            3.02170933815441       -2.70364258773589       -0.54343671379936
H            1.74968682296551       -2.19916887063091       -1.68006217243402
H            3.63890244112994        1.20644498974327       -1.16692341556717
H            4.82358670898867       -0.04726077867995       -2.87496337713791
H            3.73973261453858       -1.42330242070047       -2.72412625074399
H            4.84996718781346       -1.02012724257525       -1.40808578878110
H            2.76670744741234        1.36889477472760       -3.44807500114612
H            1.71412357514292       -0.01752205929812       -3.18965828185427
H            1.44376810576929        1.47699392426746       -2.27333317879913
H            4.47824077748710       -0.54960523189009        0.65030086537679
H            4.06528157695166       -1.11689157394464        3.06029409685947
H            3.34978330603820       -2.30369805855378        1.97162281248348
H            2.32955938292886       -1.07548574555049        2.75256497235094
H            2.60569694457636        1.40814482568059        2.06482113199859
H            4.32649660180012        1.22305918648210        2.44989058991685
H            3.82749981471779        1.84004849906626        0.87369800476003
H            0.31331856763269        0.47935801358103        1.75928961563993
H            0.17926347521272       -2.02153775907619        2.45046549027081
H           -1.95325427438761       -1.13716613117159        3.08422541303644
H           -2.56903915255081       -2.25156540958765        1.83685532310311
H           -3.97878105324090        0.96750133734144        2.46849534560172
H           -4.02516237025423        2.35380409603290        0.38071770208588
H           -3.68643477308819        3.41249233608138        1.75314566261373
H           -2.36785068102569        2.88008269333150        0.69624470054937
H           -2.57015546406218        2.57871951278380        3.77385191978869
H           -1.94835620637807        0.93431086103529        3.89337857662294
H           -1.16385402243253        2.09428598119829        2.81396481117708
H           -3.68273976580842        0.26327302082948       -0.95315722639088
H           -5.00664110968308       -1.08096442138834        1.45915527104494
H           -5.40437360458323        0.50142405026272        0.77136515545155
H           -5.76410943161614       -0.96461122397392       -0.12921949082510
H           -2.30020708818487       -2.02628452463120       -0.83253042321667
H           -3.77557198594319       -2.64206323711061       -0.10144431849296
H           -3.82767829709262       -1.95184348506924       -1.71834509065180
C           -0.50122864936768       -0.23218829559944       -1.45651399023565
O           -0.83904644755325       -0.53060285605453       -2.52632554734587
H            0.09868024934442        1.59530547644674        0.01731039640489
O           -0.49713496733345       -3.47624885199332       -2.74497772298753
C           -0.38036485293131       -3.65607462340150       -4.14288973467559
C            0.75942550022154       -2.85499764570613       -4.72309706019319
C            2.06811204173913       -3.30186074311018       -4.58246180743202
C            3.12170179987157       -2.55775503565844       -5.08417974675544
C            2.87778870074095       -1.35373239740746       -5.72502245809401
C            1.57800266335643       -0.89574691869204       -5.85753583053390
C            0.52403265823843       -1.64182669329801       -5.35694272949782
H           -0.63766166373111       -2.53194755657791       -2.58410787336641
H           -1.32322796178677       -3.38410093097275       -4.63994716711928
H           -0.20668487573307       -4.72703547792479       -4.28542919179546
H            2.25496414180351       -4.23974938565652       -4.07791609698074
H            4.13486023263300       -2.91907350284204       -4.97816768792113
H            3.69982689449796       -0.77305500634143       -6.11720689304281
H            1.38247687111183        0.04632225807812       -6.34894873655288
H           -0.48924561221052       -1.27915052138841       -5.45947177070700

 Bond Distances (Angstroems)
 ---------------------------
Ru1-N2=2.2231        Ru1-P5=2.3121        Ru1-C12=2.2709       Ru1-P14=2.3167       Ru1-H39=1.5626       Ru1-C57=1.8340       
Ru1-H59=1.5511       N2-Ru1=2.2231        N2-C3=1.4497         N2-C12=1.3054        C3-N2=1.4497         C3-C4=1.5341         
C3-H21=1.1031        C3-H22=1.0986        C4-C3=1.5341         C4-P5=1.8543         C4-H23=1.0935        C4-H24=1.0955        
P5-Ru1=2.3121        P5-C4=1.8543         P5-C6=1.8764         P5-C9=1.8754         C6-P5=1.8764         C6-C7=1.5278         
C6-C8=1.5245         C6-H25=1.0975        C7-C6=1.5278         C7-H26=1.0893        C7-H27=1.0874        C7-H28=1.0878        
C8-C6=1.5245         C8-H29=1.0894        C8-H30=1.0886        C8-H31=1.0914        C9-P5=1.8754         C9-C10=1.5242        
C9-C11=1.5274        C9-H32=1.0975        C10-C9=1.5242        C10-H33=1.0899       C10-H34=1.0887       C10-H35=1.0894       
C11-C9=1.5274        C11-H36=1.0896       C11-H37=1.0892       C11-H38=1.0881       C12-Ru1=2.2709       C12-N2=1.3054        
C12-C13=1.5234       C12-H40=1.1048       C13-C12=1.5234       C13-P14=1.8461       C13-H41=1.0920       C13-H42=1.0936       
P14-Ru1=2.3167       P14-C13=1.8461       P14-C15=1.8656       P14-C18=1.8783       C15-P14=1.8656       C15-C16=1.5287       
C15-C17=1.5241       C15-H43=1.0961       C16-C15=1.5287       C16-H44=1.0887       C16-H45=1.0890       C16-H46=1.0920       
C17-C15=1.5241       C17-H47=1.0892       C17-H48=1.0884       C17-H49=1.0891       C18-P14=1.8783       C18-C19=1.5280       
C18-C20=1.5324       C18-H50=1.0989       C19-C18=1.5280       C19-H51=1.0894       C19-H52=1.0869       C19-H53=1.0897       
C20-C18=1.5324       C20-H54=1.0894       C20-H55=1.0888       C20-H56=1.0889       H21-C3=1.1031        H22-C3=1.0986        
H23-C4=1.0935        H24-C4=1.0955        H25-C6=1.0975        H26-C7=1.0893        H27-C7=1.0874        H28-C7=1.0878        
H29-C8=1.0894        H30-C8=1.0886        H31-C8=1.0914        H32-C9=1.0975        H33-C10=1.0899       H34-C10=1.0887       
H35-C10=1.0894       H36-C11=1.0896       H37-C11=1.0892       H38-C11=1.0881       H39-Ru1=1.5626       H40-C12=1.1048       
H41-C13=1.0920       H42-C13=1.0936       H43-C15=1.0961       H44-C16=1.0887       H45-C16=1.0890       H46-C16=1.0920       
H47-C17=1.0892       H48-C17=1.0884       H49-C17=1.0891       H50-C18=1.0989       H51-C19=1.0894       H52-C19=1.0869       
H53-C19=1.0897       H54-C20=1.0894       H55-C20=1.0888       H56-C20=1.0889       C57-Ru1=1.8340       C57-O58=1.1609       
O58-C57=1.1609       H59-Ru1=1.5511       O60-C61=1.4143       O60-H68=0.9682       C61-O60=1.4143       C61-C62=1.5091       
C61-H69=1.1000       C61-H70=1.0943       C62-C61=1.5091       C62-C63=1.3900       C62-C67=1.3889       C63-C62=1.3900       
C63-C64=1.3840       C63-H71=1.0813       C64-C63=1.3840       C64-C65=1.3856       C64-H72=1.0809       C65-C64=1.3856       
C65-C66=1.3845       C65-H73=1.0802       C66-C65=1.3845       C66-C67=1.3849       C66-H74=1.0804       C67-C62=1.3889       
C67-C66=1.3849       C67-H75=1.0811       H68-O60=0.9682       H69-C61=1.1000       H70-C61=1.0943       H71-C63=1.0813       
H72-C64=1.0809       H73-C65=1.0802       H74-C66=1.0804       H75-C67=1.0811       
 C  H  Rav=1.0907 sigma=0.0056  Rmin=1.0802  Rmax=1.1048    42
 C  C  Rav=1.4766 sigma=0.0669  Rmin=1.3840  Rmax=1.5341    17
 N  C  Rav=1.3775 sigma=0.0721  Rmin=1.3054  Rmax=1.4497     2
 O  H  Rav=0.9682 sigma=0.0000  Rmin=0.9682  Rmax=0.9682     1
 O  C  Rav=1.2876 sigma=0.1267  Rmin=1.1609  Rmax=1.4143     2
 P  C  Rav=1.8660 sigma=0.0121  Rmin=1.8461  Rmax=1.8783     6
 Ru H  Rav=1.5569 sigma=0.0058  Rmin=1.5511  Rmax=1.5626     2
 Ru C  Rav=2.0525 sigma=0.2185  Rmin=1.8340  Rmax=2.2709     2
 Ru N  Rav=2.2231 sigma=0.0000  Rmin=2.2231  Rmax=2.2231     1
 Ru P  Rav=2.3144 sigma=0.0023  Rmin=2.3121  Rmax=2.3167     2

 selected bond angles (degree)
 --------------------
P5-Ru1-N2= 83.35               C12-Ru1-N2= 33.75              C12-Ru1-P5= 97.83              P14-Ru1-N2= 84.61              
P14-Ru1-P5=166.95              P14-Ru1-C12= 69.25             H39-Ru1-N2=103.13              H39-Ru1-P5= 91.04              
H39-Ru1-C12= 72.55             H39-Ru1-P14= 86.79             C57-Ru1-N2= 82.09              C57-Ru1-P5= 91.19              
C57-Ru1-C12=112.07             C57-Ru1-P14= 92.14             C57-Ru1-H39=174.54             H59-Ru1-N2=172.76              
H59-Ru1-P5= 94.60              H59-Ru1-C12=153.38             H59-Ru1-P14= 97.95             H59-Ru1-H39= 83.82             
H59-Ru1-C57= 91.03             C3-N2-Ru1=116.67               C12-N2-Ru1= 75.13              C12-N2-C3=117.40               
C4-C3-N2=114.44                H21-C3-N2=110.26               H21-C3-C4=109.50               H22-C3-N2=106.00               
H22-C3-C4=108.31               H22-C3-H21=108.08              P5-C4-C3=110.62                H23-C4-C3=110.48               
H23-C4-P5=112.29               H24-C4-C3=108.86               H24-C4-P5=105.71               H24-C4-H23=108.71              
C4-P5-Ru1=100.82               C6-P5-Ru1=124.19               C6-P5-C4=102.18                C9-P5-Ru1=123.07               
C9-P5-C4=105.74                C9-P5-C6= 98.02                C7-C6-P5=114.33                C8-C6-P5=111.24                
C8-C6-C7=110.34                H25-C6-P5=104.21               H25-C6-C7=108.76               H25-C6-C8=107.56               
H26-C7-C6=109.18               H27-C7-C6=110.87               H27-C7-H26=107.75              H28-C7-C6=112.21               
H28-C7-H26=107.91              H28-C7-H27=108.78              H29-C8-C6=110.25               H30-C8-C6=110.97               
H30-C8-H29=107.80              H31-C8-C6=110.12               H31-C8-H29=108.73              H31-C8-H30=108.91              
C10-C9-P5=112.69               C11-C9-P5=108.08               C11-C9-C10=109.81              H32-C9-P5=107.71               
H32-C9-C10=108.94              H32-C9-C11=109.56              H33-C10-C9=109.93              H34-C10-C9=111.62              
H34-C10-H33=107.98             H35-C10-C9=109.82              H35-C10-H33=108.02             H35-C10-H34=109.38             

 selected dihedral angles (degree)
 ---------------------------------
C3-N2-Ru1-P5=  1.37           C3-N2-Ru1-C12=246.45          C3-N2-Ru1-P14=186.42          C3-N2-Ru1-H39=271.85          
C3-N2-Ru1-C57= 93.50          C3-N2-Ru1-H59= 75.32          C12-N2-Ru1-P5=114.92          C12-N2-Ru1-P14=299.97         
C12-N2-Ru1-H39= 25.40         C12-N2-Ru1-C57=207.05         C12-N2-Ru1-H59=188.86         C4-C3-N2-Ru1=334.33           
C4-C3-N2-C12=247.95           H21-C3-N2-Ru1= 98.29          H21-C3-N2-C12= 11.91          H22-C3-N2-Ru1=215.04          
H22-C3-N2-C12=128.65          P5-C4-C3-N2= 41.67            P5-C4-C3-H21=277.30           P5-C4-C3-H22=159.66           
H23-C4-C3-N2=166.63           H23-C4-C3-H21= 42.27          H23-C4-C3-H22=284.62          H24-C4-C3-N2=285.93           
H24-C4-C3-H21=161.57          H24-C4-C3-H22= 43.92          C4-P5-Ru1-N2= 17.47           C4-P5-Ru1-C12= 48.04          
C4-P5-Ru1-P14= 40.32          C4-P5-Ru1-H39=120.56          C4-P5-Ru1-C57=295.58          C4-P5-Ru1-H59=204.45          
C6-P5-Ru1-N2=130.40           C6-P5-Ru1-C12=160.97          C6-P5-Ru1-P14=153.25          C6-P5-Ru1-H39=233.49          
C6-P5-Ru1-C57= 48.50          C6-P5-Ru1-H59=317.37          C9-P5-Ru1-N2=260.47           C9-P5-Ru1-C12=291.04          
C9-P5-Ru1-P14=283.32          C9-P5-Ru1-H39=  3.56          C9-P5-Ru1-C57=178.57          C9-P5-Ru1-H59= 87.44          
Ru1-P5-C4-C3=324.12           Ru1-P5-C4-H23=200.19          Ru1-P5-C4-H24= 81.80          C6-P5-C4-C3=195.33            
C6-P5-C4-H23= 71.39           C6-P5-C4-H24=313.01           C9-P5-C4-C3= 93.26            C9-P5-C4-H23=329.33           
C9-P5-C4-H24=210.94           C7-C6-P5-Ru1=212.72           C7-C6-P5-C4=324.98            C7-C6-P5-C9= 73.08            
C8-C6-P5-Ru1=338.52           C8-C6-P5-C4= 90.78            C8-C6-P5-C9=198.88            H25-C6-P5-Ru1= 94.14          
H25-C6-P5-C4=206.40           H25-C6-P5-C9=314.50           H26-C7-C6-P5=190.04           H26-C7-C6-C8= 63.77           
H26-C7-C6-H25=306.01          H27-C7-C6-P5= 71.48           H27-C7-C6-C8=305.21           H27-C7-C6-H25=187.45          
H28-C7-C6-P5=309.62           H28-C7-C6-C8=183.36           H28-C7-C6-H25= 65.60          H29-C8-C6-P5=171.52           
H29-C8-C6-C7=299.50           H29-C8-C6-H25= 57.99          H30-C8-C6-P5=290.88           H30-C8-C6-C7= 58.86           
H30-C8-C6-H25=177.35          H31-C8-C6-P5= 51.54           H31-C8-C6-C7=179.52           H31-C8-C6-H25=298.01          
C10-C9-P5-Ru1= 61.32          C10-C9-P5-C4=306.72           C10-C9-P5-C6=201.59           C11-C9-P5-Ru1=299.79          
C11-C9-P5-C4=185.19           C11-C9-P5-C6= 80.06           H32-C9-P5-Ru1=181.51          H32-C9-P5-C4= 66.91           
H32-C9-P5-C6=321.77           H33-C10-C9-P5=184.49          H33-C10-C9-C11=305.03         H33-C10-C9-H32= 65.02         
H34-C10-C9-P5= 64.69          H34-C10-C9-C11=185.23         H34-C10-C9-H32=305.22         H35-C10-C9-P5=303.20          
H35-C10-C9-C11= 63.74         H35-C10-C9-H32=183.73         
           -------------------------------------------------
          |                Final Singlepoint                |
           -------------------------------------------------

          ...................................................
          :                      SETUP                      :
          :.................................................:
          :  # basis functions                 183          :
          :  # atomic orbitals                 180          :
          :  # shells                          108          :
          :  # electrons                       176          :
          :  max. iterations                   500          :
          :  Hamiltonian                  GFN2-xTB          :
          :  restarted?                      false          :
          :  GBSA solvation                   true          :
          :  PC potential                    false          :
          :  electronic temp.          300.0000000     K    :
          :  accuracy                    0.5000000          :
          :  -> integral cutoff          0.2801030E+02      :
          :  -> integral neglect         0.5000000E-08      :
          :  -> SCF convergence          0.5000000E-06 Eh   :
          :  -> wf. convergence          0.5000000E-04 e    :
          :  Broyden damping             0.4000000          :
          :  net charge                          0          :
          :  unpaired electrons                  0          :
          ...................................................

 iter      E             dE          RMSdq      gap      omega  full diag
   1    -95.0696690 -0.950697E+02  0.235E-05    2.37       0.0  T
   2    -95.0696690 -0.130740E-11  0.145E-05    2.37     796.9  T
   3    -95.0696690 -0.100897E-11  0.918E-06    2.37    1257.3  T

   *** convergence criteria satisfied after 3 iterations ***

         #    Occupation            Energy/Eh            Energy/eV
      -------------------------------------------------------------
         1        2.0000           -0.7252710             -19.7356
       ...           ...                  ...                  ...
        82        2.0000           -0.3876705             -10.5491
        83        2.0000           -0.3827730             -10.4158
        84        2.0000           -0.3700467             -10.0695
        85        2.0000           -0.3634184              -9.8891
        86        2.0000           -0.3257004              -8.8628
        87        2.0000           -0.3218157              -8.7571
        88        2.0000           -0.3146513              -8.5621 (HOMO)
        89                         -0.2274665              -6.1897 (LUMO)
        90                         -0.2251224              -6.1259
        91                         -0.2242362              -6.1018
        92                         -0.2022742              -5.5042
        93                         -0.1907212              -5.1898
       ...                                ...                  ...
       180                          3.3482834              91.1114
      -------------------------------------------------------------
                  HL-Gap            0.0871848 Eh            2.3724 eV
             Fermi-level           -0.2710589 Eh           -7.3759 eV

 SCC (total)                   0 d,  0 h,  0 min,  0.119 sec
 SCC setup                      ...        0 min,  0.003 sec (  2.150%)
 Dispersion                     ...        0 min,  0.001 sec (  1.100%)
 classical contributions        ...        0 min,  0.000 sec (  0.279%)
 integral evaluation            ...        0 min,  0.013 sec ( 10.767%)
 iterations                     ...        0 min,  0.041 sec ( 34.577%)
 molecular gradient             ...        0 min,  0.060 sec ( 50.251%)
 printout                       ...        0 min,  0.001 sec (  0.859%)

         :::::::::::::::::::::::::::::::::::::::::::::::::::::
         ::                     SUMMARY                     ::
         :::::::::::::::::::::::::::::::::::::::::::::::::::::
         :: total energy             -93.782013784370 Eh    ::
         :: total w/o Gsasa/hb       -93.741894723383 Eh    ::
         :: gradient norm              0.000090948168 Eh/a0 ::
         :: HOMO-LUMO gap              2.372420216538 eV    ::
         ::.................................................::
         :: SCC energy               -95.065359054843 Eh    ::
         :: -> isotropic ES            0.050436448583 Eh    ::
         :: -> anisotropic ES          0.015896957008 Eh    ::
         :: -> anisotropic XC          0.048148471041 Eh    ::
         :: -> dispersion             -0.099830678001 Eh    ::
         :: -> Gsolv                  -0.043106082340 Eh    ::
         ::    -> Gelec               -0.002987021354 Eh    ::
         ::    -> Gsasa               -0.042327204125 Eh    ::
         ::    -> Ghb                  0.000000000000 Eh    ::
         ::    -> Gshift               0.002208143139 Eh    ::
         :: repulsion energy           1.283345270473 Eh    ::
         :: add. restraining           0.000000000000 Eh    ::
         :: total charge               0.000000000000 e     ::
         :::::::::::::::::::::::::::::::::::::::::::::::::::::

           -------------------------------------------------
          |                Property Printout                |
           -------------------------------------------------

    * Orbital Energies and Occupations

         #    Occupation            Energy/Eh            Energy/eV
      -------------------------------------------------------------
         1        2.0000           -0.7252710             -19.7356
       ...           ...                  ...                  ...
        76        2.0000           -0.4100655             -11.1585
        77        2.0000           -0.4088420             -11.1252
        78        2.0000           -0.4074637             -11.0877
        79        2.0000           -0.4057498             -11.0410
        80        2.0000           -0.4045573             -11.0086
        81        2.0000           -0.4017520             -10.9322
        82        2.0000           -0.3876705             -10.5491
        83        2.0000           -0.3827730             -10.4158
        84        2.0000           -0.3700467             -10.0695
        85        2.0000           -0.3634184              -9.8891
        86        2.0000           -0.3257004              -8.8628
        87        2.0000           -0.3218157              -8.7571
        88        2.0000           -0.3146513              -8.5621 (HOMO)
        89                         -0.2274665              -6.1897 (LUMO)
        90                         -0.2251224              -6.1259
        91                         -0.2242362              -6.1018
        92                         -0.2022742              -5.5042
        93                         -0.1907212              -5.1898
        94                         -0.1773709              -4.8265
        95                         -0.1516261              -4.1260
        96                         -0.1388054              -3.7771
        97                         -0.1283380              -3.4923
        98                         -0.1184223              -3.2224
        99                         -0.0984783              -2.6797
       ...                                ...                  ...
       180                          3.3482834              91.1114
      -------------------------------------------------------------
                  HL-Gap            0.0871848 Eh            2.3724 eV
             Fermi-level           -0.2710589 Eh           -7.3759 eV

     #   Z          covCN         q      C6AA      α(0)
     1  44 Ru       6.334    -0.333   322.475    30.205
     2   7 N        2.551    -0.206    25.520     7.502
     3   6 C        3.835     0.042    19.838     6.337
     4   6 C        3.749    -0.043    21.411     6.599
     5  15 P        4.090     0.006   159.933    22.717
     6   6 C        3.797    -0.006    20.691     6.477
     7   6 C        3.792    -0.104    22.499     6.755
     8   6 C        3.815    -0.097    22.339     6.727
     9   6 C        3.797     0.001    20.568     6.458
    10   6 C        3.805    -0.092    22.245     6.714
    11   6 C        3.848    -0.104    22.443     6.738
    12   6 C        3.873     0.116    18.651     6.141
    13   6 C        3.781    -0.043    21.370     6.585
    14  15 P        4.311     0.009   159.833    22.710
    15   6 C        3.798     0.003    20.535     6.452
    16   6 C        3.879    -0.103    22.418     6.732
    17   6 C        3.818    -0.102    22.432     6.741
    18   6 C        3.796     0.001    20.575     6.459
    19   6 C        3.790    -0.103    22.478     6.752
    20   6 C        3.822    -0.099    22.369     6.731
    21   1 H        0.923     0.010     2.885     2.656
    22   1 H        0.923     0.042     2.428     2.437
    23   1 H        0.925     0.053     2.281     2.362
    24   1 H        0.926     0.066     2.135     2.285
    25   1 H        0.926     0.056     2.247     2.344
    26   1 H        0.925     0.044     2.393     2.419
    27   1 H        0.925     0.044     2.392     2.419
    28   1 H        0.925     0.042     2.417     2.431
    29   1 H        0.925     0.039     2.464     2.455
    30   1 H        0.925     0.039     2.459     2.452
    31   1 H        0.924     0.059     2.211     2.325
    32   1 H        0.925     0.047     2.355     2.400
    33   1 H        0.925     0.039     2.464     2.455
    34   1 H        0.925     0.033     2.542     2.494
    35   1 H        0.925     0.051     2.310     2.377
    36   1 H        0.925     0.068     2.105     2.269
    37   1 H        0.925     0.041     2.432     2.439
    38   1 H        0.925     0.041     2.430     2.438
    39   1 H        0.960    -0.160     8.211     4.479
    40   1 H        0.922     0.005     2.966     2.693
    41   1 H        0.925     0.059     2.211     2.325
    42   1 H        0.924     0.063     2.163     2.300
    43   1 H        0.925     0.055     2.255     2.348
    44   1 H        0.925     0.041     2.436     2.441
    45   1 H        0.925     0.046     2.365     2.405
    46   1 H        0.924     0.064     2.156     2.296
    47   1 H        0.925     0.043     2.411     2.428
    48   1 H        0.925     0.039     2.464     2.455
    49   1 H        0.925     0.072     2.067     2.248
    50   1 H        0.926     0.049     2.329     2.387
    51   1 H        0.925     0.044     2.396     2.421
    52   1 H        0.925     0.044     2.400     2.423
    53   1 H        0.925     0.047     2.363     2.404
    54   1 H        0.925     0.070     2.090     2.261
    55   1 H        0.925     0.039     2.463     2.454
    56   1 H        0.925     0.035     2.513     2.479
    57   6 C        1.806     0.173    27.033     8.402
    58   8 O        0.857    -0.280    19.418     5.908
    59   1 H        0.963    -0.098     5.487     3.661
    60   8 O        1.654    -0.468    22.224     6.364
    61   6 C        3.679     0.084    19.390     6.307
    62   6 C        2.967    -0.001    28.051     8.687
    63   6 C        2.924    -0.033    28.833     8.806
    64   6 C        2.919    -0.030    28.753     8.793
    65   6 C        2.920    -0.029    28.722     8.789
    66   6 C        2.919    -0.027    28.684     8.783
    67   6 C        2.923    -0.031    28.778     8.797
    68   1 H        0.805     0.310     0.692     1.306
    69   1 H        0.923     0.016     2.792     2.613
    70   1 H        0.924     0.039     2.460     2.453
    71   1 H        0.925     0.032     2.557     2.500
    72   1 H        0.926     0.033     2.548     2.496
    73   1 H        0.926     0.033     2.538     2.491
    74   1 H        0.926     0.033     2.543     2.494
    75   1 H        0.926     0.033     2.537     2.491

 Mol. C6AA /au·bohr⁶  :      59306.537570
 Mol. C8AA /au·bohr⁸  :    1687609.088802
 Mol. α(0) /au        :        379.376778


Wiberg/Mayer (AO) data.
largest (>0.10) Wiberg bond orders for each atom

 ---------------------------------------------------------------------------
     #   Z sym  total        # sym  WBO       # sym  WBO       # sym  WBO
 ---------------------------------------------------------------------------
     1  44 Ru   6.610 --    57 C    1.339     5 P    0.980    14 P    0.923
                            59 H    0.887    39 H    0.744     2 N    0.458
                            12 C    0.440    58 O    0.293
     2   7 N    3.193 --    12 C    1.504     3 C    1.005     1 Ru   0.458
     3   6 C    3.991 --     2 N    1.005     4 C    0.976    22 H    0.959
                            21 H    0.957
     4   6 C    3.995 --     5 P    0.993     3 C    0.976    23 H    0.944
                            24 H    0.933
     5  15 P    4.417 --     4 C    0.993     1 Ru   0.980     6 C    0.965
                             9 C    0.957
     6   6 C    3.989 --     8 C    1.000     7 C    0.996     5 P    0.965
                            25 H    0.931
     7   6 C    3.995 --     6 C    0.996    26 H    0.981    27 H    0.979
                            28 H    0.976
     8   6 C    3.993 --     6 C    1.000    29 H    0.983    30 H    0.976
                            31 H    0.958
     9   6 C    3.989 --    10 C    1.001    11 C    0.997     5 P    0.957
                            32 H    0.932
    10   6 C    3.994 --     9 C    1.001    33 H    0.981    34 H    0.978
                            35 H    0.970
    11   6 C    3.991 --     9 C    0.997    37 H    0.982    38 H    0.973
                            36 H    0.966
    12   6 C    3.985 --     2 N    1.504    13 C    0.961    40 H    0.915
                             1 Ru   0.440
    13   6 C    3.997 --    14 P    0.992    12 C    0.961    41 H    0.941
                            42 H    0.932
    14  15 P    4.396 --    13 C    0.992    15 C    0.959    18 C    0.956
                             1 Ru   0.923
    15   6 C    3.988 --    17 C    0.998    16 C    0.993    14 P    0.959
                            43 H    0.933
    16   6 C    3.993 --    15 C    0.993    45 H    0.981    44 H    0.975
                            46 H    0.966
    17   6 C    3.990 --    15 C    0.998    47 H    0.980    48 H    0.976
                            49 H    0.965
    18   6 C    3.988 --    19 C    0.997    20 C    0.993    14 P    0.956
                            50 H    0.937
    19   6 C    3.995 --    18 C    0.997    52 H    0.980    51 H    0.980
                            53 H    0.980
    20   6 C    3.993 --    18 C    0.993    56 H    0.985    55 H    0.983
                            54 H    0.951
    21   1 H    0.999 --     3 C    0.957
    22   1 H    0.998 --     3 C    0.959
    23   1 H    0.996 --     4 C    0.944
    24   1 H    0.995 --     4 C    0.933
    25   1 H    0.996 --     6 C    0.931
    26   1 H    0.996 --     7 C    0.981
    27   1 H    0.998 --     7 C    0.979
    28   1 H    0.998 --     7 C    0.976
    29   1 H    0.998 --     8 C    0.983
    30   1 H    0.998 --     8 C    0.976
    31   1 H    0.996 --     8 C    0.958
    32   1 H    0.997 --     9 C    0.932
    33   1 H    0.998 --    10 C    0.981
    34   1 H    0.999 --    10 C    0.978
    35   1 H    0.997 --    10 C    0.970
    36   1 H    0.995 --    11 C    0.966
    37   1 H    0.998 --    11 C    0.982
    38   1 H    0.998 --    11 C    0.973
    39   1 H    0.973 --     1 Ru   0.744
    40   1 H    0.999 --    12 C    0.915
    41   1 H    0.996 --    13 C    0.941
    42   1 H    0.995 --    13 C    0.932
    43   1 H    0.996 --    15 C    0.933
    44   1 H    0.998 --    16 C    0.975
    45   1 H    0.997 --    16 C    0.981
    46   1 H    0.996 --    16 C    0.966
    47   1 H    0.998 --    17 C    0.980
    48   1 H    0.998 --    17 C    0.976
    49   1 H    0.995 --    17 C    0.965
    50   1 H    0.997 --    18 C    0.937
    51   1 H    0.998 --    19 C    0.980
    52   1 H    0.998 --    19 C    0.980
    53   1 H    0.996 --    19 C    0.980
    54   1 H    0.995 --    20 C    0.951
    55   1 H    0.998 --    20 C    0.983
    56   1 H    0.998 --    20 C    0.985
    57   6 C    3.589 --    58 O    2.009     1 Ru   1.339
    58   8 O    2.397 --    57 C    2.009     1 Ru   0.293
    59   1 H    0.990 --     1 Ru   0.887
    60   8 O    1.945 --    61 C    0.990    68 H    0.869
    61   6 C    3.958 --    62 C    0.994    60 O    0.990    70 H    0.970
                            69 H    0.969
    62   6 C    3.988 --    67 C    1.420    63 C    1.413    61 C    0.994
                            65 C    0.111
    63   6 C    3.992 --    64 C    1.446    62 C    1.413    71 H    0.970
                            66 C    0.112
    64   6 C    3.993 --    63 C    1.446    65 C    1.435    72 H    0.971
                            67 C    0.111
    65   6 C    3.993 --    66 C    1.441    64 C    1.435    73 H    0.971
                            62 C    0.111
    66   6 C    3.992 --    65 C    1.441    67 C    1.440    74 H    0.971
                            63 C    0.112
    67   6 C    3.992 --    66 C    1.440    62 C    1.420    75 H    0.969
                            64 C    0.111
    68   1 H    0.904 --    60 O    0.869
    69   1 H    0.999 --    61 C    0.969
    70   1 H    0.998 --    61 C    0.970
    71   1 H    0.999 --    63 C    0.970
    72   1 H    0.999 --    64 C    0.971
    73   1 H    0.998 --    65 C    0.971
    74   1 H    0.999 --    66 C    0.971
    75   1 H    0.999 --    67 C    0.969
 ---------------------------------------------------------------------------

Topologies differ in total number of bonds
Writing topology from bond orders to xtbtopo.mol

molecular dipole:
                 x           y           z       tot (Debye)
 q only:        0.167       0.072       0.725
   full:        0.101      -0.899       0.646       2.826
molecular quadrupole (traceless):
                xx          xy          yy          xz          yz          zz
 q only:       21.149      -5.508     -15.838     -12.185      -1.953      -5.311
  q+dip:       23.680      -6.473     -19.291     -10.759      -7.046      -4.389
   full:       21.678      -6.543     -18.314     -11.228      -6.230      -3.364

           -------------------------------------------------
          |                Geometry Summary                 |
           -------------------------------------------------

      molecular mass/u    :      542.6329725
   center of mass at/Å    :        0.1852378      -0.7082847      -0.7221603
  moments of inertia/u·Å² :        0.2851344E+04   0.5103313E+04   0.6447896E+04
rotational constants/cm⁻¹ :        0.5912170E-02   0.3303273E-02   0.2614439E-02

 * 74 selected distances

     #   Z          #   Z                                           value/Å
     2   7 N        3   6 C                                       1.4496559
     3   6 C        4   6 C                                       1.5341236
     1  44 Ru       5  15 P                                       2.3121150
     4   6 C        5  15 P                                       1.8542861
     5  15 P        6   6 C                                       1.8763841
     6   6 C        7   6 C                                       1.5278370
     6   6 C        8   6 C                                       1.5244631
     5  15 P        9   6 C                                       1.8753743
     9   6 C       10   6 C                                       1.5242033
     9   6 C       11   6 C                                       1.5274227
     2   7 N       12   6 C                                       1.3053766
    12   6 C       13   6 C                                       1.5234377
     1  44 Ru      14  15 P                                       2.3166831 (max)
    13   6 C       14  15 P                                       1.8460609
    14  15 P       15   6 C                                       1.8655966
    15   6 C       16   6 C                                       1.5286684
    15   6 C       17   6 C                                       1.5240870
    14  15 P       18   6 C                                       1.8782708
    18   6 C       19   6 C                                       1.5280090
    18   6 C       20   6 C                                       1.5323545
     3   6 C       21   1 H                                       1.1031365
     3   6 C       22   1 H                                       1.0986482
     4   6 C       23   1 H                                       1.0934669
     4   6 C       24   1 H                                       1.0955271
     6   6 C       25   1 H                                       1.0975286
     7   6 C       26   1 H                                       1.0893130
     7   6 C       27   1 H                                       1.0873525
     7   6 C       28   1 H                                       1.0878220
     8   6 C       29   1 H                                       1.0894259
     8   6 C       30   1 H                                       1.0886125
     8   6 C       31   1 H                                       1.0914389
     9   6 C       32   1 H                                       1.0974868
    10   6 C       33   1 H                                       1.0898875
    10   6 C       34   1 H                                       1.0886800
    10   6 C       35   1 H                                       1.0893884
    11   6 C       36   1 H                                       1.0895760
    11   6 C       37   1 H                                       1.0891610
    11   6 C       38   1 H                                       1.0880775
     1  44 Ru      39   1 H                                       1.5626361
    12   6 C       40   1 H                                       1.1047814
    13   6 C       41   1 H                                       1.0920260
    13   6 C       42   1 H                                       1.0936088
    15   6 C       43   1 H                                       1.0961022
    16   6 C       44   1 H                                       1.0886627
    16   6 C       45   1 H                                       1.0889741
    16   6 C       46   1 H                                       1.0920067
    17   6 C       47   1 H                                       1.0892303
    17   6 C       48   1 H                                       1.0883679
    17   6 C       49   1 H                                       1.0890994
    18   6 C       50   1 H                                       1.0988546
    19   6 C       51   1 H                                       1.0894263
    19   6 C       52   1 H                                       1.0868708
    19   6 C       53   1 H                                       1.0896749
    20   6 C       54   1 H                                       1.0893885
    20   6 C       55   1 H                                       1.0887857
    20   6 C       56   1 H                                       1.0888704
     1  44 Ru      57   6 C                                       1.8340121
    57   6 C       58   8 O                                       1.1608915
     1  44 Ru      59   1 H                                       1.5511327
    60   8 O       61   6 C                                       1.4142599
    62   6 C       63   6 C                                       1.3900093
    63   6 C       64   6 C                                       1.3840036
    64   6 C       65   6 C                                       1.3855843
    65   6 C       66   6 C                                       1.3844691
    62   6 C       67   6 C                                       1.3888680
    66   6 C       67   6 C                                       1.3849482
    60   8 O       68   1 H                                       0.9681591 (min)
    61   6 C       69   1 H                                       1.1000122
    61   6 C       70   1 H                                       1.0942758
    63   6 C       71   1 H                                       1.0812564
    64   6 C       72   1 H                                       1.0808699
    65   6 C       73   1 H                                       1.0801583
    66   6 C       74   1 H                                       1.0803756
    67   6 C       75   1 H                                       1.0811010

 * 9 distinct bonds (by element types)

   Z      Z             #   av. dist./Å        max./Å        min./Å
   1 H    6 C          42     1.0906502     1.1047814     1.0801583
   6 C    6 C          16     1.4745305     1.5341236     1.3840036
   6 C    7 N           2     1.3775162     1.4496559     1.3053766
   1 H    8 O           1     0.9681591     0.9681591     0.9681591
   6 C    8 O           2     1.2875757     1.4142599     1.1608915
   6 C   15 P           6     1.8659955     1.8782708     1.8460609
   1 H   44 Ru          2     1.5568844     1.5626361     1.5511327
   6 C   44 Ru          1     1.8340121     1.8340121     1.8340121
  15 P   44 Ru          2     2.3143990     2.3166831     2.3121150


optimized geometry written to: xtbopt.xyz


           -------------------------------------------------
          | TOTAL ENERGY              -93.782013784370 Eh   |
          | GRADIENT NORM               0.000090948168 Eh/α |
          | HOMO-LUMO GAP               2.372420216538 eV   |
           -------------------------------------------------

------------------------------------------------------------------------
 * finished run on 2026/09/13 at 01:18:02.564     
------------------------------------------------------------------------
 total:
 * wall-time:     0 d,  0 h,  0 min, 44.643 sec
 *  cpu-time:     0 d,  0 h,  0 min,  8.281 sec
 * ratio c/w:     0.186 speedup
 SCF:
 * wall-time:     0 d,  0 h,  0 min,  0.260 sec
 *  cpu-time:     0 d,  0 h,  0 min,  0.094 sec
 * ratio c/w:     0.361 speedup
 ANC optimizer:
 * wall-time:     0 d,  0 h,  0 min, 44.321 sec
 *  cpu-time:     0 d,  0 h,  0 min,  8.188 sec
 * ratio c/w:     0.185 speedup


normal termination of xtb
Note: The following floating-point exceptions are signalling: IEEE_DIVIDE_BY_ZERO IEEE_UNDERFLOW_FLAG IEEE_DENORMAL
