75
 energy: -93.782013784370 gnorm: 0.000090948168 xtb: 6.7.1 (edcfbbe)
Ru          -0.04122170564712        0.07512586419470        0.29207159413168
N           -0.22302468409775       -2.13752583198937        0.40792047586593
C            0.99310065794330       -2.90146033929528        0.21057538754380
C            2.06077569322276       -2.18901838833996       -0.62968122283724
P            2.17649403587083       -0.39954139845287       -0.15770896458803
C            3.14002005416384        0.32728317786429       -1.59442752879252
C            4.20122037801135       -0.60516507623290       -2.17638938563507
C            2.20534427093286        0.81811024226833       -2.69418082787386
C            3.52747330260198       -0.30190921490904        1.13934579146335
C            3.30095362323253       -1.26618368544288        2.29781837531890
C            3.57983409539015        1.13229766942440        1.66215407058790
C           -0.47859959006229       -1.71672093670698        1.61689209321318
C           -1.91146319758060       -1.39816093968372        2.02467087105201
P           -2.25772476057038        0.07397540001832        0.96596516726770
C           -3.04273346164892        1.36533423397987        2.05985902114940
C           -3.30581412131569        2.57765044123575        1.16660393674337
C           -2.12302257809168        1.76202768730616        3.20860052092204
C           -3.67395301700815       -0.47474336452029       -0.13907139723674
C           -5.04251892579257       -0.49701912802082        0.54015036429880
C           -3.37139252885114       -1.85386093350367       -0.73455589352928
H            1.42381671447744       -3.19214400588537        1.18366148558803
H            0.69316626836836       -3.81737270255753       -0.31684426554523
H            3.02170933815441       -2.70364258773589       -0.54343671379936
H            1.74968682296551       -2.19916887063091       -1.68006217243402
H            3.63890244112994        1.20644498974327       -1.16692341556717
H            4.82358670898867       -0.04726077867995       -2.87496337713791
H            3.73973261453858       -1.42330242070047       -2.72412625074399
H            4.84996718781346       -1.02012724257525       -1.40808578878110
H            2.76670744741234        1.36889477472760       -3.44807500114612
H            1.71412357514292       -0.01752205929812       -3.18965828185427
H            1.44376810576929        1.47699392426746       -2.27333317879913
H            4.47824077748710       -0.54960523189009        0.65030086537679
H            4.06528157695166       -1.11689157394464        3.06029409685947
H            3.34978330603820       -2.30369805855378        1.97162281248348
H            2.32955938292886       -1.07548574555049        2.75256497235094
H            2.60569694457636        1.40814482568059        2.06482113199859
H            4.32649660180012        1.22305918648210        2.44989058991685
H            3.82749981471779        1.84004849906626        0.87369800476003
H            0.31331856763269        0.47935801358103        1.75928961563993
H            0.17926347521272       -2.02153775907619        2.45046549027081
H           -1.95325427438761       -1.13716613117159        3.08422541303644
H           -2.56903915255081       -2.25156540958765        1.83685532310311
H           -3.97878105324090        0.96750133734144        2.46849534560172
H           -4.02516237025423        2.35380409603290        0.38071770208588
H           -3.68643477308819        3.41249233608138        1.75314566261373
H           -2.36785068102569        2.88008269333150        0.69624470054937
H           -2.57015546406218        2.57871951278380        3.77385191978869
H           -1.94835620637807        0.93431086103529        3.89337857662294
H           -1.16385402243253        2.09428598119829        2.81396481117708
H           -3.68273976580842        0.26327302082948       -0.95315722639088
H           -5.00664110968308       -1.08096442138834        1.45915527104494
H           -5.40437360458323        0.50142405026272        0.77136515545155
H           -5.76410943161614       -0.96461122397392       -0.12921949082510
H           -2.30020708818487       -2.02628452463120       -0.83253042321667
H           -3.77557198594319       -2.64206323711061       -0.10144431849296
H           -3.82767829709262       -1.95184348506924       -1.71834509065180
C           -0.50122864936768       -0.23218829559944       -1.45651399023565
O           -0.83904644755325       -0.53060285605453       -2.52632554734587
H            0.09868024934442        1.59530547644674        0.01731039640489
O           -0.49713496733345       -3.47624885199332       -2.74497772298753
C           -0.38036485293131       -3.65607462340150       -4.14288973467559
C            0.75942550022154       -2.85499764570613       -4.72309706019319
C            2.06811204173913       -3.30186074311018       -4.58246180743202
C            3.12170179987157       -2.55775503565844       -5.08417974675544
C            2.87778870074095       -1.35373239740746       -5.72502245809401
C            1.57800266335643       -0.89574691869204       -5.85753583053390
C            0.52403265823843       -1.64182669329801       -5.35694272949782
H           -0.63766166373111       -2.53194755657791       -2.58410787336641
H           -1.32322796178677       -3.38410093097275       -4.63994716711928
H           -0.20668487573307       -4.72703547792479       -4.28542919179546
H            2.25496414180351       -4.23974938565652       -4.07791609698074
H            4.13486023263300       -2.91907350284204       -4.97816768792113
H            3.69982689449796       -0.77305500634143       -6.11720689304281
H            1.38247687111183        0.04632225807812       -6.34894873655288
H           -0.48924561221052       -1.27915052138841       -5.45947177070700
