51
Properties=species:S:1:pos:R:3 energy:=T -86.367639749813=T gnorm:=T 0.000049208387=T xtb:=T 6.7.1=T (edcfbbe)=T pbc="F F F"
Mn       0.06317931      -0.29570879      -0.12696362
C        2.36256672      -2.43955285       0.00386394
P        2.25733542      -0.61756162      -0.41405456
C        3.00458402      -0.57927784      -2.06938015
C        2.54874894      -1.49279353      -3.01952720
C        3.05661862      -1.46167457      -4.30426799
C        4.01028300      -0.51520678      -4.65009576
C        4.45133993       0.40388438      -3.71188326
C        3.94766079       0.38029804      -2.42243019
C        3.50680984       0.15876231       0.63950903
C        4.76254122      -0.39984559       0.86210756
C        5.67014498       0.27080492       1.66213795
C        5.33550343       1.49292120       2.22742498
C        4.09015340       2.05625790       1.99434908
C        3.17529217       1.38892650       1.20033105
C        1.02796066      -3.09186911      -0.22562545
C        0.87754445      -4.46221895      -0.37651900
C       -0.39729008      -5.00387252      -0.49385200
C       -1.49813746      -4.16786072      -0.42812078
C       -1.29732590      -2.79916711      -0.28889701
C       -2.32928542      -1.77653327      -0.16667082
C       -3.71776789      -1.88885395      -0.15382384
C       -4.47440616      -0.73705740       0.00067144
C       -3.86713298       0.51204171       0.13440146
C       -2.48634751       0.54209295       0.10737293
O       -1.63837900       1.59736770       0.19530779
N       -1.76649680      -0.56328907      -0.03196434
N       -0.03986473      -2.27509339      -0.22550050
H        2.59304917      -2.48962377       1.07763177
H        3.16304794      -2.93857961      -0.55089404
H        1.79290698      -2.22013999      -2.74586563
H        2.70839942      -2.17177053      -5.03977440
H        4.40546331      -0.49161297      -5.65470704
H        5.18797883       1.14466067      -3.98561140
H        4.28610060       1.10095507      -1.69094590
H        5.02484772      -1.34538812       0.40944397
H        6.64439189      -0.15763331       1.84514598
H        6.05025772       2.00964301       2.85051057
H        3.83705218       3.01069314       2.43185243
H        2.19051824       1.80727652       0.99797356
H        1.74834086      -5.09896092      -0.39154932
H       -0.52607947      -6.06782117      -0.61675096
H       -2.49949731      -4.56308409      -0.48448637
H       -4.19597488      -2.84820368      -0.26072627
H       -5.55109247      -0.80152375       0.01578650
H       -4.45246338       1.41063061       0.25057859
H       -2.08771097       2.44766502       0.29547771
C       -0.03035571       0.09358724      -1.88176775
O       -0.06999805       0.43942752      -2.96844344
C        0.34861403      -0.25690446       1.64462072
O        0.54530896      -0.15924384       2.76592996
