43

O       0.144838324903030     -2.212909489483920     -0.645906635798000
C       0.305879572352290     -0.820443568800780     -0.471256909636050
N      -0.389710896291190     -0.364858044834040      0.702525838842420
C      -1.725486761885120     -0.017699189705550      0.705366402987440
C      -2.622823717097310     -0.506900540511290     -0.245194427800880
C      -3.959458307395230     -0.159364238612430     -0.181674947674380
C      -4.429916686037960      0.665071638766870      0.826336882589770
C      -3.544822855070060      1.143522035474260      1.780625192245360
C      -2.206975389380690      0.811531457774220      1.722494797107890
C       1.760638672259100     -0.393684464607090     -0.383257402896590
C       2.797888242446420     -1.314235664014950     -0.395477068749850
C       4.111716633698430     -0.889072581520570     -0.282999277306620
C       4.399369633466000      0.458941254587650     -0.159966166103150
C       3.367281589641690      1.384844420499130     -0.162225732664910
C       2.055131288548740      0.961817660186880     -0.276146783890960
H       0.284973758713250     -2.638495665463570      0.209267311461410
H      -0.133180260140670     -0.383833383225870     -1.384305708180670
H       0.171823110020660      0.105087392655800      1.404754907286040
H      -2.275639450378310     -1.169802708559480     -1.023423066376530
H      -4.642367272848410     -0.543638953863930     -0.926901593766660
H      -5.476268248439970      0.930126597918660      0.870858622242890
H      -3.901677406883720      1.786964966392400      2.573029792137000
H      -1.512900234535570      1.191207352243860      2.458703404649460
H       2.578409251616920     -2.366042903680380     -0.505542492973060
H       4.911453882874610     -1.615273380353320     -0.290716579967900
H       5.423862126378110      0.789820901876110     -0.069510615369830
H       3.586693642396230      2.439933808794710     -0.079008753910760
H       1.249662447332450      1.682757774262030     -0.280622796009240
C       0.442927957940960     -0.502724450094000      4.440483786047230
C       1.719966034593630      0.054416303551470      3.809617819546800
C       2.555290952744660      0.802610231358890      4.854214195338410
C       2.546650089675640     -1.074654704067700      3.183672815622760
O       1.296674821282900      0.965066858166320      2.794453658334230
H       0.689308938104480     -1.213843673616000      5.223515048334030
H      -0.161502271928250     -0.998698560954650      3.684885676550370
H      -0.141666304012670      0.307932001132520      4.868266929632950
H       3.470109649481110      1.187769389497220      4.405323948874140
H       1.986440064154160      1.638982412028630      5.254985610847690
H       2.823330617812690      0.138149756887540      5.670846690126800
H       3.431475064532590     -0.673949101304100      2.690388087661680
H       1.954463339759840     -1.604853507256480      2.441558164117980
H       2.862101004311740     -1.778047561025460      3.949242409295090
H       2.078014444781680      1.363935868429820      2.392602950247860
