53
 energy: -70.000447381534 gnorm: 0.000141606614 xtb: 6.7.1 (edcfbbe)
Co           0.15022633898639       -0.29083893673371       -0.25800624971087
C            2.22396816884472       -2.46876342047083        0.25390063332140
P            2.28201483459087       -0.78315848015057       -0.23240511343852
C            3.39624436257596        0.12798678354126        0.96027480820909
C            4.77223575404286       -0.51541008268522        1.09474003049134
C            2.67297293025426        0.16508138754134        2.30328594416312
C            3.22246404822244       -0.72743125915001       -1.84801292310969
C            3.58866394185794        0.68731473185001       -2.28088359100217
C            2.33350541174588       -1.40637158400736       -2.88594951332346
C            0.94186525300305       -2.96875410328873        0.32492071178349
C            0.64923661850376       -4.31989078681377        0.68930133553363
C           -0.63736904152874       -4.75292145814914        0.75711556657767
C           -1.68178133126857       -3.86307595803285        0.44879973646204
C           -1.35583129238186       -2.57393556565734        0.09053475597816
C           -2.42100306012663       -1.60031106565453       -0.33457288475306
N           -1.95261966796785       -0.20596700578236       -0.23782670875465
C           -2.35895649634942        0.36861907591690        1.05494154005660
C           -1.62628523719938       -0.26837416067095        2.22832785071470
C           -2.52933078687253        0.59190966336162       -1.33307500108407
C           -1.89491295575400        0.25439837378591       -2.67840008832422
N           -0.10261403309933       -2.11619095591064        0.03293530681855
H            3.09600830436094       -3.08213631233242        0.41868029100591
H            3.50352553443870        1.15388271609879        0.58946832265690
H            5.31140081182195       -0.50635542435475        0.14993475070577
H            4.67596761940812       -1.54561036733819        1.43142226807105
H            5.36715480986269        0.02699995964062        1.82955231640079
H            2.47677840038589       -0.84987815256193        2.64888173785996
H            3.26963175998271        0.68050465462587        3.05487316026390
H            1.72037578632419        0.68548818838557        2.19813255399672
H            4.13206664993516       -1.32764420165077       -1.71282629724640
H            2.70077216852459        1.31724031538716       -2.29659957621251
H            4.31765692991379        1.13428035916449       -1.60851195053355
H            4.01686282711797        0.67350178292671       -3.28308290143177
H            2.83595853932902       -1.47390289455553       -3.85012788792305
H            1.41235816658159       -0.83544223779338       -3.00990888570450
H            2.07093522362025       -2.41158839091135       -2.55711831969099
H            1.47833158412879       -4.97585021239402        0.91159565863417
H           -0.86657007060736       -5.77165764913256        1.03976390144010
H           -2.71201336989272       -4.18157816051813        0.48031124650525
H           -2.66058633275991       -1.82471717406659       -1.37749984630348
H           -3.33930254839541       -1.74723217135202        0.25017298476894
H           -2.12246331855490        1.43590249427263        1.03698477938521
H           -3.44719421131268        0.26306199100064        1.18745768207003
H           -0.54776234432516       -0.24894805264306        2.03304652864844
H           -1.93142592043769       -1.30071842514942        2.38251312342013
H           -1.82827201873774        0.29247631396937        3.13804913121328
H           -2.33449279902594        1.64470717428209       -1.11545033318187
H           -3.61907513310376        0.44917772627947       -1.37317047860866
H           -0.81474030080410        0.14021369513467       -2.53532894800957
H           -2.28758927286383       -0.66480066289402       -3.10655269619481
H           -2.07166547225046        1.05972955444337       -3.38661793797897
C            0.43685624345761        1.40019996627946       -0.42101583248699
O            0.69698635441192        2.52804493381124       -0.48060617120022
