60
 energy: -71.530007360207 gnorm: 0.000215740235 xtb: 6.7.1 (edcfbbe)
Co           0.26396198866917       -0.63850943672611       -1.01934120020890
N            0.13558331271141       -2.43621698026652        0.01885263042801
C            0.50545464462268       -2.29914498650483        1.43066722063741
C            1.89462884277359       -1.68770408092204        1.56818453051442
P            1.97184026011040       -0.26096893897427        0.36660701956530
C            3.63679798086244       -0.58404095903636       -0.43376101008864
C            4.04323803804734        0.62112037543099       -1.27688869180727
C            3.55244939254277       -1.81900225529549       -1.32653500071345
C            2.38196242226629        1.21818131827411        1.44237319948406
C            1.14718002152512        1.56226842332112        2.26931800114363
C            3.62149370247928        1.10037167780691        2.32493336161100
C           -1.17996280376062       -3.06246341581290       -0.14738475806064
C           -2.29085175582532       -2.15201092659857        0.37092537563919
P           -1.95144823287857       -0.36880575591617       -0.08762034669530
C           -2.98411062700075        0.40748001816888        1.30624979050428
C           -3.13488748470810        1.91001516645255        1.07729612140450
C           -2.37988154790009        0.17852746101562        2.69025624588340
C           -3.19880091114752       -0.08542295409830       -1.47857938176044
C           -3.35211390926330       -1.26511871632809       -2.43469537379819
C           -2.75906078833701        1.13575942288501       -2.28499351113006
H            0.82731621634168       -3.04614442675802       -0.41912623606026
H            0.45336070618427       -3.27382709582135        1.94187935088665
H           -0.21398203208455       -1.62279145155439        1.89915925204949
H            2.05363431357463       -1.35845776159943        2.59591078381379
H            2.66809801356544       -2.41783223971427        1.31946082328898
H            4.37617305823842       -0.76345229121626        0.35679820469494
H            3.23263132753845        0.87349798426017       -1.96033480435484
H            4.92995936896844        0.38999143376741       -1.86624284702817
H            4.26394367195526        1.49136063646346       -0.66334862772972
H            4.48923004556089       -1.96109163029549       -1.86402688286264
H            2.75316389361737       -1.68486831107735       -2.05693776527747
H            3.35748112801638       -2.72563887810726       -0.75538246564405
H            2.53027415459783        2.03174366677338        0.72042395623275
H            0.97136895242214        0.80804706202015        3.03605487617639
H            1.26690395787173        2.52589248158379        2.76288013511832
H            0.27853598152008        1.61545550264632        1.61248257623482
H            3.55609005435109        0.24497053077368        2.99441292798461
H            4.52957970011371        1.00881461986878        1.73498098461883
H            3.71178991496106        1.99696597944704        2.93787017288219
H           -1.21733032199063       -4.02835033268128        0.38339597928812
H           -1.32846384352486       -3.25410232566648       -1.21272869911455
H           -2.34155296686606       -2.22232009885212        1.45764594815965
H           -3.25696904336679       -2.47365173856802       -0.01724845992261
H           -3.97421444770155       -0.06619538527082        1.27496076444626
H           -3.75825154649927        2.12308344861977        0.21322304326835
H           -3.59727073749101        2.37971575071268        1.94534741503342
H           -2.15842301272239        2.36868079174584        0.92276797001094
H           -2.34820637610497       -0.87412880928779        2.96418893171708
H           -2.98407869106128        0.68832318434010        3.44060219861460
H           -1.37336056824600        0.58474672875736        2.73940517955972
H           -4.17246847250024        0.11330839356786       -1.01208259467286
H           -3.83521412345759       -2.12278734752506       -1.97246503067491
H           -2.38118939345126       -1.56939132780824       -2.81802538920782
H           -3.96459834994109       -0.96175302973210       -3.28338471152576
H           -1.84399117266263        0.89860542021170       -2.82441804526623
H           -3.52716154182362        1.41692723885653       -3.00496749950948
H           -2.55006001166688        1.99037393362338       -1.64696865494880
C            0.12283694607873       -1.31072029162580       -2.60960687563100
O            0.15675953172357       -1.67548899165948       -3.71695571838555
H            0.43379951238631        0.62779731654832       -1.70631472969106
