56
Properties=species:S:1:pos:R:3:forces:R:3 energy:=T -80.984971223840=T gnorm:=T 0.000404422524=T xtb:=T 6.7.1=T (edcfbbe)=T energy=-2203.71331413504 pbc="F F F"
Co       0.06119223      -0.05658051       0.38770197       0.00317669       0.00236492       0.01081039
C        1.87521293      -1.85901538       2.09339728      -0.00025707      -0.00040567       0.00008968
P        2.03183976      -0.19489708       1.29390770       0.00068478      -0.00093534       0.00002717
C        3.22621427      -0.54870191      -0.02178821       0.00110687       0.00010790       0.00040839
C        2.78433256      -0.44106372      -1.33646575       0.00046743      -0.00017970      -0.00003472
C        3.63333771      -0.75853467      -2.38134759       0.00007511      -0.00051490       0.00043013
C        4.92526068      -1.18290207      -2.11249946      -0.00070680      -0.00103951       0.00022377
C        5.36942995      -1.28862258      -0.80239395      -0.00062370      -0.00064586      -0.00031092
C        4.52457152      -0.97425425       0.24644266      -0.00029083       0.00183071       0.00027920
C        2.89155836       0.85631921       2.49046646      -0.00028860       0.00006523       0.00193691
C        2.45025740       0.89744669       3.81187424       0.00179078      -0.00100655       0.00082138
C        3.06412239       1.74043059       4.71949087       0.00109968      -0.00099269      -0.00046044
C        4.10649593       2.55902236       4.31234654      -0.00186744       0.00056945      -0.00079847
C        4.52640346       2.54415143       2.99148557      -0.00208126       0.00102134      -0.00049932
C        3.91739739       1.70338367       2.07738965      -0.00021584       0.00081288       0.00040610
C        1.06995148      -2.63957871       1.10659457       0.00016059      -0.00072586      -0.00022502
C        1.19310084      -4.01001236       0.93715866      -0.00049523       0.00049230      -0.00100295
C        0.41914531      -4.64626203      -0.02095139      -0.00089942       0.00074220      -0.00007220
C       -0.46018334      -3.89400414      -0.78457236       0.00061073      -0.00089160      -0.00019998
C       -0.52995777      -2.52789324      -0.56717196       0.00059187       0.00019659       0.00018634
C       -1.42335129      -1.60558186      -1.33761131       0.00022463       0.00005319       0.00034672
N       -1.76484311      -0.43795171      -0.50082996      -0.00175381       0.00190326      -0.00082966
C       -2.66749040      -0.87328105       0.59577241       0.00039667      -0.00075466       0.00080657
C       -2.36632556      -0.16447587       1.91285109      -0.00083324       0.00018456       0.00009995
C       -2.42053217       0.55435626      -1.38146688      -0.00046731      -0.00041215       0.00052126
C       -2.96715264       1.79061930      -0.68376337       0.00063002       0.00013710      -0.00022999
N        0.22157658      -1.92122139       0.35761313      -0.00129957      -0.00359192      -0.00490405
H        1.32362520      -1.75316102       3.03329093      -0.00079399      -0.00033674      -0.00001744
H        2.84254529      -2.32208704       2.30552464      -0.00057650       0.00025076       0.00037094
H        1.76763053      -0.09608228      -1.52206758      -0.00030082      -0.00025065       0.00041215
H        3.29428315      -0.67357810      -3.40316944      -0.00008568      -0.00010354       0.00033282
H        5.59112758      -1.42992426      -2.92593168      -0.00033022       0.00088146       0.00039245
H        6.37820873      -1.61700704      -0.60004351      -0.00003241       0.00069613       0.00003180
H        4.87129039      -1.04695145       1.26871229      -0.00013865      -0.00026340       0.00008813
H        1.62456972       0.27584651       4.12959882       0.00046454       0.00029035       0.00058081
H        2.72739619       1.76445049       5.74530526       0.00068877      -0.00022343      -0.00012077
H        4.58495338       3.21640549       5.02278048       0.00073136      -0.00063545       0.00015173
H        5.32815440       3.19312861       2.67160591      -0.00048286      -0.00036578      -0.00014167
H        4.23836336       1.70092231       1.04479563      -0.00131184       0.00021504       0.00028500
H        1.88592715      -4.56657354       1.54824351      -0.00026754      -0.00045742      -0.00085348
H        0.49977681      -5.71183698      -0.16927376       0.00007269       0.00033738      -0.00027501
H       -1.07731027      -4.35466045      -1.53958559       0.00045427       0.00058965       0.00122696
H       -0.88049298      -1.25566863      -2.22377972       0.00019987       0.00018324       0.00009720
H       -2.32771061      -2.12642177      -1.68133430       0.00051093       0.00036129      -0.00043423
H       -2.52977748      -1.94663133       0.75180844       0.00041611       0.00001984       0.00026031
H       -3.71054125      -0.71572040       0.30459572       0.00060061       0.00001767       0.00018682
H       -2.90856505      -0.65147632       2.72063629       0.00035684      -0.00005444      -0.00048780
H       -1.28793424      -0.22599015       2.13347259       0.00069035      -0.00021895      -0.00041982
H       -2.65544089       0.88125625       1.88940598       0.00014346       0.00056479      -0.00052529
H       -3.24742538       0.06074976      -1.91198389      -0.00034039       0.00010479      -0.00002290
H       -1.68085511       0.87066867      -2.12167249      -0.00068446       0.00031857      -0.00030380
H       -3.28951692       2.49993528      -1.44276560      -0.00054791      -0.00069742       0.00019711
H       -3.82585931       1.56212000      -0.05881698       0.00130383      -0.00015304       0.00026312
H       -2.20445267       2.26939533      -0.07636389       0.00088103       0.00058260      -0.00085728
C        0.15983697       1.67904107       0.29094712      -0.00326575      -0.00018721      -0.01256655
O        0.44207270       2.78685988       0.24665050       0.00270865       0.00014869       0.00432245
