56
Properties=species:S:1:pos:R:3 energy:=T -80.984971223840=T gnorm:=T 0.000404422524=T xtb:=T 6.7.1=T (edcfbbe)=T pbc="F F F"
Co       0.06119223      -0.05658051       0.38770197
C        1.87521293      -1.85901538       2.09339728
P        2.03183976      -0.19489708       1.29390770
C        3.22621427      -0.54870191      -0.02178821
C        2.78433256      -0.44106372      -1.33646575
C        3.63333771      -0.75853467      -2.38134759
C        4.92526068      -1.18290207      -2.11249946
C        5.36942995      -1.28862258      -0.80239395
C        4.52457152      -0.97425425       0.24644266
C        2.89155836       0.85631921       2.49046646
C        2.45025740       0.89744669       3.81187424
C        3.06412239       1.74043059       4.71949087
C        4.10649593       2.55902236       4.31234654
C        4.52640346       2.54415143       2.99148557
C        3.91739739       1.70338367       2.07738965
C        1.06995148      -2.63957871       1.10659457
C        1.19310084      -4.01001236       0.93715866
C        0.41914531      -4.64626203      -0.02095139
C       -0.46018334      -3.89400414      -0.78457236
C       -0.52995777      -2.52789324      -0.56717196
C       -1.42335129      -1.60558186      -1.33761131
N       -1.76484311      -0.43795171      -0.50082996
C       -2.66749040      -0.87328105       0.59577241
C       -2.36632556      -0.16447587       1.91285109
C       -2.42053217       0.55435626      -1.38146688
C       -2.96715264       1.79061930      -0.68376337
N        0.22157658      -1.92122139       0.35761313
H        1.32362520      -1.75316102       3.03329093
H        2.84254529      -2.32208704       2.30552464
H        1.76763053      -0.09608228      -1.52206758
H        3.29428315      -0.67357810      -3.40316944
H        5.59112758      -1.42992426      -2.92593168
H        6.37820873      -1.61700704      -0.60004351
H        4.87129039      -1.04695145       1.26871229
H        1.62456972       0.27584651       4.12959882
H        2.72739619       1.76445049       5.74530526
H        4.58495338       3.21640549       5.02278048
H        5.32815440       3.19312861       2.67160591
H        4.23836336       1.70092231       1.04479563
H        1.88592715      -4.56657354       1.54824351
H        0.49977681      -5.71183698      -0.16927376
H       -1.07731027      -4.35466045      -1.53958559
H       -0.88049298      -1.25566863      -2.22377972
H       -2.32771061      -2.12642177      -1.68133430
H       -2.52977748      -1.94663133       0.75180844
H       -3.71054125      -0.71572040       0.30459572
H       -2.90856505      -0.65147632       2.72063629
H       -1.28793424      -0.22599015       2.13347259
H       -2.65544089       0.88125625       1.88940598
H       -3.24742538       0.06074976      -1.91198389
H       -1.68085511       0.87066867      -2.12167249
H       -3.28951692       2.49993528      -1.44276560
H       -3.82585931       1.56212000      -0.05881698
H       -2.20445267       2.26939533      -0.07636389
C        0.15983697       1.67904107       0.29094712
O        0.44207270       2.78685988       0.24665050
