48
Properties=species:S:1:pos:R:3:forces:R:3 energy:=T -80.801236343270=T gnorm:=T 0.000109797956=T xtb:=T 6.7.1=T (edcfbbe)=T energy=-2198.7136333253816 pbc="F F F"
Co       0.07751079      -0.44579155      -0.22554109      -0.00041750       0.00002465      -0.00017895
C        2.42047524      -2.40007878       0.21756969       0.00012484      -0.00012968       0.00023600
P        2.22570524      -0.62854218      -0.34766294       0.00003529       0.00026117      -0.00017588
C        2.90088335      -0.70441448      -2.03872328      -0.00010333      -0.00008556      -0.00004404
C        2.60407217      -1.77710720      -2.87502032      -0.00005668       0.00008245       0.00001758
C        3.07294330      -1.79569339      -4.17642660       0.00022542      -0.00021959       0.00007088
C        3.82898395      -0.73954937      -4.65877169       0.00033213      -0.00039341       0.00016480
C        4.10405991       0.34367432      -3.83919351      -0.00011368      -0.00007665      -0.00006056
C        3.63726148       0.36659945      -2.53749996      -0.00027459       0.00013366      -0.00001075
C        3.58809623       0.17945003       0.55233690      -0.00033062       0.00003840       0.00004774
C        4.89575053      -0.29384621       0.47366486       0.00015563       0.00012122       0.00007591
C        5.90055143       0.33595634       1.18379399      -0.00013224      -0.00000488       0.00024178
C        5.60894272       1.43971945       1.97185783      -0.00024300      -0.00025661       0.00038769
C        4.31071426       1.91649219       2.04726652       0.00001258       0.00018339      -0.00034168
C        3.29963260       1.28787127       1.33958744       0.00017329       0.00019739      -0.00033430
C        1.11394615      -3.10283235       0.00195970       0.00022665      -0.00016019      -0.00005311
C        1.00656449      -4.48635348      -0.03114472       0.00014988       0.00017725       0.00011354
C       -0.24519997      -5.06841617      -0.19360023      -0.00007368       0.00006678       0.00029691
C       -1.35890579      -4.25475445      -0.31251892       0.00002853      -0.00011149      -0.00016205
C       -1.18785280      -2.87547935      -0.28243282      -0.00002250       0.00018543      -0.00001856
C       -2.22994324      -1.86530047      -0.39603298      -0.00011318      -0.00039669       0.00010211
C       -3.60151797      -2.02925929      -0.54826216      -0.00025606       0.00030629       0.00005059
C       -4.39605899      -0.89421343      -0.63421712      -0.00017811      -0.00050944      -0.00016802
C       -3.82934509       0.37199124      -0.58072349       0.00045348       0.00047514      -0.00019753
C       -2.44714839       0.46848634      -0.43313768      -0.00114055      -0.00129551      -0.00030413
O       -1.78091456       1.61230461      -0.37961382       0.00290383       0.00045702       0.00026259
N       -1.69373412      -0.62987755      -0.33294263       0.00116745       0.00055274       0.00037694
N        0.04123454      -2.31976885      -0.13914973      -0.00030386      -0.00004491       0.00049377
H        2.62798992      -2.35973966       1.29319590      -0.00001385       0.00017472       0.00020531
H        3.24869692      -2.91965346      -0.27080266       0.00010170      -0.00000129       0.00003581
H        2.00087206      -2.59794791      -2.51065208       0.00006705      -0.00009863       0.00011151
H        2.84514295      -2.63500218      -4.81808954       0.00008893       0.00000447       0.00015448
H        4.19593379      -0.75660579      -5.67465406      -0.00003412      -0.00006583       0.00002265
H        4.68171995       1.17496055      -4.21702380      -0.00002923      -0.00003089      -0.00006138
H        3.84023681       1.21616558      -1.89988722      -0.00007777      -0.00013432      -0.00007301
H        5.12378786      -1.14600046      -0.15214053      -0.00006590       0.00002322      -0.00019529
H        6.91535256      -0.03036438       1.12208780       0.00017376      -0.00002553      -0.00018512
H        6.39769454       1.93037052       2.52369344       0.00010987      -0.00003540      -0.00010835
H        4.08515145       2.78065280       2.65522806       0.00003190       0.00007345       0.00012964
H        2.28366796       1.65624754       1.37519017      -0.00017315       0.00007411       0.00001509
H        1.88947098      -5.09817498       0.07315716       0.00003851       0.00006600      -0.00001520
H       -0.34630323      -6.14260678      -0.22158585       0.00008497       0.00007874      -0.00011378
H       -2.34366746      -4.67693803      -0.43185507       0.00018946      -0.00001921       0.00008840
H       -4.03935729      -3.01275317      -0.59902016       0.00012226      -0.00019354       0.00007791
H       -5.46484763      -0.99265521      -0.74816889       0.00000620      -0.00004373      -0.00020107
H       -4.42434029       1.26713173      -0.65189237      -0.00002893      -0.00003650      -0.00031705
C       -0.30787373       1.38487286      -0.24793078      -0.00366464       0.00020522      -0.00039175
O        0.30650719       2.41488313      -0.14419693       0.00084359       0.00040658      -0.00006804
