48
Properties=species:S:1:pos:R:3 energy:=T -80.801236343270=T gnorm:=T 0.000109797956=T xtb:=T 6.7.1=T (edcfbbe)=T pbc="F F F"
Co       0.07751079      -0.44579155      -0.22554109
C        2.42047524      -2.40007878       0.21756969
P        2.22570524      -0.62854218      -0.34766294
C        2.90088335      -0.70441448      -2.03872328
C        2.60407217      -1.77710720      -2.87502032
C        3.07294330      -1.79569339      -4.17642660
C        3.82898395      -0.73954937      -4.65877169
C        4.10405991       0.34367432      -3.83919351
C        3.63726148       0.36659945      -2.53749996
C        3.58809623       0.17945003       0.55233690
C        4.89575053      -0.29384621       0.47366486
C        5.90055143       0.33595634       1.18379399
C        5.60894272       1.43971945       1.97185783
C        4.31071426       1.91649219       2.04726652
C        3.29963260       1.28787127       1.33958744
C        1.11394615      -3.10283235       0.00195970
C        1.00656449      -4.48635348      -0.03114472
C       -0.24519997      -5.06841617      -0.19360023
C       -1.35890579      -4.25475445      -0.31251892
C       -1.18785280      -2.87547935      -0.28243282
C       -2.22994324      -1.86530047      -0.39603298
C       -3.60151797      -2.02925929      -0.54826216
C       -4.39605899      -0.89421343      -0.63421712
C       -3.82934509       0.37199124      -0.58072349
C       -2.44714839       0.46848634      -0.43313768
O       -1.78091456       1.61230461      -0.37961382
N       -1.69373412      -0.62987755      -0.33294263
N        0.04123454      -2.31976885      -0.13914973
H        2.62798992      -2.35973966       1.29319590
H        3.24869692      -2.91965346      -0.27080266
H        2.00087206      -2.59794791      -2.51065208
H        2.84514295      -2.63500218      -4.81808954
H        4.19593379      -0.75660579      -5.67465406
H        4.68171995       1.17496055      -4.21702380
H        3.84023681       1.21616558      -1.89988722
H        5.12378786      -1.14600046      -0.15214053
H        6.91535256      -0.03036438       1.12208780
H        6.39769454       1.93037052       2.52369344
H        4.08515145       2.78065280       2.65522806
H        2.28366796       1.65624754       1.37519017
H        1.88947098      -5.09817498       0.07315716
H       -0.34630323      -6.14260678      -0.22158585
H       -2.34366746      -4.67693803      -0.43185507
H       -4.03935729      -3.01275317      -0.59902016
H       -5.46484763      -0.99265521      -0.74816889
H       -4.42434029       1.26713173      -0.65189237
C       -0.30787373       1.38487286      -0.24793078
O        0.30650719       2.41488313      -0.14419693
