49
Properties=species:S:1:pos:R:3:forces:R:3 energy:=T -80.784231121769=T gnorm:=T 0.000049964509=T xtb:=T 6.7.1=T (edcfbbe)=T energy=-2198.250897727097 pbc="F F F"
Fe       0.09419979      -0.34943861      -0.31874365       0.00032974       0.00003890       0.00020877
C        2.36378965      -2.42271892      -0.16870370      -0.00000077       0.00010826      -0.00017989
P        2.22594124      -0.58533999      -0.52383057      -0.00020994       0.00016565       0.00008837
C        3.05138217      -0.49054809      -2.15211424       0.00008300      -0.00008853       0.00006842
C        2.69832043      -1.40683930      -3.14014385       0.00010201      -0.00003314       0.00008365
C        3.23895731      -1.30733551      -4.40849595       0.00006969       0.00007290      -0.00008810
C        4.12593085      -0.28425680      -4.70605816       0.00005904       0.00001354       0.00006426
C        4.46255817       0.64418073      -3.73452580       0.00000635       0.00006838      -0.00000749
C        3.92302486       0.54790549      -2.46378080      -0.00004080       0.00001939       0.00001859
C        3.50377795       0.08665579       0.58611287      -0.00006109       0.00010684      -0.00011845
C        4.81636877      -0.37990688       0.58411883       0.00004847       0.00009503      -0.00009524
C        5.73941984       0.16958643       1.45463674      -0.00001773       0.00002222       0.00002159
C        5.36089567       1.18422909       2.32190939      -0.00008657       0.00002626       0.00012421
C        4.05664786       1.65245571       2.32172837      -0.00007998      -0.00000869      -0.00002151
C        3.12685692       1.10468591       1.45424007       0.00009061       0.00019548      -0.00027387
C        1.02447956      -3.08447889      -0.32774756       0.00018315      -0.00016185      -0.00002555
C        0.87776236      -4.46121983      -0.39302546      -0.00007446      -0.00003085      -0.00007680
C       -0.39801581      -5.01482570      -0.40732628       0.00012168      -0.00001517       0.00002381
C       -1.49552878      -4.17955307      -0.30471673      -0.00006445      -0.00000228       0.00023820
C       -1.29750652      -2.80467750      -0.25180183      -0.00006300      -0.00016444       0.00003191
C       -2.30800204      -1.76764182      -0.08053726       0.00006426      -0.00007016       0.00006417
C       -3.69049215      -1.79410407       0.07859729      -0.00007697      -0.00000673       0.00008726
C       -4.33500470      -0.56964381       0.26534099      -0.00002406      -0.00017227       0.00009832
C       -3.66073981       0.63863661       0.29216857       0.00004229       0.00002537       0.00001964
C       -2.25842506       0.62361206       0.11792304      -0.00021622      -0.00011961       0.00002432
O       -1.37856206       1.54094970       0.07089161      -0.00026423       0.00026883      -0.00007808
N       -1.69124209      -0.58832338      -0.05314030       0.00008259      -0.00017828       0.00025082
N       -0.04154252      -2.27191399      -0.32306278      -0.00006937      -0.00014115       0.00008871
H        2.63719411      -2.48835706       0.89266390       0.00005994      -0.00006512      -0.00015523
H        3.14329178      -2.91397250      -0.75871059       0.00006682      -0.00002600      -0.00017320
H        1.98885530      -2.19330471      -2.91202258      -0.00000219      -0.00002845      -0.00006721
H        2.96452700      -2.02380317      -5.16962626       0.00022542      -0.00001441      -0.00006987
H        4.54671746      -0.20604923      -5.69803305       0.00015117      -0.00013209       0.00005264
H        5.14373104       1.44959235      -3.96930987      -0.00003219       0.00014056       0.00005566
H        4.17682934       1.27909384      -1.70764909      -0.00020172       0.00014684       0.00002727
H        5.10930642      -1.16263802      -0.10267401       0.00012500       0.00003754       0.00014822
H        6.75827347      -0.19074401       1.45784162      -0.00007154       0.00023828       0.00003210
H        6.08719183       1.61067215       2.99891075      -0.00006183       0.00024373      -0.00017436
H        3.76567755       2.44390006       2.99735678      -0.00006317       0.00013764      -0.00024739
H        2.09769059       1.44337608       1.43775270      -0.00000362      -0.00009428      -0.00007563
H        1.75216425      -5.09322459      -0.41692574       0.00002227      -0.00000641      -0.00028569
H       -0.52588256      -6.08459094      -0.46786611      -0.00000394      -0.00002832       0.00011920
H       -2.49843044      -4.57341347      -0.26186865       0.00000548      -0.00009791       0.00038785
H       -4.24594609      -2.71735154       0.06402722      -0.00005840      -0.00006222       0.00019321
H       -5.40867815      -0.56716931       0.39536783      -0.00005941      -0.00018079       0.00008100
H       -4.18482171       1.57005511       0.43898196       0.00004205       0.00008289      -0.00004909
C       -0.12016577      -0.12112111      -2.04084676       0.00048356       0.00023536      -0.00137960
O       -0.27630697       0.02799444      -3.16994396      -0.00047775      -0.00064001       0.00112381
H        0.33607246      -0.45096636       1.13273486      -0.00007920       0.00007928      -0.00018372
