49
Properties=species:S:1:pos:R:3 energy:=T -80.784231121769=T gnorm:=T 0.000049964509=T xtb:=T 6.7.1=T (edcfbbe)=T pbc="F F F"
Fe       0.09419979      -0.34943861      -0.31874365
C        2.36378965      -2.42271892      -0.16870370
P        2.22594124      -0.58533999      -0.52383057
C        3.05138217      -0.49054809      -2.15211424
C        2.69832043      -1.40683930      -3.14014385
C        3.23895731      -1.30733551      -4.40849595
C        4.12593085      -0.28425680      -4.70605816
C        4.46255817       0.64418073      -3.73452580
C        3.92302486       0.54790549      -2.46378080
C        3.50377795       0.08665579       0.58611287
C        4.81636877      -0.37990688       0.58411883
C        5.73941984       0.16958643       1.45463674
C        5.36089567       1.18422909       2.32190939
C        4.05664786       1.65245571       2.32172837
C        3.12685692       1.10468591       1.45424007
C        1.02447956      -3.08447889      -0.32774756
C        0.87776236      -4.46121983      -0.39302546
C       -0.39801581      -5.01482570      -0.40732628
C       -1.49552878      -4.17955307      -0.30471673
C       -1.29750652      -2.80467750      -0.25180183
C       -2.30800204      -1.76764182      -0.08053726
C       -3.69049215      -1.79410407       0.07859729
C       -4.33500470      -0.56964381       0.26534099
C       -3.66073981       0.63863661       0.29216857
C       -2.25842506       0.62361206       0.11792304
O       -1.37856206       1.54094970       0.07089161
N       -1.69124209      -0.58832338      -0.05314030
N       -0.04154252      -2.27191399      -0.32306278
H        2.63719411      -2.48835706       0.89266390
H        3.14329178      -2.91397250      -0.75871059
H        1.98885530      -2.19330471      -2.91202258
H        2.96452700      -2.02380317      -5.16962626
H        4.54671746      -0.20604923      -5.69803305
H        5.14373104       1.44959235      -3.96930987
H        4.17682934       1.27909384      -1.70764909
H        5.10930642      -1.16263802      -0.10267401
H        6.75827347      -0.19074401       1.45784162
H        6.08719183       1.61067215       2.99891075
H        3.76567755       2.44390006       2.99735678
H        2.09769059       1.44337608       1.43775270
H        1.75216425      -5.09322459      -0.41692574
H       -0.52588256      -6.08459094      -0.46786611
H       -2.49843044      -4.57341347      -0.26186865
H       -4.24594609      -2.71735154       0.06402722
H       -5.40867815      -0.56716931       0.39536783
H       -4.18482171       1.57005511       0.43898196
C       -0.12016577      -0.12112111      -2.04084676
O       -0.27630697       0.02799444      -3.16994396
H        0.33607246      -0.45096636       1.13273486
