75
Properties=species:S:1:pos:R:3:forces:R:3 charge=0 unpaired=0 uhf=0 energy=-2552.2241594256407 pbc="F F F"
Ru       0.28999713      -0.53881837      -0.62489818      -0.00059510       0.00069663       0.01362079
N        0.77224100      -2.50249049       0.23733857      -0.00015064       0.00237662      -0.00123839
C        2.20530285      -2.77853886       0.30373273       0.00551112       0.00173739       0.00135538
C        2.92013801      -1.57467264       0.91394369      -0.00080221      -0.00415981      -0.00273550
P        2.47442776      -0.08730417      -0.12478468       0.00256785       0.00162321       0.00199188
C        3.76290133      -0.21574692      -1.48597676      -0.00398211      -0.00015957       0.00426825
C        5.21919999      -0.38610664      -1.05943801       0.00442224      -0.00027558      -0.00506069
C        3.60212272       0.98599297      -2.41499578      -0.00306181       0.00742168      -0.00400523
C        3.07711476       1.38445960       0.86856214       0.00113374      -0.00073019      -0.00177189
C        2.21992977       2.58204920       0.46192457       0.00285655       0.00066160      -0.00154335
C        2.97882416       1.16729097       2.37492406       0.00151495      -0.00012886      -0.00386898
C       -0.00347267      -3.58307883      -0.36958424       0.00123299      -0.00118093      -0.00014813
C       -1.48788856      -3.26261745      -0.22833902       0.00252768       0.00436369       0.00211012
P       -1.79463054      -1.49507116      -0.77223236       0.00003867      -0.00399110       0.00866170
C       -3.26803901      -1.13275943       0.33597291       0.00904771       0.00166714       0.01037754
C       -3.98092132       0.14665521      -0.09641665       0.00842742      -0.00590346       0.00890379
C       -2.83069003      -0.98538724       1.79100237       0.00310615      -0.00090058      -0.00403123
C       -2.68244119      -1.69733740      -2.41942546       0.00468434      -0.01355042      -0.00110987
C       -2.56218365      -0.37898636      -3.18338294       0.00010282      -0.00378536       0.00031306
C       -2.13830789      -2.82809944      -3.29078674      -0.00033815      -0.00362763       0.00047254
H        2.57495357      -2.96505014      -0.71400125      -0.00250329      -0.00268934       0.00361484
H        2.39879487      -3.68363343       0.90489419      -0.00087129       0.00666501       0.00270491
H        2.52128491      -1.40387081       1.91738561       0.00333547       0.00224892      -0.00205693
H        3.99553157      -1.74284061       0.98816772       0.00201760       0.00157716      -0.00289716
H        3.46447133      -1.11315374      -2.04638927      -0.00259404      -0.00230515      -0.00615246
H        5.85446294      -0.33101781      -1.94301417      -0.00129449      -0.00099405      -0.00028959
H        5.53493713       0.39737184      -0.37428142       0.00290300      -0.00149995      -0.00145987
H        5.39376702      -1.35129132      -0.58931248       0.00153440       0.00422352      -0.00133779
H        2.54173714       1.16771754      -2.60567298       0.00070555       0.00172621      -0.00201054
H        4.09834596       0.80353259      -3.36759625      -0.00075905       0.00409651      -0.00111934
H        4.03640419       1.87874557      -1.96931933       0.00190535       0.00694830       0.00059981
H        4.12207167       1.58004491       0.60046355       0.00158048      -0.00050098       0.00028076
H        2.52394721       3.47526222       1.00632816       0.00347477      -0.00024874      -0.00212655
H        2.29629007       2.77865035      -0.60542527       0.00269363       0.00022614       0.00066739
H        1.17485384       2.36493636       0.68156352       0.00295639       0.00200207      -0.00166718
H        3.18749014       2.10165118       2.89477643       0.00048075      -0.00148379      -0.00165941
H        1.96985806       0.85549920       2.63917051      -0.00054830      -0.00080723      -0.00128467
H        3.68997219       0.42186794       2.72618096      -0.00289724       0.00135791      -0.00156561
H        0.22129648      -4.54425227       0.12299848      -0.00097926       0.00791897       0.00271018
H        0.27573012      -3.67068929      -1.42741484      -0.00143635      -0.00205325       0.00580012
H       -1.75668812      -3.33945738       0.82856187      -0.00141668       0.00547647       0.00522934
H       -2.10309433      -3.97074421      -0.78481900      -0.00073114      -0.00186310       0.00188297
H       -3.94816992      -1.99265097       0.24115854       0.00270909       0.00450011       0.00364747
H       -4.49055546       0.02552531      -1.04912811      -0.00232350       0.00523364      -0.00064019
H       -3.25292248       0.95447399      -0.18023656      -0.00036691      -0.00092280       0.00235031
H       -4.72471175       0.42888346       0.64845122       0.00541219       0.00136921      -0.00498564
H       -2.30427135      -1.86473362       2.16158605      -0.01423338       0.02684272      -0.00240120
H       -3.69954482      -0.81784155       2.42761890       0.00788060      -0.00905550      -0.00834370
H       -2.16505433      -0.12739162       1.87557874      -0.01262909      -0.00374733      -0.00719951
H       -3.73837366      -1.90307516      -2.19806082       0.00141970      -0.00090041      -0.00058575
H       -3.18087683      -0.39573169      -4.07971635      -0.00575382      -0.00359240      -0.01138120
H       -2.85397667       0.46952991      -2.56993933      -0.00228626       0.01034002       0.01365799
H       -1.52516932      -0.22040388      -3.47766185       0.00492285      -0.00338991      -0.00112277
H       -1.06555747      -2.72283941      -3.43652886      -0.00585848      -0.00012707       0.00469835
H       -2.33999136      -3.81236084      -2.87344793      -0.00353818       0.00646648      -0.00242115
H       -2.60989086      -2.78281297      -4.27272601       0.00559431      -0.00388254       0.01611801
C        0.75171311      -1.07925806      -2.31275699      -0.00827474      -0.00469651      -0.03161624
O        1.11875066      -1.43934037      -3.35865947       0.00416195       0.00969947       0.02169382
H       -0.11653196       0.88587839      -1.12936901       0.00038315      -0.00243233      -0.00107401
O        0.22184415      -2.87639609       3.07226933       0.00518508      -0.00426602      -0.00093031
C        1.11532493      -2.56008417       3.84137313       0.00358113       0.01211536       0.00502664
C        1.24350191      -1.29033620       4.53489750       0.00967315      -0.00135304       0.00481541
C        0.23093969      -0.32570920       4.45796056       0.01169267      -0.00829747       0.00345786
C        0.37603060       0.88324992       5.10868382       0.00404947      -0.01082037      -0.00281043
C        1.53067040       1.14983531       5.83226441       0.00237799      -0.00954000      -0.00843980
C        2.54384126       0.20258641       5.90834042      -0.01006829      -0.00532899      -0.00439335
C        2.40263537      -1.01274287       5.26983860      -0.01127943       0.00141659       0.00515625
H        0.43607265      -2.42471981       1.20725374       0.00150716      -0.00026762      -0.00076220
H       -0.03307905      -0.03832071       0.84112431       0.00223964       0.00192775      -0.00154731
H        1.94303725      -3.27090221       4.04213054      -0.00909712      -0.00569969      -0.00299502
H       -0.65513174      -0.54702838       3.88155541       0.00711082      -0.00137958       0.00107825
H       -0.40764263       1.62428066       5.04926688       0.00976463      -0.01217324      -0.00532273
H        1.64265071       2.09858159       6.33696056      -0.00105955      -0.01706187      -0.00895928
H        3.44379036       0.41637628       6.46696908      -0.02468989       0.00038184      -0.00094367
H        3.18814421      -1.75511235       5.32511923      -0.02400741       0.01646543       0.00275007
