15
Properties=species:S:1:pos:R:3:forces:R:3 energy:=T -17.738967903298=T gnorm:=T 0.000036745378=T xtb:=T 6.7.1=T (edcfbbe)=T energy=-482.7019032903662 pbc="F F F"
C        1.51265933      -0.15356225      -0.08776219       0.00101265       0.00012904       0.00022925
C       -0.01340638      -0.17091881      -0.18989806       0.00015240       0.00000245       0.00003172
C       -0.63197665      -0.63979664       1.13364764      -0.00063787      -0.00046232       0.00030311
C       -0.54044852       1.22438944      -0.55029005      -0.00055765       0.00047766      -0.00039703
O       -0.32792967      -1.09362782      -1.22871388      -0.00010746       0.00033634       0.00021436
H        1.83351223       0.53356088       0.68976574      -0.00023305      -0.00016599      -0.00010215
H        1.94002016       0.15475526      -1.03840160       0.00005605       0.00015960       0.00003586
H        1.87598547      -1.15170955       0.14262343       0.00001393      -0.00006281       0.00016767
H       -1.71907668      -0.65154051       1.06476565      -0.00013828       0.00012531      -0.00000895
H       -0.28944081      -1.64571088       1.36658727      -0.00014408      -0.00015893      -0.00022986
H       -0.34336461       0.02594117       1.94242215       0.00022658      -0.00005747       0.00001803
H       -1.62747625       1.21612682      -0.62072721      -0.00006639       0.00008328       0.00018349
H       -0.13422558       1.53704240      -1.50981347      -0.00008695      -0.00012611      -0.00008633
H       -0.24796333       1.94629421       0.20727354       0.00030517       0.00000423       0.00004700
H       -1.28686871      -1.13124372      -1.32147897       0.00020494      -0.00028427      -0.00040619
