43
Properties=species:S:1:pos:R:3:forces:R:3 energy:=T -59.204170012617=T gnorm:=T 0.000130494608=T xtb:=T 6.7.1=T (edcfbbe)=T energy=-1611.0275244624047 pbc="F F F"
O        0.45227765      -1.52751487      -1.06033333       0.00015143       0.00118374       0.00011183
C        0.58916098      -0.12753056      -1.00394736       0.00080338      -0.00223285      -0.00070817
N       -0.10028227       0.45650890       0.12623091      -0.00117038       0.00132354       0.00002128
C       -1.40584825       0.14616619       0.45493304       0.00004869      -0.00020500      -0.00018521
C       -2.32023927      -0.33973248      -0.48185877       0.00032535       0.00014868       0.00042451
C       -3.62274492      -0.61048019      -0.10865903      -0.00034795       0.00015537       0.00042984
C       -4.04690338      -0.40642410       1.19440703      -0.00000178       0.00052400       0.00023282
C       -3.14825782       0.08135615       2.12955075      -0.00003848       0.00043427       0.00025776
C       -1.84267997       0.35050909       1.76860190       0.00043190       0.00027176      -0.00004982
C        2.04099951       0.30264139      -0.92847001       0.00001548       0.00030473      -0.00039176
C        2.87266211      -0.24161714       0.04437412       0.00075964       0.00011043       0.00006573
C        4.19770752       0.14905552       0.12665395      -0.00028056      -0.00008427      -0.00003407
C        4.70200099       1.08912071      -0.75649286      -0.00006730       0.00042911      -0.00052437
C        3.87701798       1.63541289      -1.72524590       0.00054299       0.00012627       0.00030174
C        2.55219122       1.24267631      -1.81188376      -0.00088383      -0.00046345       0.00013737
H        0.61732990      -1.87514807      -0.16176955       0.00001907      -0.00029915       0.00038488
H        0.14094130       0.24446446      -1.93607641      -0.00011359      -0.00001140       0.00007427
H        0.49774189       0.62622967       0.92350355       0.00099057      -0.00066983       0.00082348
H       -2.00616917      -0.51771583      -1.49776120       0.00005374      -0.00018815       0.00013095
H       -4.31508952      -0.99124541      -0.84600546      -0.00007668       0.00042192       0.00038606
H       -5.06534093      -0.62525145       1.47866161      -0.00020439       0.00081360       0.00041230
H       -3.46406321       0.24648935       3.15035650       0.00021453       0.00051591       0.00003671
H       -1.14604878       0.73540692       2.50295636       0.00027868       0.00004728       0.00005871
H        2.48681940      -0.97773424       0.73637034       0.00000472       0.00011161       0.00019145
H        4.83769168      -0.28148023       0.88324925       0.00021283       0.00054937       0.00001971
H        5.73636818       1.39385337      -0.69089129      -0.00014420       0.00020446      -0.00013562
H        4.26639458       2.36834794      -2.41685409      -0.00028542      -0.00004169      -0.00054209
H        1.90969946       1.66807649      -2.56941588       0.00016035      -0.00036216      -0.00017517
C       -0.22517376      -3.98868242       3.19265857      -0.00028018      -0.00060386       0.00019528
C       -0.10440309      -3.56728575       1.72431375       0.00016701       0.00040774       0.00019550
C        0.86580544      -4.48295972       0.97743280       0.00125606       0.00083007       0.00008403
C       -1.48069966      -3.57365707       1.05264495       0.00041365      -0.00019130      -0.00070791
O        0.45685513      -2.25139826       1.65796532      -0.00083839      -0.00013067      -0.00004874
H       -0.60429738      -5.00414202       3.26322386       0.00014194       0.00109409      -0.00011880
H       -0.90787001      -3.32590488       3.72297579      -0.00058222      -0.00090866      -0.00044956
H        0.74906549      -3.94279971       3.67498396      -0.00242675       0.00015616      -0.00043329
H        0.92244798      -4.19500468      -0.06976435       0.00111571       0.00038634       0.00099712
H        1.85877577      -4.40349177       1.41367222      -0.00101103      -0.00032380       0.00095759
H        0.53153185      -5.51406605       1.04231404       0.00028465      -0.00057417      -0.00054078
H       -1.39765397      -3.23179933       0.02307085       0.00046967      -0.00110374       0.00009445
H       -2.16842322      -2.91096373       1.57738268       0.00029233      -0.00121188      -0.00132838
H       -1.89484592      -4.57791991       1.05650310       0.00030841      -0.00052574      -0.00058853
H       -0.16941724      -1.64435067       2.07369598      -0.00070965      -0.00041868      -0.00006311
