43
Properties=species:S:1:pos:R:3:forces:R:3 energy:=T -59.172015149978=T gnorm:=T 0.000471510916=T xtb:=T 6.7.1=T (edcfbbe)=T energy=-1610.1525460844791 pbc="F F F"
O       -0.28123253      -2.34090160      -2.22048839       0.00096499      -0.00981444       0.00195722
C        0.42220130       0.49458225      -0.46478201      -0.00100934       0.00082317       0.00297009
N       -0.25917312      -0.15448616       0.39145174      -0.00077222      -0.00064114      -0.00432925
C       -1.64277016      -0.05266601       0.47349156      -0.00004024       0.00009640       0.00258642
C       -2.46417300      -0.07104512      -0.65515233      -0.00074963      -0.00041413      -0.00027730
C       -3.83862507      -0.04483343      -0.50910639       0.00012091       0.00177850       0.00032376
C       -4.40803270       0.01261389       0.75209833       0.00192525       0.00145495       0.00285572
C       -3.59478641       0.02701627       1.87556323      -0.00120058      -0.00010375      -0.00288356
C       -2.22135765      -0.01895939       1.74416693       0.00003111       0.00025067      -0.00085328
C        1.86043506       0.35360767      -0.59202047       0.00114535      -0.00112499      -0.00374567
C        2.62809615      -0.30603632       0.37204353      -0.00157730      -0.00018111       0.00388144
C        3.99369144      -0.42893625       0.20534113       0.00740459       0.00065043       0.00840191
C        4.61317267       0.09956973      -0.91736728       0.00260384      -0.00052329       0.00446405
C        3.86144449       0.76373875      -1.87439641      -0.00188443      -0.00116956      -0.00456570
C        2.49611640       0.89585169      -1.71189524      -0.00142629      -0.00096473       0.00044690
H       -0.22546203      -3.28222889      -2.03479152      -0.00031007       0.00698454      -0.00373727
H       -0.04691241       1.20470832      -1.15749041      -0.00062844       0.00241536       0.00041489
H        0.18283338      -1.40353928       1.80982305      -0.00006871      -0.00097338       0.00096849
H       -2.02278356      -0.14412042      -1.63959902       0.00189742       0.00094837       0.00071107
H       -4.46755602      -0.06995979      -1.38742957      -0.00011637      -0.00072850       0.00015394
H       -5.48233324       0.03756092       0.86019044      -0.00031216      -0.00144559      -0.00023040
H       -4.03581964       0.06548277       2.86105099      -0.00064324       0.00023555       0.00011121
H       -1.58035406      -0.01186977       2.61286387      -0.00040401       0.00102542      -0.00010342
H        2.14917334      -0.70142015       1.25376567       0.00135522      -0.00009269      -0.00278307
H        4.58112391      -0.93699181       0.95648370      -0.00497747       0.00100352      -0.00785658
H        5.68129826      -0.00065836      -1.04390154      -0.00083717      -0.00035572      -0.00076702
H        4.34271936       1.18022460      -2.74730388      -0.00054116      -0.00023188       0.00078370
H        1.90930235       1.41012744      -2.46012228      -0.00069751      -0.00048793       0.00044712
C        0.44802532      -4.28212574       3.23021087       0.00037214      -0.00018870      -0.00032529
C        0.24525149      -3.34667612       2.03454213      -0.00012389      -0.00085100      -0.00053877
C        1.28605892      -3.65755689       0.94632900      -0.00093908       0.00026865       0.00057532
C       -1.17311316      -3.51769735       1.47185668       0.00033425      -0.00108343      -0.00062527
O        0.42647505      -2.02725560       2.51878674      -0.00121699       0.00093912      -0.00026709
H        0.35899390      -5.32003801       2.92181535      -0.00012983       0.00067202       0.00080093
H       -0.29625812      -4.06985615       3.99351957       0.00105402       0.00017287      -0.00050756
H        1.43332668      -4.11882936       3.65937428      -0.00038405      -0.00018849      -0.00042528
H        1.21699113      -2.93790543       0.13276562      -0.00070608      -0.00037774       0.00056746
H        2.28796461      -3.59483621       1.36489597      -0.00014391       0.00095036       0.00043131
H        1.13501092      -4.65891399       0.55091021       0.00092360       0.00045332       0.00051726
H       -1.33242683      -2.86394883       0.61617743      -0.00008184      -0.00152697       0.00027247
H       -1.90566709      -3.25755476       2.23305134       0.00062434      -0.00051617      -0.00107641
H       -1.33901964      -4.54690816       1.16360662       0.00008392       0.00073152       0.00071154
H       -0.24093961      -1.89299748      -1.37004575       0.00108103       0.00213060       0.00054394
