43
Properties=species:S:1:pos:R:3:forces:R:3 energy:=T -59.204170012617=T gnorm:=T 0.000130494608=T xtb:=T 6.7.1=T (edcfbbe)=T energy=-1611.0275244624047 pbc="F F F"
O        0.45227765      -1.52751487      -1.06033333       0.00015143       0.00118374       0.00011183
C        0.58916098      -0.12753056      -1.00394736       0.00080338      -0.00223285      -0.00070817
N       -0.10028227       0.45650890       0.12623091      -0.00117038       0.00132354       0.00002128
C       -1.40584825       0.14616619       0.45493304       0.00004869      -0.00020500      -0.00018521
C       -2.32023927      -0.33973248      -0.48185877       0.00032535       0.00014868       0.00042451
C       -3.62274492      -0.61048019      -0.10865903      -0.00034795       0.00015537       0.00042984
C       -4.04690338      -0.40642410       1.19440703      -0.00000178       0.00052400       0.00023282
C       -3.14825782       0.08135615       2.12955075      -0.00003848       0.00043427       0.00025776
C       -1.84267997       0.35050909       1.76860190       0.00043190       0.00027176      -0.00004982
C        2.04099951       0.30264139      -0.92847001       0.00001548       0.00030473      -0.00039176
C        2.87266211      -0.24161714       0.04437412       0.00075964       0.00011043       0.00006573
C        4.19770752       0.14905552       0.12665395      -0.00028056      -0.00008427      -0.00003407
C        4.70200099       1.08912071      -0.75649286      -0.00006730       0.00042911      -0.00052437
C        3.87701798       1.63541289      -1.72524590       0.00054299       0.00012627       0.00030174
C        2.55219122       1.24267631      -1.81188376      -0.00088383      -0.00046345       0.00013737
H        0.61732990      -1.87514807      -0.16176955       0.00001907      -0.00029915       0.00038488
H        0.14094130       0.24446446      -1.93607641      -0.00011359      -0.00001140       0.00007427
H        0.49774189       0.62622967       0.92350355       0.00099057      -0.00066983       0.00082348
H       -2.00616917      -0.51771583      -1.49776120       0.00005374      -0.00018815       0.00013095
H       -4.31508952      -0.99124541      -0.84600546      -0.00007668       0.00042192       0.00038606
H       -5.06534093      -0.62525145       1.47866161      -0.00020439       0.00081360       0.00041230
H       -3.46406321       0.24648935       3.15035650       0.00021453       0.00051591       0.00003671
H       -1.14604878       0.73540692       2.50295636       0.00027868       0.00004728       0.00005871
H        2.48681940      -0.97773424       0.73637034       0.00000472       0.00011161       0.00019145
H        4.83769168      -0.28148023       0.88324925       0.00021283       0.00054937       0.00001971
H        5.73636818       1.39385337      -0.69089129      -0.00014420       0.00020446      -0.00013562
H        4.26639458       2.36834794      -2.41685409      -0.00028542      -0.00004169      -0.00054209
H        1.90969946       1.66807649      -2.56941588       0.00016035      -0.00036216      -0.00017517
C       -0.22517376      -3.98868242       3.19265857      -0.00028018      -0.00060386       0.00019528
C       -0.10440309      -3.56728575       1.72431375       0.00016701       0.00040774       0.00019550
C        0.86580544      -4.48295972       0.97743280       0.00125606       0.00083007       0.00008403
C       -1.48069966      -3.57365707       1.05264495       0.00041365      -0.00019130      -0.00070791
O        0.45685513      -2.25139826       1.65796532      -0.00083839      -0.00013067      -0.00004874
H       -0.60429738      -5.00414202       3.26322386       0.00014194       0.00109409      -0.00011880
H       -0.90787001      -3.32590488       3.72297579      -0.00058222      -0.00090866      -0.00044956
H        0.74906549      -3.94279971       3.67498396      -0.00242675       0.00015616      -0.00043329
H        0.92244798      -4.19500468      -0.06976435       0.00111571       0.00038634       0.00099712
H        1.85877577      -4.40349177       1.41367222      -0.00101103      -0.00032380       0.00095759
H        0.53153185      -5.51406605       1.04231404       0.00028465      -0.00057417      -0.00054078
H       -1.39765397      -3.23179933       0.02307085       0.00046967      -0.00110374       0.00009445
H       -2.16842322      -2.91096373       1.57738268       0.00029233      -0.00121188      -0.00132838
H       -1.89484592      -4.57791991       1.05650310       0.00030841      -0.00052574      -0.00058853
H       -0.16941724      -1.64435067       2.07369598      -0.00070965      -0.00041868      -0.00006311
43
Properties=species:S:1:pos:R:3:forces:R:3 energy:=T -59.204170012617=T gnorm:=T 0.000130494608=T xtb:=T 6.7.1=T (edcfbbe)=T energy=-1611.0093516083214 pbc="F F F"
O        0.34420543      -1.43693179      -1.11367712       0.00115382      -0.00304128       0.00099318
C        0.51637528      -0.04609444      -0.95838732       0.00139851      -0.00288683      -0.00389374
N       -0.16785250       0.47278919       0.20478232       0.00149864       0.00172789      -0.00518136
C       -1.49564297       0.19910334       0.47568835       0.00247426       0.00049807      -0.00265684
C       -2.40239844      -0.16794927      -0.52100643       0.00100124      -0.00161756      -0.00081672
C       -3.72923870      -0.39382489      -0.20950308       0.00191726      -0.00264769       0.00142025
C       -4.18669745      -0.26461703       1.09169756       0.00357087      -0.00161303       0.00210948
C       -3.29486438       0.09766449       2.08805544       0.00489407       0.00067326       0.00034455
C       -1.96539094       0.32275375       1.78821870       0.00417529       0.00160182      -0.00192638
C        1.98459072       0.31839706      -0.86784310       0.00127797      -0.00166355      -0.00338386
C        2.77893255      -0.24588749       0.12508142       0.00113760      -0.00101322      -0.00293851
C        4.13065881       0.04398515       0.18619294       0.00044630       0.00192680      -0.00065784
C        4.70206571       0.89816373      -0.74201227      -0.00012424       0.00442579       0.00132166
C        3.91479126       1.46664249      -1.72896316       0.00007457       0.00357993       0.00061075
C        2.56208096       1.17782072      -1.79161389       0.00074741       0.00046966      -0.00170172
H        0.56591873      -1.85108478      -0.25748751      -0.01836627      -0.00078058       0.01804026
H        0.08003979       0.40055747      -1.86217733       0.00239063      -0.00549570      -0.00598020
H        0.41766190       0.55254509       1.02485167       0.00280541       0.00521958      -0.00615701
H       -2.06510186      -0.28772963      -1.53779391      -0.00019811      -0.00213274      -0.00124627
H       -4.41504088      -0.67682900      -0.99549891       0.00075327      -0.00418450       0.00282227
H       -5.22521258      -0.44431383       1.32673320       0.00414040      -0.00232693       0.00384882
H       -3.63634247       0.20082389       3.10877083       0.00628743       0.00174047       0.00076003
H       -1.27649041       0.61163343       2.57232984       0.00505234       0.00404849      -0.00328751
H        2.34603439      -0.92487599       0.84656589       0.00138781      -0.00289449      -0.00461332
H        4.74025377      -0.40338644       0.95802336       0.00031798       0.00241067      -0.00022885
H        5.75916916       1.11652722      -0.69855631      -0.00069749       0.00713611       0.00333291
H        4.35586372       2.13212441      -2.45674908      -0.00029892       0.00545354       0.00206782
H        1.95048561       1.61791482      -2.56616205       0.00094194      -0.00002719      -0.00218406
C        0.00922024      -3.96473281       3.20314266      -0.00326327      -0.00087992      -0.00198056
C        0.01140225      -3.57950567       1.71947348      -0.00136834      -0.00136109      -0.00232749
C        1.01108902      -4.43558864       0.94143026      -0.00054219      -0.00126605      -0.00070418
C       -1.39429457      -3.70991514       1.12709094      -0.00110199      -0.00090561      -0.00325920
O        0.45701609      -2.22619526       1.58764484       0.00050191      -0.00207466      -0.00561627
H       -0.27666881      -5.00570098       3.32281302      -0.00479240      -0.00055877      -0.00228895
H       -0.69485552      -3.34463489       3.75622683      -0.00311110      -0.00040586      -0.00218768
H        1.00215673      -3.82196792       3.62449319      -0.00341934      -0.00257740      -0.00081649
H        0.98450141      -4.17697389      -0.11470637       0.00092351      -0.00088277      -0.00064144
H        2.01683642      -4.25987900       1.31591876      -0.00108375      -0.00104717       0.00069943
H        0.76999200      -5.48840832       1.05346674      -0.00075150      -0.00124385      -0.00100854
H       -1.39554380      -3.37920194       0.09011891      -0.00025029      -0.00096442      -0.00326449
H       -2.10320909      -3.09536483       1.68206209      -0.00137747      -0.00059784      -0.00377344
H       -1.72567618      -4.74365193       1.16680524      -0.00156196      -0.00080598      -0.00305820
H       -0.23578615      -1.65418561       1.94171729      -0.00896179       0.00698462       0.03940971
43
Properties=species:S:1:pos:R:3:forces:R:3 energy:=T -59.204170012617=T gnorm:=T 0.000130494608=T xtb:=T 6.7.1=T (edcfbbe)=T energy=-1610.8445075322402 pbc="F F F"
O        0.31902613      -1.36336962      -1.20059581       0.00198513       0.00025314      -0.00504566
C        0.48301043       0.02111702      -0.90367197       0.00180181       0.00003531      -0.00614526
N       -0.19316432       0.41111251       0.30582395       0.00226311       0.00248174      -0.00589114
C       -1.54398773       0.18524987       0.52412140       0.00309442       0.00137735      -0.00338422
C       -2.43396752      -0.11181321      -0.50860011       0.00156108      -0.00001902      -0.00204876
C       -3.77843765      -0.29241628      -0.24071527       0.00182763      -0.00054840       0.00000570
C       -4.26520757      -0.18752013       1.05079886       0.00367002      -0.00007198       0.00109283
C       -3.38606613       0.10063459       2.08308855       0.00559292       0.00067125      -0.00025646
C       -2.04200251       0.28240947       1.82697756       0.00513790       0.00137062      -0.00250836
C        1.95240496       0.36123217      -0.81599046       0.00122671       0.00153566      -0.00576879
C        2.73727352      -0.22016219       0.17670203       0.00018274       0.00130486      -0.00537507
C        4.09967417       0.01968530       0.21618624      -0.00033695       0.00423033      -0.00134904
C        4.69122279       0.83338000      -0.73559140      -0.00007121       0.00765144       0.00134266
C        3.91360607       1.41711050      -1.72132237       0.00111607       0.00709489       0.00046099
C        2.54953423       1.18272731      -1.76132250       0.00148743       0.00441276      -0.00340552
H        1.00901069      -1.85638032      -0.73687898       0.01098518      -0.01000217       0.02923022
H        0.01751807       0.54517359      -1.74804044       0.00087196      -0.00196670      -0.00684601
H        0.37068539       0.39593857       1.14403852       0.00399854       0.00851496      -0.00529716
H       -2.07560025      -0.21882421      -1.51988803       0.00007220      -0.00044817      -0.00242728
H       -4.45175869      -0.52355552      -1.05407123       0.00059182      -0.00110394       0.00140272
H       -5.31605438      -0.33350714       1.25255891       0.00423665      -0.00020128       0.00264551
H       -3.75132293       0.17901139       3.09754138       0.00723461       0.00062569       0.00021102
H       -1.35985176       0.49881192       2.63749447       0.00650483       0.00180090      -0.00365306
H        2.29187535      -0.86775747       0.92099552      -0.00029002      -0.00079590      -0.00716469
H        4.70055479      -0.43785877       0.98850876      -0.00126143       0.00446694      -0.00069108
H        5.75671363       1.00815842      -0.71097432      -0.00053312       0.01045902       0.00471930
H        4.37046662       2.05059792      -2.46714078       0.00157054       0.00930355       0.00245223
H        1.94468363       1.63274297      -2.53489429       0.00236134       0.00420412      -0.00396251
C        0.09991488      -3.93858202       3.26097850      -0.00146997      -0.00539681       0.00191200
C        0.04578599      -3.57821238       1.77454705      -0.00440758      -0.00358231       0.00208997
C        1.02174965      -4.45547666       0.97557641      -0.00473137      -0.00209905      -0.00070544
C       -1.37437220      -3.73449682       1.22775566      -0.00514998      -0.00458820       0.00445347
O        0.44851427      -2.21462788       1.66177995      -0.00688810      -0.00226863       0.00267797
H       -0.16195165      -4.98176649       3.41050091      -0.00295039      -0.00543043       0.00129836
H       -0.59494644      -3.31195116       3.81514712       0.00078917      -0.00473386       0.00442514
H        1.10207912      -3.76217726       3.64395885      -0.00033815      -0.00766845       0.00002953
H        0.95684048      -4.22734642      -0.08724574      -0.00672413      -0.00150903      -0.00059604
H        2.04068846      -4.27215396       1.31037379      -0.00424933      -0.00168783      -0.00232406
H        0.78875222      -5.50661442       1.11952121      -0.00362803      -0.00259062      -0.00097426
H       -1.40556247      -3.45441339       0.17444093      -0.00636558      -0.00750703       0.00354093
H       -2.06146949      -3.08998926       1.77439878      -0.00398700      -0.00250937       0.00379574
H       -1.70854805      -4.76402782       1.32190196      -0.00567531      -0.00429336       0.00773419
H       -0.08227957      -1.82007788       0.95848433      -0.01110617      -0.00077198       0.00029945
43
Properties=species:S:1:pos:R:3:forces:R:3 energy:=T -59.204170012617=T gnorm:=T 0.000130494608=T xtb:=T 6.7.1=T (edcfbbe)=T energy=-1610.8309085432154 pbc="F F F"
O        0.29637798      -1.36436726      -1.13559316      -0.01400944      -0.00556398       0.00886844
C        0.44578079       0.03244127      -0.77679587       0.00465081       0.01027801      -0.00786252
N       -0.23410376       0.31043643       0.44161588      -0.00207700       0.01471072      -0.01870185
C       -1.60363581       0.12720503       0.59420541       0.00610178       0.00256046      -0.00774812
C       -2.47412137      -0.06725133      -0.47678214       0.00276322       0.00319257      -0.00498251
C       -3.83548289      -0.18409889      -0.26132980       0.00096211       0.00089286      -0.00267914
C       -4.35954277      -0.11111935       1.01697690       0.00325430      -0.00207775      -0.00091337
C       -3.50034513       0.07401958       2.08920185       0.00669520      -0.00369708      -0.00310982
C       -2.14044317       0.18815243       1.88358316       0.00839508      -0.00091729      -0.00627220
C        1.92296265       0.35264338      -0.69353216       0.00077425       0.00958899      -0.01124534
C        2.72952690      -0.22592603       0.28234197      -0.00431112       0.00908418      -0.00860747
C        4.09787853      -0.01747964       0.26564838      -0.00224690       0.00880430      -0.00188306
C        4.67537639       0.76165689      -0.72288889       0.00100887       0.01335794       0.00139235
C        3.87637564       1.34643240      -1.69047506       0.00536434       0.01261665      -0.00223733
C        2.50767423       1.14091560      -1.67633446       0.00246785       0.01250807      -0.00764062
H        0.97379912      -1.58157427      -1.78546991      -0.01584829      -0.03047460      -0.01829151
H       -0.01799555       0.62985691      -1.57814140       0.00885822       0.00924959      -0.00760377
H        0.28611694       0.05834214       1.27138229       0.01217927       0.03256763       0.00883064
H       -2.09238682      -0.14945479      -1.48204930      -0.00309659       0.00672748      -0.00834950
H       -4.49175803      -0.34159406      -1.10582282      -0.00431085       0.00442617       0.00000466
H       -5.42341763      -0.20446083       1.17813032       0.00282715      -0.00109348       0.00305513
H       -3.89589560       0.12613716       3.09416445       0.01165789      -0.00537783      -0.00116747
H       -1.47486886       0.32322828       2.72459808       0.01135218      -0.00220877      -0.00778608
H        2.29922476      -0.85739151       1.04501711      -0.00894144       0.00600218      -0.01134936
H        4.71627845      -0.47645922       1.02322159      -0.00472816       0.00612660      -0.00106177
H        5.74527054       0.90738399      -0.74282813       0.00294629       0.01611550       0.00857362
H        4.31825735       1.95531860      -2.46499584       0.00964038       0.01273599      -0.00208417
H        1.88660068       1.59027115      -2.43826571       0.00684129       0.01396227      -0.01150373
C        0.16834438      -3.74492486       3.25932907      -0.00407696      -0.01904489       0.00986545
C        0.12437320      -3.55133193       1.74347028      -0.00203385      -0.01205369       0.00720699
C        1.05785126      -4.54637001       1.03856019      -0.00340103      -0.01249114       0.00544143
C       -1.30587755      -3.70598122       1.21363412      -0.00233726      -0.00454991       0.00791888
O        0.58499108      -2.23469133       1.50143462      -0.00327977      -0.00946325       0.00843440
H       -0.11825132      -4.75724913       3.52584724      -0.01111788      -0.01909233       0.01455853
H       -0.51060353      -3.04049182       3.73403684      -0.00043159      -0.01564226       0.01356615
H        1.17517346      -3.54702838       3.61974410      -0.00326434      -0.02710852       0.01470927
H        1.01456284      -4.39763751      -0.03945034      -0.00530621      -0.00923144       0.00438640
H        2.08234510      -4.38446421       1.36785844      -0.00105797      -0.01760666       0.00538214
H        0.77107827      -5.56944231       1.26369009      -0.00696872      -0.01361160       0.00187349
H       -1.33162077      -3.51357185       0.14158441       0.00522961      -0.00381273       0.00634653
H       -1.96613590      -2.99010091       1.69980883       0.00390489       0.00410922       0.00628862
H       -1.67376452      -4.71148692       1.39913457      -0.01162864      -0.00232634       0.00736332
H        0.41906470      -2.04847683       0.55979268      -0.00340098       0.00782817       0.00901427
43
Properties=species:S:1:pos:R:3:forces:R:3 energy:=T -59.204170012617=T gnorm:=T 0.000130494608=T xtb:=T 6.7.1=T (edcfbbe)=T energy=-1606.0435278020086 pbc="F F F"
O        0.79054882      -1.46739573      -1.46136172       0.62475796      -3.05312402      -1.90584085
C        0.45017008      -0.39324770      -0.69083512       0.14513062       3.60801286       1.74658828
N       -0.31920751      -0.12315776       0.53140468       0.63351172       1.26865544       0.59586489
C       -1.73915781      -0.18530860       0.68471097       0.14727681       0.47140914      -0.09153698
C       -2.66681523      -0.14830465      -0.37837096       0.37809020       0.11198799       0.12756210
C       -4.03587130       0.00730757      -0.17156326       0.40542756      -0.13779744       0.06187472
C       -4.53827213       0.06868960       1.11862884       0.13250625      -0.07959638      -0.03212660
C       -3.65680080      -0.07397213       2.18760962       0.07397545      -0.01051891      -0.16151397
C       -2.28875244      -0.20442453       1.98551555       0.12069291       0.12913039      -0.23757336
C        1.97454701      -0.07200573      -0.43663958       0.04101531       0.95361900       0.42779135
C        2.94135411      -0.66759371       0.39969270      -0.03915327       0.63037966       0.12299440
C        4.24862343      -0.15350913       0.36517456      -0.20782963       0.08629046      -0.07186933
C        4.63248672       0.84426126      -0.52765270      -0.18866639      -0.09124338      -0.01600132
C        3.73353837       1.19713273      -1.52627561      -0.02306325       0.10019661      -0.08120570
C        2.45440722       0.67254898      -1.51485099       0.22702274       0.73076374       0.14554221
H        1.40093318      -0.76614325      -1.92967983      -0.72120818      -3.65819363      -0.49749712
H       -0.00819487       0.11716637      -1.59107037      -0.39692287       2.09690833       1.36396696
H        0.21090183       0.73405836       1.09709477      -1.82068848      -2.85590435      -1.61870568
H       -2.30727387      -0.19357327      -1.39637342       0.05455260       0.00388538      -0.02324835
H       -4.70160355       0.10040840      -1.02909243       0.22416418      -0.08600655       0.23253211
H       -5.60420138       0.20633063       1.27011615       0.22059326      -0.02558306       0.10519883
H       -4.04396828      -0.06715792       3.19960642       0.06395429      -0.03047343      -0.07768587
H       -1.63642306      -0.32124602       2.84767199      -0.04637707       0.17570088      -0.26241727
H        2.73303253      -1.50084974       1.07733523      -0.17177977       0.75873794      -0.18970599
H        4.98725622      -0.49554554       1.08388745      -0.24027683      -0.16935068      -0.13679976
H        5.61850761       1.31439506      -0.49244510      -0.40409397      -0.31254251       0.05437700
H        3.99157801       1.92265920      -2.28150999       0.15987729      -0.11236650      -0.13457403
H        1.72751592       0.85156914      -2.31244828       0.49980806       0.76500508       0.01899702
C        0.27067199      -3.25164228       3.10686773      -0.07689542      -0.30876509       0.23504771
C        0.16357462      -3.40292176       1.60055703       0.00026617      -0.20291947       0.17203084
C        1.02246460      -4.49147914       0.93377315       0.10344150      -0.07363939       0.13733195
C       -1.27030087      -3.57162750       1.06288455      -0.05230028      -0.07771946       0.17486642
O        0.73466437      -2.15567207       1.33667428       0.17681753      -0.26929421       1.63051472
H        0.04147044      -4.14995997       3.65737540      -0.05465690       0.01294887       0.36614969
H       -0.37247246      -2.39462395       3.32817761      -0.09291663      -0.50486259       0.39106079
H        1.29364722      -2.87953485       3.25507141      -0.25044139      -0.55558838       0.44407727
H        0.81814301      -4.54150851      -0.14021046      -0.00386179       0.10287029       0.18710992
H        2.07512171      -4.24501272       1.05651968       0.05389977      -0.11660342       0.09973160
H        0.82533622      -5.46923721       1.35999345       0.01163953      -0.05796664       0.07083135
H       -1.32464797      -3.64291245      -0.02923002       0.29236432       0.11850656       0.21274685
H       -1.92735174      -2.76158150       1.36583840       0.06086205       0.03241880       0.14251243
H       -1.64875846      -4.50620633       1.46665712      -0.15918843      -0.03883773       0.02795281
H        0.67461279      -2.13915682       0.43802901       0.09867247       0.67146982      -3.75695203
43
Properties=species:S:1:pos:R:3:forces:R:3 energy:=T -59.204170012617=T gnorm:=T 0.000130494608=T xtb:=T 6.7.1=T (edcfbbe)=T energy=-1610.2099792570891 pbc="F F F"
O        0.31394047      -2.03361510      -1.39347923      -0.00166850       0.00421271       0.03693936
C        0.41624723       0.84832169      -0.45586070      -0.00061592       0.01479217       0.01853936
N       -0.19773165       0.30786532       0.51407381       0.00301900      -0.00681993       0.01827736
C       -1.56976131       0.21924969       0.61444284       0.00369618       0.00149949       0.00613084
C       -2.39037366      -0.08898611      -0.47413637       0.00464735      -0.00084963       0.00321905
C       -3.74688687      -0.27275718      -0.28761017       0.00194026      -0.00316828      -0.00038447
C       -4.30679145      -0.14786720       0.97388808      -0.00122957      -0.00112820      -0.00183613
C       -3.49708448       0.14794540       2.06033199      -0.00162082       0.00307522       0.00175599
C       -2.13840254       0.31841560       1.88826164       0.00037209       0.00425555       0.00396545
C        1.86334373       0.79481047      -0.56560586      -0.00551127       0.00078089       0.00186348
C        2.63304128       0.09498694       0.36746578      -0.00197190       0.00493685       0.00276878
C        4.00590870       0.03761326       0.23826734       0.00375141       0.00326032      -0.00225487
C        4.63488811       0.67639007      -0.81986754       0.00473267       0.00394924      -0.00575700
C        3.88143243       1.37066253      -1.75336440      -0.00109467       0.00466351      -0.00397672
C        2.50611446       1.43088248      -1.62909968      -0.00820291       0.00401147       0.00144444
H        0.85652203      -2.71649998      -1.79231244       0.05832609      -0.00057170      -0.00847714
H       -0.10427115       1.40019899      -1.25045887       0.00101768      -0.00288124       0.00879070
H        0.14460091      -1.55420433       1.74032297       0.01172016      -0.08205972      -0.03687129
H       -1.94207772      -0.22479705      -1.44741136       0.00574032      -0.00571324       0.00367864
H       -4.37410036      -0.51551297      -1.13376527       0.00025696      -0.00601701      -0.00160474
H       -5.36843297      -0.29011476       1.11284340      -0.00280973      -0.00198474      -0.00243197
H       -3.92830955       0.23572975       3.04751043      -0.00287420       0.00530399       0.00088554
H       -1.49848871       0.55270013       2.72697830       0.00126414       0.00708517       0.00587579
H        2.13610946      -0.41137435       1.17750798      -0.00109564       0.00422839       0.00796171
H        4.59055357      -0.50974103       0.96340879       0.00755488       0.00267202      -0.00345618
H        5.70959208       0.63017233      -0.91859269       0.01091876       0.00389872      -0.00895175
H        4.36994474       1.86454288      -2.58094968      -0.00051984       0.00634568      -0.00648644
H        1.92147424       1.96888602      -2.36243511      -0.01018517       0.00838747       0.00183238
C        0.15018325      -3.74687805       3.28279056      -0.00235096       0.01111678      -0.00343015
C        0.15530225      -3.53693523       1.76353059      -0.00591780       0.01048490      -0.00625511
C        1.06178477      -4.57452889       1.09527616      -0.00918116      -0.00118682       0.00157502
C       -1.27305652      -3.61917932       1.21498325      -0.00572734       0.00031502      -0.00191256
O        0.72698489      -2.27007375       1.44423327      -0.00354519       0.01147687      -0.02244831
H       -0.18644457      -4.75271505       3.51936942      -0.01021212       0.01205110       0.00757434
H       -0.51623181      -3.03427073       3.76534273       0.00448375       0.01897225      -0.00239343
H        1.15338768      -3.60991683       3.68043661       0.00151752       0.00336021      -0.00365713
H        1.07253977      -4.42242169       0.01932698      -0.01656094      -0.02095826      -0.00319542
H        2.07720923      -4.46258847       1.46762917      -0.00369971      -0.00486707      -0.00603928
H        0.71295232      -5.58116829       1.30483365      -0.01088833      -0.00030983       0.01681137
H       -1.28643277      -3.36227608       0.15808967      -0.00399807      -0.01326030      -0.00737573
H       -1.92279676      -2.92014505       1.74027560      -0.00319851       0.00862280      -0.00788466
H       -1.66908013      -4.62340928       1.33799357      -0.00733680      -0.00061239       0.01025827
H        0.54773166      -2.01738196      -0.44720728      -0.00294219      -0.01137040      -0.01306740
43
Properties=species:S:1:pos:R:3:forces:R:3 energy:=T -59.204170012617=T gnorm:=T 0.000130494608=T xtb:=T 6.7.1=T (edcfbbe)=T energy=-1610.1032548386818 pbc="F F F"
O        0.04737059      -2.14796813      -1.84587028       0.00467404      -0.00364399      -0.00881990
C        0.43416757       0.74435187      -0.46737285       0.00010770      -0.00280708       0.00331313
N       -0.19066753       0.07002183       0.40789670      -0.00032499      -0.00701512       0.00165883
C       -1.56899393       0.06371659       0.53804748      -0.00019637      -0.00497331       0.00060588
C       -2.41958690      -0.16280902      -0.54389693       0.00052706      -0.00172790      -0.00035494
C       -3.78249058      -0.26696351      -0.33657150      -0.00005810       0.00138086      -0.00202398
C       -4.31134664      -0.12637511       0.93597423      -0.00105229       0.00134309      -0.00236331
C       -3.46777147       0.10455794       2.01256232      -0.00164635      -0.00216260      -0.00128466
C       -2.10291816       0.18294312       1.82303746      -0.00106689      -0.00543052       0.00019227
C        1.88209151       0.69196357      -0.58096950      -0.00030876      -0.00232801       0.00191250
C        2.65804591      -0.00088523       0.35393190       0.00185309      -0.00325838      -0.00062164
C        4.03398555      -0.01930344       0.23712684       0.00171141      -0.00235547      -0.00358783
C        4.65664735       0.64442341      -0.80968280      -0.00082803      -0.00070980      -0.00382690
C        3.89577757       1.33044323      -1.74382453      -0.00287724       0.00053078      -0.00121935
C        2.51864836       1.35903294      -1.62988805      -0.00281780      -0.00021259       0.00178208
H        0.40484991      -3.01803347      -2.04177073       0.00360669      -0.00229886      -0.01170887
H       -0.08047144       1.41715959      -1.16497699      -0.00073167      -0.00023017       0.00683081
H        0.22055027      -1.47165881       1.55971822       0.00458908       0.00134008       0.00116221
H       -1.99568801      -0.30345345      -1.52793471       0.00106578      -0.00133645      -0.00019561
H       -4.43625642      -0.45948277      -1.17522541       0.00048241       0.00407875      -0.00280116
H       -5.37731559      -0.20561411       1.09139442      -0.00131606       0.00413179      -0.00360396
H       -3.87682423       0.21156708       3.00707468      -0.00236606      -0.00225686      -0.00171496
H       -1.43285509       0.35419621       2.65251687      -0.00169652      -0.00820649       0.00107524
H        2.17253826      -0.50758453       1.17352003       0.00394799      -0.00433873      -0.00001734
H        4.62536042      -0.55079062       0.96826928       0.00350520      -0.00300059      -0.00542932
H        5.73344148       0.62994839      -0.89528234      -0.00092877      -0.00022189      -0.00622401
H        4.37998396       1.84737462      -2.55963925      -0.00493559       0.00203644      -0.00137141
H        1.92648897       1.89558093      -2.35813050      -0.00449599       0.00068064       0.00392462
C        0.10168957      -4.04054573       3.41644973      -0.00255942      -0.00365477       0.00273100
C        0.16212211      -3.39374723       2.02791817       0.00008837       0.00271423       0.00573832
C        1.16841452      -4.15640833       1.14880422       0.00012405       0.00643335       0.00371362
C       -1.22377473      -3.41199219       1.37560428       0.00148764       0.00612402       0.00288060
O        0.61454549      -2.06123943       2.22463568       0.00028572       0.00181247       0.01331052
H       -0.15523808      -5.09333012       3.34137243      -0.00655222      -0.00227400      -0.00268299
H       -0.64141265      -3.53234272       4.02596627      -0.00070312      -0.00405975       0.00468651
H        1.06890292      -3.94084036       3.90266091      -0.00259414      -0.00936554       0.00400571
H        1.26187874      -3.68248571       0.17447292      -0.00105546       0.00929103       0.00510063
H        2.14690386      -4.15399598       1.62314888       0.00022985       0.00612600       0.00387614
H        0.84563137      -5.18483569       1.00907631       0.00093199       0.00672417       0.00071178
H       -1.18995388      -2.98564627       0.37399756       0.00384302       0.00813563       0.00417484
H       -1.92612944      -2.82980323       1.96942929       0.00181202       0.00543989       0.00277354
H       -1.59163610      -4.43272372       1.30398059      -0.00004624       0.00735311      -0.00044311
H        0.53632887      -1.80640760      -1.09029336       0.00628496       0.00219253      -0.01586550
43
Properties=species:S:1:pos:R:3:forces:R:3 energy:=T -59.204170012617=T gnorm:=T 0.000130494608=T xtb:=T 6.7.1=T (edcfbbe)=T energy=-1610.1412545326887 pbc="F F F"
O       -0.06871425      -2.21279731      -2.08385411       0.00302686       0.00054665      -0.00845911
C        0.44343935       0.65617896      -0.43409230      -0.00237646      -0.00495227       0.00517609
N       -0.20734394      -0.02265550       0.42159211       0.00274778      -0.00051751      -0.00166167
C       -1.59193067       0.01446598       0.51846289      -0.00078502      -0.00205247       0.00061613
C       -2.42338753      -0.12032349      -0.59365424      -0.00009298       0.00008842      -0.00033426
C       -3.79498713      -0.16781479      -0.42547361       0.00054299       0.00153370      -0.00182017
C       -4.35019057      -0.06321248       0.83906513      -0.00111717       0.00096472      -0.00193871
C       -3.52536742       0.07414466       1.94562124      -0.00099903      -0.00130591      -0.00108301
C       -2.15365820       0.09781162       1.79411324      -0.00196072      -0.00279331       0.00036821
C        1.88939609       0.58750845      -0.53975033      -0.00030136      -0.00198370       0.00070120
C        2.66252341      -0.08441683       0.41191938       0.00098863      -0.00344143      -0.00027849
C        4.03775920      -0.11796925       0.28997320       0.00022319      -0.00308312      -0.00190072
C        4.66157190       0.51016884      -0.77785260      -0.00020719      -0.00185779      -0.00172106
C        3.90341308       1.17878811      -1.72675834      -0.00182051      -0.00067713      -0.00042006
C        2.52762967       1.22271784      -1.60769543      -0.00066978      -0.00091759       0.00097973
H        0.06222485      -3.15411742      -1.94161481      -0.00384524      -0.00201844       0.00013604
H       -0.05486671       1.34499986      -1.12772818      -0.00043091      -0.00121974       0.00244828
H        0.21659336      -1.35097480       1.77732175       0.00148223       0.00244918       0.00490623
H       -1.98645704      -0.22968823      -1.57658138       0.00103364       0.00049776      -0.00018603
H       -4.43343071      -0.28768595      -1.28897602       0.00062675       0.00323288      -0.00244117
H       -5.42246625      -0.09729257       0.96400507      -0.00099108       0.00219094      -0.00301617
H       -3.95496170       0.15272336       2.93390174      -0.00234045      -0.00181629      -0.00128685
H       -1.50079763       0.19745297       2.64827089      -0.00184871      -0.00439044       0.00103865
H        2.17743913      -0.55922881       1.25037526       0.00154731      -0.00411073      -0.00052641
H        4.62853541      -0.63332970       1.03301475       0.00133755      -0.00385528      -0.00300903
H        5.73767300       0.48259740      -0.86820341      -0.00061059      -0.00168390      -0.00284885
H        4.38819507       1.66975485      -2.55800803      -0.00217649       0.00022045      -0.00026300
H        1.93650152       1.74404770      -2.34761901      -0.00201941      -0.00020168       0.00214478
C        0.25783980      -4.13724153       3.37992572       0.00008577      -0.00183316       0.00085121
C        0.19729575      -3.28834929       2.10634851       0.00039248       0.00215581       0.00267098
C        1.27262120      -3.76190251       1.11382927       0.00217118       0.00568921       0.00132477
C       -1.19413328      -3.40120522       1.46883674       0.00073401       0.00224240       0.00157870
O        0.45732996      -1.95295231       2.50456851      -0.00176311       0.00211721       0.00663765
H        0.11518518      -5.18864804       3.14704080       0.00083728      -0.00183559      -0.00211216
H       -0.51587757      -3.81471093       4.07197611      -0.00076763      -0.00389969       0.00178827
H        1.22342617      -4.00375975       3.86100659      -0.00016107      -0.00262684       0.00158211
H        1.31580984      -3.10041663       0.25061126       0.00252746       0.00872366       0.00274372
H        2.24844899      -3.75091526       1.59380840       0.00179280       0.00527335       0.00210112
H        1.05880540      -4.77332888       0.77737354       0.00344317       0.00569309      -0.00186030
H       -1.24635452      -2.83586414       0.54002113       0.00142317       0.00397531       0.00207811
H       -1.94542722      -3.00238782       2.14734889      -0.00034725       0.00119421       0.00196905
H       -1.43081782      -4.44102248       1.25744206       0.00143082       0.00189064      -0.00006328
H        0.10654708      -1.77913386      -1.24265445      -0.00076290       0.00239441      -0.00661052
43
Properties=species:S:1:pos:R:3:forces:R:3 energy:=T -59.172015149978=T gnorm:=T 0.000471510916=T xtb:=T 6.7.1=T (edcfbbe)=T energy=-1610.1525899707033 pbc="F F F"
O       -0.17267666      -2.23250815      -2.14172812       0.00131353      -0.00993908       0.00203884
C        0.42210206       0.62017764      -0.37375902      -0.00133093       0.00148174       0.00356239
N       -0.26221224      -0.04486733       0.46774335      -0.00005465      -0.00051810      -0.00377075
C       -1.64936575       0.02324049       0.51878352      -0.00036046      -0.00059631       0.00202085
C       -2.44466780      -0.01573217      -0.62788697      -0.00070971      -0.00069372      -0.00014626
C       -3.82226914      -0.02295465      -0.51257276       0.00071257       0.00226857      -0.00060059
C       -4.42092989       0.02124259       0.73555164       0.00161443       0.00174885       0.00315537
C       -3.63356741       0.05603825       1.87686664      -0.00083197       0.00018490      -0.00294869
C       -2.25683460       0.04348519       1.77619645      -0.00024781      -0.00033456      -0.00039465
C        1.86582549       0.51423561      -0.46872611       0.00093194      -0.00105174      -0.00397416
C        2.62760490      -0.12600750       0.51292252      -0.00187938      -0.00100622       0.00368244
C        3.99917059      -0.21567098       0.37686150       0.00768603       0.00097939       0.00874912
C        4.63051284       0.32720234      -0.73230272       0.00295825      -0.00082329       0.00434397
C        3.88439033       0.97236109      -1.70656751      -0.00171758      -0.00060584      -0.00436521
C        2.51296112       1.07123921      -1.57471043      -0.00172482      -0.00101278       0.00010081
H       -0.09815593      -3.17210119      -1.95383904      -0.00041694       0.00701358      -0.00373800
H       -0.04858241       1.31830364      -1.07751171      -0.00089955       0.00216819       0.00046894
H        0.17830102      -1.28204930       1.89694223      -0.00018639      -0.00058773       0.00046838
H       -1.97975517      -0.07853136      -1.60216231       0.00208824       0.00107934       0.00087634
H       -4.43063016      -0.06385301      -1.40468333      -0.00058057      -0.00077369       0.00079359
H       -5.49766522       0.02005235       0.81961999      -0.00056043      -0.00161336      -0.00029238
H       -4.09730433       0.08424814       2.85222728      -0.00067439       0.00015078       0.00014200
H       -1.63575324       0.06664150       2.65897160      -0.00017028       0.00113653      -0.00044138
H        2.13888352      -0.53249565       1.38415622       0.00155816       0.00031354      -0.00231093
H        4.58188250      -0.70887267       1.14146037      -0.00491132       0.00081064      -0.00804853
H        5.70332205       0.25297395      -0.83486689      -0.00080499      -0.00022599      -0.00055900
H        4.37475166       1.40000684      -2.56895855      -0.00056225      -0.00055890       0.00035808
H        1.93065068       1.57067581      -2.33638727      -0.00051256      -0.00040293       0.00044065
C        0.48174128      -4.15258896       3.32593293       0.00004119      -0.00011277      -0.00051101
C        0.28299507      -3.22297213       2.12505016      -0.00024850      -0.00112542      -0.00050310
C        1.35510777      -3.50894891       1.06066001      -0.00107470      -0.00016313       0.00026599
C       -1.11786375      -3.42880218       1.53103833       0.00103560      -0.00140628      -0.00031209
O        0.42116892      -1.89927862       2.61182403      -0.00157095       0.00099987      -0.00042213
H        0.42492560      -5.19252074       3.01672401      -0.00026882       0.00060365       0.00074718
H       -0.28435186      -3.95813289       4.07222009       0.00115107       0.00037241      -0.00034339
H        1.45294324      -3.96510541       3.77680144      -0.00017091      -0.00002455      -0.00080747
H        1.28671763      -2.79161144       0.24499849      -0.00062122      -0.00040930       0.00053066
H        2.34559130      -3.42161188       1.50141142      -0.00015755       0.00099764       0.00051146
H        1.23736238      -4.51389255       0.66302717       0.00094598       0.00064248       0.00072439
H       -1.27390478      -2.77956931       0.67132744      -0.00011731      -0.00148141       0.00031872
H       -1.87335260      -3.18620253       2.27542313       0.00073220      -0.00046130      -0.00106968
H       -1.25172769      -4.46190878       1.22025036      -0.00019277       0.00078789       0.00074611
H       -0.16230705      -1.78331954      -1.29107169       0.00079052       0.00218840       0.00051313
