43
Properties=species:S:1:pos:R:3:forces:R:3 energy:=T -59.204170012617=T gnorm:=T 0.000130494608=T xtb:=T 6.7.1=T (edcfbbe)=T energy=-1611.0275244624047 pbc="F F F"
O        0.45227765      -1.52751487      -1.06033333       0.00015143       0.00118374       0.00011183
C        0.58916098      -0.12753056      -1.00394736       0.00080338      -0.00223285      -0.00070817
N       -0.10028227       0.45650890       0.12623091      -0.00117038       0.00132354       0.00002128
C       -1.40584825       0.14616619       0.45493304       0.00004869      -0.00020500      -0.00018521
C       -2.32023927      -0.33973248      -0.48185877       0.00032535       0.00014868       0.00042451
C       -3.62274492      -0.61048019      -0.10865903      -0.00034795       0.00015537       0.00042984
C       -4.04690338      -0.40642410       1.19440703      -0.00000178       0.00052400       0.00023282
C       -3.14825782       0.08135615       2.12955075      -0.00003848       0.00043427       0.00025776
C       -1.84267997       0.35050909       1.76860190       0.00043190       0.00027176      -0.00004982
C        2.04099951       0.30264139      -0.92847001       0.00001548       0.00030473      -0.00039176
C        2.87266211      -0.24161714       0.04437412       0.00075964       0.00011043       0.00006573
C        4.19770752       0.14905552       0.12665395      -0.00028056      -0.00008427      -0.00003407
C        4.70200099       1.08912071      -0.75649286      -0.00006730       0.00042911      -0.00052437
C        3.87701798       1.63541289      -1.72524590       0.00054299       0.00012627       0.00030174
C        2.55219122       1.24267631      -1.81188376      -0.00088383      -0.00046345       0.00013737
H        0.61732990      -1.87514807      -0.16176955       0.00001907      -0.00029915       0.00038488
H        0.14094130       0.24446446      -1.93607641      -0.00011359      -0.00001140       0.00007427
H        0.49774189       0.62622967       0.92350355       0.00099057      -0.00066983       0.00082348
H       -2.00616917      -0.51771583      -1.49776120       0.00005374      -0.00018815       0.00013095
H       -4.31508952      -0.99124541      -0.84600546      -0.00007668       0.00042192       0.00038606
H       -5.06534093      -0.62525145       1.47866161      -0.00020439       0.00081360       0.00041230
H       -3.46406321       0.24648935       3.15035650       0.00021453       0.00051591       0.00003671
H       -1.14604878       0.73540692       2.50295636       0.00027868       0.00004728       0.00005871
H        2.48681940      -0.97773424       0.73637034       0.00000472       0.00011161       0.00019145
H        4.83769168      -0.28148023       0.88324925       0.00021283       0.00054937       0.00001971
H        5.73636818       1.39385337      -0.69089129      -0.00014420       0.00020446      -0.00013562
H        4.26639458       2.36834794      -2.41685409      -0.00028542      -0.00004169      -0.00054209
H        1.90969946       1.66807649      -2.56941588       0.00016035      -0.00036216      -0.00017517
C       -0.22517376      -3.98868242       3.19265857      -0.00028018      -0.00060386       0.00019528
C       -0.10440309      -3.56728575       1.72431375       0.00016701       0.00040774       0.00019550
C        0.86580544      -4.48295972       0.97743280       0.00125606       0.00083007       0.00008403
C       -1.48069966      -3.57365707       1.05264495       0.00041365      -0.00019130      -0.00070791
O        0.45685513      -2.25139826       1.65796532      -0.00083839      -0.00013067      -0.00004874
H       -0.60429738      -5.00414202       3.26322386       0.00014194       0.00109409      -0.00011880
H       -0.90787001      -3.32590488       3.72297579      -0.00058222      -0.00090866      -0.00044956
H        0.74906549      -3.94279971       3.67498396      -0.00242675       0.00015616      -0.00043329
H        0.92244798      -4.19500468      -0.06976435       0.00111571       0.00038634       0.00099712
H        1.85877577      -4.40349177       1.41367222      -0.00101103      -0.00032380       0.00095759
H        0.53153185      -5.51406605       1.04231404       0.00028465      -0.00057417      -0.00054078
H       -1.39765397      -3.23179933       0.02307085       0.00046967      -0.00110374       0.00009445
H       -2.16842322      -2.91096373       1.57738268       0.00029233      -0.00121188      -0.00132838
H       -1.89484592      -4.57791991       1.05650310       0.00030841      -0.00052574      -0.00058853
H       -0.16941724      -1.64435067       2.07369598      -0.00070965      -0.00041868      -0.00006311
43
Properties=species:S:1:pos:R:3 energy:=T -59.204170012617=T gnorm:=T 0.000130494608=T xtb:=T 6.7.1=T (edcfbbe)=T pbc="F F F"
O        0.35236657      -1.62220813      -1.27063334
C        0.56718922      -0.00147203      -0.97566692
N       -0.13604691       0.44730319       0.17340718
C       -1.47018942       0.18605212       0.45008284
C       -2.35548884      -0.29025922      -0.51323629
C       -3.66671482      -0.52723062      -0.16167295
C       -4.11109331      -0.34383655       1.13462509
C       -3.22803284       0.08666946       2.10774755
C       -1.91833155       0.35412191       1.77373414
C        2.02504951       0.33392162      -0.87196878
C        2.84299592      -0.22682695       0.09822198
C        4.18237002       0.09507273       0.15647734
C        4.69885066       0.98233262      -0.76798387
C        3.88674037       1.54250453      -1.73533060
C        2.54582664       1.22409470      -1.79414488
H        0.53774816      -2.01624823      -0.40278692
H        0.09443057       0.43169850      -1.86752280
H        0.51100757       0.50730073       1.09932756
H       -2.02134760      -0.45459126      -1.52423404
H       -4.35048302      -0.86372102      -0.92677777
H       -5.14097990      -0.53300008       1.39493535
H       -3.55649630       0.23085990       3.12708921
H       -1.22773479       0.67966669       2.54454826
H        2.45945613      -0.92660027       0.82429073
H        4.81262586      -0.34556472       0.91463670
H        5.74769557       1.23388594      -0.72760199
H        4.28986185       2.23541009      -2.45824832
H        1.91373238       1.66225669      -2.55276198
C       -0.12215575      -4.02224081       3.23549734
C       -0.05643044      -3.56577701       1.77823434
C        0.95746471      -4.38995193       0.99297892
C       -1.45089177      -3.58120443       1.12392537
O        0.68861389      -2.32001803       1.84055470
H       -0.46198480      -5.05306573       3.24937251
H       -0.82538977      -3.40517614       3.79102060
H        0.85562841      -3.95865150       3.70882448
H        1.00440273      -4.08865274      -0.04899927
H        1.95451369      -4.30450829       1.42020523
H        0.63314512      -5.42449753       0.99219435
H       -1.42828966      -3.21559537       0.09812515
H       -2.17461835      -2.98671637       1.68606968
H       -1.81867796      -4.60044285       1.09030001
H       -0.31530348      -1.56507879       1.70040201
43
Properties=species:S:1:pos:R:3 energy:=T -59.204170012617=T gnorm:=T 0.000130494608=T xtb:=T 6.7.1=T (edcfbbe)=T pbc="F F F"
O        0.25789889      -1.67362621      -1.48098570
C        0.55108993       0.11905683      -0.93587475
N       -0.15734765       0.48035234       0.21975760
C       -1.51875936       0.23266956       0.45278407
C       -2.38295516      -0.24098164      -0.53503797
C       -3.70096351      -0.45745104      -0.20272241
C       -4.15820871      -0.29187339       1.08983397
C       -3.28209969       0.08588725       2.08959550
C       -1.96030124       0.31494084       1.78771222
C        2.01342000       0.36184796      -0.82405691
C        2.81921586      -0.21647601       0.14427030
C        4.16886016       0.05011512       0.17869982
C        4.69566734       0.89398315      -0.77748020
C        3.89392162       1.46587458      -1.74411520
C        2.54268731       1.20841803      -1.77977008
H        0.46000554      -2.14946469      -0.67146007
H        0.06050888       0.58841870      -1.79920458
H        0.52631199       0.43937292       1.28105940
H       -2.03561831      -0.39584301      -1.54317296
H       -4.37736106      -0.75714879      -0.98892023
H       -5.19712104      -0.45611252       1.32918783
H       -3.62452981       0.21639708       3.10566674
H       -1.27521157       0.59432694       2.57896706
H        2.43972245      -0.88760162       0.89802271
H        4.79136556      -0.39869720       0.93806526
H        5.75404578       1.10182222      -0.75807859
H        4.30741781       2.12541204      -2.49122125
H        1.91914022       1.65669506      -2.53963327
C       -0.04035989      -4.05504511       3.27672329
C       -0.01232789      -3.54533626       1.84520907
C        1.02364583      -4.29867513       1.02857072
C       -1.43755649      -3.60453526       1.19143151
O        0.69784058      -2.25569926       2.11271156
H       -0.34635283      -5.09434385       3.23639876
H       -0.76076271      -3.47776853       3.85128308
H        0.94217247      -3.97921862       3.73958724
H        1.09679730      -4.00314290      -0.01136649
H        2.02470924      -4.19363293       1.44077790
H        0.71621723      -5.33863399       0.96014605
H       -1.50362784      -3.26949802       0.14700991
H       -2.15530682      -3.03767873       1.79258452
H       -1.75888590      -4.63438276       1.13069303
H       -0.29197025      -1.62270833       1.14360943
43
Properties=species:S:1:pos:R:3 energy:=T -59.204170012617=T gnorm:=T 0.000130494608=T xtb:=T 6.7.1=T (edcfbbe)=T pbc="F F F"
O        0.17237724      -1.68422819      -1.66707044
C        0.53723461       0.23450483      -0.87790817
N       -0.17486559       0.48589142       0.28904623
C       -1.54272501       0.21384856       0.47719170
C       -2.39972684      -0.19922905      -0.54511820
C       -3.72730017      -0.39117330      -0.24200310
C       -4.20049393      -0.24227539       1.04550411
C       -3.33294281       0.08500989       2.06907548
C       -1.99880603       0.26453952       1.79808950
C        1.99944185       0.38886985      -0.77447715
C        2.79604717      -0.20312356       0.19100868
C        4.15442606       0.00705125       0.20004064
C        4.69134834       0.80793900      -0.78520587
C        3.89866522       1.39040554      -1.75145869
C        2.53945257       1.19049582      -1.76296451
H        0.35471720      -2.35650838      -1.01195439
H        0.03218376       0.73166895      -1.71571169
H        0.50756730       0.26843602       1.49196684
H       -2.04563934      -0.33759388      -1.55377793
H       -4.39716181      -0.65352745      -1.04684687
H       -5.24748003      -0.38153897       1.26406800
H       -3.69076943       0.20309478       3.08114758
H       -1.33037898       0.51760321       2.60923106
H        2.42439272      -0.84386682       0.97422516
H        4.76967081      -0.44924730       0.96073868
H        5.75701357       0.97314427      -0.78581506
H        4.32236738       2.01676561      -2.52066847
H        1.92384096       1.64747625      -2.52437247
C        0.04097724      -4.07405417       3.30317117
C        0.02599184      -3.49137166       1.90477710
C        1.08575353      -4.20937654       1.06979228
C       -1.40938754      -3.60391163       1.26960213
O        0.57762524      -2.14466896       2.21981923
H       -0.23051764      -5.12048919       3.21980893
H       -0.69389125      -3.54627703       3.90573989
H        1.02735250      -3.97258710       3.75050631
H        1.21320088      -3.89110955       0.04217311
H        2.08871339      -4.08213448       1.47566950
H        0.79294140      -5.24816290       0.92993261
H       -1.59279113      -3.29730894       0.22358192
H       -2.10926500      -3.04263658       1.89181850
H       -1.69069902      -4.64677555       1.18105732
H       -0.19342698      -1.71355333       0.63382726
43
Properties=species:S:1:pos:R:3 energy:=T -59.204170012617=T gnorm:=T 0.000130494608=T xtb:=T 6.7.1=T (edcfbbe)=T pbc="F F F"
O        0.11761014      -1.73396877      -1.76001361
C        0.52402121       0.34826384      -0.80122563
N       -0.19017736       0.44487310       0.36090934
C       -1.56083872       0.18004305       0.49692855
C       -2.41196361      -0.16340771      -0.55424139
C       -3.74945647      -0.32793689      -0.28094068
C       -4.24028656      -0.19437541       1.00118769
C       -3.38398629       0.08623590       2.04697609
C       -2.04187352       0.22981587       1.80329207
C        1.98425447       0.41335788      -0.72635185
C        2.77230880      -0.18815430       0.23927508
C        4.13714766      -0.03384005       0.22075249
C        4.68499357       0.72502323      -0.79066362
C        3.90033119       1.31687888      -1.75720218
C        2.53548033       1.16991278      -1.74504471
H        0.22354256      -2.59658417      -1.32134820
H        0.00879525       0.85197385      -1.62656786
H        0.45649204      -0.01687974       1.66172097
H       -2.04696042      -0.28674749      -1.56153766
H       -4.41226946      -0.55527988      -1.10203431
H       -5.29383676      -0.31041884       1.20032514
H       -3.75548190       0.19133903       3.05535126
H       -1.38740931       0.45477175       2.63283061
H        2.39939612      -0.79603772       1.04700384
H        4.74623673      -0.49637543       0.98257853
H        5.75579389       0.84968086      -0.81018999
H        4.33379767       1.91080504      -2.54626499
H        1.92598273       1.63359342      -2.50745172
C        0.11867641      -4.08236898       3.31383633
C        0.06658023      -3.42512149       1.94308585
C        1.14413742      -4.11056890       1.09431633
C       -1.36161580      -3.57885960       1.34566459
O        0.50091633      -2.06644923       2.22940414
H       -0.11902472      -5.13503854       3.19783946
H       -0.62432696      -3.60637342       3.94807646
H        1.10376937      -3.96107651       3.75714816
H        1.30568316      -3.71850390       0.09776857
H        2.14748611      -3.98138803       1.50476997
H        0.86816418      -5.14254594       0.88754115
H       -1.62958670      -3.24686655       0.33068053
H       -2.06837115      -3.04883100       1.98494205
H       -1.61567449      -4.63033139       1.21706388
H       -0.14342312      -1.77222376       0.19706716
43
Properties=species:S:1:pos:R:3 energy:=T -59.204170012617=T gnorm:=T 0.000130494608=T xtb:=T 6.7.1=T (edcfbbe)=T pbc="F F F"
O        0.05734295      -1.88172195      -1.87396277
C        0.50671186       0.45979015      -0.69791045
N       -0.20756111       0.35688483       0.42774801
C       -1.58442157       0.14355859       0.51174213
C       -2.42546295      -0.12298949      -0.56737492
C       -3.77317164      -0.25480242      -0.32637376
C       -4.28434001      -0.13885492       0.94965948
C       -3.44102925       0.08757747       2.01915497
C       -2.09076221       0.19422810       1.80695935
C        1.96221470       0.43826476      -0.67178164
C        2.74150934      -0.17250986       0.29476643
C        4.11138594      -0.08145587       0.24483718
C        4.67450623       0.62704756      -0.79523177
C        3.89832545       1.22972888      -1.76267323
C        2.52867834       1.14281399      -1.72155053
H        0.11741605      -2.79229003      -1.56165262
H       -0.01212878       0.97699842      -1.51245732
H        0.37059191      -0.37425540       1.75986019
H       -2.04339675      -0.23163780      -1.57094345
H       -4.42660639      -0.44121833      -1.16507152
H       -5.34462578      -0.22772475       1.12565548
H       -3.82914988       0.17710540       3.02255671
H       -1.44050962       0.37881515       2.64948691
H        2.35213338      -0.73542149       1.12462987
H        4.71452162      -0.55044904       1.00744527
H        5.74921919       0.70440789      -0.83704352
H        4.34322884       1.78476044      -2.57350698
H        1.92486090       1.61337827      -2.48426939
C        0.20847240      -4.09420264       3.32392937
C        0.11756404      -3.36345015       1.98328494
C        1.20241460      -3.98005125       1.10123596
C       -1.29768089      -3.54180044       1.42487663
O        0.46521545      -2.01593976       2.27421155
H        0.01032359      -5.15050030       3.16679271
H       -0.54166583      -3.67983559       3.99215462
H        1.19164756      -3.95620239       3.76602248
H        1.34750087      -3.48390076       0.15042982
H        2.20600175      -3.85993261       1.51463399
H        0.95722829      -5.00453043       0.83323859
H       -1.58600029      -3.12970082       0.45776472
H       -2.02473771      -3.06911888       2.08672796
H       -1.53101218      -4.59117923       1.23287515
H       -0.14971816      -1.78966846      -0.22361867
43
Properties=species:S:1:pos:R:3 energy:=T -59.204170012617=T gnorm:=T 0.000130494608=T xtb:=T 6.7.1=T (edcfbbe)=T pbc="F F F"
O       -0.01987850      -2.03979878      -2.00228050
C        0.48452187       0.53254034      -0.59025229
N       -0.22744579       0.22533168       0.46274192
C       -1.60915186       0.10559227       0.52144187
C       -2.43818138      -0.08372718      -0.58068350
C       -3.79539437      -0.17746619      -0.37378767
C       -4.32807878      -0.08038019       0.89578467
C       -3.49766568       0.08771475       1.98754119
C       -2.13891826       0.15557998       1.80734657
C        1.93261110       0.45966037      -0.61609852
C        2.70675719      -0.15972819       0.35140261
C        4.07879092      -0.13152308       0.26979374
C        4.65974968       0.52198253      -0.79848989
C        3.89096907       1.13628802      -1.76680143
C        2.51854255       1.11175589      -1.69228715
H        0.03712680      -2.95714913      -1.70229530
H       -0.02810913       1.09634127      -1.37835854
H        0.28611977      -0.69955859       1.78707571
H       -2.03700532      -0.17671553      -1.57909771
H       -4.43810919      -0.31958694      -1.22936909
H       -5.39445396      -0.13995060       1.04672496
H       -3.90502658       0.16046971       2.98459394
H       -1.48909723       0.28999400       2.65940830
H        2.28972974      -0.66596483       1.20282305
H        4.67689684      -0.60694043       1.03250270
H        5.73611705       0.54898325      -0.86406357
H        4.34815424       1.64875140      -2.59898571
H        1.91956636       1.58963251      -2.45428688
C        0.30355638      -4.10985000       3.33445238
C        0.17321356      -3.31522293       2.03171459
C        1.25491650      -3.83295794       1.09203629
C       -1.23317020      -3.50225486       1.48610214
O        0.46132190      -1.98814076       2.39261490
H        0.14726751      -5.16476649       3.12918994
H       -0.45249335      -3.76112798       4.03315124
H        1.28544589      -3.95532925       3.77401922
H        1.33448756      -3.23454813       0.19565703
H        2.25776715      -3.72295471       1.50505208
H        1.04849142      -4.85150168       0.77804456
H       -1.46850490      -2.97804697       0.56905854
H       -1.97799837      -3.09922556       2.17216193
H       -1.44551689      -4.54043557       1.23498894
H       -0.18288708      -1.77575067      -0.60302935
43
Properties=species:S:1:pos:R:3 energy:=T -59.204170012617=T gnorm:=T 0.000130494608=T xtb:=T 6.7.1=T (edcfbbe)=T pbc="F F F"
O       -0.11499208      -2.16551370      -2.08210254
C        0.45390957       0.57310707      -0.48955296
N       -0.24507740       0.07633742       0.46809202
C       -1.62860457       0.06707389       0.52760888
C       -2.44747629      -0.04829523      -0.59237220
C       -3.81427495      -0.09683567      -0.42225326
C       -4.37086506      -0.01968922       0.84031256
C       -3.55393189       0.08597358       1.95255072
C       -2.18662871       0.11177670       1.80321858
C        1.89738568       0.47922816      -0.56005463
C        2.66962392      -0.14818484       0.41077553
C        4.04127210      -0.18265756       0.29487311
C        4.64127870       0.41148939      -0.80074825
C        3.87910605       1.03845825      -1.76972948
C        2.50667158       1.07853870      -1.65868358
H       -0.04582956      -3.08703119      -1.80566734
H       -0.04324154       1.20416646      -1.23593847
H        0.22608115      -0.99327623       1.81758980
H       -2.02320393      -0.12794930      -1.58280106
H       -4.44586354      -0.19151155      -1.29300872
H       -5.44241851      -0.04800622       0.96504827
H       -3.98269508       0.14138562       2.94200222
H       -1.54291331       0.19300200       2.66620378
H        2.22059498      -0.59622339       1.27975400
H        4.63526477      -0.66492474       1.05691506
H        5.71653738       0.38572657      -0.89116350
H        4.34858974       1.50516658      -2.62245873
H        1.91217354       1.56480601      -2.41905391
C        0.40283039      -4.12290826       3.34065111
C        0.23251285      -3.26398843       2.08461206
C        1.30424883      -3.67372424       1.07537756
C       -1.17221694      -3.45677950       1.52322462
O        0.45919141      -1.94433544       2.52059189
H        0.29102909      -5.17287089       3.08697473
H       -0.35559931      -3.84501646       4.06810504
H        1.38295133      -3.95236333       3.77859307
H        1.30064592      -3.00574997       0.22294310
H        2.30394336      -3.57489214       1.49325948
H        1.13830552      -4.68816709       0.72531438
H       -1.35046154      -2.85245992       0.64184904
H       -1.92149161      -3.13008138       2.24163484
H       -1.35362139      -4.49158715       1.24452094
H       -0.19770639      -1.77119852      -0.93974985
43
Properties=species:S:1:pos:R:3:forces:R:3 energy:=T -59.172015149978=T gnorm:=T 0.000471510916=T xtb:=T 6.7.1=T (edcfbbe)=T energy=-1610.1525460844791 pbc="F F F"
O       -0.21160055      -2.25247587      -2.12942825       0.00096499      -0.00981444       0.00195722
C        0.41789857       0.61150032      -0.39199799      -0.00100934       0.00082317       0.00297009
N       -0.25834980      -0.04390177       0.46347461      -0.00077222      -0.00064114      -0.00432925
C       -1.64443266       0.03061025       0.53174529      -0.00004024       0.00009640       0.00258642
C       -2.45456201      -0.01398632      -0.60429125      -0.00074963      -0.00041413      -0.00027730
C       -3.83058596      -0.01433462      -0.47127645       0.00012091       0.00177850       0.00032376
C       -4.41296604       0.04232140       0.78402676       0.00192525       0.00145495       0.00285572
C       -3.61086201       0.08273315       1.91484344      -0.00120058      -0.00010375      -0.00288356
C       -2.23560190       0.06342628       1.79663958       0.00003111       0.00025067      -0.00085328
C        1.85982180       0.49856345      -0.50461439       0.00114535      -0.00112499      -0.00374567
C        2.63144060      -0.13718801       0.47225698      -0.00157730      -0.00018111       0.00388144
C        4.00075341      -0.23385966       0.31934654       0.00740459       0.00065043       0.00840191
C        4.62007867       0.29748843      -0.80210572       0.00260384      -0.00052329       0.00446405
C        3.86423101       0.93814595      -1.77183390      -0.00188443      -0.00116956      -0.00456570
C        2.49503957       1.04399803      -1.62320205      -0.00142629      -0.00096473       0.00044690
H       -0.13864286      -3.19086750      -1.93503415      -0.00031007       0.00698454      -0.00373727
H       -0.05883619       1.30606999      -1.09519681      -0.00062844       0.00241536       0.00041489
H        0.19526087      -1.27163839       1.89671595      -0.00006871      -0.00097338       0.00096849
H       -2.00247730      -0.08649921      -1.58391425       0.00189742       0.00094837       0.00071107
H       -4.45052829      -0.05965291      -1.35516267      -0.00011637      -0.00072850       0.00015394
H       -5.48852756       0.04645590       0.88189514      -0.00031216      -0.00144559      -0.00023040
H       -4.06190334       0.12066164       2.89581197      -0.00064324       0.00023555       0.00011121
H       -1.60313534       0.09087436       2.67116968      -0.00040401       0.00102542      -0.00010342
H        2.15224198      -0.53465516       1.35289193       0.00135522      -0.00009269      -0.00278307
H        4.59115327      -0.72351704       1.08031708      -0.00497747       0.00100352      -0.00785658
H        5.69115801       0.21780909      -0.91781698      -0.00083717      -0.00035572      -0.00076702
H        4.34527247       1.35683267      -2.64381668      -0.00054116      -0.00023188       0.00078370
H        1.90510504       1.53991143      -2.38130568      -0.00069751      -0.00048793       0.00044712
C        0.50490586      -4.13207475       3.34451157       0.00037214      -0.00018870      -0.00032529
C        0.29467434      -3.21113166       2.13891069      -0.00012389      -0.00085100      -0.00053877
C        1.35180239      -3.51015352       1.06317792      -0.00093908       0.00026865       0.00057532
C       -1.11455951      -3.41558789       1.56455969       0.00033425      -0.00108343      -0.00062527
O        0.44468479      -1.88424071       2.61331831      -0.00121699       0.00093912      -0.00026709
H        0.43972713      -5.17416348       3.04434649      -0.00012983       0.00067202       0.00080093
H       -0.25070520      -3.92840972       4.09898415       0.00105402       0.00017287      -0.00050756
H        1.48260517      -3.94523672       3.78138837      -0.00038405      -0.00018849      -0.00042528
H        1.27596824      -2.79899915       0.24277399      -0.00070608      -0.00037774       0.00056746
H        2.34822828      -3.42362139       1.49048907      -0.00014391       0.00095036       0.00043131
H        1.22471109      -4.51769107       0.67510131       0.00092360       0.00045332       0.00051726
H       -1.27889040      -2.77250433       0.70177708      -0.00008184      -0.00152697       0.00027247
H       -1.85938824      -3.16384217       2.31661088       0.00062434      -0.00051617      -0.00107641
H       -1.25677090      -4.45053076       1.26374890       0.00008392       0.00073152       0.00071154
H       -0.18840220      -1.79662374      -1.28257823       0.00108103       0.00213060       0.00054394
