54
 energy: -70.117933080359 gnorm: 0.000131905601 xtb: 6.7.1 (edcfbbe)
Ru           0.08914493762348       -0.10570302406649       -0.32521433863853
C            2.16952232388847       -2.38747922989598        0.23798907785775
P            2.34367350117835       -0.67293379880261       -0.13490709727383
C            3.45713431100624        0.07510757181240        1.18820514271985
C            4.50169986143035       -0.92017107365945        1.68529120128094
C            2.63173101343472        0.60412664259515        2.35721794529734
C            3.51471922483071       -0.51721096822036       -1.59360574753765
C            3.43939582538399        0.89143957286242       -2.17447209786256
C            3.18517419464395       -1.57024142933609       -2.64547216146103
C            0.91011300735709       -2.93963598613971        0.10331998613658
C            0.62566114777603       -4.32360847272471        0.33111450469064
C           -0.65519221123942       -4.78170990401762        0.28099730098487
C           -1.71025192888200       -3.89115842409543        0.00761065330149
C           -1.38642691560341       -2.57458158663910       -0.24055790461080
C           -2.42584000289112       -1.53997001380670       -0.59469564431335
N           -2.08342373436416       -0.20704974479663       -0.06255418288187
C           -2.13549809736713       -0.20913367854622        1.41605655100040
C           -0.75654128952102       -0.48104576035199        2.02988582127279
C           -3.03768556988413        0.79324943389455       -0.57918497045698
C           -2.88995203034988        1.10761934075420       -2.06076668650171
N           -0.13831835725075       -2.11821928668851       -0.21953235008355
H            3.02845738698976       -3.01630273117834        0.42142692627601
H            3.96277770121004        0.92208765694090        0.70926439608963
H            5.05828216938965       -1.36164718807109        0.86097892661608
H            4.02338060942500       -1.72165461067366        2.24520998762304
H            5.20943201092078       -0.41816054929112        2.34442425200211
H            2.10175502287229       -0.21423405269471        2.84696016604102
H            3.27931633480590        1.07588019487055        3.09595788736486
H            1.91421263014071        1.34706467872159        2.00569969591859
H            4.53062827197108       -0.70007549549486       -1.21693796869689
H            2.42243776225188        1.10160422669305       -2.50334143231899
H            3.70842240988797        1.63913174329221       -1.43103473671199
H            4.11446407236083        0.98963393716249       -3.02372790199599
H            3.84785754892383       -1.47031070757600       -3.50414775795847
H            2.15847894549365       -1.45542697525072       -2.98785399150163
H            3.29605393110980       -2.57266907883979       -2.23527736621555
H            1.45114484378104       -4.98466295559156        0.54981380060584
H           -0.87402694739798       -5.82571807489860        0.45811344940356
H           -2.73361695230221       -4.22908609788638       -0.02505893751196
H           -2.46224142197325       -1.46955034232673       -1.68795043439054
H           -3.41861253700700       -1.85427373614286       -0.23601367076468
H           -2.46033878937684        0.78332423335236        1.74711464323590
H           -2.87437923566670       -0.93916761107732        1.77938283642229
H            0.05000010838851        0.01918199141020        1.41450488075279
H           -0.55602109564547       -1.54939640646143        2.15364250669653
H           -0.70377915561269       -0.02516111634345        3.02179271543169
H           -2.86021679597862        1.72591281629859       -0.03656834423775
H           -4.06364807369470        0.45388599111972       -0.36845450369135
H           -1.87167799438723        1.44004794503307       -2.26109954545242
H           -3.12112743772199        0.25848682218593       -2.69873452771399
H           -3.57273525906487        1.91469248623440       -2.31603331141579
C            0.11855428989234       -0.05006798033358       -2.14218465118602
O            0.06856156084365       -0.03473857122261       -3.30184779662018
H            0.18853323457104        1.46094590681517       -0.21837667392826
