64
Properties=species:S:1:pos:R:3:forces:R:3 energy:=T -97.508222492666=T gnorm:=T 0.000174859942=T xtb:=T 6.7.1=T (edcfbbe)=T energy=-2653.333882788109 pbc="F F F"
Mn       0.01680212      -0.37357367      -0.33213135       0.00008793      -0.00118826       0.00112976
N        0.29269670      -2.12131438       0.16837346      -0.00050000       0.00275672      -0.00057439
C        1.50986894      -2.89846551      -0.03909799       0.00013219      -0.00016184      -0.00030534
C        2.44217998      -2.22030827      -1.04067166       0.00035534       0.00005265       0.00120252
P        2.19530248      -0.44675941      -0.65264420       0.00011420      -0.00022273      -0.00083051
C        3.30225750      -0.25601770       0.78561986       0.00061142      -0.00001091      -0.00034299
C        2.74077728      -0.18757458       2.05535354      -0.00003501       0.00035240       0.00039125
C        3.55344003      -0.10203534       3.17188239      -0.00029155      -0.00028691       0.00034796
C        4.93068311      -0.08132336       3.02280040       0.00046358       0.00003448      -0.00014780
C        5.49466057      -0.14602811       1.75753610       0.00042652       0.00002423       0.00033704
C        4.68631973      -0.23425878       0.63891047      -0.00051874       0.00017771      -0.00048518
C        3.09339723       0.48636834      -1.92572782       0.00024221       0.00015017      -0.00060891
C        2.90837511       1.86755832      -1.89003350       0.00018185       0.00003714      -0.00029360
C        3.54482102       2.67895796      -2.80904363      -0.00003267      -0.00016220       0.00002787
C        4.36405545       2.11505689      -3.77602859       0.00004669      -0.00113363       0.00020158
C        4.54263959       0.74238498      -3.82139619       0.00001340       0.00113134      -0.00014671
C        3.91057310      -0.07581112      -2.89977047      -0.00055210       0.00000756       0.00114063
C       -0.66492313      -2.98927632       0.84517483      -0.00050222       0.00049307       0.00012323
C       -1.83300110      -2.19211836       1.42156448       0.00009284      -0.00073948      -0.00024645
P       -2.06994987      -0.88699288       0.15701612      -0.00098222      -0.00192463      -0.00022173
C       -3.29300578       0.26826862       0.84197296       0.00010708      -0.00033503       0.00017634
C       -4.02290854       0.05735063       2.00641902      -0.00061641      -0.00097600       0.00139672
C       -4.92828312       1.01506531       2.43224450       0.00048428      -0.00010235      -0.00100095
C       -5.10918893       2.17916655       1.70393722       0.00058400      -0.00113414       0.00029776
C       -4.37888052       2.39545150       0.54470496       0.00062927      -0.00090118      -0.00093678
C       -3.47159719       1.44539677       0.11721924      -0.00099150       0.00142142       0.00034546
C       -3.06471296      -1.79014693      -1.07823596      -0.00166343      -0.00042006      -0.00020848
C       -2.43696911      -2.24671679      -2.23153690      -0.00090786      -0.00017140      -0.00071463
C       -3.14291010      -2.98995083      -3.16075757      -0.00144775       0.00055971       0.00050510
C       -4.48087534      -3.27614632      -2.94246253       0.00003718       0.00075509      -0.00025403
C       -5.11203408      -2.81836405      -1.79574574       0.00030558       0.00005347       0.00064300
C       -4.40938650      -2.07793337      -0.86249569       0.00055964       0.00026266      -0.00083839
H        1.24970959      -3.91169445      -0.39323369       0.00018109      -0.00008505       0.00006394
H        2.04222638      -3.02075690       0.92297072       0.00026130       0.00006380      -0.00004586
H        2.09095856      -2.38734992      -2.06638747      -0.00043467       0.00052049      -0.00016492
H        3.47850819      -2.55357220      -0.93513641       0.00005025      -0.00015531      -0.00029385
H        1.65883362      -0.19522889       2.15344699       0.00027366       0.00010426      -0.00000542
H        3.11408413      -0.04783714       4.15799423       0.00040080       0.00009706      -0.00012507
H        5.56694677      -0.01117567       3.89330749       0.00052962      -0.00031749       0.00033857
H        6.56928911      -0.12616308       1.64408200      -0.00001701       0.00008971       0.00010453
H        5.12501911      -0.27910258      -0.34919662       0.00006006       0.00036557       0.00023597
H        2.24745689       2.28250664      -1.13594294      -0.00008349      -0.00054187      -0.00051664
H        3.39972123       3.74918070      -2.77878192       0.00002856      -0.00058893      -0.00060890
H        4.85946242       2.74675409      -4.49909007       0.00013546       0.00001657       0.00015069
H        5.17666822       0.30532665      -4.57999944       0.00017820      -0.00000154       0.00072490
H        4.05473435      -1.14642813      -2.94516535       0.00024404       0.00046909       0.00036958
H       -1.05748703      -3.73804302       0.13157628       0.00025401      -0.00035142       0.00003613
H       -0.15701125      -3.54880192       1.65057058       0.00021785      -0.00005739       0.00050524
H       -2.71854918      -2.81323459       1.58344627       0.00031797      -0.00009644       0.00033847
H       -1.53857957      -1.69802212       2.35565890       0.00035332       0.00067985       0.00049951
H       -3.88717095      -0.84660309       2.58400814       0.00014853       0.00135379      -0.00077716
H       -5.49438284       0.85199970       3.33853930      -0.00038143      -0.00046307       0.00050886
H       -5.81605576       2.92244801       2.04326653       0.00011155       0.00040417       0.00031112
H       -4.51432885       3.30715780      -0.01898821       0.00032281      -0.00043974       0.00012081
H       -2.87443666       1.59960433      -0.77568768       0.00065998       0.00011011      -0.00115645
H       -1.39029109      -2.00388449      -2.39223410      -0.00019567      -0.00059607      -0.00012968
H       -2.65212825      -3.34339620      -4.05661359      -0.00014937      -0.00018611      -0.00054869
H       -5.03480701      -3.85401170      -3.66828945      -0.00024960       0.00081898       0.00007230
H       -6.15682849      -3.03983564      -1.62987339       0.00045118       0.00103708      -0.00027280
H       -4.90288540      -1.71586407       0.02964224       0.00008016       0.00005265      -0.00012462
C       -0.28891969       0.39785539      -1.89680900       0.00298955       0.00018523      -0.00122413
O       -0.43422377       0.88997993      -2.94312212      -0.00233116      -0.00008305       0.00132980
C       -0.03513530       1.14959048       0.57017961      -0.00112611      -0.00085784       0.00031610
O       -0.11498610       2.13361380       1.18935887       0.00028484       0.00005384      -0.00014168
