64
Properties=species:S:1:pos:R:3 energy:=T -97.508222492666=T gnorm:=T 0.000174859942=T xtb:=T 6.7.1=T (edcfbbe)=T pbc="F F F"
Mn       0.01680212      -0.37357367      -0.33213135
N        0.29269670      -2.12131438       0.16837346
C        1.50986894      -2.89846551      -0.03909799
C        2.44217998      -2.22030827      -1.04067166
P        2.19530248      -0.44675941      -0.65264420
C        3.30225750      -0.25601770       0.78561986
C        2.74077728      -0.18757458       2.05535354
C        3.55344003      -0.10203534       3.17188239
C        4.93068311      -0.08132336       3.02280040
C        5.49466057      -0.14602811       1.75753610
C        4.68631973      -0.23425878       0.63891047
C        3.09339723       0.48636834      -1.92572782
C        2.90837511       1.86755832      -1.89003350
C        3.54482102       2.67895796      -2.80904363
C        4.36405545       2.11505689      -3.77602859
C        4.54263959       0.74238498      -3.82139619
C        3.91057310      -0.07581112      -2.89977047
C       -0.66492313      -2.98927632       0.84517483
C       -1.83300110      -2.19211836       1.42156448
P       -2.06994987      -0.88699288       0.15701612
C       -3.29300578       0.26826862       0.84197296
C       -4.02290854       0.05735063       2.00641902
C       -4.92828312       1.01506531       2.43224450
C       -5.10918893       2.17916655       1.70393722
C       -4.37888052       2.39545150       0.54470496
C       -3.47159719       1.44539677       0.11721924
C       -3.06471296      -1.79014693      -1.07823596
C       -2.43696911      -2.24671679      -2.23153690
C       -3.14291010      -2.98995083      -3.16075757
C       -4.48087534      -3.27614632      -2.94246253
C       -5.11203408      -2.81836405      -1.79574574
C       -4.40938650      -2.07793337      -0.86249569
H        1.24970959      -3.91169445      -0.39323369
H        2.04222638      -3.02075690       0.92297072
H        2.09095856      -2.38734992      -2.06638747
H        3.47850819      -2.55357220      -0.93513641
H        1.65883362      -0.19522889       2.15344699
H        3.11408413      -0.04783714       4.15799423
H        5.56694677      -0.01117567       3.89330749
H        6.56928911      -0.12616308       1.64408200
H        5.12501911      -0.27910258      -0.34919662
H        2.24745689       2.28250664      -1.13594294
H        3.39972123       3.74918070      -2.77878192
H        4.85946242       2.74675409      -4.49909007
H        5.17666822       0.30532665      -4.57999944
H        4.05473435      -1.14642813      -2.94516535
H       -1.05748703      -3.73804302       0.13157628
H       -0.15701125      -3.54880192       1.65057058
H       -2.71854918      -2.81323459       1.58344627
H       -1.53857957      -1.69802212       2.35565890
H       -3.88717095      -0.84660309       2.58400814
H       -5.49438284       0.85199970       3.33853930
H       -5.81605576       2.92244801       2.04326653
H       -4.51432885       3.30715780      -0.01898821
H       -2.87443666       1.59960433      -0.77568768
H       -1.39029109      -2.00388449      -2.39223410
H       -2.65212825      -3.34339620      -4.05661359
H       -5.03480701      -3.85401170      -3.66828945
H       -6.15682849      -3.03983564      -1.62987339
H       -4.90288540      -1.71586407       0.02964224
C       -0.28891969       0.39785539      -1.89680900
O       -0.43422377       0.88997993      -2.94312212
C       -0.03513530       1.14959048       0.57017961
O       -0.11498610       2.13361380       1.18935887
