65
Properties=species:S:1:pos:R:3:forces:R:3 energy:=T -93.118597007280=T gnorm:=T 0.000071216339=T xtb:=T 6.7.1=T (edcfbbe)=T energy=-2533.8860892039584 pbc="F F F"
Fe       0.16863309      -0.64010316      -0.69419216      -0.00008160      -0.00003607      -0.00012161
N       -0.10305157      -2.70797619      -0.20770620      -0.00000126      -0.00006383       0.00006413
C        0.96075357      -3.18416813       0.68515945       0.00009893      -0.00009008      -0.00008097
C        2.32493383      -2.82727617       0.10795917       0.00002159      -0.00001680      -0.00021753
P        2.24265757      -1.01140582      -0.36459147      -0.00009399       0.00004072      -0.00008035
C        3.46462627      -0.92923268      -1.72589219       0.00003659       0.00018294       0.00002340
C        3.35768627      -1.80587974      -2.80269093       0.00007883       0.00031805      -0.00009870
C        4.20766627      -1.69893479      -3.88697863      -0.00001848       0.00056148      -0.00010084
C        5.16534823      -0.69798008      -3.92172822       0.00006310       0.00049341       0.00004292
C        5.25395232       0.20387777      -2.87438257       0.00001719       0.00039815       0.00021112
C        4.40517468       0.09520742      -1.78705600      -0.00000150       0.00021319       0.00014080
C        3.19920166      -0.23324187       0.98318998       0.00000116      -0.00026570       0.00013564
C        4.46325372      -0.68908905       1.35176820      -0.00007987      -0.00034246       0.00008693
C        5.15018810      -0.06416002       2.37608913       0.00002717      -0.00048652       0.00019560
C        4.58727830       1.02086812       3.03183371      -0.00001839      -0.00045229       0.00026173
C        3.33729685       1.48614743       2.65718074       0.00001834      -0.00050220       0.00037628
C        2.64482026       0.86061177       1.63471167      -0.00005592      -0.00035208       0.00031831
C       -1.44060093      -2.96389854       0.34079744       0.00002402       0.00011514       0.00017921
C       -2.49342802      -2.32585520      -0.55682370      -0.00010173       0.00003065       0.00026358
P       -1.95999995      -0.54453820      -0.75052099      -0.00000134      -0.00005010       0.00003815
C       -2.98148764       0.32313661       0.49780315       0.00004064       0.00027430      -0.00020933
C       -2.34280638       1.18620220       1.37861881       0.00016274       0.00037743      -0.00022188
C       -3.07416076       1.87995529       2.32680437       0.00019031       0.00043286      -0.00033545
C       -4.44824908       1.71760185       2.39515242       0.00021500       0.00058670      -0.00017249
C       -5.09198462       0.87004140       1.50611685       0.00011434       0.00051917      -0.00022606
C       -4.36515624       0.17878707       0.55436742       0.00011781       0.00046967      -0.00010294
C       -2.86715129      -0.00325477      -2.24316576      -0.00007967      -0.00017227       0.00003769
C       -3.95007629      -0.65152986      -2.82538965      -0.00013083      -0.00023316       0.00004349
C       -4.54948349      -0.11716794      -3.95389102      -0.00004351      -0.00052172       0.00004520
C       -4.07926541       1.06313063      -4.50452326      -0.00022644      -0.00047662      -0.00020765
C       -2.99955601       1.71436167      -3.92749577      -0.00005907      -0.00053541      -0.00020792
C       -2.39726596       1.18167147      -2.80411682      -0.00018319      -0.00032823      -0.00031850
H       -0.02626469      -3.22694688      -1.08496814      -0.00018559      -0.00000823       0.00010707
H        0.83234110      -2.67365052       1.64424880       0.00017625      -0.00008354      -0.00011549
H        0.87629616      -4.26945777       0.84696825       0.00001461      -0.00008925      -0.00009232
H        2.52754569      -3.42335500      -0.78704649      -0.00019210       0.00001826      -0.00024396
H        3.11387618      -3.01685835       0.83914897       0.00009558      -0.00022638      -0.00032577
H        2.59137944      -2.57079272      -2.80384250       0.00003732       0.00031441      -0.00019832
H        4.11871658      -2.39118449      -4.71304524       0.00011815       0.00057400      -0.00015939
H        5.82971513      -0.61341094      -4.76998150       0.00005924       0.00064260       0.00008491
H        5.98510280       0.99968183      -2.90752795      -0.00003409       0.00042162       0.00025638
H        4.46979720       0.81216083      -0.97966502      -0.00003757       0.00014876       0.00022082
H        4.91538591      -1.51979974       0.82441903       0.00002129      -0.00016867      -0.00007415
H        6.13039028      -0.41952550       2.66300072      -0.00003998      -0.00049441       0.00011864
H        5.12963325       1.50615762       3.83127820      -0.00007141      -0.00075024       0.00044750
H        2.90477294       2.33827432       3.16256692      -0.00004470      -0.00061000       0.00052673
H        1.66785891       1.19694067       1.31737878       0.00000652      -0.00026899       0.00031708
H       -1.48462828      -2.49599547       1.32967745       0.00015191       0.00013852       0.00016041
H       -1.61574395      -4.04468530       0.45159603      -0.00002424       0.00018558       0.00028021
H       -2.47335401      -2.79135498      -1.54952780      -0.00017805      -0.00007023       0.00032763
H       -3.49066867      -2.43204193      -0.12369690      -0.00007603       0.00013615       0.00037585
H       -1.26978671       1.28908161       1.30059590       0.00008219       0.00032231      -0.00034384
H       -2.57457694       2.54914027       3.01326301       0.00019818       0.00061819      -0.00053815
H       -5.02223252       2.25567280       3.13662223       0.00024773       0.00075745      -0.00039981
H       -6.16598848       0.75287418       1.55357248       0.00019095       0.00058567      -0.00009614
H       -4.87612524      -0.46450976      -0.14951456       0.00007252       0.00026552       0.00009946
H       -4.33116128      -1.57532046      -2.41253643       0.00002368      -0.00024680       0.00015892
H       -5.38881245      -0.62674419      -4.40735868      -0.00010259      -0.00047826       0.00016187
H       -4.55122404       1.47281379      -5.38652823      -0.00022410      -0.00063534      -0.00013403
H       -2.62705823       2.63259055      -4.35976420      -0.00027086      -0.00050953      -0.00037623
H       -1.53753352       1.65608282      -2.34599954      -0.00011198      -0.00022733      -0.00031449
C        0.27346386      -0.76041878      -2.41964302      -0.00000594       0.00002748       0.00042088
O        0.33351068      -0.78649828      -3.57850561      -0.00011309      -0.00028145      -0.00032870
H        0.08335193      -0.42455002       0.75913725       0.00010141      -0.00005094      -0.00002963
H        0.35511604       0.81282413      -0.83105923       0.00006378      -0.00004526      -0.00005591
