      -----------------------------------------------------------      
     |                   =====================                   |     
     |                           x T B                           |     
     |                   =====================                   |     
     |                         S. Grimme                         |     
     |          Mulliken Center for Theoretical Chemistry        |     
     |                    University of Bonn                     |     
      -----------------------------------------------------------      

   * xtb version 6.7.1 (edcfbbe) compiled by 'VssAdministrator@runnervm171ch' on 2026-06-10

   xtb is free software: you can redistribute it and/or modify it under
   the terms of the GNU Lesser General Public License as published by
   the Free Software Foundation, either version 3 of the License, or
   (at your option) any later version.
   
   xtb is distributed in the hope that it will be useful,
   but WITHOUT ANY WARRANTY; without even the implied warranty of
   MERCHANTABILITY or FITNESS FOR A PARTICULAR PURPOSE.  See the
   GNU Lesser General Public License for more details.
   
   Cite this work as:
   * C. Bannwarth, E. Caldeweyher, S. Ehlert, A. Hansen, P. Pracht,
     J. Seibert, S. Spicher, S. Grimme, WIREs Comput. Mol. Sci., 2020, 11,
     e01493. DOI: 10.1002/wcms.1493
   
   for GFN2-xTB:
   * C. Bannwarth, S. Ehlert and S. Grimme., J. Chem. Theory Comput., 2019,
     15, 1652-1671. DOI: 10.1021/acs.jctc.8b01176
   for GFN1-xTB:
   * S. Grimme, C. Bannwarth, P. Shushkov, J. Chem. Theory Comput., 2017,
     13, 1989-2009. DOI: 10.1021/acs.jctc.7b00118
   for GFN0-xTB:
   * P. Pracht, E. Caldeweyher, S. Ehlert, S. Grimme, ChemRxiv, 2019, preprint.
     DOI: 10.26434/chemrxiv.8326202.v1
   for GFN-FF:
   * S. Spicher and S. Grimme, Angew. Chem. Int. Ed., 2020, 59, 15665-15673.
     DOI: 10.1002/anie.202004239
   
   for ALPB and GBSA implicit solvation:
   * S. Ehlert, M. Stahn, S. Spicher, S. Grimme, J. Chem. Theory Comput.,
     2021, 17, 4250-4261. DOI: 10.1021/acs.jctc.1c00471
   
   for ddCOSMO and CPCM-X implicit solvation:
   * M. Stahn, S. Ehlert, S. Grimme, J. Phys. Chem. A,
     2023, XX, XXXX-XXXX. DOI: 10.1021/acs.jpca.3c04382
   
   for DFT-D4:
   * E. Caldeweyher, C. Bannwarth and S. Grimme, J. Chem. Phys., 2017,
     147, 034112. DOI: 10.1063/1.4993215
   * E. Caldeweyher, S. Ehlert, A. Hansen, H. Neugebauer, S. Spicher,
     C. Bannwarth and S. Grimme, J. Chem. Phys., 2019, 150, 154122.
     DOI: 10.1063/1.5090222
   * E. Caldeweyher, J.-M. Mewes, S. Ehlert and S. Grimme, Phys. Chem. Chem. Phys.
     2020, 22, 8499-8512. DOI: 10.1039/D0CP00502A
   
   for sTDA-xTB:
   * S. Grimme and C. Bannwarth, J. Chem. Phys., 2016, 145, 054103.
     DOI: 10.1063/1.4959605
   
   in the mass-spec context:
   * V. Asgeirsson, C. Bauer and S. Grimme, Chem. Sci., 2017, 8, 4879.
     DOI: 10.1039/c7sc00601b
   * J. Koopman and S. Grimme, ACS Omega 2019, 4, 12, 15120-15133.
     DOI: 10.1021/acsomega.9b02011
   
   for metadynamics refer to:
   * S. Grimme, J. Chem. Theory Comput., 2019, 155, 2847-2862
     DOI: 10.1021/acs.jctc.9b00143
   
   for SPH calculations refer to:
   * S. Spicher and S. Grimme, J. Chem. Theory Comput., 2021, 17, 1701-1714
     DOI: 10.1021/acs.jctc.0c01306
   
   for ONIOM refer to:
   * C. Plett, A. Katbashev, S. Ehlert, S. Grimme, M. Bursch,
     Phys. Chem. Chem. Phys., 2023, 25, 17860-17868. DOI: 10.1039/D3CP02178E
   
   for DIPRO refer to:
   * J. Kohn, N. Gildemeister, S. Grimme, D. Fazzi, A. Hansen,
     J. Chem. Phys., 2023, just accepted.
   
   for PTB refer to:
   * S. Grimme, M. Mueller, A. Hansen, J. Chem. Phys., 2023, 158, 124111.
     DOI: 10.1063/5.0137838
   
   with help from (in alphabetical order)
   P. Atkinson, C. Bannwarth, F. Bohle, G. Brandenburg, E. Caldeweyher
   M. Checinski, S. Dohm, S. Ehlert, S. Ehrlich, I. Gerasimov, C. Hölzer
   A. Katbashev, J. Kohn, J. Koopman, C. Lavigne, S. Lehtola, F. März, M. Müller,
   F. Musil, H. Neugebauer, J. Pisarek, C. Plett, P. Pracht, F. Pultar,
   J. Seibert, P. Shushkov, S. Spicher, M. Stahn, M. Steiner, T. Strunk,
   J. Stückrath, T. Rose, and J. Unsleber
   
 * started run on 2026/09/20 at 00:14:28.202     
   ID    Z sym.   atoms
    1    6 C      1, 3, 5-11
    2    7 N      2, 4
    3    8 O      12
    4    1 H      13-20

           -------------------------------------------------
          |                Calculation Setup                |
           -------------------------------------------------

          program call               : C:\Users\HUIWEI\miniconda3\envs\phase2ff\Library\bin\xtb.exe input.xyz --gfn 2 --chrg -1 --uhf 1 --acc 0.1 --iterations 250
          coordinate file            : input.xyz
          omp threads                :                     2


           -------------------------------------------------
          |                 G F N 2 - x T B                 |
           -------------------------------------------------

        Reference                      10.1021/acs.jctc.8b01176
      * Hamiltonian:
        H0-scaling (s, p, d)           1.850000    2.230000    2.230000
        zeta-weighting                 0.500000
      * Dispersion:
        s8                             2.700000
        a1                             0.520000
        a2                             5.000000
        s9                             5.000000
      * Repulsion:
        kExp                           1.500000    1.000000
        rExp                           1.000000
      * Coulomb:
        alpha                          2.000000
        third order                    shell-resolved
        anisotropic                    true
        a3                             3.000000
        a5                             4.000000
        cn-shift                       1.200000
        cn-exp                         4.000000
        max-rad                        5.000000


          ...................................................
          :                      SETUP                      :
          :.................................................:
          :  # basis functions                  56          :
          :  # atomic orbitals                  56          :
          :  # shells                           32          :
          :  # electrons                        61          :
          :  max. iterations                   250          :
          :  Hamiltonian                  GFN2-xTB          :
          :  restarted?                      false          :
          :  GBSA solvation                  false          :
          :  PC potential                    false          :
          :  electronic temp.          300.0000000     K    :
          :  accuracy                    0.1000000          :
          :  -> integral cutoff          0.3500000E+02      :
          :  -> integral neglect         0.1000000E-08      :
          :  -> SCF convergence          0.1000000E-06 Eh   :
          :  -> wf. convergence          0.1000000E-04 e    :
          :  Broyden damping             0.4000000          :
          :  net charge                         -1          :
          :  unpaired electrons                  1          :
          ...................................................

 iter      E             dE          RMSdq      gap      omega  full diag
   1    -33.8697642 -0.338698E+02  0.422E+00    0.35       0.0  T
   2    -33.8881734 -0.184092E-01  0.325E+00    0.45       1.0  T
   3    -33.9155476 -0.273742E-01  0.234E+00    0.59       1.0  T
   4    -33.9535820 -0.380344E-01  0.109E+00    0.08       1.0  T
   5    -33.9547252 -0.114317E-02  0.103E+00    0.16       1.0  T
   6    -33.9663273 -0.116021E-01  0.454E-01    0.08       1.0  T
   7    -33.9685099 -0.218266E-02  0.184E-01    0.03       1.0  T
   8    -33.9686677 -0.157746E-03  0.968E-02    0.03       1.0  T
   9    -33.9687912 -0.123579E-03  0.569E-02    0.04       1.0  T
  10    -33.9688249 -0.336524E-04  0.293E-02    0.03       1.0  T
  11    -33.9688352 -0.102907E-04  0.998E-03    0.04       2.2  T
  12    -33.9688365 -0.129027E-05  0.322E-03    0.04       6.9  T
  13    -33.9688366 -0.961271E-07  0.100E-03    0.04      22.3  T
  14    -33.9688364  0.180643E-06  0.360E-03    0.04       6.2  T
  15    -33.9688366 -0.187140E-06  0.300E-04    0.04      74.6  T
  16    -33.9688366  0.129867E-08  0.433E-04    0.04      51.7  T
  17    -33.9688366 -0.254325E-08  0.478E-05    0.04     468.0  T
  18    -33.9688366 -0.429878E-11  0.450E-05    0.04     496.5  T

   *** convergence criteria satisfied after 18 iterations ***

         #    Occupation            Energy/Eh            Energy/eV
      -------------------------------------------------------------
         1        2.0000           -0.5190074             -14.1229
       ...           ...                  ...                  ...
        25        2.0000           -0.2633086              -7.1650
        26        2.0000           -0.2515599              -6.8453
        27        2.0000           -0.2242700              -6.1027
        28        2.0000           -0.2141179              -5.8264
        29        2.0000           -0.2046691              -5.5693
        30        2.0000           -0.2029703              -5.5231
        31        0.6704           -0.0735932              -2.0026 (HOMO)
        32        0.3296           -0.0722439              -1.9659 (LUMO)
        33                         -0.0122885              -0.3344
        34                          0.0153189               0.4168
        35                          0.1160242               3.1572
        36                          0.1658298               4.5125
       ...                                ...                  ...
        56                          0.8833729              24.0378
      -------------------------------------------------------------
                  HL-Gap            0.0013493 Eh            0.0367 eV
             Fermi-level           -0.1056002 Eh           -2.8735 eV

 SCC (total)                   0 d,  0 h,  0 min,  0.026 sec
 SCC setup                      ...        0 min,  0.000 sec (  0.714%)
 Dispersion                     ...        0 min,  0.000 sec (  0.527%)
 classical contributions        ...        0 min,  0.000 sec (  0.130%)
 integral evaluation            ...        0 min,  0.001 sec (  4.158%)
 iterations                     ...        0 min,  0.022 sec ( 83.486%)
 molecular gradient             ...        0 min,  0.003 sec ( 10.245%)
 printout                       ...        0 min,  0.000 sec (  0.700%)

         :::::::::::::::::::::::::::::::::::::::::::::::::::::
         ::                     SUMMARY                     ::
         :::::::::::::::::::::::::::::::::::::::::::::::::::::
         :: total energy             -33.460123305346 Eh    ::
         :: gradient norm              0.088885193824 Eh/a0 ::
         :: HOMO-LUMO gap              0.036717314108 eV    ::
         ::.................................................::
         :: SCC energy               -33.968822781042 Eh    ::
         :: -> isotropic ES            0.146830197899 Eh    ::
         :: -> anisotropic ES          0.013271745211 Eh    ::
         :: -> anisotropic XC          0.013428703625 Eh    ::
         :: -> dispersion             -0.020853490663 Eh    ::
         :: repulsion energy           0.508699475696 Eh    ::
         :: add. restraining           0.000000000000 Eh    ::
         :: total charge              -1.000000000000 e     ::
         :::::::::::::::::::::::::::::::::::::::::::::::::::::

           -------------------------------------------------
          |                Property Printout                |
           -------------------------------------------------

    * Orbital Energies and Occupations

         #    Occupation            Energy/Eh            Energy/eV
      -------------------------------------------------------------
         1        2.0000           -0.5190074             -14.1229
       ...           ...                  ...                  ...
        19        2.0000           -0.3149563              -8.5704
        20        2.0000           -0.3142935              -8.5524
        21        2.0000           -0.3070002              -8.3539
        22        2.0000           -0.3023214              -8.2266
        23        2.0000           -0.2935560              -7.9881
        24        2.0000           -0.2653442              -7.2204
        25        2.0000           -0.2633086              -7.1650
        26        2.0000           -0.2515599              -6.8453
        27        2.0000           -0.2242700              -6.1027
        28        2.0000           -0.2141179              -5.8264
        29        2.0000           -0.2046691              -5.5693
        30        2.0000           -0.2029703              -5.5231
        31        0.6704           -0.0735932              -2.0026 (HOMO)
        32        0.3296           -0.0722439              -1.9659 (LUMO)
        33                         -0.0122885              -0.3344
        34                          0.0153189               0.4168
        35                          0.1160242               3.1572
        36                          0.1658298               4.5125
        37                          0.2543335               6.9208
        38                          0.2775885               7.5536
        39                          0.2867422               7.8027
        40                          0.2951168               8.0305
        41                          0.3073936               8.3646
        42                          0.3285021               8.9390
       ...                                ...                  ...
        56                          0.8833729              24.0378
      -------------------------------------------------------------
                  HL-Gap            0.0013493 Eh            0.0367 eV
             Fermi-level           -0.1056002 Eh           -2.8735 eV

     #   Z          covCN         q      C6AA      α(0)
     1   6 C        3.701    -0.022    21.119     6.572
     2   7 N        2.740    -0.124    23.684     7.228
     3   6 C        2.849     0.087    26.064     8.367
     4   7 N        1.836    -0.337    29.589     8.061
     5   6 C        2.980     0.063    26.576     8.456
     6   6 C        2.921    -0.082    30.046     8.989
     7   6 C        2.919    -0.065    29.608     8.923
     8   6 C        2.918    -0.064    29.594     8.921
     9   6 C        2.920    -0.063    29.567     8.917
    10   6 C        2.980    -0.069    29.711     8.941
    11   6 C        2.779     0.230    23.168     7.884
    12   8 O        0.858    -0.548    24.868     6.686
    13   1 H        0.925     0.068     2.103     2.268
    14   1 H        0.924     0.016     2.793     2.613
    15   1 H        0.924     0.016     2.793     2.613
    16   1 H        0.925    -0.026     3.547     2.945
    17   1 H        0.926    -0.014     3.322     2.850
    18   1 H        0.926    -0.033     3.701     3.009
    19   1 H        0.926    -0.031     3.655     2.990
    20   1 H        0.926    -0.005     3.141     2.772

 Mol. C6AA /au·bohr⁶  :       5805.282018
 Mol. C8AA /au·bohr⁸  :     138092.253520
 Mol. α(0) /au        :        120.004120


Wiberg/Mayer (AO) data.
largest (>0.10) Wiberg bond orders for each atom

 ---------------------------------------------------------------------------
     #   Z sym  total        # sym  WBO       # sym  WBO       # sym  WBO
 ---------------------------------------------------------------------------
     1   6 C    3.983 --     2 N    1.005    15 H    0.980    14 H    0.980
                            13 H    0.974
     2   7 N    3.474 --     3 C    1.149    11 C    1.048     1 C    1.005
                            12 O    0.118
     3   6 C    3.786 --     4 N    1.535     2 N    1.149    16 H    0.955
     4   7 N    2.963 --     3 C    1.535     5 C    1.172
     5   6 C    3.905 --     6 C    1.327    10 C    1.245     4 N    1.172
     6   6 C    3.886 --     7 C    1.397     5 C    1.327    17 H    0.971
     7   6 C    3.879 --     6 C    1.397     8 C    1.383    18 H    0.972
     8   6 C    3.909 --     9 C    1.423     7 C    1.383    19 H    0.972
     9   6 C    3.881 --     8 C    1.423    10 C    1.308    20 H    0.970
    10   6 C    3.903 --     9 C    1.308     5 C    1.245    11 C    1.117
    11   6 C    3.842 --    12 O    1.535    10 C    1.117     2 N    1.048
    12   8 O    1.838 --    11 C    1.535     2 N    0.118
    13   1 H    0.995 --     1 C    0.974
    14   1 H    0.997 --     1 C    0.980
    15   1 H    0.997 --     1 C    0.980
    16   1 H    0.999 --     3 C    0.955
    17   1 H    0.999 --     6 C    0.971
    18   1 H    0.998 --     7 C    0.972
    19   1 H    0.999 --     8 C    0.972
    20   1 H    1.000 --     9 C    0.970
 ---------------------------------------------------------------------------

Topologies differ in total number of bonds
Writing topology from bond orders to xtbtopo.mol

molecular dipole:
                 x           y           z       tot (Debye)
 q only:       -0.881      -0.758      -0.258
   full:       -1.074      -0.646      -0.244       3.246
molecular quadrupole (traceless):
                xx          xy          yy          xz          yz          zz
 q only:       -3.336       4.193      -8.057       0.431      -1.988      11.394
  q+dip:        1.023       6.224     -10.403       0.381      -2.028       9.380
   full:        0.001       6.294     -11.891       0.474      -2.365      11.890


           -------------------------------------------------
          | TOTAL ENERGY              -33.460123305346 Eh   |
          | GRADIENT NORM               0.088885193824 Eh/α |
          | HOMO-LUMO GAP               0.036717314108 eV   |
           -------------------------------------------------

------------------------------------------------------------------------
 * finished run on 2026/09/20 at 00:14:28.244     
------------------------------------------------------------------------
 total:
 * wall-time:     0 d,  0 h,  0 min,  0.041 sec
 *  cpu-time:     0 d,  0 h,  0 min,  0.000 sec
 * ratio c/w:     0.000 speedup
 SCF:
 * wall-time:     0 d,  0 h,  0 min,  0.026 sec
 *  cpu-time:     0 d,  0 h,  0 min,  0.000 sec
 * ratio c/w:     0.000 speedup

