49
 energy: -80.784274910442 gnorm: 0.000218442277 xtb: 6.7.1 (edcfbbe)
Fe           0.00286854317251       -0.45681922481267        0.63489341080975
C            2.12783562963841       -2.63128887147648        1.11423657028959
P            2.06159536345237       -0.75752484953699        1.19479396482461
C            2.79979198273086       -0.45246332922811        2.83162441957012
C            4.03972951075216       -0.97074447357993        3.19854987553647
C            4.54514774492249       -0.70967225593146        4.45871838246024
C            3.82251074613052        0.06868737712846        5.35143868872709
C            2.59116537850281        0.58872787957528        4.98608462719822
C            2.07854185294796        0.32936661706560        3.72625409112602
C            3.43679823217947       -0.31598884337720        0.07442030475191
C            4.30820402076035        0.72537013259884        0.37749105310380
C            5.28610776172320        1.09866608646851       -0.52757815699853
C            5.39232444255565        0.44718835312475       -1.74564454402241
C            4.51056673281754       -0.57405227769060       -2.06401997221213
C            3.53247213904919       -0.94982003442546       -1.16217817776169
C            0.97177691895811       -3.15930297132810        0.31319673912753
C            0.91208764206972       -4.47094728897993       -0.13100041213149
C           -0.24361781352178       -4.93267997155947       -0.75185750142855
C           -1.32973154452844       -4.08451687420288       -0.86879157232999
C           -1.21758453409048       -2.77452329638200       -0.41761783884140
C           -2.25638166829248       -1.75169065370941       -0.39348328333981
C           -3.59459692933565       -1.73594836325494       -0.77572690619311
C           -4.30693448073550       -0.55513232743926       -0.55687280485709
C           -3.73812876080330        0.57236177937240        0.00923342797367
C           -2.37454589528306        0.51842133777991        0.37630069484762
O           -1.57674045737756        1.36899728114851        0.88424786272974
N           -1.74016256361744       -0.64941202494935        0.14533342190163
N           -0.04799765287221       -2.31209164372553        0.11597161799120
H            1.98775897702045       -2.96640896617033        2.15043042710838
H            3.08998198724028       -3.00890827470104        0.75535925739022
H            4.60456655433862       -1.56679232003633        2.49436023679860
H            5.50602012551125       -1.11096031423449        4.74784536175596
H            4.22339059323298        0.27053601698216        6.33440339401587
H            2.03190145951734        1.19604563200022        5.68315907036556
H            1.11485616607404        0.71489809900990        3.41558863885619
H            4.21731103163871        1.24069231738160        1.32463964442440
H            5.96428860238345        1.90408263226371       -0.28425183095863
H            6.15593904787121        0.74073956247563       -2.45128038141081
H            4.58321473602454       -1.07297202626113       -3.01994627351650
H            2.82933844092976       -1.73331649557100       -1.41825064243553
H            1.75465924672578       -5.12774691996180        0.02152430711480
H           -0.29947344608493       -5.94896960300374       -1.11024218681149
H           -2.26009920004732       -4.41986960003714       -1.29866159160522
H           -4.06895917043116       -2.59657091840278       -1.21781819477608
H           -5.34947721153608       -0.52190006336558       -0.84272430354682
H           -4.31319383555248        1.47136352943505        0.16678970208685
C            0.44974382277320        0.18517421413397       -0.93103194917589
O            0.73087053045927        0.60948825695010       -1.96169467084223
H           -0.31903143881667       -0.91259045251567        1.99994795418945
