      -----------------------------------------------------------      
     |                   =====================                   |     
     |                           x T B                           |     
     |                   =====================                   |     
     |                         S. Grimme                         |     
     |          Mulliken Center for Theoretical Chemistry        |     
     |                    University of Bonn                     |     
      -----------------------------------------------------------      

   * xtb version 6.7.1 (edcfbbe) compiled by 'VssAdministrator@runnervm171ch' on 2026-06-10

   xtb is free software: you can redistribute it and/or modify it under
   the terms of the GNU Lesser General Public License as published by
   the Free Software Foundation, either version 3 of the License, or
   (at your option) any later version.
   
   xtb is distributed in the hope that it will be useful,
   but WITHOUT ANY WARRANTY; without even the implied warranty of
   MERCHANTABILITY or FITNESS FOR A PARTICULAR PURPOSE.  See the
   GNU Lesser General Public License for more details.
   
   Cite this work as:
   * C. Bannwarth, E. Caldeweyher, S. Ehlert, A. Hansen, P. Pracht,
     J. Seibert, S. Spicher, S. Grimme, WIREs Comput. Mol. Sci., 2020, 11,
     e01493. DOI: 10.1002/wcms.1493
   
   for GFN2-xTB:
   * C. Bannwarth, S. Ehlert and S. Grimme., J. Chem. Theory Comput., 2019,
     15, 1652-1671. DOI: 10.1021/acs.jctc.8b01176
   for GFN1-xTB:
   * S. Grimme, C. Bannwarth, P. Shushkov, J. Chem. Theory Comput., 2017,
     13, 1989-2009. DOI: 10.1021/acs.jctc.7b00118
   for GFN0-xTB:
   * P. Pracht, E. Caldeweyher, S. Ehlert, S. Grimme, ChemRxiv, 2019, preprint.
     DOI: 10.26434/chemrxiv.8326202.v1
   for GFN-FF:
   * S. Spicher and S. Grimme, Angew. Chem. Int. Ed., 2020, 59, 15665-15673.
     DOI: 10.1002/anie.202004239
   
   for ALPB and GBSA implicit solvation:
   * S. Ehlert, M. Stahn, S. Spicher, S. Grimme, J. Chem. Theory Comput.,
     2021, 17, 4250-4261. DOI: 10.1021/acs.jctc.1c00471
   
   for ddCOSMO and CPCM-X implicit solvation:
   * M. Stahn, S. Ehlert, S. Grimme, J. Phys. Chem. A,
     2023, XX, XXXX-XXXX. DOI: 10.1021/acs.jpca.3c04382
   
   for DFT-D4:
   * E. Caldeweyher, C. Bannwarth and S. Grimme, J. Chem. Phys., 2017,
     147, 034112. DOI: 10.1063/1.4993215
   * E. Caldeweyher, S. Ehlert, A. Hansen, H. Neugebauer, S. Spicher,
     C. Bannwarth and S. Grimme, J. Chem. Phys., 2019, 150, 154122.
     DOI: 10.1063/1.5090222
   * E. Caldeweyher, J.-M. Mewes, S. Ehlert and S. Grimme, Phys. Chem. Chem. Phys.
     2020, 22, 8499-8512. DOI: 10.1039/D0CP00502A
   
   for sTDA-xTB:
   * S. Grimme and C. Bannwarth, J. Chem. Phys., 2016, 145, 054103.
     DOI: 10.1063/1.4959605
   
   in the mass-spec context:
   * V. Asgeirsson, C. Bauer and S. Grimme, Chem. Sci., 2017, 8, 4879.
     DOI: 10.1039/c7sc00601b
   * J. Koopman and S. Grimme, ACS Omega 2019, 4, 12, 15120-15133.
     DOI: 10.1021/acsomega.9b02011
   
   for metadynamics refer to:
   * S. Grimme, J. Chem. Theory Comput., 2019, 155, 2847-2862
     DOI: 10.1021/acs.jctc.9b00143
   
   for SPH calculations refer to:
   * S. Spicher and S. Grimme, J. Chem. Theory Comput., 2021, 17, 1701-1714
     DOI: 10.1021/acs.jctc.0c01306
   
   for ONIOM refer to:
   * C. Plett, A. Katbashev, S. Ehlert, S. Grimme, M. Bursch,
     Phys. Chem. Chem. Phys., 2023, 25, 17860-17868. DOI: 10.1039/D3CP02178E
   
   for DIPRO refer to:
   * J. Kohn, N. Gildemeister, S. Grimme, D. Fazzi, A. Hansen,
     J. Chem. Phys., 2023, just accepted.
   
   for PTB refer to:
   * S. Grimme, M. Mueller, A. Hansen, J. Chem. Phys., 2023, 158, 124111.
     DOI: 10.1063/5.0137838
   
   with help from (in alphabetical order)
   P. Atkinson, C. Bannwarth, F. Bohle, G. Brandenburg, E. Caldeweyher
   M. Checinski, S. Dohm, S. Ehlert, S. Ehrlich, I. Gerasimov, C. Hölzer
   A. Katbashev, J. Kohn, J. Koopman, C. Lavigne, S. Lehtola, F. März, M. Müller,
   F. Musil, H. Neugebauer, J. Pisarek, C. Plett, P. Pracht, F. Pultar,
   J. Seibert, P. Shushkov, S. Spicher, M. Stahn, M. Steiner, T. Strunk,
   J. Stückrath, T. Rose, and J. Unsleber
   
 * started run on 2026/09/20 at 00:12:14.412     
   ID    Z sym.   atoms
    1    6 C      1, 3, 5-11
    2    7 N      2, 4
    3    8 O      12
    4    1 H      13-20

           -------------------------------------------------
          |                Calculation Setup                |
           -------------------------------------------------

          program call               : C:\Users\HUIWEI\miniconda3\envs\phase2ff\Library\bin\xtb.exe input.xyz --gfn 2 --chrg -1 --uhf 1 --acc 0.1 --iterations 250
          coordinate file            : input.xyz
          omp threads                :                     2


           -------------------------------------------------
          |                 G F N 2 - x T B                 |
           -------------------------------------------------

        Reference                      10.1021/acs.jctc.8b01176
      * Hamiltonian:
        H0-scaling (s, p, d)           1.850000    2.230000    2.230000
        zeta-weighting                 0.500000
      * Dispersion:
        s8                             2.700000
        a1                             0.520000
        a2                             5.000000
        s9                             5.000000
      * Repulsion:
        kExp                           1.500000    1.000000
        rExp                           1.000000
      * Coulomb:
        alpha                          2.000000
        third order                    shell-resolved
        anisotropic                    true
        a3                             3.000000
        a5                             4.000000
        cn-shift                       1.200000
        cn-exp                         4.000000
        max-rad                        5.000000


          ...................................................
          :                      SETUP                      :
          :.................................................:
          :  # basis functions                  56          :
          :  # atomic orbitals                  56          :
          :  # shells                           32          :
          :  # electrons                        61          :
          :  max. iterations                   250          :
          :  Hamiltonian                  GFN2-xTB          :
          :  restarted?                      false          :
          :  GBSA solvation                  false          :
          :  PC potential                    false          :
          :  electronic temp.          300.0000000     K    :
          :  accuracy                    0.1000000          :
          :  -> integral cutoff          0.3500000E+02      :
          :  -> integral neglect         0.1000000E-08      :
          :  -> SCF convergence          0.1000000E-06 Eh   :
          :  -> wf. convergence          0.1000000E-04 e    :
          :  Broyden damping             0.4000000          :
          :  net charge                         -1          :
          :  unpaired electrons                  1          :
          ...................................................

 iter      E             dE          RMSdq      gap      omega  full diag
   1    -33.8686740 -0.338687E+02  0.422E+00    0.38       0.0  T
   2    -33.8891059 -0.204318E-01  0.324E+00    0.43       1.0  T
   3    -33.9158250 -0.267191E-01  0.233E+00    0.60       1.0  T
   4    -33.9535559 -0.377309E-01  0.107E+00    0.08       1.0  T
   5    -33.9545664 -0.101051E-02  0.102E+00    0.16       1.0  T
   6    -33.9655787 -0.110123E-01  0.470E-01    0.09       1.0  T
   7    -33.9679738 -0.239501E-02  0.167E-01    0.04       1.0  T
   8    -33.9680966 -0.122819E-03  0.889E-02    0.04       1.0  T
   9    -33.9681995 -0.102957E-03  0.526E-02    0.04       1.0  T
  10    -33.9682271 -0.275649E-04  0.286E-02    0.04       1.0  T
  11    -33.9682370 -0.994025E-05  0.971E-03    0.04       2.3  T
  12    -33.9682383 -0.124391E-05  0.278E-03    0.04       8.0  T
  13    -33.9682383 -0.656107E-07  0.971E-04    0.04      23.0  T
  14    -33.9682382  0.171751E-06  0.352E-03    0.04       6.4  T
  15    -33.9682384 -0.178348E-06  0.204E-04    0.04     109.7  T
  16    -33.9682383  0.330918E-08  0.530E-04    0.04      42.2  T
  17    -33.9682384 -0.381371E-08  0.727E-05    0.04     307.8  T
  18    -33.9682384 -0.340563E-10  0.542E-05    0.04     412.7  T

   *** convergence criteria satisfied after 18 iterations ***

         #    Occupation            Energy/Eh            Energy/eV
      -------------------------------------------------------------
         1        2.0000           -0.5193969             -14.1335
       ...           ...                  ...                  ...
        25        2.0000           -0.2628651              -7.1529
        26        2.0000           -0.2515590              -6.8453
        27        2.0000           -0.2235190              -6.0823
        28        2.0000           -0.2115499              -5.7566
        29        2.0000           -0.2039236              -5.5490
        30        2.0000           -0.2031131              -5.5270
        31        0.6935           -0.0728525              -1.9824 (HOMO)
        32        0.3065           -0.0713006              -1.9402 (LUMO)
        33                         -0.0115637              -0.3147
        34                          0.0162467               0.4421
        35                          0.1166297               3.1737
        36                          0.1677564               4.5649
       ...                                ...                  ...
        56                          0.8849577              24.0809
      -------------------------------------------------------------
                  HL-Gap            0.0015518 Eh            0.0422 eV
             Fermi-level           -0.1050297 Eh           -2.8580 eV

 SCC (total)                   0 d,  0 h,  0 min,  0.039 sec
 SCC setup                      ...        0 min,  0.000 sec (  0.446%)
 Dispersion                     ...        0 min,  0.000 sec (  0.388%)
 classical contributions        ...        0 min,  0.000 sec (  0.103%)
 integral evaluation            ...        0 min,  0.001 sec (  3.033%)
 iterations                     ...        0 min,  0.035 sec ( 89.452%)
 molecular gradient             ...        0 min,  0.002 sec (  6.105%)
 printout                       ...        0 min,  0.000 sec (  0.444%)

         :::::::::::::::::::::::::::::::::::::::::::::::::::::
         ::                     SUMMARY                     ::
         :::::::::::::::::::::::::::::::::::::::::::::::::::::
         :: total energy             -33.458904697136 Eh    ::
         :: gradient norm              0.088370617947 Eh/a0 ::
         :: HOMO-LUMO gap              0.042227100053 eV    ::
         ::.................................................::
         :: SCC energy               -33.968224154662 Eh    ::
         :: -> isotropic ES            0.147454255906 Eh    ::
         :: -> anisotropic ES          0.014303766637 Eh    ::
         :: -> anisotropic XC          0.013365845464 Eh    ::
         :: -> dispersion             -0.020868807795 Eh    ::
         :: repulsion energy           0.509319457527 Eh    ::
         :: add. restraining           0.000000000000 Eh    ::
         :: total charge              -1.000000000000 e     ::
         :::::::::::::::::::::::::::::::::::::::::::::::::::::

           -------------------------------------------------
          |                Property Printout                |
           -------------------------------------------------

    * Orbital Energies and Occupations

         #    Occupation            Energy/Eh            Energy/eV
      -------------------------------------------------------------
         1        2.0000           -0.5193969             -14.1335
       ...           ...                  ...                  ...
        19        2.0000           -0.3139790              -8.5438
        20        2.0000           -0.3135833              -8.5330
        21        2.0000           -0.3062252              -8.3328
        22        2.0000           -0.3018707              -8.2143
        23        2.0000           -0.2934079              -7.9840
        24        2.0000           -0.2647023              -7.2029
        25        2.0000           -0.2628651              -7.1529
        26        2.0000           -0.2515590              -6.8453
        27        2.0000           -0.2235190              -6.0823
        28        2.0000           -0.2115499              -5.7566
        29        2.0000           -0.2039236              -5.5490
        30        2.0000           -0.2031131              -5.5270
        31        0.6935           -0.0728525              -1.9824 (HOMO)
        32        0.3065           -0.0713006              -1.9402 (LUMO)
        33                         -0.0115637              -0.3147
        34                          0.0162467               0.4421
        35                          0.1166297               3.1737
        36                          0.1677564               4.5649
        37                          0.2433560               6.6221
        38                          0.2764268               7.5220
        39                          0.2855155               7.7693
        40                          0.3009857               8.1902
        41                          0.3078193               8.3762
        42                          0.3255369               8.8583
       ...                                ...                  ...
        56                          0.8849577              24.0809
      -------------------------------------------------------------
                  HL-Gap            0.0015518 Eh            0.0422 eV
             Fermi-level           -0.1050297 Eh           -2.8580 eV

     #   Z          covCN         q      C6AA      α(0)
     1   6 C        3.702    -0.013    20.969     6.548
     2   7 N        2.741    -0.122    23.646     7.222
     3   6 C        2.845     0.087    26.055     8.365
     4   7 N        1.837    -0.338    29.619     8.065
     5   6 C        2.979     0.064    26.563     8.454
     6   6 C        2.921    -0.083    30.073     8.993
     7   6 C        2.919    -0.065    29.609     8.923
     8   6 C        2.918    -0.064    29.590     8.920
     9   6 C        2.920    -0.064    29.596     8.921
    10   6 C        2.980    -0.069    29.712     8.941
    11   6 C        2.783     0.229    23.198     7.889
    12   8 O        0.858    -0.547    24.844     6.683
    13   1 H        0.924     0.039     2.461     2.453
    14   1 H        0.924     0.039     2.461     2.453
    15   1 H        0.925     0.018     2.757     2.597
    16   1 H        0.925    -0.027     3.573     2.956
    17   1 H        0.926    -0.015     3.332     2.855
    18   1 H        0.926    -0.033     3.708     3.011
    19   1 H        0.926    -0.031     3.662     2.992
    20   1 H        0.926    -0.006     3.156     2.778

 Mol. C6AA /au·bohr⁶  :       5806.664437
 Mol. C8AA /au·bohr⁸  :     138097.846219
 Mol. α(0) /au        :        120.020906


Wiberg/Mayer (AO) data.
largest (>0.10) Wiberg bond orders for each atom

 ---------------------------------------------------------------------------
     #   Z sym  total        # sym  WBO       # sym  WBO       # sym  WBO
 ---------------------------------------------------------------------------
     1   6 C    3.986 --     2 N    1.006    15 H    0.984    13 H    0.978
                            14 H    0.978
     2   7 N    3.479 --     3 C    1.155    11 C    1.044     1 C    1.006
                            12 O    0.117
     3   6 C    3.793 --     4 N    1.531     2 N    1.155    16 H    0.952
     4   7 N    2.965 --     3 C    1.531     5 C    1.172
     5   6 C    3.907 --     6 C    1.327    10 C    1.248     4 N    1.172
     6   6 C    3.887 --     7 C    1.394     5 C    1.327    17 H    0.971
     7   6 C    3.883 --     6 C    1.394     8 C    1.387    18 H    0.972
     8   6 C    3.912 --     9 C    1.420     7 C    1.387    19 H    0.972
     9   6 C    3.882 --     8 C    1.420    10 C    1.307    20 H    0.970
    10   6 C    3.906 --     9 C    1.307     5 C    1.248    11 C    1.116
    11   6 C    3.845 --    12 O    1.537    10 C    1.116     2 N    1.044
    12   8 O    1.834 --    11 C    1.537     2 N    0.117
    13   1 H    0.996 --     1 C    0.978
    14   1 H    0.996 --     1 C    0.978
    15   1 H    0.999 --     1 C    0.984
    16   1 H    0.999 --     3 C    0.952
    17   1 H    0.999 --     6 C    0.971
    18   1 H    0.998 --     7 C    0.972
    19   1 H    0.999 --     8 C    0.972
    20   1 H    1.000 --     9 C    0.970
 ---------------------------------------------------------------------------

Topologies differ in total number of bonds
Writing topology from bond orders to xtbtopo.mol

molecular dipole:
                 x           y           z       tot (Debye)
 q only:       -0.914      -0.782      -0.261
   full:       -1.107      -0.654      -0.246       3.327
molecular quadrupole (traceless):
                xx          xy          yy          xz          yz          zz
 q only:       -3.174       4.693      -8.328       0.469      -2.056      11.503
  q+dip:        1.148       6.581     -10.606       0.403      -2.081       9.458
   full:        0.125       6.675     -12.060       0.500      -2.414      11.934


           -------------------------------------------------
          | TOTAL ENERGY              -33.458904697136 Eh   |
          | GRADIENT NORM               0.088370617947 Eh/α |
          | HOMO-LUMO GAP               0.042227100053 eV   |
           -------------------------------------------------

------------------------------------------------------------------------
 * finished run on 2026/09/20 at 00:12:14.467     
------------------------------------------------------------------------
 total:
 * wall-time:     0 d,  0 h,  0 min,  0.055 sec
 *  cpu-time:     0 d,  0 h,  0 min,  0.000 sec
 * ratio c/w:     0.000 speedup
 SCF:
 * wall-time:     0 d,  0 h,  0 min,  0.039 sec
 *  cpu-time:     0 d,  0 h,  0 min,  0.000 sec
 * ratio c/w:     0.000 speedup

