80
Properties=species:S:1:pos:R:3 charge=0 unpaired=0 uhf=0 pbc="F F F"
Mn       0.04675635      -0.20309180      -0.42737100
N        0.36471826      -2.13539267       0.00920377
C        1.68856113      -2.74097038      -0.03447935
C        2.59994589      -2.00549654      -1.01367175
P        2.28335536      -0.21329043      -0.73119492
C        3.44042025       0.11045418       0.64703331
C        3.04274669      -0.24460478       1.93374440
C        3.90781736      -0.09016185       3.00128121
C        5.17686773       0.42675812       2.79539546
C        5.57620889       0.78682860       1.51886778
C        4.71650969       0.62848190       0.44569615
C        3.12286205       0.63271322      -2.10643950
C        2.89097323       2.00322494      -2.21030926
C        3.51090633       2.74336097      -3.19844200
C        4.36842174       2.11931292      -4.09153924
C        4.60277125       0.75816884      -3.99161263
C        3.98425956       0.01159425      -3.00364209
C       -0.47359665      -2.91209719       0.91124104
C       -1.78757281      -2.19146452       1.22995840
P       -2.06021552      -0.89981008      -0.05211569
C       -3.34256436       0.11201428       0.76325260
C       -4.55347930      -0.47416515       1.12660234
C       -5.52359052       0.27665699       1.76288106
C       -5.29682462       1.61724498       2.03616830
C       -4.09843666       2.20602892       1.66936236
C       -3.12240425       1.45676070       1.03372195
C       -3.10528059      -1.67908806      -1.32696278
C       -3.19510195      -3.05074135      -1.52765660
C       -3.99825682      -3.54751199      -2.54015091
C       -4.70315961      -2.68405635      -3.36147823
C       -4.60353073      -1.31304245      -3.17598189
C       -3.80400951      -0.81221203      -2.16721998
H        1.60997169      -3.80324167      -0.33243673
H        2.15717968      -2.73401774       0.96948121
H        2.32232454      -2.23957409      -2.04648459
H        3.65194726      -2.25626952      -0.84995365
H        2.04496830      -0.63206968       2.09376231
H        3.58970425      -0.36806832       3.99569373
H        5.85191212       0.55262442       3.62922716
H        6.56367844       1.19387931       1.35531650
H        5.03889167       0.91343742      -0.54568722
H        2.22121794       2.47508541      -1.50049125
H        3.32690493       3.80530479      -3.27334110
H        4.85470340       2.69484807      -4.86557888
H        5.27318580       0.27247676      -4.68574256
H        4.17979830      -1.04846496      -2.93678831
H       -0.68513680      -3.90117573       0.46384968
H        0.06579072      -3.11348984       1.85658717
H       -2.63621106      -2.87456668       1.31618899
H       -1.69134381      -1.63054533       2.16779494
H       -4.73549201      -1.51682900       0.90132650
H       -6.46021647      -0.18232008       2.04495648
H       -6.05705655       2.20239211       2.53261353
H       -3.92116240       3.25120033       1.87684121
H       -2.18423449       1.91191515       0.74252195
H       -2.63749486      -3.73468133      -0.90497197
H       -4.06862267      -4.61519183      -2.69152906
H       -5.32628942      -3.07757126      -4.15132759
H       -5.14560343      -0.63702107      -3.82165180
H       -3.71005954       0.25751991      -2.01562777
C       -0.31535719       1.39559418      -1.08053397
O       -0.56228480       2.47054104      -1.45405895
C        0.07160396       0.54674834       1.16561302
O        0.03302470       1.09915576       2.18843718
O       -0.33982558      -2.61889015      -2.47342422
C       -0.28464775      -1.28136837      -2.83045653
C        0.66431683      -0.96790933      -3.95931770
C        0.77576344       0.34499519      -4.40713439
C        1.61537078       0.65471931      -5.45894291
C        2.35968477      -0.34152739      -6.07177584
C        2.25720997      -1.64770536      -5.62796953
C        1.41100964      -1.96081166      -4.57772847
H       -0.12038454      -2.62713192      -1.47505410
H        0.04025668      -0.64574218      -1.94743939
H       -1.28836645      -0.92494861      -3.13236088
H        0.19772107       1.12360317      -3.92605060
H        1.69141582       1.67644580      -5.80148589
H        3.01458004      -0.09768085      -6.89545594
H        2.83226421      -2.42975777      -6.10336736
H        1.30675910      -2.98293106      -4.24033911
80
Properties=species:S:1:pos:R:3 charge=0 unpaired=0 uhf=0 pbc="F F F"
Mn       0.08302291      -0.22033347      -0.20513712
N        0.39465648      -2.11588219       0.08093057
C        1.70270585      -2.75825848       0.02799951
C        2.65169736      -2.01121302      -0.90360269
P        2.30783997      -0.21771443      -0.64967311
C        3.43454938       0.18159746       0.73398148
C        3.07052976      -0.25912584       2.00492928
C        3.88842883      -0.01675940       3.09185478
C        5.07103719       0.68645369       2.92446721
C        5.42997829       1.14218506       1.66718752
C        4.62115997       0.88906724       0.57242391
C        3.17639383       0.58339385      -2.03985691
C        2.89995130       1.93113799      -2.26093800
C        3.57233790       2.63236329      -3.24433150
C        4.53168331       1.99483870      -4.01518026
C        4.81015363       0.65528235      -3.80151803
C        4.13753463      -0.05226764      -2.82023162
C       -0.50713281      -2.98946491       0.82072288
C       -1.81613919      -2.28407954       1.18239485
P       -2.05653504      -0.90812377      -0.01442266
C       -3.30950781       0.11170346       0.83075345
C       -4.46692979      -0.47327283       1.33780888
C       -5.40610462       0.30456429       1.98824106
C       -5.20878646       1.67096623       2.11845192
C       -4.06931505       2.25996981       1.59668875
C       -3.11836868       1.48234988       0.95867112
C       -3.12055303      -1.61304190      -1.33040996
C       -3.10377779      -2.96157755      -1.67482916
C       -3.92104388      -3.43211678      -2.68856907
C       -4.76385661      -2.56713678      -3.36583683
C       -4.78153364      -1.22118896      -3.03281396
C       -3.95813499      -0.74374249      -2.02994352
H        1.60062909      -3.80431540      -0.31451938
H        2.14692812      -2.80694099       1.03986204
H        2.42025733      -2.24374335      -1.95021831
H        3.69646834      -2.25771530      -0.69361539
H        2.12906512      -0.77697028       2.13885001
H        3.59915677      -0.36686429       4.07227904
H        5.70657216       0.88627343       3.77468660
H        6.34458871       1.70210844       1.53502840
H        4.91187594       1.25201828      -0.40275254
H        2.15796204       2.42225725      -1.64426790
H        3.35184644       3.67752756      -3.40682539
H        5.06525699       2.54243628      -4.77848392
H        5.56363108       0.15876255      -4.39613936
H        4.37860452      -1.09304809      -2.66304471
H       -0.71715172      -3.90283453       0.23427489
H       -0.01383969      -3.33249953       1.74884303
H       -2.66400547      -2.97158257       1.22404763
H       -1.71063639      -1.77972274       2.15118533
H       -4.63032147      -1.53579478       1.21791205
H       -6.29595299      -0.15448075       2.39393467
H       -5.94549543       2.27630882       2.62578107
H       -3.91698554       3.32560320       1.68729190
H       -2.21993662       1.93325870       0.55690313
H       -2.44901485      -3.65189265      -1.16509417
H       -3.89663072      -4.47999945      -2.95222863
H       -5.40272009      -2.93940814      -4.15386210
H       -5.43855006      -0.54344512      -3.55906323
H       -3.96324685       0.30876047      -1.77620072
C       -0.25047948       1.33863601      -0.96261052
O       -0.45948005       2.39869654      -1.40148503
C        0.07550533       0.57530012       1.36850231
O        0.02446300       1.09067461       2.41008706
O       -0.16628656      -2.77533029      -2.58627009
C       -0.34225006      -1.48502414      -3.10271094
C        0.60768481      -1.10486452      -4.20385676
C        0.84067273       0.24181742      -4.45661095
C        1.65520935       0.62118494      -5.50565196
C        2.25013490      -0.34258714      -6.30389827
C        2.03735417      -1.68492331      -6.04150678
C        1.21843391      -2.06661023      -4.99312745
H        0.00827078      -2.65741917      -1.61807099
H       -0.21209229      -0.72226828      -2.29326807
H       -1.37563396      -1.37585203      -3.47327324
H        0.37736043       0.99196453      -3.82910564
H        1.82358759       1.67028937      -5.70023581
H        2.87680742      -0.04530192      -7.13175471
H        2.49912721      -2.43956121      -6.66189297
H        1.03676293      -3.11006174      -4.77819038
80
Properties=species:S:1:pos:R:3 charge=0 unpaired=0 uhf=0 pbc="F F F"
Mn       0.07530460      -0.23662786      -0.40113073
N        0.38595772      -2.32746197      -0.11977429
C        1.75119182      -2.83725072       0.06128692
C        2.72329534      -2.04639361      -0.80546518
P        2.33458032      -0.24480570      -0.62964895
C        3.38373195       0.24432614       0.79486088
C        3.08662779      -0.27728766       2.05301585
C        3.86414002       0.04255612       3.15012070
C        4.93541828       0.91067775       3.01242055
C        5.21946424       1.45711546       1.77277467
C        4.45375410       1.12529926       0.66821743
C        3.27037666       0.52196072      -1.99202939
C        2.94649006       1.83781038      -2.31849965
C        3.66021696       2.51500939      -3.28933843
C        4.71056955       1.88604992      -3.93902885
C        5.04183575       0.58152369      -3.61358356
C        4.32794134      -0.10271287      -2.64483766
C       -0.55923776      -3.12400601       0.68153695
C       -1.81226179      -2.32449940       1.05944739
P       -2.07435080      -0.91018231      -0.10744771
C       -3.25586833       0.11705459       0.83258458
C       -4.33272543      -0.45818390       1.50326654
C       -5.23702274       0.34157191       2.17744134
C       -5.09104239       1.72016412       2.17073657
C       -4.03139832       2.29895217       1.49285981
C       -3.11342188       1.50068392       0.83216404
C       -3.20973337      -1.58275227      -1.37096712
C       -3.06145280      -2.87298044      -1.87286617
C       -3.89063065      -3.32423398      -2.88416550
C       -4.87877617      -2.50034782      -3.39723892
C       -5.03357037      -1.21623936      -2.89901975
C       -4.19647313      -0.75282591      -1.90093733
H        1.79567222      -3.90012928      -0.22150710
H        2.03854650      -2.76231208       1.11765909
H        2.55517433      -2.29703146      -1.85995167
H        3.76000061      -2.25995989      -0.53137964
H        2.22775039      -0.92239126       2.17947075
H        3.62887561      -0.37790701       4.11716961
H        5.53903498       1.16768469       3.87033182
H        6.04170033       2.14881879       1.66057028
H        4.69058245       1.56112152      -0.29090264
H        2.13414704       2.32467100      -1.79421620
H        3.39959749       3.53408283      -3.53598929
H        5.27429854       2.41405888      -4.69402436
H        5.86857006       0.09427935      -4.10990515
H        4.61021262      -1.11477870      -2.39671377
H       -0.84044736      -4.03020332       0.12779171
H       -0.06202522      -3.45237536       1.60344163
H       -2.69336790      -2.96799135       1.11691157
H       -1.66178169      -1.83831592       2.03209755
H       -4.46853168      -1.53035527       1.49354031
H       -6.06314033      -0.11154513       2.70585694
H       -5.80485001       2.34170917       2.69100203
H       -3.91776326       3.37303052       1.47583902
H       -2.27893837       1.94775741       0.30882664
H       -2.27451818      -3.51630769      -1.51003903
H       -3.75329665      -4.31965411      -3.28183472
H       -5.51994492      -2.85450839      -4.19135048
H       -5.80322240      -0.57046916      -3.29657162
H       -4.30559804       0.25640345      -1.52623693
C       -0.20335964       1.40762421      -0.97163458
O       -0.36975709       2.51567151      -1.28869991
C        0.07681578       0.39403292       1.24836445
O        0.02340341       0.88021736       2.30097916
O       -0.01969536      -2.85436794      -2.60378692
C       -0.22745991      -1.65063613      -3.08824268
C        0.61606821      -1.18021833      -4.25372665
C        0.95393550       0.15753012      -4.40124308
C        1.66903359       0.58422982      -5.50425204
C        2.04592538      -0.32313453      -6.48034604
C        1.70336652      -1.65812699      -6.34606880
C        0.99545110      -2.08600061      -5.23656322
H        0.17660400      -2.60762506      -1.16278253
H       -0.03656774      -0.79185495      -2.21617857
H       -1.29453301      -1.45765615      -3.37211194
H        0.65213601       0.86975955      -3.64282518
H        1.93179775       1.62793147      -5.60001897
H        2.60145371       0.01103501      -7.34487728
H        1.98309801      -2.36832844      -7.11193399
H        0.72206417      -3.12603897      -5.12084701
80
Properties=species:S:1:pos:R:3 charge=0 unpaired=0 uhf=0 pbc="F F F"
Mn       0.07321557      -0.17867169      -0.41067222
N        0.39480684      -2.42293817      -0.13899538
C        1.76058666      -2.87364066       0.13976996
C        2.75884501      -2.04539980      -0.66081954
P        2.32193408      -0.24023556      -0.54619130
C        3.34830970       0.30782841       0.87455464
C        3.14206437      -0.28538711       2.11808218
C        3.88284363       0.10100756       3.21837057
C        4.82701597       1.10784833       3.09881304
C        5.01690614       1.72649332       1.87511040
C        4.28504018       1.33157449       0.76874790
C        3.32481988       0.47193177      -1.90123582
C        2.96417282       1.74136172      -2.35013348
C        3.72103549       2.39312360      -3.30698244
C        4.84879326       1.78154201      -3.83110442
C        5.21447619       0.52095925      -3.38988661
C        4.46360247      -0.13180205      -2.42662799
C       -0.61086775      -3.20084097       0.60477350
C       -1.82000041      -2.34746788       1.00755755
P       -2.05271425      -0.88123486      -0.11298700
C       -3.21217387       0.13524376       0.86403944
C       -4.19845871      -0.41625335       1.67732200
C       -5.08074702       0.40836855       2.35199066
C       -5.00147819       1.78479361       2.21093225
C       -4.03430508       2.33932330       1.38916754
C       -3.14387381       1.51802669       0.72098871
C       -3.24529794      -1.53147911      -1.35643801
C       -2.98264548      -2.72308787      -2.03066574
C       -3.81928250      -3.16261013      -3.04180739
C       -4.94200283      -2.42815281      -3.38569836
C       -5.22370460      -1.25351682      -2.70778695
C       -4.37614640      -0.79903045      -1.71251072
H        1.87525132      -3.93736664      -0.12286013
H        1.95563375      -2.77274452       1.21290043
H        2.67677267      -2.30283039      -1.72391158
H        3.77990875      -2.22754520      -0.31443039
H        2.38123457      -1.04472980       2.23370322
H        3.71744141      -0.37730542       4.17349555
H        5.40292655       1.41585040       3.95915939
H        5.73861307       2.52489013       1.77809167
H        4.44417943       1.82696525      -0.17767033
H        2.08368731       2.21286247      -1.93203870
H        3.43468754       3.38112457      -3.63876412
H        5.44414424       2.28810383      -4.57703321
H        6.09870692       0.04559959      -3.79022976
H        4.78204679      -1.10541751      -2.08557455
H       -0.94082209      -4.05751005       0.00260591
H       -0.14690387      -3.60296543       1.51259320
H       -2.72458389      -2.95886851       1.05589818
H       -1.64245015      -1.89559337       1.99147168
H       -4.28777954      -1.48793521       1.78045600
H       -5.83934366      -0.02620198       2.98710182
H       -5.69560943       2.42339278       2.73746429
H       -3.97226991       3.41104228       1.26591333
H       -2.38747053       1.94229757       0.07409763
H       -2.10917926      -3.30838860      -1.78201051
H       -3.58523858      -4.07551698      -3.57164113
H       -5.58980297      -2.76561136      -4.18188022
H       -6.10464578      -0.68123236      -2.96162029
H       -4.59904155       0.13008504      -1.20733702
C       -0.14789885       1.52207990      -0.79083837
O       -0.26051003       2.66442888      -1.01783487
C        0.07467008       0.30561339       1.27646567
O        0.03238822       0.77346882       2.33942529
O        0.12558162      -3.09377446      -2.93079506
C       -0.19363015      -2.07110087      -3.51335401
C        0.60361707      -1.41369289      -4.56705425
C        1.04607238      -0.09794236      -4.50848902
C        1.71627823       0.45279309      -5.58419552
C        1.91253790      -0.28787114      -6.73777790
C        1.46504755      -1.59707790      -6.80319872
C        0.83314276      -2.16759498      -5.71492101
H        0.24812349      -2.63749080      -1.13347823
H        0.01918808      -0.49887481      -1.89460316
H       -1.21952819      -1.67017075      -3.41814414
H        0.88445310       0.48320258      -3.61329814
H        2.07659649       1.46856659      -5.51786547
H        2.41187784       0.15498735      -7.58625098
H        1.60361982      -2.17850498      -7.70222399
H        0.48295818      -3.18978241      -5.74934980
80
Properties=species:S:1:pos:R:3 charge=0 unpaired=0 uhf=0 pbc="F F F"
Mn       0.06185875      -0.18724064      -0.43788963
N        0.39057885      -2.43417710      -0.17322565
C        1.73644812      -2.86814601       0.20758404
C        2.78040791      -2.04691115      -0.54131644
P        2.32339922      -0.24373518      -0.50102284
C        3.29684188       0.36235471       0.93547502
C        3.19700664      -0.28966768       2.16215984
C        3.90404854       0.15723001       3.26228492
C        4.71143288       1.27798796       3.16003531
C        4.79755130       1.94999049       1.95270673
C        4.09471014       1.50012890       0.84881097
C        3.39275601       0.44088724      -1.82341244
C        3.00760533       1.66204242      -2.37466517
C        3.79861644       2.28965323      -3.32036875
C        4.98218861       1.69869688      -3.73390327
C        5.37151190       0.48576751      -3.19069688
C        4.58909535      -0.13953948      -2.23407596
C       -0.66400042      -3.23284004       0.47805549
C       -1.83165929      -2.36527979       0.96268519
P       -2.06795464      -0.86792900      -0.11386189
C       -3.18034537       0.16580428       0.89279003
C       -4.06839145      -0.34650623       1.83336986
C       -4.93181908       0.50294362       2.50249758
C       -4.92543030       1.86240505       2.23479271
C       -4.05263683       2.37692794       1.28949663
C       -3.18545816       1.53198077       0.62137977
C       -3.30431782      -1.49017926      -1.33304023
C       -2.94768931      -2.54973606      -2.16456078
C       -3.77972344      -2.96193909      -3.19014337
C       -5.00899473      -2.35017684      -3.37306049
C       -5.40228497      -1.34001911      -2.51156747
C       -4.55102098      -0.89583144      -1.51369345
H        1.87607047      -3.93430556      -0.03226426
H        1.85231073      -2.75095365       1.29024816
H        2.76939212      -2.33058707      -1.60102193
H        3.77819010      -2.21253133      -0.12594909
H        2.55152235      -1.14946861       2.26828193
H        3.81961965      -0.36663515       4.20414438
H        5.26197185       1.63043280       4.02002925
H        5.41525602       2.83259619       1.86723687
H        4.17033064       2.03930640      -0.08429191
H        2.07469236       2.10864719      -2.05163151
H        3.49275792       3.24118442      -3.73211897
H        5.60048872       2.18339018      -4.47573696
H        6.29716603       0.02656273      -3.50766057
H        4.92390248      -1.07489304      -1.81086192
H       -1.03423665      -3.99983611      -0.21324327
H       -0.23582802      -3.75475869       1.34131633
H       -2.74788898      -2.95839991       1.02632313
H       -1.60052423      -1.95104846       1.95173512
H       -4.09879157      -1.40633175       2.03959900
H       -5.61908284       0.09901901       3.23200724
H       -5.60384949       2.51935597       2.75916468
H       -4.04792519       3.43512419       1.07075354
H       -2.50454936       1.91977907      -0.12617424
H       -2.00559654      -3.05303588      -2.00458178
H       -3.46579378      -3.75520946      -3.85512041
H       -5.65594635      -2.65884931      -4.18145853
H       -6.37567308      -0.88371405      -2.62338523
H       -4.86853653      -0.08735013      -0.87164695
C       -0.12142654       1.53630843      -0.72942004
O       -0.19431280       2.69591755      -0.86805206
C        0.07896281       0.24838015       1.25924334
O        0.05246206       0.68880860       2.33485835
O        0.55150619      -3.19491893      -2.92396651
C        0.04227880      -2.41703927      -3.70042237
C        0.70956437      -1.64072910      -4.75971490
C        1.34227190      -0.42745190      -4.53584091
C        1.84244709       0.29276467      -5.60526368
C        1.73503119      -0.20557874      -6.89160538
C        1.12196072      -1.42887161      -7.11296981
C        0.59483663      -2.14023911      -6.05350474
H        0.33950908      -2.63172343      -1.17867804
H       -0.04888566      -0.46388004      -1.93880303
H       -1.05753167      -2.29557301      -3.73675899
H        1.40184489      -0.03208858      -3.53409454
H        2.30813712       1.24940488      -5.42229708
H        2.12105084       0.36114025      -7.72501237
H        1.03708733      -1.82603570      -8.11291248
H        0.09887387      -3.08764209      -6.21225059
80
Properties=species:S:1:pos:R:3 charge=0 unpaired=0 uhf=0 pbc="F F F"
Mn       0.08036256      -0.14780832      -0.42852882
N        0.38395436      -2.40406354      -0.20705332
C        1.70148207      -2.84674337       0.25128961
C        2.78605284      -2.04388416      -0.46073188
P        2.33080974      -0.24048705      -0.46817139
C        3.28456974       0.38877277       0.96834626
C        3.24674468      -0.28953433       2.18377067
C        3.92912302       0.19273451       3.28442886
C        4.65233714       1.37018523       3.19137490
C        4.67929697       2.06402524       1.99336169
C        3.99662394       1.58243464       0.89065079
C        3.42248312       0.42107591      -1.78514620
C        3.01901166       1.60341776      -2.40229535
C        3.82945898       2.22025673      -3.33943095
C        5.04556889       1.65115439      -3.68352330
C        5.44894913       0.47127949      -3.07995850
C        4.65062190      -0.13826144      -2.12661063
C       -0.71974622      -3.21514207       0.33829028
C       -1.84325024      -2.34083921       0.90322278
P       -2.04858242      -0.80473592      -0.12420537
C       -3.15707587       0.21164473       0.89961379
C       -3.98459416      -0.28483820       1.90149961
C       -4.84900440       0.56738167       2.56663710
C       -4.89711423       1.91266425       2.23939803
C       -4.07898537       2.41154233       1.23798086
C       -3.21642283       1.56352713       0.56925525
C       -3.28063588      -1.38304321      -1.37051714
C       -2.80969763      -2.18634734      -2.40404868
C       -3.65591917      -2.64268736      -3.39709887
C       -4.99674244      -2.29504190      -3.37346508
C       -5.47822501      -1.49985591      -2.34731971
C       -4.63053937      -1.04276806      -1.35186388
H        1.84355020      -3.91633492       0.02838340
H        1.76138171      -2.71832024       1.33751474
H        2.81980870      -2.34779572      -1.51356024
H        3.76434521      -2.20556664      -0.00021877
H        2.67298710      -1.19966289       2.28106310
H        3.89115398      -0.34896794       4.21930723
H        5.18438152       1.74872726       4.05190191
H        5.23353121       2.98846256       1.91575758
H        4.01915527       2.13736418      -0.03657001
H        2.05633941       2.02510789      -2.13706558
H        3.51318327       3.14611419      -3.79944214
H        5.67826704       2.12677812      -4.41919818
H        6.39821340       0.02830190      -3.34629314
H        4.99456132      -1.04500001      -1.65102393
H       -1.12635774      -3.86820165      -0.44326926
H       -0.33611498      -3.85798733       1.13933365
H       -2.77493568      -2.90983692       0.96857236
H       -1.56883753      -1.97607299       1.90058740
H       -3.97075070      -1.33396726       2.15859180
H       -5.49434214       0.17551624       3.33996364
H       -5.57465859       2.57134099       2.76268064
H       -4.11381599       3.45942694       0.97697708
H       -2.57600724       1.93462276      -0.22232140
H       -1.75775423      -2.42701665      -2.42593195
H       -3.27416784      -3.26071199      -4.19812370
H       -5.66097454      -2.63401621      -4.15547175
H       -6.52326497      -1.22491048      -2.32380170
H       -5.02858479      -0.41620516      -0.56753846
C       -0.08866595       1.58512903      -0.66792487
O       -0.16320973       2.74833213      -0.77171330
C        0.09558752       0.23719772       1.27960361
O        0.06853098       0.64906401       2.36688086
O        0.84134646      -3.18682128      -2.84911016
C        0.25217029      -2.86967508      -3.86094647
C        0.67147174      -1.87681769      -4.83843185
C        1.42609791      -0.75068851      -4.51009157
C        1.83483563       0.11371715      -5.50732119
C        1.55260166      -0.17164195      -6.83429504
C        0.80904732      -1.29539889      -7.16630611
C        0.33736195      -2.12444622      -6.17092284
H        0.41423823      -2.56612996      -1.21890576
H       -0.02420718      -0.36781855      -1.93370355
H       -0.68043992      -3.39805160      -4.14220117
H        1.64142796      -0.53233461      -3.47489837
H        2.38512321       1.00537740      -5.24725043
H        1.90813240       0.48458810      -7.61454917
H        0.59340611      -1.52201365      -8.19909064
H       -0.25661635      -2.99538105      -6.40893213
80
Properties=species:S:1:pos:R:3 charge=0 unpaired=0 uhf=0 pbc="F F F"
Mn       0.12861488      -0.14775868      -0.46267038
N        0.39466133      -2.41090875      -0.30248221
C        1.66646807      -2.83159544       0.28705438
C        2.80390576      -2.06533292      -0.38227052
P        2.36125705      -0.26074431      -0.44220914
C        3.26038610       0.40808628       1.00677594
C        3.33190311      -0.29429052       2.20611227
C        3.95609499       0.25913714       3.30861928
C        4.51441289       1.52382688       3.22967997
C        4.43357675       2.23737268       2.04500473
C        3.80263019       1.68924292       0.94358577
C        3.48875902       0.37698584      -1.73697318
C        3.06210721       1.48754577      -2.46012309
C        3.90103441       2.08563134      -3.38490281
C        5.16560403       1.56485152      -3.60968363
C        5.59087877       0.45283773      -2.90032418
C        4.76461420      -0.13420197      -1.95763368
C       -0.75677361      -3.21349564       0.15109280
C       -1.82050583      -2.33940397       0.81656418
P       -1.99555881      -0.78163977      -0.17809860
C       -3.10017399       0.23560832       0.85003593
C       -3.82105180      -0.22024310       1.94880486
C       -4.67075809       0.64127477       2.62183869
C       -4.80400675       1.95707646       2.21108373
C       -4.08572479       2.41756095       1.11834738
C       -3.24197852       1.55950193       0.43930259
C       -3.21503416      -1.33682100      -1.44513389
C       -2.73517737      -1.77436402      -2.67452100
C       -3.60310571      -2.22668263      -3.65240146
C       -4.96826204      -2.22746675      -3.41866044
C       -5.45685820      -1.77747055      -2.20266235
C       -4.58928891      -1.34007766      -1.21737705
H        1.82069787      -3.91164004       0.13393725
H        1.63828828      -2.64011741       1.36587841
H        2.89110167      -2.39765917      -1.42374832
H        3.75492988      -2.22901097       0.13127798
H        2.89597021      -1.27934928       2.29133274
H        4.00168935      -0.29758284       4.23433010
H        5.00303215       1.95430196       4.09157055
H        4.86068352       3.22785679       1.97960757
H        3.72861249       2.25580855       0.02501780
H        2.06013666       1.86473353      -2.28638411
H        3.56862266       2.95887249      -3.92883304
H        5.82030572       2.02547965      -4.33556812
H        6.57730045       0.04750480      -3.07570518
H        5.11912235      -0.98556499      -1.39440222
H       -1.20592592      -3.72395192      -0.70892351
H       -0.41971613      -3.98049006       0.85903208
H       -2.76963189      -2.87783308       0.89538675
H       -1.48992899      -2.02916117       1.81481766
H       -3.73463053      -1.24455876       2.28179510
H       -5.23495654       0.27950482       3.47000109
H       -5.46733434       2.62354111       2.74287654
H       -4.18309883       3.44461819       0.79742835
H       -2.67400334       1.90044566      -0.41939132
H       -1.67030642      -1.72939407      -2.86173097
H       -3.21793908      -2.56622673      -4.60363321
H       -5.65137748      -2.56727689      -4.18385537
H       -6.52235274      -1.76112243      -2.02182407
H       -4.98758174      -0.98923060      -0.27605651
C       -0.03542617       1.59622189      -0.62165830
O       -0.11953321       2.76229284      -0.65373308
C        0.12095083       0.18253269       1.25623168
O        0.08579273       0.56059922       2.35558729
O        0.84888673      -3.37576436      -2.88495276
C        0.23249483      -3.08187104      -3.88997971
C        0.59014917      -2.03847283      -4.83838875
C        1.50417080      -1.03418363      -4.50921876
C        1.85737477      -0.08896701      -5.45143318
C        1.33733729      -0.16025112      -6.73497372
C        0.42765197      -1.15412439      -7.06921382
C        0.03458658      -2.07427281      -6.11971218
H        0.51491018      -2.59608939      -1.30413347
H        0.07934534      -0.31030095      -1.97813464
H       -0.67689422      -3.65391763      -4.16140342
H        1.90278237      -0.98369819      -3.50635222
H        2.54469831       0.69961399      -5.18554589
H        1.63953352       0.56218597      -7.47880696
H        0.02672257      -1.20747067      -8.07017177
H       -0.68044570      -2.84721263      -6.36416958
80
Properties=species:S:1:pos:R:3 charge=0 unpaired=0 uhf=0 pbc="F F F"
Mn       0.17967858      -0.17240394      -0.51210969
N        0.42847955      -2.43497593      -0.40173888
C        1.64502530      -2.82278590       0.31440609
C        2.83080396      -2.09044781      -0.30785435
P        2.39504631      -0.28823473      -0.42135751
C        3.21739889       0.43055942       1.04509442
C        3.41377290      -0.27033128       2.23011592
C        3.96671931       0.36094842       3.33018646
C        4.32453229       1.69653879       3.26136589
C        4.11448544       2.40681174       2.08971532
C        3.55566030       1.78136284       0.99183608
C        3.56990458       0.32522028      -1.68126529
C        3.13388439       1.33871098      -2.52836227
C        4.00620988       1.90708818      -3.44126288
C        5.31280135       1.45303241      -3.52433804
C        5.74898460       0.43884024      -2.68571126
C        4.88742976      -0.11757659      -1.75720355
C       -0.75995795      -3.22270888      -0.02738036
C       -1.77247928      -2.36619465       0.73115344
P       -1.93361297      -0.78828568      -0.22845368
C       -3.02689384       0.23602170       0.80420661
C       -3.62171183      -0.16299599       1.99554026
C       -4.44429139       0.71418956       2.68263750
C       -4.67509888       1.98810196       2.19205593
C       -4.08133148       2.39245951       1.00577349
C       -3.26270258       1.52008860       0.31527416
C       -3.15505249      -1.31549828      -1.49973847
C       -2.74042418      -1.46936775      -2.81690274
C       -3.63402412      -1.88590322      -3.78861575
C       -4.95331029      -2.13946593      -3.45280574
C       -5.37650168      -1.97579889      -2.14247197
C       -4.48411213      -1.56915402      -1.16763997
H        1.80520926      -3.91026980       0.24005941
H        1.53457729      -2.56165914       1.37398129
H        2.97360948      -2.44618045      -1.33553732
H        3.75200894      -2.25332993       0.25701247
H        3.13353875      -1.31162818       2.30926150
H        4.11308102      -0.19249313       4.24743404
H        4.75641183       2.18556715       4.12247548
H        4.38211730       3.45238325       2.03483124
H        3.37118888       2.33662837       0.08036268
H        2.10047939       1.66214426      -2.45759902
H        3.66748425       2.70628348      -4.08581431
H        5.99400540       1.89085495      -4.23983984
H        6.76916917       0.08793568      -2.74972746
H        5.24212241      -0.89030391      -1.08945645
H       -1.23818917      -3.59650003      -0.94046071
H       -0.46521311      -4.08826522       0.57972420
H       -2.73166711      -2.88390773       0.82617600
H       -1.39181788      -2.10985009       1.72617838
H       -3.45209856      -1.15246809       2.39597677
H       -4.90696474       0.39871722       3.60741848
H       -5.31527545       2.66751501       2.73600639
H       -4.25421186       3.38849744       0.62435038
H       -2.78248098       1.81847509      -0.61099779
H       -1.71306947      -1.24070961      -3.07050156
H       -3.30320451      -2.00028648      -4.81123804
H       -5.65561209      -2.45606815      -4.21058509
H       -6.40908854      -2.16034587      -1.88170052
H       -4.82317708      -1.43507617      -0.14896290
C        0.01102621       1.57773198      -0.59631525
O       -0.08787829       2.74186775      -0.55200604
C        0.14711784       0.10866893       1.21387171
O        0.09803677       0.45076386       2.32472368
O        0.76021718      -3.55231964      -2.96572621
C        0.12210687      -3.20780415      -3.94056375
C        0.47498176      -2.13382484      -4.85610426
C        1.52100545      -1.25346406      -4.56390338
C        1.84868434      -0.25174228      -5.45530307
C        1.15092275      -0.12788091      -6.64747670
C        0.11016204      -0.99696241      -6.94568350
C       -0.23522656      -1.98897070      -6.05111666
H        0.62906341      -2.65336857      -1.38452100
H        0.16893031      -0.30113327      -2.03184850
H       -0.81606554      -3.73790121      -4.19801588
H        2.05128342      -1.34952065      -3.62722135
H        2.64904243       0.43284262      -5.21943221
H        1.41652215       0.65047890      -7.34775966
H       -0.42876884      -0.89612013      -7.87609142
H       -1.04396070      -2.67145640      -6.27263782
80
Properties=species:S:1:pos:R:3 charge=0 unpaired=0 uhf=0 pbc="F F F"
Mn       0.22717265      -0.19500354      -0.55802698
N        0.47450194      -2.45434833      -0.50587320
C        1.63010295      -2.82112226       0.31623169
C        2.85932649      -2.10191612      -0.23241008
P        2.42812866      -0.30197096      -0.38819198
C        3.16377116       0.46996982       1.09487193
C        3.48879817      -0.20200099       2.26675976
C        3.96688998       0.50189216       3.35930701
C        4.11208865       1.87694751       3.29654361
C        3.76752433       2.55634588       2.13758456
C        3.29152741       1.85780555       1.04584988
C        3.65988725       0.28513186      -1.60289265
C        3.23700662       1.17537473      -2.58285419
C        4.14856865       1.69729549      -3.48510364
C        5.48078452       1.32292701      -3.41703742
C        5.90501058       0.43568350      -2.43914008
C        5.00188086      -0.07650390      -1.52578814
C       -0.74122834      -3.22955852      -0.20718685
C       -1.71555299      -2.40990054       0.63589225
P       -1.87502546      -0.80260477      -0.27137551
C       -2.94430905       0.22398192       0.78086196
C       -3.39086961      -0.10617387       2.05411630
C       -4.17632560       0.78987156       2.76075298
C       -4.51845491       2.01110231       2.20561808
C       -4.07236547       2.34628525       0.93554767
C       -3.28719564       1.45777602       0.22818100
C       -3.11201536      -1.28379872      -1.54049614
C       -2.77049998      -1.23092403      -2.88569381
C       -3.68924517      -1.60374333      -3.85213693
C       -4.95258561      -2.03025726      -3.47863058
C       -5.30148378      -2.07522648      -2.13675850
C       -4.38832613      -1.70045679      -1.16929340
H        1.79171913      -3.91065389       0.29225846
H        1.44234828      -2.52250751       1.35553094
H        3.07033514      -2.46419043      -1.24597924
H        3.74207115      -2.26516293       0.39002758
H        3.36598491      -1.27388585       2.34472653
H        4.22045091      -0.02751528       4.26738652
H        4.48272664       2.42091449       4.15341481
H        3.86366798       3.63179318       2.09075910
H        2.99959742       2.37846495       0.14037677
H        2.18516801       1.43986199      -2.61923312
H        3.82125505       2.40044529      -4.23829067
H        6.19291647       1.72614751      -4.12264270
H        6.94593371       0.15013406      -2.38454983
H        5.33810803      -0.75034380      -0.74935212
H       -1.23402680      -3.47698907      -1.15514932
H       -0.48230373      -4.17014934       0.29733839
H       -2.67682193      -2.92078557       0.74153016
H       -1.29571911      -2.21109065       1.62761928
H       -3.12895674      -1.05340467       2.50460963
H       -4.52011779       0.53231666       3.75292404
H       -5.12847350       2.70557160       2.76518577
H       -4.33245577       3.30213717       0.50389831
H       -2.91295837       1.70394212      -0.76062809
H       -1.78219756      -0.88339701      -3.15987704
H       -3.42072344      -1.55181534      -4.89770108
H       -5.67163173      -2.32082275      -4.23110758
H       -6.29104586      -2.39871414      -1.84628720
H       -4.66714282      -1.71806290      -0.12319519
C        0.04442933       1.55668195      -0.56493275
O       -0.07424985       2.71327661      -0.44288044
C        0.17018065       0.02952380       1.17411844
O        0.10626474       0.32870483       2.29690951
O        0.66087187      -3.71769835      -3.08936338
C        0.02344849      -3.35781364      -4.05812528
C        0.34992097      -2.23657285      -4.92661682
C        1.47263806      -1.44241030      -4.67445910
C        1.76826801      -0.37948071      -5.50389358
C        0.94732000      -0.09472575      -6.58497514
C       -0.17037177      -0.87686605      -6.84336427
C       -0.46894555      -1.94437421      -6.02114734
H        0.74108259      -2.69273692      -1.46877553
H        0.23962173      -0.28840930      -2.08144167
H       -0.89861672      -3.90195256      -4.34439162
H        2.09770896      -1.66528105      -3.82198356
H        2.63662943       0.22947679      -5.30376468
H        1.17733992       0.74069508      -7.23005400
H       -0.80528520      -0.64895545      -7.68703403
H       -1.33400299      -2.56281006      -6.21680084
