      -----------------------------------------------------------      
     |                   =====================                   |     
     |                           x T B                           |     
     |                   =====================                   |     
     |                         S. Grimme                         |     
     |          Mulliken Center for Theoretical Chemistry        |     
     |                    University of Bonn                     |     
      -----------------------------------------------------------      

   * xtb version 6.7.1 (edcfbbe) compiled by 'VssAdministrator@runnervm171ch' on 2026-06-10

   xtb is free software: you can redistribute it and/or modify it under
   the terms of the GNU Lesser General Public License as published by
   the Free Software Foundation, either version 3 of the License, or
   (at your option) any later version.
   
   xtb is distributed in the hope that it will be useful,
   but WITHOUT ANY WARRANTY; without even the implied warranty of
   MERCHANTABILITY or FITNESS FOR A PARTICULAR PURPOSE.  See the
   GNU Lesser General Public License for more details.
   
   Cite this work as:
   * C. Bannwarth, E. Caldeweyher, S. Ehlert, A. Hansen, P. Pracht,
     J. Seibert, S. Spicher, S. Grimme, WIREs Comput. Mol. Sci., 2020, 11,
     e01493. DOI: 10.1002/wcms.1493
   
   for GFN2-xTB:
   * C. Bannwarth, S. Ehlert and S. Grimme., J. Chem. Theory Comput., 2019,
     15, 1652-1671. DOI: 10.1021/acs.jctc.8b01176
   for GFN1-xTB:
   * S. Grimme, C. Bannwarth, P. Shushkov, J. Chem. Theory Comput., 2017,
     13, 1989-2009. DOI: 10.1021/acs.jctc.7b00118
   for GFN0-xTB:
   * P. Pracht, E. Caldeweyher, S. Ehlert, S. Grimme, ChemRxiv, 2019, preprint.
     DOI: 10.26434/chemrxiv.8326202.v1
   for GFN-FF:
   * S. Spicher and S. Grimme, Angew. Chem. Int. Ed., 2020, 59, 15665-15673.
     DOI: 10.1002/anie.202004239
   
   for ALPB and GBSA implicit solvation:
   * S. Ehlert, M. Stahn, S. Spicher, S. Grimme, J. Chem. Theory Comput.,
     2021, 17, 4250-4261. DOI: 10.1021/acs.jctc.1c00471
   
   for ddCOSMO and CPCM-X implicit solvation:
   * M. Stahn, S. Ehlert, S. Grimme, J. Phys. Chem. A,
     2023, XX, XXXX-XXXX. DOI: 10.1021/acs.jpca.3c04382
   
   for DFT-D4:
   * E. Caldeweyher, C. Bannwarth and S. Grimme, J. Chem. Phys., 2017,
     147, 034112. DOI: 10.1063/1.4993215
   * E. Caldeweyher, S. Ehlert, A. Hansen, H. Neugebauer, S. Spicher,
     C. Bannwarth and S. Grimme, J. Chem. Phys., 2019, 150, 154122.
     DOI: 10.1063/1.5090222
   * E. Caldeweyher, J.-M. Mewes, S. Ehlert and S. Grimme, Phys. Chem. Chem. Phys.
     2020, 22, 8499-8512. DOI: 10.1039/D0CP00502A
   
   for sTDA-xTB:
   * S. Grimme and C. Bannwarth, J. Chem. Phys., 2016, 145, 054103.
     DOI: 10.1063/1.4959605
   
   in the mass-spec context:
   * V. Asgeirsson, C. Bauer and S. Grimme, Chem. Sci., 2017, 8, 4879.
     DOI: 10.1039/c7sc00601b
   * J. Koopman and S. Grimme, ACS Omega 2019, 4, 12, 15120-15133.
     DOI: 10.1021/acsomega.9b02011
   
   for metadynamics refer to:
   * S. Grimme, J. Chem. Theory Comput., 2019, 155, 2847-2862
     DOI: 10.1021/acs.jctc.9b00143
   
   for SPH calculations refer to:
   * S. Spicher and S. Grimme, J. Chem. Theory Comput., 2021, 17, 1701-1714
     DOI: 10.1021/acs.jctc.0c01306
   
   for ONIOM refer to:
   * C. Plett, A. Katbashev, S. Ehlert, S. Grimme, M. Bursch,
     Phys. Chem. Chem. Phys., 2023, 25, 17860-17868. DOI: 10.1039/D3CP02178E
   
   for DIPRO refer to:
   * J. Kohn, N. Gildemeister, S. Grimme, D. Fazzi, A. Hansen,
     J. Chem. Phys., 2023, just accepted.
   
   for PTB refer to:
   * S. Grimme, M. Mueller, A. Hansen, J. Chem. Phys., 2023, 158, 124111.
     DOI: 10.1063/5.0137838
   
   with help from (in alphabetical order)
   P. Atkinson, C. Bannwarth, F. Bohle, G. Brandenburg, E. Caldeweyher
   M. Checinski, S. Dohm, S. Ehlert, S. Ehrlich, I. Gerasimov, C. Hölzer
   A. Katbashev, J. Kohn, J. Koopman, C. Lavigne, S. Lehtola, F. März, M. Müller,
   F. Musil, H. Neugebauer, J. Pisarek, C. Plett, P. Pracht, F. Pultar,
   J. Seibert, P. Shushkov, S. Spicher, M. Stahn, M. Steiner, T. Strunk,
   J. Stückrath, T. Rose, and J. Unsleber
   
 * started run on 2026/09/13 at 01:20:48.801     
   ID    Z sym.   atoms
    1   25 Mn     1
    2    7 N      2
    3    6 C      3, 4, 6-19, 21-32, 61, 63, 66-72
    4   15 P      5, 20
    5    1 H      33-60, 73-80
    6    8 O      62, 64, 65

           -------------------------------------------------
          |                Calculation Setup                |
           -------------------------------------------------

          program call               : C:\Users\HUIWEI\miniconda3\envs\phase2ff\Library\bin\xtb.exe input.xyz --gfn 2 --chrg 0 --uhf 0 --etemp 300.0 --iterations 500 --acc 0.5 --opt tight --cycles 250 --grad --alpb toluene gsolv
          coordinate file            : input.xyz
          omp threads                :                     2

########################################################################
[WARNING] Please study the warnings concerning your input carefully
-1- prog_main_parseArguments: Unknown reference state 'gsolv'
########################################################################

           -------------------------------------------------
          |                 G F N 2 - x T B                 |
           -------------------------------------------------

        Reference                      10.1021/acs.jctc.8b01176
      * Hamiltonian:
        H0-scaling (s, p, d)           1.850000    2.230000    2.230000
        zeta-weighting                 0.500000
      * Dispersion:
        s8                             2.700000
        a1                             0.520000
        a2                             5.000000
        s9                             5.000000
      * Repulsion:
        kExp                           1.500000    1.000000
        rExp                           1.000000
      * Coulomb:
        alpha                          2.000000
        third order                    shell-resolved
        anisotropic                    true
        a3                             3.000000
        a5                             4.000000
        cn-shift                       1.200000
        cn-exp                         4.000000
        max-rad                        5.000000

      * Solvation model:               ALPB
        Solvent                        toluene
        Parameter file                 internal GFN2-xTB/ALPB
        Dielectric constant                7.0000E+00
        Reference state                gsolv [1 M gas/solution]
        Free energy shift                  2.2081E-03 Eh       1.3856E+00 kcal/mol
        Temperature                        2.9815E+02 K
        Density                            8.6700E-01 kg/L
        Solvent mass                       7.8110E+01 g/mol
        Interaction kernel             P16
        Born radius scaling (c1)           1.7172E+00
        Born radii integrator          GBOBC
        Born offset                        0.0000E+00 a0       0.0000E+00 AA
        H-bond correction              false
        Ion screening                  false
        Surface tension                    1.0000E-05 Eh       1.5569E+01 dyn/cm
        Grid points                               230 per atom

          ...................................................
          :                      SETUP                      :
          :.................................................:
          :  # basis functions                 230          :
          :  # atomic orbitals                 227          :
          :  # shells                          127          :
          :  # electrons                       224          :
          :  max. iterations                   500          :
          :  Hamiltonian                  GFN2-xTB          :
          :  restarted?                      false          :
          :  GBSA solvation                   true          :
          :  PC potential                    false          :
          :  electronic temp.          300.0000000     K    :
          :  accuracy                    0.5000000          :
          :  -> integral cutoff          0.2801030E+02      :
          :  -> integral neglect         0.5000000E-08      :
          :  -> SCF convergence          0.5000000E-06 Eh   :
          :  -> wf. convergence          0.5000000E-04 e    :
          :  Broyden damping             0.4000000          :
          :  net charge                          0          :
          :  unpaired electrons                  0          :
          ...................................................

 iter      E             dE          RMSdq      gap      omega  full diag
   1   -121.7367061 -0.121737E+03  0.633E+00    1.44       0.0  T
   2   -120.7165673  0.102014E+01  0.542E+00    0.43       1.0  T
   3   -121.8454180 -0.112885E+01  0.384E+00    1.94       1.0  T
   4   -122.2678116 -0.422394E+00  0.148E+00    0.77       1.0  T
   5   -122.2922647 -0.244531E-01  0.763E-01    0.60       1.0  T
   6   -122.2803259  0.119388E-01  0.644E-01    0.55       1.0  T
   7   -122.2811704 -0.844542E-03  0.633E-01    0.83       1.0  T
   8   -122.2947076 -0.135372E-01  0.368E-01    0.71       1.0  T
   9   -122.2973888 -0.268120E-02  0.196E-01    0.67       1.0  T
  10   -122.2965882  0.800547E-03  0.199E-01    0.62       1.0  T
  11   -122.2984866 -0.189839E-02  0.983E-02    0.68       1.0  T
  12   -122.2986575 -0.170824E-03  0.674E-02    0.68       1.0  T
  13   -122.2988623 -0.204882E-03  0.295E-02    0.68       1.0  T
  14   -122.2988992 -0.368611E-04  0.820E-03    0.67       1.4  T
  15   -122.2988980  0.116433E-05  0.918E-03    0.67       1.2  T
  16   -122.2988984 -0.339881E-06  0.770E-03    0.67       1.5  T
  17   -122.2989007 -0.228805E-05  0.181E-03    0.67       6.2  T
  18   -122.2989007 -0.198845E-07  0.116E-03    0.67       9.6  T
  19   -122.2989007 -0.590301E-07  0.580E-04    0.67      19.3  T
  20   -122.2989007 -0.559024E-08  0.299E-04    0.67      37.4  T
  21   -122.2989007 -0.820563E-09  0.236E-04    0.67      47.4  T

   *** convergence criteria satisfied after 21 iterations ***

         #    Occupation            Energy/Eh            Energy/eV
      -------------------------------------------------------------
         1        2.0000           -0.7472228             -20.3330
       ...           ...                  ...                  ...
       106        2.0000           -0.3979121             -10.8277
       107        2.0000           -0.3924103             -10.6780
       108        2.0000           -0.3808749             -10.3641
       109        2.0000           -0.3567443              -9.7075
       110        2.0000           -0.3409178              -9.2768
       111        2.0000           -0.3370110              -9.1705
       112        2.0000           -0.3085974              -8.3974 (HOMO)
       113        0.0000           -0.2839653              -7.7271 (LUMO)
       114                         -0.2639017              -7.1811
       115                         -0.2568500              -6.9892
       116                         -0.2510279              -6.8308
       117                         -0.2493843              -6.7861
       ...                                ...                  ...
       227                          5.5310991             150.5089
      -------------------------------------------------------------
                  HL-Gap            0.0246321 Eh            0.6703 eV
             Fermi-level           -0.2962814 Eh           -8.0622 eV

 SCC (total)                   0 d,  0 h,  0 min,  0.472 sec
 SCC setup                      ...        0 min,  0.003 sec (  0.655%)
 Dispersion                     ...        0 min,  0.002 sec (  0.491%)
 classical contributions        ...        0 min,  0.000 sec (  0.085%)
 integral evaluation            ...        0 min,  0.018 sec (  3.887%)
 iterations                     ...        0 min,  0.352 sec ( 74.475%)
 molecular gradient             ...        0 min,  0.095 sec ( 20.090%)
 printout                       ...        0 min,  0.001 sec (  0.311%)

         :::::::::::::::::::::::::::::::::::::::::::::::::::::
         ::                     SUMMARY                     ::
         :::::::::::::::::::::::::::::::::::::::::::::::::::::
         :: total energy            -120.344561790141 Eh    ::
         :: total w/o Gsasa/hb      -120.297519319503 Eh    ::
         :: gradient norm              0.265420941019 Eh/a0 ::
         :: HOMO-LUMO gap              0.670273793172 eV    ::
         ::.................................................::
         :: SCC energy              -122.294402577329 Eh    ::
         :: -> isotropic ES            0.066813081066 Eh    ::
         :: -> anisotropic ES          0.011848451614 Eh    ::
         :: -> anisotropic XC          0.040507180381 Eh    ::
         :: -> dispersion             -0.133263251546 Eh    ::
         :: -> Gsolv                  -0.056182123629 Eh    ::
         ::    -> Gelec               -0.009139652991 Eh    ::
         ::    -> Gsasa               -0.049250613777 Eh    ::
         ::    -> Ghb                  0.000000000000 Eh    ::
         ::    -> Gshift               0.002208143139 Eh    ::
         :: repulsion energy           1.949840787188 Eh    ::
         :: add. restraining           0.000000000000 Eh    ::
         :: total charge              -0.000000000000 e     ::
         :::::::::::::::::::::::::::::::::::::::::::::::::::::

      ----------------------------------------------------------- 
     |                   =====================                   |
     |                        A N C O P T                        |
     |                   =====================                   |
     |               Approximate Normal Coordinate               |
     |                Rational Function Optimizer                |
      ----------------------------------------------------------- 
      ----------------------------------------------------------- 
     |                   =====================                   |
     |                        A N C O P T                        |
     |                   =====================                   |
     |               Approximate Normal Coordinate               |
     |                Rational Function Optimizer                |
      ----------------------------------------------------------- 

          ...................................................
          :                      SETUP                      :
          :.................................................:
          :   optimization level             tight          :
          :   max. optcycles                   250          :
          :   ANC micro-cycles                  20          :
          :   degrees of freedom               234          :
          :.................................................:
          :   RF solver                   davidson          :
          :   write xtbopt.log                true          :
          :   linear?                        false          :
          :   energy convergence         0.1000000E-05 Eh   :
          :   grad. convergence          0.8000000E-03 Eh/α :
          :   maxmium RF displ.          1.0000000          :
          :   Hlow (freq-cutoff)         0.1000000E-01      :
          :   Hmax (freq-cutoff)         5.0000000          :
          :   S6 in model hess.         20.0000000          :
          ...................................................

generating ANC from exact Hessian ...
Using Lindh-Hessian (1995)
 Shifting diagonal of input Hessian by    9.9032038144083352E-003
 Lowest  eigenvalues of input Hessian
    0.000000    0.000000    0.000000    0.000000    0.000000    0.000000
    0.010000    0.010131    0.010224    0.010252    0.010482    0.010544
    0.010673    0.010849    0.010884    0.010943    0.011117    0.011201
 Highest eigenvalues
    2.000719    2.003657    2.008560    2.097032    2.398787    2.464372


........................................................................
.............................. CYCLE    1 ..............................
........................................................................

 iter      E             dE          RMSdq      gap      omega  full diag
   1   -122.2989007 -0.122299E+03  0.119E-04    0.67       0.0  T
   2   -122.2989007  0.185432E-08  0.195E-04    0.67      57.4  T
   3   -122.2989007 -0.222606E-08  0.776E-05    0.67     144.0  T
     SCC iter.                  ...        0 min,  0.049 sec
     gradient                   ...        0 min,  0.085 sec
 * total energy  :  -120.3445618 Eh     change       -0.1270450E-08 Eh
   gradient norm :     0.2654156 Eh/α   predicted     0.0000000E+00 (-100.00%)
   displ. norm   :     0.6186834 α      lambda       -0.1300490E+00
   maximum displ.:     0.1758397 α      in ANC's #109, #54, #129, ...

........................................................................
.............................. CYCLE    2 ..............................
........................................................................

 iter      E             dE          RMSdq      gap      omega  full diag
   1   -122.4108853 -0.122411E+03  0.487E-01    0.87       0.0  T
   2   -122.4027349  0.815039E-02  0.525E-01    0.77       1.0  T
   3   -122.4139661 -0.112312E-01  0.313E-01    0.97       1.0  T
   4   -122.4181058 -0.413970E-02  0.162E-01    0.85       1.0  T
   5   -122.4185538 -0.447999E-03  0.730E-02    0.87       1.0  T
   6   -122.4186851 -0.131266E-03  0.339E-02    0.87       1.0  T
   7   -122.4187190 -0.339385E-04  0.159E-02    0.86       1.0  T
   8   -122.4187281 -0.908505E-05  0.104E-02    0.86       1.1  T
   9   -122.4187301 -0.199620E-05  0.812E-03    0.86       1.4  T
  10   -122.4187330 -0.287764E-05  0.383E-03    0.86       2.9  T
  11   -122.4187333 -0.305474E-06  0.199E-03    0.86       5.6  T
  12   -122.4187334 -0.903362E-07  0.924E-04    0.86      12.1  T
  13   -122.4187334 -0.130892E-07  0.436E-04    0.86      25.6  T
  14   -122.4187334 -0.484637E-08  0.238E-04    0.86      47.0  T
     SCC iter.                  ...        0 min,  0.228 sec
     gradient                   ...        0 min,  0.091 sec
 * total energy  :  -120.4432064 Eh     change       -0.9864457E-01 Eh
   gradient norm :     0.1430891 Eh/α   predicted    -0.8994586E-01 (  -8.82%)
   displ. norm   :     0.6318965 α      lambda       -0.7441568E-01
   maximum displ.:     0.1816644 α      in ANC's #109, #33, #54, ...

........................................................................
.............................. CYCLE    3 ..............................
........................................................................

 iter      E             dE          RMSdq      gap      omega  full diag
   1   -122.4899017 -0.122490E+03  0.424E-01    0.99       0.0  T
   2   -122.4870520  0.284971E-02  0.345E-01    0.86       1.0  T
   3   -122.4901121 -0.306008E-02  0.243E-01    1.06       1.0  T
   4   -122.4932827 -0.317056E-02  0.113E-01    0.94       1.0  T
   5   -122.4934854 -0.202759E-03  0.542E-02    0.96       1.0  T
   6   -122.4935555 -0.701176E-04  0.246E-02    0.96       1.0  T
   7   -122.4935867 -0.311827E-04  0.104E-02    0.95       1.1  T
   8   -122.4935858  0.918391E-06  0.868E-03    0.95       1.3  T
   9   -122.4935874 -0.163153E-05  0.552E-03    0.95       2.0  T
  10   -122.4935882 -0.736803E-06  0.295E-03    0.95       3.8  T
  11   -122.4935883 -0.113056E-06  0.159E-03    0.95       7.1  T
  12   -122.4935884 -0.795088E-07  0.726E-04    0.95      15.4  T
  13   -122.4935884 -0.633669E-08  0.385E-04    0.95      29.1  T
  14   -122.4935884 -0.402089E-08  0.234E-04    0.95      47.8  T
     SCC iter.                  ...        0 min,  0.222 sec
     gradient                   ...        0 min,  0.084 sec
 * total energy  :  -120.5020144 Eh     change       -0.5880803E-01 Eh
   gradient norm :     0.0874209 Eh/α   predicted    -0.5206478E-01 ( -11.47%)
   displ. norm   :     0.6960897 α      lambda       -0.4850297E-01
   maximum displ.:     0.2286029 α      in ANC's #33, #109, #54, ...

........................................................................
.............................. CYCLE    4 ..............................
........................................................................

 iter      E             dE          RMSdq      gap      omega  full diag
   1   -122.5211721 -0.122521E+03  0.395E-01    1.03       0.0  T
   2   -122.5189610  0.221118E-02  0.284E-01    0.86       1.0  T
   3   -122.5204200 -0.145901E-02  0.227E-01    1.08       1.0  T
   4   -122.5232160 -0.279602E-02  0.938E-02    0.96       1.0  T
   5   -122.5232683 -0.523040E-04  0.501E-02    0.96       1.0  T
   6   -122.5233361 -0.677741E-04  0.254E-02    0.97       1.0  T
   7   -122.5233592 -0.231385E-04  0.146E-02    0.96       1.0  T
   8   -122.5233597 -0.530012E-06  0.896E-03    0.96       1.2  T
   9   -122.5233607 -0.968522E-06  0.481E-03    0.96       2.3  T
  10   -122.5233613 -0.556607E-06  0.299E-03    0.96       3.7  T
  11   -122.5233615 -0.251409E-06  0.157E-03    0.96       7.1  T
  12   -122.5233616 -0.755595E-07  0.759E-04    0.96      14.7  T
  13   -122.5233616 -0.917325E-08  0.452E-04    0.96      24.8  T
  14   -122.5233616 -0.497050E-08  0.290E-04    0.96      38.5  T
     SCC iter.                  ...        0 min,  0.212 sec
     gradient                   ...        0 min,  0.083 sec
 * total energy  :  -120.5399940 Eh     change       -0.3797965E-01 Eh
   gradient norm :     0.0630164 Eh/α   predicted    -0.3600239E-01 (  -5.21%)
   displ. norm   :     0.7127647 α      lambda       -0.2944948E-01
   maximum displ.:     0.2705742 α      in ANC's #33, #34, #53, ...

........................................................................
.............................. CYCLE    5 ..............................
........................................................................

 iter      E             dE          RMSdq      gap      omega  full diag
   1   -122.5275790 -0.122528E+03  0.290E-01    0.95       0.0  T
   2   -122.5264361  0.114297E-02  0.232E-01    0.89       1.0  T
   3   -122.5274620 -0.102597E-02  0.172E-01    1.02       1.0  T
   4   -122.5286868 -0.122479E-02  0.684E-02    0.93       1.0  T
   5   -122.5287348 -0.479859E-04  0.408E-02    0.96       1.0  T
   6   -122.5288131 -0.782529E-04  0.179E-02    0.95       1.0  T
   7   -122.5288174 -0.436339E-05  0.123E-02    0.94       1.0  T
   8   -122.5288181 -0.699506E-06  0.675E-03    0.94       1.7  T
   9   -122.5288188 -0.631256E-06  0.372E-03    0.94       3.0  T
  10   -122.5288191 -0.343574E-06  0.166E-03    0.94       6.7  T
  11   -122.5288192 -0.973415E-07  0.696E-04    0.94      16.1  T
  12   -122.5288192 -0.108173E-07  0.333E-04    0.94      33.6  T
  13   -122.5288192 -0.164516E-08  0.192E-04    0.94      58.4  T
     SCC iter.                  ...        0 min,  0.218 sec
     gradient                   ...        0 min,  0.078 sec
 * total energy  :  -120.5551828 Eh     change       -0.1518873E-01 Eh
   gradient norm :     0.0503873 Eh/α   predicted    -0.2220542E-01 (  46.20%)
   displ. norm   :     0.6921585 α      lambda       -0.1901699E-01
   maximum displ.:     0.3012115 α      in ANC's #33, #34, #43, ...

........................................................................
.............................. CYCLE    6 ..............................
........................................................................

 iter      E             dE          RMSdq      gap      omega  full diag
   1   -122.5214741 -0.122521E+03  0.326E-01    0.98       0.0  T
   2   -122.5180565  0.341763E-02  0.288E-01    0.74       1.0  T
   3   -122.5212686 -0.321210E-02  0.206E-01    0.98       1.0  T
   4   -122.5232029 -0.193436E-02  0.784E-02    0.89       1.0  T
   5   -122.5231980  0.495999E-05  0.505E-02    0.87       1.0  T
   6   -122.5232758 -0.778215E-04  0.262E-02    0.87       1.0  T
   7   -122.5232811 -0.535637E-05  0.183E-02    0.86       1.0  T
   8   -122.5232821 -0.990758E-06  0.115E-02    0.87       1.0  T
   9   -122.5232868 -0.468742E-05  0.517E-03    0.87       2.2  T
  10   -122.5232876 -0.735050E-06  0.352E-03    0.86       3.2  T
  11   -122.5232880 -0.493675E-06  0.163E-03    0.86       6.9  T
  12   -122.5232881 -0.779136E-07  0.773E-04    0.87      14.5  T
  13   -122.5232881 -0.843761E-08  0.549E-04    0.87      20.4  T
  14   -122.5232881 -0.437882E-08  0.350E-04    0.87      32.0  T
  15   -122.5232881 -0.646921E-09  0.182E-04    0.87      61.5  T
     SCC iter.                  ...        0 min,  0.221 sec
     gradient                   ...        0 min,  0.080 sec
 * total energy  :  -120.5684086 Eh     change       -0.1322582E-01 Eh
   gradient norm :     0.0448211 Eh/α   predicted    -0.1406386E-01 (   6.34%)
   displ. norm   :     0.6983450 α      lambda       -0.1559988E-01
   maximum displ.:     0.2775186 α      in ANC's #33, #34, #43, ...

........................................................................
.............................. CYCLE    7 ..............................
........................................................................

 iter      E             dE          RMSdq      gap      omega  full diag
   1   -122.5335908 -0.122534E+03  0.310E-01    0.87       0.0  T
   2   -122.5303265  0.326432E-02  0.317E-01    0.76       1.0  T
   3   -122.5342102 -0.388367E-02  0.164E-01    0.92       1.0  T
   4   -122.5350200 -0.809844E-03  0.640E-02    0.83       1.0  T
   5   -122.5350570 -0.369249E-04  0.386E-02    0.88       1.0  T
   6   -122.5351805 -0.123555E-03  0.870E-03    0.85       1.3  T
   7   -122.5351838 -0.328800E-05  0.533E-03    0.85       2.1  T
   8   -122.5351843 -0.464264E-06  0.355E-03    0.85       3.1  T
   9   -122.5351845 -0.263143E-06  0.211E-03    0.85       5.3  T
  10   -122.5351846 -0.634312E-07  0.144E-03    0.85       7.8  T
  11   -122.5351846 -0.225313E-07  0.622E-04    0.85      18.0  T
  12   -122.5351846 -0.543216E-08  0.353E-04    0.85      31.7  T
  13   -122.5351846 -0.588753E-08  0.166E-04    0.85      67.2  T
     SCC iter.                  ...        0 min,  0.192 sec
     gradient                   ...        0 min,  0.077 sec
 * total energy  :  -120.5828661 Eh     change       -0.1445748E-01 Eh
   gradient norm :     0.0450543 Eh/α   predicted    -0.1160386E-01 ( -19.74%)
   displ. norm   :     0.5306341 α      lambda       -0.7378296E-02
   maximum displ.:     0.2135515 α      in ANC's #33, #34, #18, ...

........................................................................
.............................. CYCLE    8 ..............................
........................................................................

 iter      E             dE          RMSdq      gap      omega  full diag
   1   -122.5406068 -0.122541E+03  0.207E-01    0.86       0.0  T
   2   -122.5387948  0.181200E-02  0.221E-01    0.71       1.0  T
   3   -122.5409755 -0.218068E-02  0.104E-01    0.85       1.0  T
   4   -122.5414283 -0.452798E-03  0.481E-02    0.80       1.0  T
   5   -122.5414497 -0.214476E-04  0.271E-02    0.80       1.0  T
   6   -122.5414711 -0.213310E-04  0.153E-02    0.80       1.0  T
   7   -122.5414731 -0.199371E-05  0.112E-02    0.80       1.0  T
   8   -122.5414742 -0.112733E-05  0.584E-03    0.80       1.9  T
   9   -122.5414739  0.245913E-06  0.381E-03    0.80       2.9  T
  10   -122.5414746 -0.672151E-06  0.166E-03    0.80       6.7  T
  11   -122.5414748 -0.139327E-06  0.788E-04    0.80      14.2  T
  12   -122.5414748 -0.126561E-07  0.497E-04    0.80      22.5  T
  13   -122.5414748 -0.692103E-08  0.292E-04    0.80      38.3  T
     SCC iter.                  ...        0 min,  0.208 sec
     gradient                   ...        0 min,  0.084 sec
 * total energy  :  -120.5886034 Eh     change       -0.5737348E-02 Eh
   gradient norm :     0.0336451 Eh/α   predicted    -0.4727915E-02 ( -17.59%)
   displ. norm   :     0.6112861 α      lambda       -0.6748762E-02
   maximum displ.:     0.2366412 α      in ANC's #33, #18, #34, ...

........................................................................
.............................. CYCLE    9 ..............................
........................................................................

 iter      E             dE          RMSdq      gap      omega  full diag
   1   -122.5416424 -0.122542E+03  0.213E-01    0.78       0.0  T
   2   -122.5414409  0.201543E-03  0.143E-01    0.71       1.0  T
   3   -122.5414764 -0.355518E-04  0.110E-01    0.81       1.0  T
   4   -122.5419391 -0.462646E-03  0.646E-02    0.73       1.0  T
   5   -122.5420644 -0.125342E-03  0.274E-02    0.75       1.0  T
   6   -122.5420805 -0.160506E-04  0.158E-02    0.76       1.0  T
   7   -122.5420836 -0.311645E-05  0.114E-02    0.75       1.0  T
   8   -122.5420856 -0.205419E-05  0.524E-03    0.75       2.1  T
   9   -122.5420857 -0.668916E-07  0.311E-03    0.75       3.6  T
  10   -122.5420859 -0.241049E-06  0.158E-03    0.75       7.1  T
  11   -122.5420861 -0.161343E-06  0.787E-04    0.75      14.2  T
  12   -122.5420861 -0.168858E-07  0.434E-04    0.75      25.7  T
  13   -122.5420861 -0.176530E-08  0.304E-04    0.75      36.8  T
     SCC iter.                  ...        0 min,  0.241 sec
     gradient                   ...        0 min,  0.086 sec
 * total energy  :  -120.5863752 Eh     change        0.2228233E-02 Eh
   gradient norm :     0.0316927 Eh/α   predicted    -0.4635290E-02 (-308.03%)
   displ. norm   :     0.5391497 α      lambda       -0.4361003E-02
   maximum displ.:     0.1853865 α      in ANC's #18, #33, #34, ...

........................................................................
.............................. CYCLE   10 ..............................
........................................................................

 iter      E             dE          RMSdq      gap      omega  full diag
   1   -122.5499844 -0.122550E+03  0.177E-01    0.74       0.0  T
   2   -122.5488659  0.111852E-02  0.179E-01    0.64       1.0  T
   3   -122.5501173 -0.125141E-02  0.977E-02    0.76       1.0  T
   4   -122.5504863 -0.369007E-03  0.358E-02    0.70       1.0  T
   5   -122.5504785  0.775549E-05  0.234E-02    0.72       1.0  T
   6   -122.5505059 -0.273664E-04  0.114E-02    0.71       1.0  T
   7   -122.5505070 -0.110300E-05  0.908E-03    0.71       1.2  T
   8   -122.5505074 -0.366739E-06  0.554E-03    0.71       2.0  T
   9   -122.5505085 -0.108689E-05  0.196E-03    0.71       5.7  T
  10   -122.5505084  0.348215E-07  0.154E-03    0.71       7.2  T
  11   -122.5505086 -0.147823E-06  0.483E-04    0.71      23.1  T
  12   -122.5505086 -0.288324E-08  0.302E-04    0.71      37.0  T
     SCC iter.                  ...        0 min,  0.207 sec
     gradient                   ...        0 min,  0.101 sec
 * total energy  :  -120.5942598 Eh     change       -0.7884600E-02 Eh
   gradient norm :     0.2699613 Eh/α   predicted    -0.2814337E-02 ( -64.31%)
   displ. norm   :     0.4180752 α      lambda       -0.8271947E-01
   maximum displ.:     0.1375310 α      in ANC's #103, #118, #119, ...

........................................................................
.............................. CYCLE   11 ..............................
........................................................................

 iter      E             dE          RMSdq      gap      omega  full diag
   1   -122.5336845 -0.122534E+03  0.370E-01    0.69       0.0  T
   2   -122.5333283  0.356178E-03  0.203E-01    0.68       1.0  T
   3   -122.5334580 -0.129678E-03  0.171E-01    0.76       1.0  T
   4   -122.5344373 -0.979272E-03  0.715E-02    0.68       1.0  T
   5   -122.5344197  0.176146E-04  0.401E-02    0.73       1.0  T
   6   -122.5345264 -0.106777E-03  0.185E-02    0.70       1.0  T
   7   -122.5345471 -0.206601E-04  0.881E-03    0.71       1.3  T
   8   -122.5345471 -0.101331E-07  0.675E-03    0.71       1.7  T
   9   -122.5345481 -0.941426E-06  0.356E-03    0.71       3.1  T
  10   -122.5345483 -0.252644E-06  0.171E-03    0.71       6.6  T
  11   -122.5345484 -0.831158E-07  0.681E-04    0.71      16.4  T
  12   -122.5345484 -0.143421E-07  0.304E-04    0.71      36.8  T
  13   -122.5345484 -0.231802E-08  0.158E-04    0.71      70.6  T
     SCC iter.                  ...        0 min,  0.230 sec
     gradient                   ...        0 min,  0.098 sec
 * total energy  :  -120.5866702 Eh     change        0.7589557E-02 Eh
   gradient norm :     0.0668900 Eh/α   predicted    -0.4858891E-01 (-740.21%)
   displ. norm   :     0.2912391 α      lambda       -0.6099419E-02
   maximum displ.:     0.0883656 α      in ANC's #17, #38, #11, ...

........................................................................
.............................. CYCLE   12 ..............................
........................................................................

 iter      E             dE          RMSdq      gap      omega  full diag
   1   -122.5472458 -0.122547E+03  0.127E-01    0.73       0.0  T
   2   -122.5470164  0.229328E-03  0.111E-01    0.66       1.0  T
   3   -122.5472076 -0.191189E-03  0.748E-02    0.74       1.0  T
   4   -122.5474108 -0.203166E-03  0.373E-02    0.70       1.0  T
   5   -122.5474575 -0.467335E-04  0.120E-02    0.71       1.0  T
   6   -122.5474619 -0.438603E-05  0.505E-03    0.71       2.2  T
   7   -122.5474633 -0.139860E-05  0.276E-03    0.70       4.0  T
   8   -122.5474635 -0.162134E-06  0.167E-03    0.71       6.7  T
   9   -122.5474635 -0.433412E-07  0.101E-03    0.70      11.1  T
  10   -122.5474635 -0.200701E-07  0.580E-04    0.71      19.3  T
  11   -122.5474635 -0.559952E-08  0.276E-04    0.70      40.5  T
  12   -122.5474635 -0.454264E-09  0.155E-04    0.71      72.1  T
     SCC iter.                  ...        0 min,  0.188 sec
     gradient                   ...        0 min,  0.090 sec
 * total energy  :  -120.5913520 Eh     change       -0.4681822E-02 Eh
   gradient norm :     0.0429217 Eh/α   predicted    -0.3308391E-02 ( -29.34%)
   displ. norm   :     0.4630105 α      lambda       -0.6581514E-02
   maximum displ.:     0.1445522 α      in ANC's #17, #18, #26, ...

........................................................................
.............................. CYCLE   13 ..............................
........................................................................

 iter      E             dE          RMSdq      gap      omega  full diag
   1   -122.5654663 -0.122565E+03  0.169E-01    0.73       0.0  T
   2   -122.5646834  0.782809E-03  0.176E-01    0.61       1.0  T
   3   -122.5656880 -0.100452E-02  0.836E-02    0.72       1.0  T
   4   -122.5658071 -0.119088E-03  0.508E-02    0.66       1.0  T
   5   -122.5659077 -0.100645E-03  0.159E-02    0.69       1.0  T
   6   -122.5659159 -0.815939E-05  0.917E-03    0.68       1.2  T
   7   -122.5659168 -0.920963E-06  0.652E-03    0.68       1.7  T
   8   -122.5659177 -0.961328E-06  0.331E-03    0.68       3.4  T
   9   -122.5659178 -0.344630E-07  0.177E-03    0.68       6.3  T
  10   -122.5659179 -0.903757E-07  0.860E-04    0.68      13.0  T
  11   -122.5659179 -0.278585E-07  0.373E-04    0.68      30.0  T
  12   -122.5659179 -0.346057E-08  0.212E-04    0.68      52.7  T
     SCC iter.                  ...        0 min,  0.179 sec
     gradient                   ...        0 min,  0.082 sec
 * total energy  :  -120.5961391 Eh     change       -0.4787055E-02 Eh
   gradient norm :     0.0234916 Eh/α   predicted    -0.3996234E-02 ( -16.52%)
   displ. norm   :     0.5700145 α      lambda       -0.4951860E-02
   maximum displ.:     0.2079083 α      in ANC's #17, #33, #11, ...

........................................................................
.............................. CYCLE   14 ..............................
........................................................................

 iter      E             dE          RMSdq      gap      omega  full diag
   1   -122.5623443 -0.122562E+03  0.241E-01    0.70       0.0  T
   2   -122.5624994 -0.155134E-03  0.144E-01    0.64       1.0  T
   3   -122.5627191 -0.219681E-03  0.845E-02    0.66       1.0  T
   4   -122.5626600  0.590908E-04  0.636E-02    0.67       1.0  T
   5   -122.5627942 -0.134265E-03  0.212E-02    0.64       1.0  T
   6   -122.5628164 -0.221893E-04  0.127E-02    0.66       1.0  T
   7   -122.5628226 -0.620643E-05  0.721E-03    0.65       1.6  T
   8   -122.5628237 -0.109177E-05  0.511E-03    0.66       2.2  T
   9   -122.5628241 -0.411531E-06  0.262E-03    0.65       4.3  T
  10   -122.5628242 -0.658579E-07  0.129E-03    0.65       8.7  T
  11   -122.5628243 -0.512721E-07  0.364E-04    0.65      30.7  T
  12   -122.5628243 -0.369675E-08  0.199E-04    0.65      56.3  T
     SCC iter.                  ...        0 min,  0.216 sec
     gradient                   ...        0 min,  0.079 sec
 * total energy  :  -120.5999586 Eh     change       -0.3819468E-02 Eh
   gradient norm :     0.0305875 Eh/α   predicted    -0.3280404E-02 ( -14.11%)
   displ. norm   :     0.5759855 α      lambda       -0.5384302E-02
   maximum displ.:     0.2106653 α      in ANC's #17, #33, #26, ...

........................................................................
.............................. CYCLE   15 ..............................
........................................................................

 iter      E             dE          RMSdq      gap      omega  full diag
   1   -122.5585286 -0.122559E+03  0.233E-01    0.61       0.0  T
   2   -122.5583777  0.150905E-03  0.156E-01    0.57       1.0  T
   3   -122.5584983 -0.120602E-03  0.106E-01    0.65       1.0  T
   4   -122.5587929 -0.294562E-03  0.694E-02    0.58       1.0  T
   5   -122.5589147 -0.121827E-03  0.317E-02    0.62       1.0  T
   6   -122.5589640 -0.492380E-04  0.188E-02    0.60       1.0  T
   7   -122.5589701 -0.610940E-05  0.113E-02    0.60       1.0  T
   8   -122.5589706 -0.547557E-06  0.653E-03    0.60       1.7  T
   9   -122.5589713 -0.717351E-06  0.281E-03    0.60       4.0  T
  10   -122.5589716 -0.247033E-06  0.111E-03    0.60      10.1  T
  11   -122.5589716 -0.488962E-07  0.531E-04    0.60      21.0  T
  12   -122.5589716 -0.281160E-08  0.308E-04    0.60      36.3  T
  13   -122.5589716 -0.141482E-08  0.187E-04    0.60      59.7  T
     SCC iter.                  ...        0 min,  0.224 sec
     gradient                   ...        0 min,  0.083 sec
 * total energy  :  -120.5956476 Eh     change        0.4311018E-02 Eh
   gradient norm :     0.0270427 Eh/α   predicted    -0.3585305E-02 (-183.17%)
   displ. norm   :     0.5801873 α      lambda       -0.3826812E-02
   maximum displ.:     0.2228723 α      in ANC's #33, #17, #34, ...

........................................................................
.............................. CYCLE   16 ..............................
........................................................................

 iter      E             dE          RMSdq      gap      omega  full diag
   1   -122.5489636 -0.122549E+03  0.209E-01    0.59       0.0  T
   2   -122.5489844 -0.207984E-04  0.121E-01    0.58       1.0  T
   3   -122.5490791 -0.946922E-04  0.840E-02    0.55       1.0  T
   4   -122.5491653 -0.862085E-04  0.608E-02    0.60       1.0  T
   5   -122.5492679 -0.102626E-03  0.241E-02    0.56       1.0  T
   6   -122.5492962 -0.282770E-04  0.129E-02    0.57       1.0  T
   7   -122.5493000 -0.379220E-05  0.750E-03    0.57       1.5  T
   8   -122.5493006 -0.631452E-06  0.483E-03    0.57       2.3  T
   9   -122.5493010 -0.353044E-06  0.205E-03    0.57       5.4  T
  10   -122.5493011 -0.856177E-07  0.140E-03    0.57       8.0  T
  11   -122.5493012 -0.101948E-06  0.424E-04    0.57      26.4  T
  12   -122.5493012 -0.428071E-08  0.268E-04    0.57      41.6  T
     SCC iter.                  ...        0 min,  0.214 sec
     gradient                   ...        0 min,  0.081 sec
 * total energy  :  -120.5985325 Eh     change       -0.2884970E-02 Eh
   gradient norm :     0.0220638 Eh/α   predicted    -0.2557490E-02 ( -11.35%)
   displ. norm   :     0.5266052 α      lambda       -0.3369315E-02
   maximum displ.:     0.2135439 α      in ANC's #33, #34, #17, ...

........................................................................
.............................. CYCLE   17 ..............................
........................................................................

 iter      E             dE          RMSdq      gap      omega  full diag
   1   -122.5472932 -0.122547E+03  0.190E-01    0.57       0.0  T
   2   -122.5473812 -0.880292E-04  0.109E-01    0.53       1.0  T
   3   -122.5474890 -0.107754E-03  0.670E-02    0.57       1.0  T
   4   -122.5474911 -0.218071E-05  0.480E-02    0.52       1.0  T
   5   -122.5475730 -0.818294E-04  0.329E-02    0.57       1.0  T
   6   -122.5476253 -0.523019E-04  0.117E-02    0.55       1.0  T
   7   -122.5476268 -0.155838E-05  0.851E-03    0.55       1.3  T
   8   -122.5476278 -0.987684E-06  0.525E-03    0.55       2.1  T
   9   -122.5476283 -0.484550E-06  0.278E-03    0.55       4.0  T
  10   -122.5476285 -0.220358E-06  0.111E-03    0.55      10.1  T
  11   -122.5476286 -0.335758E-07  0.477E-04    0.55      23.4  T
  12   -122.5476286 -0.227962E-08  0.300E-04    0.55      37.3  T
     SCC iter.                  ...        0 min,  0.225 sec
     gradient                   ...        0 min,  0.077 sec
 * total energy  :  -120.6009924 Eh     change       -0.2459882E-02 Eh
   gradient norm :     0.0266351 Eh/α   predicted    -0.2151853E-02 ( -12.52%)
   displ. norm   :     0.5810513 α      lambda       -0.3950078E-02
   maximum displ.:     0.2474268 α      in ANC's #33, #34, #61, ...

........................................................................
.............................. CYCLE   18 ..............................
........................................................................

 iter      E             dE          RMSdq      gap      omega  full diag
   1   -122.5552642 -0.122555E+03  0.199E-01    0.51       0.0  T
   2   -122.5550865  0.177783E-03  0.167E-01    0.50       1.0  T
   3   -122.5557300 -0.643501E-03  0.103E-01    0.55       1.0  T
   4   -122.5558112 -0.812881E-04  0.624E-02    0.48       1.0  T
   5   -122.5559279 -0.116620E-03  0.450E-02    0.54       1.0  T
   6   -122.5560148 -0.869006E-04  0.211E-02    0.52       1.0  T
   7   -122.5560176 -0.285157E-05  0.132E-02    0.52       1.0  T
   8   -122.5560168  0.804947E-06  0.745E-03    0.51       1.5  T
   9   -122.5560196 -0.278090E-05  0.247E-03    0.51       4.5  T
  10   -122.5560197 -0.942406E-07  0.878E-04    0.51      12.7  T
  11   -122.5560197 -0.152428E-07  0.553E-04    0.51      20.2  T
  12   -122.5560197 -0.685466E-08  0.345E-04    0.51      32.4  T
  13   -122.5560197 -0.564853E-09  0.229E-04    0.51      48.7  T
     SCC iter.                  ...        0 min,  0.211 sec
     gradient                   ...        0 min,  0.094 sec
 * total energy  :  -120.6031756 Eh     change       -0.2183208E-02 Eh
   gradient norm :     0.0425779 Eh/α   predicted    -0.2641864E-02 (  21.01%)
   displ. norm   :     0.4528916 α      lambda       -0.3173210E-02
   maximum displ.:     0.1701097 α      in ANC's #33, #34, #57, ...

........................................................................
.............................. CYCLE   19 ..............................
........................................................................

 iter      E             dE          RMSdq      gap      omega  full diag
   1   -122.5575200 -0.122558E+03  0.201E-01    0.54       0.0  T
   2   -122.5575650 -0.449593E-04  0.116E-01    0.47       1.0  T
   3   -122.5577443 -0.179318E-03  0.746E-02    0.54       1.0  T
   4   -122.5579265 -0.182216E-03  0.494E-02    0.49       1.0  T
   5   -122.5579323 -0.576094E-05  0.397E-02    0.52       1.0  T
   6   -122.5580016 -0.693225E-04  0.152E-02    0.51       1.0  T
   7   -122.5580047 -0.305872E-05  0.109E-02    0.50       1.0  T
   8   -122.5580065 -0.179713E-05  0.539E-03    0.51       2.1  T
   9   -122.5580070 -0.557220E-06  0.292E-03    0.50       3.8  T
  10   -122.5580073 -0.272809E-06  0.119E-03    0.50       9.4  T
  11   -122.5580073 -0.340199E-07  0.566E-04    0.50      19.8  T
  12   -122.5580073  0.649152E-10  0.447E-04    0.50      25.0  T
  13   -122.5580073 -0.614803E-08  0.247E-04    0.50      45.3  T
     SCC iter.                  ...        0 min,  0.212 sec
     gradient                   ...        0 min,  0.079 sec
 * total energy  :  -120.6056531 Eh     change       -0.2477510E-02 Eh
   gradient norm :     0.0228447 Eh/α   predicted    -0.1912038E-02 ( -22.82%)
   displ. norm   :     0.4872823 α      lambda       -0.3176622E-02
   maximum displ.:     0.1723625 α      in ANC's #33, #57, #34, ...

........................................................................
.............................. CYCLE   20 ..............................
........................................................................

 iter      E             dE          RMSdq      gap      omega  full diag
   1   -122.5674078 -0.122567E+03  0.242E-01    0.53       0.0  T
   2   -122.5674704 -0.625686E-04  0.123E-01    0.46       1.0  T
   3   -122.5674199  0.504235E-04  0.977E-02    0.55       1.0  T
   4   -122.5677438 -0.323895E-03  0.648E-02    0.48       1.0  T
   5   -122.5677999 -0.561171E-04  0.400E-02    0.50       1.0  T
   6   -122.5678406 -0.406208E-04  0.227E-02    0.50       1.0  T
   7   -122.5678407 -0.149798E-06  0.157E-02    0.49       1.0  T
   8   -122.5678477 -0.703569E-05  0.676E-03    0.50       1.7  T
   9   -122.5678492 -0.146572E-05  0.326E-03    0.50       3.4  T
  10   -122.5678495 -0.318988E-06  0.147E-03    0.50       7.6  T
  11   -122.5678496 -0.436162E-07  0.826E-04    0.50      13.5  T
  12   -122.5678496 -0.273259E-08  0.623E-04    0.50      17.9  T
  13   -122.5678496 -0.937457E-08  0.334E-04    0.50      33.5  T
  14   -122.5678496 -0.162953E-08  0.182E-04    0.50      61.4  T
     SCC iter.                  ...        0 min,  0.226 sec
     gradient                   ...        0 min,  0.083 sec
 * total energy  :  -120.6080553 Eh     change       -0.2402215E-02 Eh
   gradient norm :     0.0207220 Eh/α   predicted    -0.1965449E-02 ( -18.18%)
   displ. norm   :     0.5611248 α      lambda       -0.2662053E-02
   maximum displ.:     0.2140846 α      in ANC's #33, #57, #34, ...
 * RMSD in coord.:     0.9496564 α      energy gain  -0.2634935E+00 Eh

generating ANC from exact Hessian ...
Using Lindh-Hessian (1995)
 Shifting diagonal of input Hessian by    1.0116607810203120E-002
 Lowest  eigenvalues of input Hessian
    0.010000    0.000000    0.000000    0.000000    0.000000    0.000000
    0.000000    0.010168    0.010226    0.010248    0.010448    0.010472
    0.010509    0.010522    0.010620    0.010712    0.010812    0.010864
 Highest eigenvalues
    2.001464    2.003183    2.019705    2.233162    2.361155    2.419560


........................................................................
.............................. CYCLE   21 ..............................
........................................................................

 iter      E             dE          RMSdq      gap      omega  full diag
   1   -122.5719581 -0.122572E+03  0.281E-01    0.52       0.0  T
   2   -122.5719576  0.538274E-06  0.153E-01    0.45       1.0  T
   3   -122.5719016  0.560050E-04  0.117E-01    0.54       1.0  T
   4   -122.5722883 -0.386753E-03  0.817E-02    0.47       1.0  T
   5   -122.5724235 -0.135163E-03  0.390E-02    0.49       1.0  T
   6   -122.5724302 -0.674453E-05  0.263E-02    0.49       1.0  T
   7   -122.5724365 -0.621716E-05  0.132E-02    0.49       1.0  T
   8   -122.5724416 -0.514387E-05  0.681E-03    0.49       1.6  T
   9   -122.5724423 -0.748419E-06  0.355E-03    0.49       3.2  T
  10   -122.5724429 -0.554539E-06  0.149E-03    0.49       7.5  T
  11   -122.5724430 -0.900632E-07  0.954E-04    0.49      11.7  T
  12   -122.5724430 -0.117606E-07  0.635E-04    0.49      17.6  T
  13   -122.5724430 -0.468377E-08  0.366E-04    0.49      30.6  T
  14   -122.5724430 -0.241775E-08  0.188E-04    0.49      59.5  T
     SCC iter.                  ...        0 min,  0.205 sec
     gradient                   ...        0 min,  0.078 sec
 * total energy  :  -120.6102449 Eh     change       -0.2189585E-02 Eh
   gradient norm :     0.0218983 Eh/α   predicted     0.0000000E+00 (-100.00%)
   displ. norm   :     0.3321649 α      lambda       -0.3631353E-02
   maximum displ.:     0.1381849 α      in ANC's #35, #24, #38, ...

........................................................................
.............................. CYCLE   22 ..............................
........................................................................

 iter      E             dE          RMSdq      gap      omega  full diag
   1   -122.5708157 -0.122571E+03  0.219E-01    0.54       0.0  T
   2   -122.5708586 -0.428320E-04  0.125E-01    0.52       1.0  T
   3   -122.5707475  0.111073E-03  0.903E-02    0.52       1.0  T
   4   -122.5709843 -0.236776E-03  0.578E-02    0.52       1.0  T
   5   -122.5710414 -0.571366E-04  0.348E-02    0.52       1.0  T
   6   -122.5710647 -0.233190E-04  0.223E-02    0.51       1.0  T
   7   -122.5710627  0.199976E-05  0.153E-02    0.53       1.0  T
   8   -122.5710715 -0.877035E-05  0.697E-03    0.51       1.6  T
   9   -122.5710731 -0.158721E-05  0.299E-03    0.52       3.7  T
  10   -122.5710732 -0.113822E-06  0.859E-04    0.52      13.0  T
  11   -122.5710732 -0.971036E-08  0.509E-04    0.52      22.0  T
  12   -122.5710732 -0.305444E-08  0.347E-04    0.52      32.2  T
  13   -122.5710732 -0.149123E-08  0.218E-04    0.52      51.3  T
     SCC iter.                  ...        0 min,  0.201 sec
     gradient                   ...        0 min,  0.081 sec
 * total energy  :  -120.6118431 Eh     change       -0.1598131E-02 Eh
   gradient norm :     0.0285748 Eh/α   predicted    -0.2016017E-02 (  26.15%)
   displ. norm   :     0.5035902 α      lambda       -0.6050043E-02
   maximum displ.:     0.2513649 α      in ANC's #24, #83, #61, ...

........................................................................
.............................. CYCLE   23 ..............................
........................................................................

 iter      E             dE          RMSdq      gap      omega  full diag
   1   -122.5774982 -0.122577E+03  0.298E-01    0.54       0.0  T
   2   -122.5763705  0.112769E-02  0.281E-01    0.49       1.0  T
   3   -122.5788816 -0.251107E-02  0.130E-01    0.57       1.0  T
   4   -122.5791431 -0.261465E-03  0.663E-02    0.53       1.0  T
   5   -122.5791158  0.272353E-04  0.506E-02    0.56       1.0  T
   6   -122.5792211 -0.105306E-03  0.264E-02    0.54       1.0  T
   7   -122.5792249 -0.372087E-05  0.148E-02    0.55       1.0  T
   8   -122.5792281 -0.319534E-05  0.759E-03    0.55       1.5  T
   9   -122.5792299 -0.188601E-05  0.344E-03    0.55       3.2  T
  10   -122.5792302 -0.270070E-06  0.131E-03    0.55       8.6  T
  11   -122.5792302 -0.325373E-07  0.873E-04    0.55      12.8  T
  12   -122.5792303 -0.899846E-08  0.590E-04    0.55      18.9  T
  13   -122.5792303 -0.432195E-08  0.358E-04    0.55      31.3  T
  14   -122.5792303 -0.139786E-08  0.195E-04    0.55      57.4  T
     SCC iter.                  ...        0 min,  0.224 sec
     gradient                   ...        0 min,  0.082 sec
 * total energy  :  -120.6146590 Eh     change       -0.2815938E-02 Eh
   gradient norm :     0.0338865 Eh/α   predicted    -0.3792203E-02 (  34.67%)
   displ. norm   :     0.3752695 α      lambda       -0.3703792E-02
   maximum displ.:     0.1231440 α      in ANC's #9, #61, #37, ...

........................................................................
.............................. CYCLE   24 ..............................
........................................................................

 iter      E             dE          RMSdq      gap      omega  full diag
   1   -122.5836540 -0.122584E+03  0.186E-01    0.58       0.0  T
   2   -122.5835480  0.105989E-03  0.138E-01    0.49       1.0  T
   3   -122.5837445 -0.196433E-03  0.908E-02    0.56       1.0  T
   4   -122.5839573 -0.212769E-03  0.475E-02    0.53       1.0  T
   5   -122.5839879 -0.306646E-04  0.224E-02    0.53       1.0  T
   6   -122.5839925 -0.456655E-05  0.169E-02    0.53       1.0  T
   7   -122.5839972 -0.475803E-05  0.100E-02    0.53       1.1  T
   8   -122.5839981 -0.906322E-06  0.604E-03    0.53       1.9  T
   9   -122.5839993 -0.114501E-05  0.296E-03    0.53       3.8  T
  10   -122.5839996 -0.327597E-06  0.101E-03    0.53      11.1  T
  11   -122.5839996 -0.184186E-07  0.533E-04    0.53      21.0  T
  12   -122.5839996 -0.242046E-08  0.326E-04    0.53      34.3  T
  13   -122.5839996 -0.946272E-09  0.203E-04    0.53      55.2  T
     SCC iter.                  ...        0 min,  0.204 sec
     gradient                   ...        0 min,  0.067 sec
 * total energy  :  -120.6174334 Eh     change       -0.2774414E-02 Eh
   gradient norm :     0.0293424 Eh/α   predicted    -0.2112699E-02 ( -23.85%)
   displ. norm   :     0.5169477 α      lambda       -0.3395705E-02
   maximum displ.:     0.1909715 α      in ANC's #9, #2, #6, ...

........................................................................
.............................. CYCLE   25 ..............................
........................................................................

 iter      E             dE          RMSdq      gap      omega  full diag
   1   -122.5822667 -0.122582E+03  0.196E-01    0.57       0.0  T
   2   -122.5823716 -0.104917E-03  0.111E-01    0.54       1.0  T
   3   -122.5823212  0.504046E-04  0.736E-02    0.53       1.0  T
   4   -122.5823429 -0.217082E-04  0.467E-02    0.55       1.0  T
   5   -122.5824544 -0.111562E-03  0.196E-02    0.53       1.0  T
   6   -122.5824552 -0.765314E-06  0.164E-02    0.54       1.0  T
   7   -122.5824592 -0.395155E-05  0.102E-02    0.54       1.1  T
   8   -122.5824610 -0.180183E-05  0.578E-03    0.53       1.9  T
   9   -122.5824617 -0.718734E-06  0.305E-03    0.54       3.7  T
  10   -122.5824619 -0.205749E-06  0.121E-03    0.54       9.3  T
  11   -122.5824619 -0.448076E-07  0.600E-04    0.54      18.6  T
  12   -122.5824619 -0.196621E-08  0.398E-04    0.54      28.1  T
  13   -122.5824619 -0.191072E-08  0.248E-04    0.54      45.1  T
     SCC iter.                  ...        0 min,  0.206 sec
     gradient                   ...        0 min,  0.085 sec
 * total energy  :  -120.6196067 Eh     change       -0.2173250E-02 Eh
   gradient norm :     0.0134446 Eh/α   predicted    -0.2151586E-02 (  -1.00%)
   displ. norm   :     0.4973983 α      lambda       -0.2124056E-02
   maximum displ.:     0.1951422 α      in ANC's #9, #6, #2, ...

........................................................................
.............................. CYCLE   26 ..............................
........................................................................

 iter      E             dE          RMSdq      gap      omega  full diag
   1   -122.5811675 -0.122581E+03  0.191E-01    0.57       0.0  T
   2   -122.5812652 -0.976756E-04  0.109E-01    0.54       1.0  T
   3   -122.5812174  0.477912E-04  0.607E-02    0.57       1.0  T
   4   -122.5812218 -0.441239E-05  0.434E-02    0.54       1.0  T
   5   -122.5812905 -0.686408E-04  0.189E-02    0.55       1.0  T
   6   -122.5812969 -0.641329E-05  0.121E-02    0.55       1.0  T
   7   -122.5812977 -0.800001E-06  0.850E-03    0.55       1.3  T
   8   -122.5812981 -0.423853E-06  0.441E-03    0.55       2.5  T
   9   -122.5812986 -0.489267E-06  0.264E-03    0.55       4.2  T
  10   -122.5812989 -0.264872E-06  0.106E-03    0.55      10.5  T
  11   -122.5812989 -0.390033E-07  0.480E-04    0.55      23.3  T
  12   -122.5812989 -0.481813E-08  0.246E-04    0.55      45.4  T
     SCC iter.                  ...        0 min,  0.195 sec
     gradient                   ...        0 min,  0.088 sec
 * total energy  :  -120.6198986 Eh     change       -0.2919067E-03 Eh
   gradient norm :     0.0252911 Eh/α   predicted    -0.1324787E-02 ( 353.84%)
   displ. norm   :     0.3005845 α      lambda       -0.2350045E-02
   maximum displ.:     0.1002086 α      in ANC's #9, #19, #21, ...

........................................................................
.............................. CYCLE   27 ..............................
........................................................................

 iter      E             dE          RMSdq      gap      omega  full diag
   1   -122.5818042 -0.122582E+03  0.130E-01    0.54       0.0  T
   2   -122.5818275 -0.233401E-04  0.789E-02    0.54       1.0  T
   3   -122.5816450  0.182542E-03  0.674E-02    0.53       1.0  T
   4   -122.5819222 -0.277245E-03  0.265E-02    0.54       1.0  T
   5   -122.5819279 -0.566630E-05  0.142E-02    0.54       1.0  T
   6   -122.5819287 -0.787653E-06  0.114E-02    0.54       1.0  T
   7   -122.5819290 -0.256471E-06  0.890E-03    0.54       1.3  T
   8   -122.5819304 -0.143502E-05  0.398E-03    0.54       2.8  T
   9   -122.5819310 -0.591732E-06  0.150E-03    0.54       7.5  T
  10   -122.5819310 -0.291495E-07  0.716E-04    0.54      15.6  T
  11   -122.5819310 -0.207292E-07  0.276E-04    0.54      40.6  T
  12   -122.5819310 -0.140960E-08  0.148E-04    0.54      75.5  T
     SCC iter.                  ...        0 min,  0.185 sec
     gradient                   ...        0 min,  0.073 sec
 * total energy  :  -120.6214196 Eh     change       -0.1521013E-02 Eh
   gradient norm :     0.0140545 Eh/α   predicted    -0.1281190E-02 ( -15.77%)
   displ. norm   :     0.3353100 α      lambda       -0.1195539E-02
   maximum displ.:     0.1263649 α      in ANC's #9, #2, #6, ...

........................................................................
.............................. CYCLE   28 ..............................
........................................................................

 iter      E             dE          RMSdq      gap      omega  full diag
   1   -122.5831664 -0.122583E+03  0.106E-01    0.52       0.0  T
   2   -122.5831856 -0.191946E-04  0.586E-02    0.53       1.0  T
   3   -122.5831164  0.691290E-04  0.427E-02    0.52       1.0  T
   4   -122.5832009 -0.844589E-04  0.188E-02    0.53       1.0  T
   5   -122.5832140 -0.130861E-04  0.678E-03    0.53       1.7  T
   6   -122.5832147 -0.735719E-06  0.476E-03    0.53       2.4  T
   7   -122.5832148 -0.105924E-06  0.315E-03    0.53       3.5  T
   8   -122.5832149 -0.104429E-06  0.158E-03    0.53       7.1  T
   9   -122.5832149 -0.353124E-07  0.113E-03    0.53       9.9  T
  10   -122.5832150 -0.349637E-07  0.511E-04    0.53      21.9  T
  11   -122.5832150 -0.669489E-08  0.170E-04    0.53      65.7  T
  12   -122.5832150 -0.717179E-09  0.921E-05    0.53     121.4  T
     SCC iter.                  ...        0 min,  0.185 sec
     gradient                   ...        0 min,  0.080 sec
 * total energy  :  -120.6222261 Eh     change       -0.8064905E-03 Eh
   gradient norm :     0.0158876 Eh/α   predicted    -0.6649792E-03 ( -17.55%)
   displ. norm   :     0.5036627 α      lambda       -0.1334220E-02
   maximum displ.:     0.1907739 α      in ANC's #6, #9, #2, ...

........................................................................
.............................. CYCLE   29 ..............................
........................................................................

 iter      E             dE          RMSdq      gap      omega  full diag
   1   -122.5855761 -0.122586E+03  0.150E-01    0.58       0.0  T
   2   -122.5855986 -0.224743E-04  0.826E-02    0.58       1.0  T
   3   -122.5854566  0.141972E-03  0.602E-02    0.57       1.0  T
   4   -122.5856228 -0.166238E-03  0.268E-02    0.57       1.0  T
   5   -122.5856471 -0.243205E-04  0.105E-02    0.58       1.1  T
   6   -122.5856515 -0.432682E-05  0.382E-03    0.57       2.9  T
   7   -122.5856516 -0.113611E-06  0.312E-03    0.57       3.6  T
   8   -122.5856517 -0.952053E-07  0.199E-03    0.57       5.6  T
   9   -122.5856517 -0.609010E-07  0.105E-03    0.57      10.7  T
  10   -122.5856517 -0.712606E-08  0.568E-04    0.57      19.7  T
  11   -122.5856518 -0.685499E-08  0.248E-04    0.57      45.0  T
  12   -122.5856518 -0.118882E-08  0.116E-04    0.57      96.2  T
     SCC iter.                  ...        0 min,  0.178 sec
     gradient                   ...        0 min,  0.073 sec
 * total energy  :  -120.6230481 Eh     change       -0.8220143E-03 Eh
   gradient norm :     0.0234527 Eh/α   predicted    -0.8363409E-03 (   1.74%)
   displ. norm   :     0.5393435 α      lambda       -0.1343475E-02
   maximum displ.:     0.2098552 α      in ANC's #6, #9, #2, ...

........................................................................
.............................. CYCLE   30 ..............................
........................................................................

 iter      E             dE          RMSdq      gap      omega  full diag
   1   -122.5823082 -0.122582E+03  0.161E-01    0.49       0.0  T
   2   -122.5822818  0.264182E-04  0.103E-01    0.49       1.0  T
   3   -122.5820553  0.226506E-03  0.942E-02    0.53       1.0  T
   4   -122.5824262 -0.370879E-03  0.217E-02    0.51       1.0  T
   5   -122.5824266 -0.466399E-06  0.124E-02    0.52       1.0  T
   6   -122.5824363 -0.967938E-05  0.338E-03    0.51       3.3  T
   7   -122.5824364 -0.135474E-06  0.242E-03    0.51       4.6  T
   8   -122.5824365 -0.743390E-07  0.163E-03    0.51       6.9  T
   9   -122.5824366 -0.342574E-07  0.912E-04    0.51      12.3  T
  10   -122.5824366 -0.724776E-08  0.466E-04    0.51      24.0  T
  11   -122.5824366 -0.449120E-08  0.248E-04    0.51      45.1  T
     SCC iter.                  ...        0 min,  0.209 sec
     gradient                   ...        0 min,  0.084 sec
 * total energy  :  -120.6237800 Eh     change       -0.7318732E-03 Eh
   gradient norm :     0.0240558 Eh/α   predicted    -0.8671446E-03 (  18.48%)
   displ. norm   :     0.4018236 α      lambda       -0.1218126E-02
   maximum displ.:     0.1610465 α      in ANC's #6, #2, #9, ...

........................................................................
.............................. CYCLE   31 ..............................
........................................................................

 iter      E             dE          RMSdq      gap      omega  full diag
   1   -122.5901133 -0.122590E+03  0.130E-01    0.57       0.0  T
   2   -122.5901084  0.485087E-05  0.758E-02    0.53       1.0  T
   3   -122.5900311  0.772588E-04  0.662E-02    0.56       1.0  T
   4   -122.5901906 -0.159438E-03  0.246E-02    0.54       1.0  T
   5   -122.5901936 -0.302279E-05  0.125E-02    0.54       1.0  T
   6   -122.5902037 -0.100633E-04  0.353E-03    0.54       3.2  T
   7   -122.5902037 -0.608039E-07  0.261E-03    0.54       4.3  T
   8   -122.5902038 -0.213225E-07  0.148E-03    0.54       7.6  T
   9   -122.5902038 -0.338851E-07  0.863E-04    0.54      13.0  T
  10   -122.5902038 -0.183141E-07  0.366E-04    0.54      30.5  T
  11   -122.5902038 -0.811724E-09  0.214E-04    0.54      52.1  T
     SCC iter.                  ...        0 min,  0.196 sec
     gradient                   ...        0 min,  0.098 sec
 * total energy  :  -120.6245398 Eh     change       -0.7598300E-03 Eh
   gradient norm :     0.0089423 Eh/α   predicted    -0.7074041E-03 (  -6.90%)
   displ. norm   :     0.6118766 α      lambda       -0.9921541E-03
   maximum displ.:     0.2672373 α      in ANC's #6, #2, #9, ...

........................................................................
.............................. CYCLE   32 ..............................
........................................................................

 iter      E             dE          RMSdq      gap      omega  full diag
   1   -122.5809449 -0.122581E+03  0.197E-01    0.57       0.0  T
   2   -122.5804086  0.536375E-03  0.180E-01    0.66       1.0  T
   3   -122.5813981 -0.989516E-03  0.990E-02    0.58       1.0  T
   4   -122.5815351 -0.136993E-03  0.315E-02    0.60       1.0  T
   5   -122.5815333  0.175437E-05  0.312E-02    0.60       1.0  T
   6   -122.5815947 -0.613706E-04  0.460E-03    0.60       2.4  T
   7   -122.5815948 -0.144537E-06  0.293E-03    0.60       3.8  T
   8   -122.5815949 -0.702059E-07  0.212E-03    0.60       5.3  T
   9   -122.5815949 -0.511558E-07  0.103E-03    0.60      10.8  T
  10   -122.5815949 -0.685407E-08  0.676E-04    0.60      16.5  T
  11   -122.5815950 -0.103385E-07  0.316E-04    0.60      35.4  T
  12   -122.5815950 -0.122375E-08  0.175E-04    0.60      64.0  T
     SCC iter.                  ...        0 min,  0.205 sec
     gradient                   ...        0 min,  0.083 sec
 * total energy  :  -120.6247857 Eh     change       -0.2458729E-03 Eh
   gradient norm :     0.0363746 Eh/α   predicted    -0.6818067E-03 ( 177.30%)
   displ. norm   :     0.2483579 α      lambda       -0.1203476E-02
   maximum displ.:     0.0908295 α      in ANC's #2, #1, #6, ...

........................................................................
.............................. CYCLE   33 ..............................
........................................................................

 iter      E             dE          RMSdq      gap      omega  full diag
   1   -122.5902386 -0.122590E+03  0.103E-01    0.59       0.0  T
   2   -122.5899712  0.267416E-03  0.117E-01    0.52       1.0  T
   3   -122.5906201 -0.648950E-03  0.332E-02    0.56       1.0  T
   4   -122.5906276 -0.751372E-05  0.201E-02    0.56       1.0  T
   5   -122.5906217  0.598062E-05  0.175E-02    0.56       1.0  T
   6   -122.5906370 -0.153383E-04  0.459E-03    0.56       2.4  T
   7   -122.5906372 -0.209997E-06  0.328E-03    0.56       3.4  T
   8   -122.5906372 -0.347595E-07  0.178E-03    0.56       6.3  T
   9   -122.5906373 -0.486495E-07  0.798E-04    0.56      14.0  T
  10   -122.5906373 -0.147400E-07  0.330E-04    0.56      33.8  T
  11   -122.5906373 -0.144321E-08  0.189E-04    0.56      59.3  T
     SCC iter.                  ...        0 min,  0.198 sec
     gradient                   ...        0 min,  0.076 sec
 * total energy  :  -120.6254821 Eh     change       -0.6964812E-03 Eh
   gradient norm :     0.0115177 Eh/α   predicted    -0.6388539E-03 (  -8.27%)
   displ. norm   :     0.4449382 α      lambda       -0.4931812E-03
   maximum displ.:     0.1940578 α      in ANC's #6, #2, #1, ...

........................................................................
.............................. CYCLE   34 ..............................
........................................................................

 iter      E             dE          RMSdq      gap      omega  full diag
   1   -122.5904071 -0.122590E+03  0.109E-01    0.53       0.0  T
   2   -122.5903913  0.157721E-04  0.650E-02    0.53       1.0  T
   3   -122.5902680  0.123349E-03  0.639E-02    0.55       1.0  T
   4   -122.5904449 -0.176883E-03  0.157E-02    0.54       1.0  T
   5   -122.5904429  0.200903E-05  0.979E-03    0.54       1.1  T
   6   -122.5904500 -0.712440E-05  0.176E-03    0.54       6.4  T
   7   -122.5904500 -0.203157E-07  0.135E-03    0.54       8.3  T
   8   -122.5904500 -0.668334E-08  0.843E-04    0.54      13.3  T
   9   -122.5904500 -0.176711E-07  0.451E-04    0.54      24.8  T
  10   -122.5904500 -0.922739E-09  0.285E-04    0.54      39.2  T
     SCC iter.                  ...        0 min,  0.155 sec
     gradient                   ...        0 min,  0.080 sec
 * total energy  :  -120.6258677 Eh     change       -0.3855881E-03 Eh
   gradient norm :     0.0074061 Eh/α   predicted    -0.2954092E-03 ( -23.39%)
   displ. norm   :     0.5742684 α      lambda       -0.5525029E-03
   maximum displ.:     0.2702502 α      in ANC's #6, #2, #1, ...

........................................................................
.............................. CYCLE   35 ..............................
........................................................................

 iter      E             dE          RMSdq      gap      omega  full diag
   1   -122.5898286 -0.122590E+03  0.135E-01    0.52       0.0  T
   2   -122.5898325 -0.395484E-05  0.775E-02    0.54       1.0  T
   3   -122.5896588  0.173728E-03  0.623E-02    0.51       1.0  T
   4   -122.5898532 -0.194407E-03  0.197E-02    0.54       1.0  T
   5   -122.5898562 -0.297521E-05  0.109E-02    0.53       1.0  T
   6   -122.5898643 -0.811535E-05  0.269E-03    0.54       4.2  T
   7   -122.5898644 -0.125974E-06  0.156E-03    0.53       7.2  T
   8   -122.5898644 -0.995878E-08  0.103E-03    0.53      10.8  T
   9   -122.5898645 -0.197781E-07  0.504E-04    0.53      22.2  T
  10   -122.5898645 -0.143432E-08  0.348E-04    0.53      32.1  T
  11   -122.5898645 -0.207181E-08  0.162E-04    0.53      69.1  T
     SCC iter.                  ...        0 min,  0.172 sec
     gradient                   ...        0 min,  0.084 sec
 * total energy  :  -120.6262968 Eh     change       -0.4290721E-03 Eh
   gradient norm :     0.0089577 Eh/α   predicted    -0.3673599E-03 ( -14.38%)
   displ. norm   :     0.5351144 α      lambda       -0.5449434E-03
   maximum displ.:     0.2426708 α      in ANC's #2, #6, #13, ...

........................................................................
.............................. CYCLE   36 ..............................
........................................................................

 iter      E             dE          RMSdq      gap      omega  full diag
   1   -122.5934271 -0.122593E+03  0.118E-01    0.51       0.0  T
   2   -122.5934235  0.362854E-05  0.682E-02    0.51       1.0  T
   3   -122.5932799  0.143626E-03  0.606E-02    0.53       1.0  T
   4   -122.5934342 -0.154303E-03  0.157E-02    0.52       1.0  T
   5   -122.5934423 -0.814707E-05  0.416E-03    0.52       2.7  T
   6   -122.5934429 -0.576162E-06  0.263E-03    0.52       4.2  T
   7   -122.5934430 -0.131125E-06  0.151E-03    0.52       7.4  T
   8   -122.5934431 -0.197838E-07  0.940E-04    0.52      11.9  T
   9   -122.5934431 -0.205669E-07  0.580E-04    0.52      19.3  T
  10   -122.5934431 -0.530477E-09  0.332E-04    0.52      33.6  T
  11   -122.5934431 -0.171399E-08  0.146E-04    0.52      76.6  T
     SCC iter.                  ...        0 min,  0.171 sec
     gradient                   ...        0 min,  0.085 sec
 * total energy  :  -120.6267166 Eh     change       -0.4197964E-03 Eh
   gradient norm :     0.0067354 Eh/α   predicted    -0.3504993E-03 ( -16.51%)
   displ. norm   :     0.5969181 α      lambda       -0.5082722E-03
   maximum displ.:     0.2855304 α      in ANC's #2, #6, #13, ...

........................................................................
.............................. CYCLE   37 ..............................
........................................................................

 iter      E             dE          RMSdq      gap      omega  full diag
   1   -122.5900402 -0.122590E+03  0.130E-01    0.50       0.0  T
   2   -122.5899633  0.769431E-04  0.918E-02    0.54       1.0  T
   3   -122.5898211  0.142164E-03  0.852E-02    0.49       1.0  T
   4   -122.5901057 -0.284581E-03  0.122E-02    0.51       1.0  T
   5   -122.5901062 -0.471515E-06  0.100E-02    0.52       1.1  T
   6   -122.5901126 -0.643543E-05  0.218E-03    0.52       5.1  T
   7   -122.5901126 -0.150851E-07  0.147E-03    0.52       7.6  T
   8   -122.5901127 -0.475732E-07  0.874E-04    0.52      12.8  T
   9   -122.5901127 -0.800114E-08  0.513E-04    0.52      21.8  T
  10   -122.5901127 -0.110460E-08  0.332E-04    0.52      33.6  T
  11   -122.5901127 -0.172982E-08  0.108E-04    0.52     103.1  T
     SCC iter.                  ...        0 min,  0.169 sec
     gradient                   ...        0 min,  0.081 sec
 * total energy  :  -120.6271021 Eh     change       -0.3855260E-03 Eh
   gradient norm :     0.0084295 Eh/α   predicted    -0.3446913E-03 ( -10.59%)
   displ. norm   :     0.5237844 α      lambda       -0.5343063E-03
   maximum displ.:     0.2154139 α      in ANC's #2, #13, #16, ...

........................................................................
.............................. CYCLE   38 ..............................
........................................................................

 iter      E             dE          RMSdq      gap      omega  full diag
   1   -122.5971607 -0.122597E+03  0.128E-01    0.49       0.0  T
   2   -122.5971368  0.238640E-04  0.817E-02    0.47       1.0  T
   3   -122.5969490  0.187796E-03  0.805E-02    0.51       1.0  T
   4   -122.5972073 -0.258252E-03  0.164E-02    0.49       1.0  T
   5   -122.5972134 -0.612257E-05  0.920E-03    0.49       1.2  T
   6   -122.5972179 -0.446483E-05  0.291E-03    0.49       3.8  T
   7   -122.5972179 -0.536716E-07  0.186E-03    0.49       6.0  T
   8   -122.5972179  0.981414E-08  0.122E-03    0.49       9.2  T
   9   -122.5972179 -0.379995E-07  0.683E-04    0.49      16.4  T
  10   -122.5972179 -0.164309E-08  0.407E-04    0.49      27.5  T
  11   -122.5972179 -0.183533E-08  0.144E-04    0.49      77.8  T
     SCC iter.                  ...        0 min,  0.174 sec
     gradient                   ...        0 min,  0.082 sec
 * total energy  :  -120.6273823 Eh     change       -0.2801739E-03 Eh
   gradient norm :     0.0130857 Eh/α   predicted    -0.3404509E-03 (  21.51%)
   displ. norm   :     0.5433397 α      lambda       -0.4361007E-03
   maximum displ.:     0.2700806 α      in ANC's #2, #6, #13, ...

........................................................................
.............................. CYCLE   39 ..............................
........................................................................

 iter      E             dE          RMSdq      gap      omega  full diag
   1   -122.5912376 -0.122591E+03  0.128E-01    0.48       0.0  T
   2   -122.5911128  0.124809E-03  0.104E-01    0.53       1.0  T
   3   -122.5912952 -0.182368E-03  0.718E-02    0.48       1.0  T
   4   -122.5914151 -0.119849E-03  0.223E-02    0.49       1.0  T
   5   -122.5914203 -0.526697E-05  0.211E-02    0.49       1.0  T
   6   -122.5914452 -0.249152E-04  0.230E-03    0.50       4.9  T
   7   -122.5914453 -0.284927E-07  0.158E-03    0.50       7.1  T
   8   -122.5914453 -0.861141E-08  0.105E-03    0.50      10.7  T
   9   -122.5914453 -0.126648E-07  0.541E-04    0.50      20.7  T
  10   -122.5914453 -0.215007E-08  0.342E-04    0.50      32.7  T
  11   -122.5914453 -0.169400E-08  0.144E-04    0.50      77.6  T
     SCC iter.                  ...        0 min,  0.163 sec
     gradient                   ...        0 min,  0.075 sec
 * total energy  :  -120.6276226 Eh     change       -0.2403216E-03 Eh
   gradient norm :     0.0092672 Eh/α   predicted    -0.2824240E-03 (  17.52%)
   displ. norm   :     0.2360414 α      lambda       -0.2471443E-03
   maximum displ.:     0.1150592 α      in ANC's #2, #13, #6, ...

........................................................................
.............................. CYCLE   40 ..............................
........................................................................

 iter      E             dE          RMSdq      gap      omega  full diag
   1   -122.5919832 -0.122592E+03  0.611E-02    0.49       0.0  T
   2   -122.5919831  0.605261E-07  0.336E-02    0.50       1.0  T
   3   -122.5919538  0.293520E-04  0.277E-02    0.49       1.0  T
   4   -122.5919844 -0.305789E-04  0.110E-02    0.49       1.0  T
   5   -122.5919874 -0.303155E-05  0.355E-03    0.49       3.2  T
   6   -122.5919882 -0.791992E-06  0.120E-03    0.49       9.3  T
   7   -122.5919882 -0.711512E-08  0.852E-04    0.49      13.1  T
   8   -122.5919882 -0.183468E-08  0.529E-04    0.49      21.1  T
   9   -122.5919882 -0.681000E-08  0.289E-04    0.49      38.7  T
  10   -122.5919882 -0.703423E-09  0.154E-04    0.49      72.6  T
     SCC iter.                  ...        0 min,  0.164 sec
     gradient                   ...        0 min,  0.076 sec
 * total energy  :  -120.6278224 Eh     change       -0.1997602E-03 Eh
   gradient norm :     0.0063642 Eh/α   predicted    -0.1304617E-03 ( -34.69%)
   displ. norm   :     0.4298731 α      lambda       -0.3882685E-03
   maximum displ.:     0.1895906 α      in ANC's #2, #9, #13, ...

........................................................................
.............................. CYCLE   41 ..............................
........................................................................

 iter      E             dE          RMSdq      gap      omega  full diag
   1   -122.5958421 -0.122596E+03  0.106E-01    0.48       0.0  T
   2   -122.5958392  0.287007E-05  0.598E-02    0.47       1.0  T
   3   -122.5957480  0.912021E-04  0.519E-02    0.49       1.0  T
   4   -122.5958460 -0.980451E-04  0.208E-02    0.47       1.0  T
   5   -122.5958583 -0.123023E-04  0.701E-03    0.48       1.6  T
   6   -122.5958613 -0.300168E-05  0.210E-03    0.48       5.3  T
   7   -122.5958614 -0.190402E-07  0.155E-03    0.48       7.2  T
   8   -122.5958614 -0.118746E-07  0.919E-04    0.48      12.2  T
   9   -122.5958614 -0.134928E-07  0.513E-04    0.48      21.8  T
  10   -122.5958614 -0.448924E-08  0.281E-04    0.48      39.8  T
  11   -122.5958614 -0.110829E-08  0.139E-04    0.48      80.6  T
     SCC iter.                  ...        0 min,  0.161 sec
     gradient                   ...        0 min,  0.081 sec
 * total energy  :  -120.6280788 Eh     change       -0.2564744E-03 Eh
   gradient norm :     0.0052458 Eh/α   predicted    -0.2300130E-03 ( -10.32%)
   displ. norm   :     0.4824374 α      lambda       -0.1916302E-03
   maximum displ.:     0.2461777 α      in ANC's #2, #6, #13, ...

........................................................................
.............................. CYCLE   42 ..............................
........................................................................

 iter      E             dE          RMSdq      gap      omega  full diag
   1   -122.5918632 -0.122592E+03  0.102E-01    0.46       0.0  T
   2   -122.5918520  0.111650E-04  0.609E-02    0.47       1.0  T
   3   -122.5916870  0.165038E-03  0.645E-02    0.44       1.0  T
   4   -122.5918777 -0.190708E-03  0.111E-02    0.47       1.0  T
   5   -122.5918788 -0.110294E-05  0.656E-03    0.47       1.7  T
   6   -122.5918815 -0.268227E-05  0.152E-03    0.46       7.3  T
   7   -122.5918815 -0.152562E-07  0.108E-03    0.46      10.3  T
   8   -122.5918815 -0.716337E-08  0.688E-04    0.46      16.3  T
   9   -122.5918815 -0.887970E-08  0.381E-04    0.46      29.4  T
  10   -122.5918815 -0.220666E-09  0.257E-04    0.46      43.5  T
     SCC iter.                  ...        0 min,  0.157 sec
     gradient                   ...        0 min,  0.073 sec
 * total energy  :  -120.6282173 Eh     change       -0.1384419E-03 Eh
   gradient norm :     0.0064076 Eh/α   predicted    -0.1181196E-03 ( -14.68%)
   displ. norm   :     0.3952333 α      lambda       -0.2192734E-03
   maximum displ.:     0.1933410 α      in ANC's #2, #1, #9, ...
 * RMSD in coord.:     0.8127106 α      energy gain  -0.2016195E-01 Eh

generating ANC from exact Hessian ...
Using Lindh-Hessian (1995)
 Shifting diagonal of input Hessian by    1.0128546534886131E-002
 Lowest  eigenvalues of input Hessian
    0.010000    0.010049    0.000000    0.000000    0.000000    0.000000
    0.000000    0.000000    0.010225    0.010262    0.010406    0.010496
    0.010537    0.010573    0.010710    0.010717    0.010916    0.010946
 Highest eigenvalues
    2.003203    2.003603    2.016714    2.243072    2.378545    2.435254


........................................................................
.............................. CYCLE   43 ..............................
........................................................................

 iter      E             dE          RMSdq      gap      omega  full diag
   1   -122.5941542 -0.122594E+03  0.730E-02    0.46       0.0  T
   2   -122.5941564 -0.213022E-05  0.407E-02    0.46       1.0  T
   3   -122.5941456  0.107536E-04  0.197E-02    0.47       1.0  T
   4   -122.5941469 -0.127136E-05  0.150E-02    0.46       1.0  T
   5   -122.5941578 -0.108772E-04  0.298E-03    0.46       3.7  T
   6   -122.5941582 -0.394421E-06  0.112E-03    0.46       9.9  T
   7   -122.5941582 -0.517960E-08  0.855E-04    0.46      13.1  T
   8   -122.5941582 -0.108673E-07  0.448E-04    0.46      25.0  T
   9   -122.5941582 -0.355556E-08  0.302E-04    0.46      37.0  T
     SCC iter.                  ...        0 min,  0.147 sec
     gradient                   ...        0 min,  0.082 sec
 * total energy  :  -120.6283711 Eh     change       -0.1538128E-03 Eh
   gradient norm :     0.0062251 Eh/α   predicted     0.0000000E+00 (-100.00%)
   displ. norm   :     0.0804462 α      lambda       -0.1015167E-03
   maximum displ.:     0.0330045 α      in ANC's #3, #2, #36, ...

........................................................................
.............................. CYCLE   44 ..............................
........................................................................

 iter      E             dE          RMSdq      gap      omega  full diag
   1   -122.5951204 -0.122595E+03  0.264E-02    0.47       0.0  T
   2   -122.5951203  0.134289E-06  0.152E-02    0.47       1.0  T
   3   -122.5951150  0.531978E-05  0.133E-02    0.46       1.0  T
   4   -122.5951208 -0.583694E-05  0.614E-03    0.47       1.8  T
   5   -122.5951221 -0.129240E-05  0.110E-03    0.47      10.2  T
   6   -122.5951221 -0.218176E-07  0.767E-04    0.47      14.6  T
   7   -122.5951222 -0.123951E-07  0.466E-04    0.47      24.0  T
   8   -122.5951222 -0.130460E-08  0.318E-04    0.47      35.1  T
     SCC iter.                  ...        0 min,  0.135 sec
     gradient                   ...        0 min,  0.089 sec
 * total energy  :  -120.6284766 Eh     change       -0.1055161E-03 Eh
   gradient norm :     0.0031634 Eh/α   predicted    -0.6864652E-04 ( -34.94%)
   displ. norm   :     0.2691785 α      lambda       -0.3282459E-03
   maximum displ.:     0.1169469 α      in ANC's #3, #2, #21, ...

........................................................................
.............................. CYCLE   45 ..............................
........................................................................

 iter      E             dE          RMSdq      gap      omega  full diag
   1   -122.5967303 -0.122597E+03  0.814E-02    0.48       0.0  T
   2   -122.5967331 -0.286125E-05  0.444E-02    0.48       1.0  T
   3   -122.5966993  0.338662E-04  0.343E-02    0.47       1.0  T
   4   -122.5967265 -0.271988E-04  0.203E-02    0.48       1.0  T
   5   -122.5967418 -0.153386E-04  0.414E-03    0.47       2.7  T
   6   -122.5967425 -0.724574E-06  0.248E-03    0.47       4.5  T
   7   -122.5967426 -0.860179E-07  0.159E-03    0.47       7.0  T
   8   -122.5967426 -0.123716E-07  0.101E-03    0.47      11.1  T
   9   -122.5967427 -0.165481E-07  0.553E-04    0.47      20.2  T
  10   -122.5967427 -0.644540E-08  0.272E-04    0.47      41.1  T
  11   -122.5967427 -0.627651E-09  0.133E-04    0.47      84.2  T
     SCC iter.                  ...        0 min,  0.181 sec
     gradient                   ...        0 min,  0.090 sec
 * total energy  :  -120.6285665 Eh     change       -0.8983219E-04 Eh
   gradient norm :     0.0095652 Eh/α   predicted    -0.1760151E-03 (  95.94%)
   displ. norm   :     0.1558257 α      lambda       -0.2692221E-03
   maximum displ.:     0.0689332 α      in ANC's #3, #2, #36, ...

........................................................................
.............................. CYCLE   46 ..............................
........................................................................

 iter      E             dE          RMSdq      gap      omega  full diag
   1   -122.5957739 -0.122596E+03  0.539E-02    0.47       0.0  T
   2   -122.5957766 -0.262254E-05  0.312E-02    0.47       1.0  T
   3   -122.5957676  0.892883E-05  0.170E-02    0.48       1.0  T
   4   -122.5957736 -0.594403E-05  0.115E-02    0.47       1.0  T
   5   -122.5957784 -0.481799E-05  0.489E-03    0.48       2.3  T
   6   -122.5957789 -0.488124E-06  0.338E-03    0.47       3.3  T
   7   -122.5957790 -0.114952E-06  0.220E-03    0.48       5.1  T
   8   -122.5957790 -0.513173E-07  0.129E-03    0.47       8.7  T
   9   -122.5957791 -0.388521E-07  0.396E-04    0.48      28.2  T
  10   -122.5957791 -0.238128E-08  0.261E-04    0.48      42.9  T
     SCC iter.                  ...        0 min,  0.145 sec
     gradient                   ...        0 min,  0.075 sec
 * total energy  :  -120.6286433 Eh     change       -0.7688919E-04 Eh
   gradient norm :     0.0093431 Eh/α   predicted    -0.1378835E-03 (  79.33%)
   displ. norm   :     0.1041957 α      lambda       -0.2630950E-03
   maximum displ.:     0.0401043 α      in ANC's #3, #2, #35, ...

........................................................................
.............................. CYCLE   47 ..............................
........................................................................

 iter      E             dE          RMSdq      gap      omega  full diag
   1   -122.5951826 -0.122595E+03  0.511E-02    0.47       0.0  T
   2   -122.5951663  0.162525E-04  0.393E-02    0.46       1.0  T
   3   -122.5951813 -0.149837E-04  0.313E-02    0.48       1.0  T
   4   -122.5952089 -0.275529E-04  0.111E-02    0.47       1.0  T
   5   -122.5952069  0.200134E-05  0.103E-02    0.47       1.1  T
   6   -122.5952116 -0.473777E-05  0.501E-03    0.47       2.2  T
   7   -122.5952117 -0.123231E-06  0.308E-03    0.47       3.6  T
   8   -122.5952118 -0.612307E-07  0.153E-03    0.47       7.3  T
   9   -122.5952119 -0.714931E-07  0.537E-04    0.47      20.8  T
  10   -122.5952119 -0.624318E-08  0.277E-04    0.47      40.4  T
  11   -122.5952119 -0.196059E-08  0.116E-04    0.47      96.3  T
     SCC iter.                  ...        0 min,  0.166 sec
     gradient                   ...        0 min,  0.084 sec
 * total energy  :  -120.6287124 Eh     change       -0.6910369E-04 Eh
   gradient norm :     0.0054736 Eh/α   predicted    -0.1329758E-03 (  92.43%)
   displ. norm   :     0.0856522 α      lambda       -0.1700048E-03
   maximum displ.:     0.0382170 α      in ANC's #3, #2, #7, ...

........................................................................
.............................. CYCLE   48 ..............................
........................................................................

 iter      E             dE          RMSdq      gap      omega  full diag
   1   -122.5956614 -0.122596E+03  0.269E-02    0.47       0.0  T
   2   -122.5956624 -0.975887E-06  0.157E-02    0.46       1.0  T
   3   -122.5956589  0.352972E-05  0.112E-02    0.47       1.0  T
   4   -122.5956614 -0.259254E-05  0.729E-03    0.46       1.5  T
   5   -122.5956633 -0.187946E-05  0.257E-03    0.47       4.3  T
   6   -122.5956635 -0.189425E-06  0.163E-03    0.47       6.9  T
   7   -122.5956635 -0.228102E-07  0.113E-03    0.47       9.9  T
   8   -122.5956635 -0.104421E-07  0.561E-04    0.47      19.9  T
   9   -122.5956635 -0.931394E-09  0.321E-04    0.47      34.8  T
  10   -122.5956635 -0.287726E-08  0.155E-04    0.47      72.1  T
     SCC iter.                  ...        0 min,  0.172 sec
     gradient                   ...        0 min,  0.079 sec
 * total energy  :  -120.6288301 Eh     change       -0.1176702E-03 Eh
   gradient norm :     0.0024028 Eh/α   predicted    -0.8563073E-04 ( -27.23%)
   displ. norm   :     0.2395094 α      lambda       -0.1559704E-03
   maximum displ.:     0.1172312 α      in ANC's #3, #2, #7, ...

........................................................................
.............................. CYCLE   49 ..............................
........................................................................

 iter      E             dE          RMSdq      gap      omega  full diag
   1   -122.5953601 -0.122595E+03  0.499E-02    0.47       0.0  T
   2   -122.5953611 -0.970600E-06  0.284E-02    0.46       1.0  T
   3   -122.5953542  0.692830E-05  0.130E-02    0.47       1.0  T
   4   -122.5953574 -0.321445E-05  0.100E-02    0.46       1.1  T
   5   -122.5953619 -0.454969E-05  0.243E-03    0.46       4.6  T
   6   -122.5953621 -0.165135E-06  0.173E-03    0.46       6.5  T
   7   -122.5953621 -0.340887E-07  0.120E-03    0.46       9.3  T
   8   -122.5953621 -0.422756E-08  0.711E-04    0.46      15.7  T
   9   -122.5953621 -0.160719E-07  0.309E-04    0.46      36.1  T
  10   -122.5953621 -0.352600E-09  0.146E-04    0.46      76.5  T
     SCC iter.                  ...        0 min,  0.156 sec
     gradient                   ...        0 min,  0.089 sec
 * total energy  :  -120.6289523 Eh     change       -0.1221783E-03 Eh
   gradient norm :     0.0020969 Eh/α   predicted    -0.8245929E-04 ( -32.51%)
   displ. norm   :     0.4364460 α      lambda       -0.2157708E-03
   maximum displ.:     0.2124549 α      in ANC's #3, #2, #7, ...

........................................................................
.............................. CYCLE   50 ..............................
........................................................................

 iter      E             dE          RMSdq      gap      omega  full diag
   1   -122.5940494 -0.122594E+03  0.881E-02    0.46       0.0  T
   2   -122.5940506 -0.120076E-05  0.513E-02    0.46       1.0  T
   3   -122.5940137  0.368372E-04  0.276E-02    0.47       1.0  T
   4   -122.5940463 -0.325838E-04  0.134E-02    0.46       1.0  T
   5   -122.5940539 -0.755512E-05  0.322E-03    0.46       3.5  T
   6   -122.5940543 -0.443921E-06  0.186E-03    0.46       6.0  T
   7   -122.5940543 -0.319406E-07  0.126E-03    0.46       8.9  T
   8   -122.5940543 -0.401889E-08  0.905E-04    0.46      12.4  T
   9   -122.5940544 -0.204989E-07  0.386E-04    0.46      29.0  T
  10   -122.5940544 -0.447614E-09  0.199E-04    0.46      56.3  T
     SCC iter.                  ...        0 min,  0.153 sec
     gradient                   ...        0 min,  0.078 sec
 * total energy  :  -120.6291249 Eh     change       -0.1726382E-03 Eh
   gradient norm :     0.0036379 Eh/α   predicted    -0.1284382E-03 ( -25.60%)
   displ. norm   :     0.5439917 α      lambda       -0.2546062E-03
   maximum displ.:     0.2625987 α      in ANC's #3, #2, #12, ...

........................................................................
.............................. CYCLE   51 ..............................
........................................................................

 iter      E             dE          RMSdq      gap      omega  full diag
   1   -122.5927572 -0.122593E+03  0.108E-01    0.46       0.0  T
   2   -122.5927581 -0.884080E-06  0.626E-02    0.45       1.0  T
   3   -122.5926911  0.669650E-04  0.388E-02    0.47       1.0  T
   4   -122.5927550 -0.638176E-04  0.140E-02    0.45       1.0  T
   5   -122.5927634 -0.849323E-05  0.287E-03    0.45       3.9  T
   6   -122.5927637 -0.238900E-06  0.179E-03    0.45       6.2  T
   7   -122.5927637 -0.267718E-07  0.122E-03    0.45       9.2  T
   8   -122.5927637 -0.391604E-08  0.677E-04    0.45      16.5  T
   9   -122.5927637 -0.964343E-08  0.439E-04    0.45      25.5  T
  10   -122.5927637 -0.363949E-08  0.195E-04    0.45      57.4  T
     SCC iter.                  ...        0 min,  0.158 sec
     gradient                   ...        0 min,  0.097 sec
 * total energy  :  -120.6293359 Eh     change       -0.2109506E-03 Eh
   gradient norm :     0.0046572 Eh/α   predicted    -0.1649775E-03 ( -21.79%)
   displ. norm   :     0.5894015 α      lambda       -0.2927111E-03
   maximum displ.:     0.2869483 α      in ANC's #3, #2, #12, ...

........................................................................
.............................. CYCLE   52 ..............................
........................................................................

 iter      E             dE          RMSdq      gap      omega  full diag
   1   -122.5926009 -0.122593E+03  0.117E-01    0.44       0.0  T
   2   -122.5926038 -0.295929E-05  0.679E-02    0.44       1.0  T
   3   -122.5925825  0.213146E-04  0.220E-02    0.45       1.0  T
   4   -122.5925964 -0.139277E-04  0.142E-02    0.44       1.0  T
   5   -122.5926059 -0.949992E-05  0.263E-03    0.44       4.3  T
   6   -122.5926062 -0.210508E-06  0.172E-03    0.44       6.5  T
   7   -122.5926062 -0.364421E-07  0.110E-03    0.44      10.1  T
   8   -122.5926062 -0.599205E-08  0.656E-04    0.44      17.0  T
   9   -122.5926062 -0.476763E-08  0.432E-04    0.44      25.9  T
  10   -122.5926062 -0.309907E-08  0.233E-04    0.44      47.9  T
     SCC iter.                  ...        0 min,  0.171 sec
     gradient                   ...        0 min,  0.084 sec
 * total energy  :  -120.6295823 Eh     change       -0.2464098E-03 Eh
   gradient norm :     0.0044955 Eh/α   predicted    -0.1972023E-03 ( -19.97%)
   displ. norm   :     0.5936501 α      lambda       -0.3278521E-03
   maximum displ.:     0.2964898 α      in ANC's #2, #3, #12, ...

........................................................................
.............................. CYCLE   53 ..............................
........................................................................

 iter      E             dE          RMSdq      gap      omega  full diag
   1   -122.5947822 -0.122595E+03  0.124E-01    0.43       0.0  T
   2   -122.5947847 -0.247368E-05  0.729E-02    0.43       1.0  T
   3   -122.5947446  0.400396E-04  0.293E-02    0.42       1.0  T
   4   -122.5947788 -0.341981E-04  0.135E-02    0.43       1.0  T
   5   -122.5947877 -0.890430E-05  0.264E-03    0.43       4.2  T
   6   -122.5947880 -0.232842E-06  0.150E-03    0.43       7.5  T
   7   -122.5947880 -0.361101E-07  0.737E-04    0.43      15.2  T
   8   -122.5947880 -0.498861E-08  0.459E-04    0.43      24.4  T
   9   -122.5947880 -0.262699E-08  0.305E-04    0.43      36.7  T
     SCC iter.                  ...        0 min,  0.155 sec
     gradient                   ...        0 min,  0.072 sec
 * total energy  :  -120.6298473 Eh     change       -0.2650491E-03 Eh
   gradient norm :     0.0048044 Eh/α   predicted    -0.2216981E-03 ( -16.36%)
   displ. norm   :     0.6292699 α      lambda       -0.3181895E-03
   maximum displ.:     0.3257752 α      in ANC's #2, #3, #12, ...

........................................................................
.............................. CYCLE   54 ..............................
........................................................................

 iter      E             dE          RMSdq      gap      omega  full diag
   1   -122.5959661 -0.122596E+03  0.127E-01    0.41       0.0  T
   2   -122.5959698 -0.372003E-05  0.737E-02    0.41       1.0  T
   3   -122.5959280  0.418421E-04  0.314E-02    0.40       1.0  T
   4   -122.5959524 -0.244812E-04  0.209E-02    0.41       1.0  T
   5   -122.5959734 -0.210012E-04  0.361E-03    0.41       3.1  T
   6   -122.5959740 -0.566565E-06  0.203E-03    0.41       5.5  T
   7   -122.5959741 -0.102039E-06  0.939E-04    0.41      11.9  T
   8   -122.5959741 -0.252225E-07  0.387E-04    0.41      28.9  T
   9   -122.5959741 -0.457031E-08  0.201E-04    0.41      55.7  T
     SCC iter.                  ...        0 min,  0.149 sec
     gradient                   ...        0 min,  0.073 sec
 * total energy  :  -120.6300937 Eh     change       -0.2463149E-03 Eh
   gradient norm :     0.0054373 Eh/α   predicted    -0.2220932E-03 (  -9.83%)
   displ. norm   :     0.5768213 α      lambda       -0.2891718E-03
   maximum displ.:     0.3126991 α      in ANC's #2, #3, #12, ...

........................................................................
.............................. CYCLE   55 ..............................
........................................................................

 iter      E             dE          RMSdq      gap      omega  full diag
   1   -122.5965076 -0.122597E+03  0.118E-01    0.40       0.0  T
   2   -122.5965071  0.517651E-06  0.694E-02    0.41       1.0  T
   3   -122.5963708  0.136262E-03  0.533E-02    0.38       1.0  T
   4   -122.5965143 -0.143521E-03  0.107E-02    0.40       1.0  T
   5   -122.5965167 -0.239534E-05  0.545E-03    0.40       2.0  T
   6   -122.5965187 -0.200713E-05  0.173E-03    0.40       6.5  T
   7   -122.5965188 -0.482012E-07  0.924E-04    0.40      12.1  T
   8   -122.5965188 -0.147472E-07  0.473E-04    0.40      23.6  T
   9   -122.5965188 -0.553122E-08  0.257E-04    0.40      43.5  T
     SCC iter.                  ...        0 min,  0.139 sec
     gradient                   ...        0 min,  0.076 sec
 * total energy  :  -120.6303261 Eh     change       -0.2324149E-03 Eh
   gradient norm :     0.0044692 Eh/α   predicted    -0.1926946E-03 ( -17.09%)
   displ. norm   :     0.5021933 α      lambda       -0.2686540E-03
   maximum displ.:     0.2908280 α      in ANC's #2, #3, #4, ...

........................................................................
.............................. CYCLE   56 ..............................
........................................................................

 iter      E             dE          RMSdq      gap      omega  full diag
   1   -122.5997755 -0.122600E+03  0.966E-02    0.39       0.0  T
   2   -122.5997726  0.281145E-05  0.569E-02    0.40       1.0  T
   3   -122.5996558  0.116855E-03  0.518E-02    0.38       1.0  T
   4   -122.5997819 -0.126119E-03  0.103E-02    0.40       1.1  T
   5   -122.5997841 -0.220488E-05  0.502E-03    0.40       2.2  T
   6   -122.5997857 -0.154945E-05  0.183E-03    0.39       6.1  T
   7   -122.5997857 -0.320443E-07  0.117E-03    0.39       9.5  T
   8   -122.5997857 -0.842893E-08  0.809E-04    0.39      13.8  T
   9   -122.5997857 -0.138339E-07  0.481E-04    0.39      23.2  T
  10   -122.5997857  0.544986E-09  0.303E-04    0.39      36.9  T
     SCC iter.                  ...        0 min,  0.157 sec
     gradient                   ...        0 min,  0.094 sec
 * total energy  :  -120.6305446 Eh     change       -0.2185597E-03 Eh
   gradient norm :     0.0038171 Eh/α   predicted    -0.1682057E-03 ( -23.04%)
   displ. norm   :     0.5555748 α      lambda       -0.2520093E-03
   maximum displ.:     0.3203169 α      in ANC's #2, #3, #4, ...

........................................................................
.............................. CYCLE   57 ..............................
........................................................................

 iter      E             dE          RMSdq      gap      omega  full diag
   1   -122.5958324 -0.122596E+03  0.105E-01    0.38       0.0  T
   2   -122.5958316  0.791743E-06  0.605E-02    0.39       1.0  T
   3   -122.5957280  0.103643E-03  0.491E-02    0.37       1.0  T
   4   -122.5958356 -0.107578E-03  0.127E-02    0.39       1.0  T
   5   -122.5958408 -0.526796E-05  0.448E-03    0.38       2.5  T
   6   -122.5958421 -0.126142E-05  0.148E-03    0.38       7.6  T
   7   -122.5958421 -0.240749E-07  0.966E-04    0.38      11.6  T
   8   -122.5958421 -0.959997E-08  0.572E-04    0.38      19.5  T
   9   -122.5958421 -0.633301E-08  0.342E-04    0.38      32.7  T
  10   -122.5958421  0.168399E-10  0.240E-04    0.38      46.6  T
     SCC iter.                  ...        0 min,  0.156 sec
     gradient                   ...        0 min,  0.081 sec
 * total energy  :  -120.6307501 Eh     change       -0.2055067E-03 Eh
   gradient norm :     0.0036986 Eh/α   predicted    -0.1649016E-03 ( -19.76%)
   displ. norm   :     0.4286205 α      lambda       -0.2421880E-03
   maximum displ.:     0.2660658 α      in ANC's #2, #4, #1, ...

........................................................................
.............................. CYCLE   58 ..............................
........................................................................

 iter      E             dE          RMSdq      gap      omega  full diag
   1   -122.5996376 -0.122600E+03  0.884E-02    0.38       0.0  T
   2   -122.5996349  0.269495E-05  0.491E-02    0.39       1.0  T
   3   -122.5995589  0.759276E-04  0.458E-02    0.36       1.0  T
   4   -122.5996426 -0.836394E-04  0.141E-02    0.38       1.0  T
   5   -122.5996470 -0.442083E-05  0.554E-03    0.38       2.0  T
   6   -122.5996489 -0.192116E-05  0.116E-03    0.38       9.7  T
   7   -122.5996489 -0.175486E-07  0.700E-04    0.38      16.0  T
   8   -122.5996489 -0.474110E-08  0.444E-04    0.38      25.2  T
   9   -122.5996489 -0.360221E-08  0.185E-04    0.38      60.3  T
     SCC iter.                  ...        0 min,  0.143 sec
     gradient                   ...        0 min,  0.080 sec
 * total energy  :  -120.6309452 Eh     change       -0.1950467E-03 Eh
   gradient norm :     0.0046144 Eh/α   predicted    -0.1433422E-03 ( -26.51%)
   displ. norm   :     0.4652990 α      lambda       -0.2321894E-03
   maximum displ.:     0.2905304 α      in ANC's #2, #4, #1, ...

........................................................................
.............................. CYCLE   59 ..............................
........................................................................

 iter      E             dE          RMSdq      gap      omega  full diag
   1   -122.5987257 -0.122599E+03  0.840E-02    0.37       0.0  T
   2   -122.5987273 -0.155699E-05  0.462E-02    0.37       1.0  T
   3   -122.5986932  0.341033E-04  0.309E-02    0.36       1.0  T
   4   -122.5987191 -0.259394E-04  0.166E-02    0.37       1.0  T
   5   -122.5987311 -0.119919E-04  0.216E-03    0.37       5.2  T
   6   -122.5987313 -0.223403E-06  0.139E-03    0.37       8.1  T
   7   -122.5987314 -0.603518E-07  0.710E-04    0.37      15.8  T
   8   -122.5987314  0.186023E-08  0.450E-04    0.37      24.8  T
   9   -122.5987314 -0.711800E-08  0.219E-04    0.37      51.1  T
     SCC iter.                  ...        0 min,  0.143 sec
     gradient                   ...        0 min,  0.074 sec
 * total energy  :  -120.6311527 Eh     change       -0.2074671E-03 Eh
   gradient norm :     0.0042740 Eh/α   predicted    -0.1412312E-03 ( -31.93%)
   displ. norm   :     0.4728617 α      lambda       -0.2527413E-03
   maximum displ.:     0.3004799 α      in ANC's #2, #4, #1, ...

........................................................................
.............................. CYCLE   60 ..............................
........................................................................

 iter      E             dE          RMSdq      gap      omega  full diag
   1   -122.5981923 -0.122598E+03  0.819E-02    0.36       0.0  T
   2   -122.5981969 -0.462236E-05  0.427E-02    0.36       1.0  T
   3   -122.5981965  0.397921E-06  0.164E-02    0.36       1.0  T
   4   -122.5981952  0.136490E-05  0.588E-03    0.36       1.9  T
   5   -122.5981975 -0.231853E-05  0.226E-03    0.36       5.0  T
   6   -122.5981976 -0.133436E-06  0.137E-03    0.36       8.2  T
   7   -122.5981977 -0.181778E-07  0.982E-04    0.36      11.4  T
   8   -122.5981977  0.364949E-09  0.722E-04    0.36      15.5  T
   9   -122.5981977 -0.181925E-07  0.356E-04    0.36      31.4  T
  10   -122.5981977 -0.340364E-09  0.203E-04    0.36      55.2  T
     SCC iter.                  ...        0 min,  0.149 sec
     gradient                   ...        0 min,  0.081 sec
 * total energy  :  -120.6313735 Eh     change       -0.2208170E-03 Eh
   gradient norm :     0.0033262 Eh/α   predicted    -0.1546314E-03 ( -29.97%)
   displ. norm   :     0.5082702 α      lambda       -0.2511782E-03
   maximum displ.:     0.3251319 α      in ANC's #2, #4, #1, ...

........................................................................
.............................. CYCLE   61 ..............................
........................................................................

 iter      E             dE          RMSdq      gap      omega  full diag
   1   -122.5970540 -0.122597E+03  0.827E-02    0.34       0.0  T
   2   -122.5970591 -0.509024E-05  0.435E-02    0.34       1.0  T
   3   -122.5970577  0.139419E-05  0.168E-02    0.34       1.0  T
   4   -122.5970527  0.492060E-05  0.111E-02    0.35       1.0  T
   5   -122.5970596 -0.683611E-05  0.319E-03    0.34       3.5  T
   6   -122.5970599 -0.306584E-06  0.180E-03    0.34       6.2  T
   7   -122.5970600 -0.963560E-07  0.113E-03    0.34       9.9  T
   8   -122.5970600  0.253041E-08  0.706E-04    0.34      15.8  T
   9   -122.5970600 -0.168965E-07  0.349E-04    0.34      32.1  T
  10   -122.5970600 -0.360188E-09  0.176E-04    0.34      63.4  T
     SCC iter.                  ...        0 min,  0.155 sec
     gradient                   ...        0 min,  0.068 sec
 * total energy  :  -120.6315861 Eh     change       -0.2126619E-03 Eh
   gradient norm :     0.0028457 Eh/α   predicted    -0.1580380E-03 ( -25.69%)
   displ. norm   :     0.5373062 α      lambda       -0.2438944E-03
   maximum displ.:     0.3438305 α      in ANC's #2, #4, #1, ...

........................................................................
.............................. CYCLE   62 ..............................
........................................................................

 iter      E             dE          RMSdq      gap      omega  full diag
   1   -122.5975157 -0.122598E+03  0.800E-02    0.35       0.0  T
   2   -122.5975194 -0.368100E-05  0.422E-02    0.34       1.0  T
   3   -122.5975006  0.188179E-04  0.264E-02    0.35       1.0  T
   4   -122.5975018 -0.126300E-05  0.216E-02    0.34       1.0  T
   5   -122.5975227 -0.209196E-04  0.308E-03    0.34       3.6  T
   6   -122.5975230 -0.275504E-06  0.217E-03    0.34       5.2  T
   7   -122.5975231 -0.921052E-07  0.144E-03    0.34       7.8  T
   8   -122.5975231  0.861066E-08  0.890E-04    0.34      12.6  T
   9   -122.5975231 -0.298803E-07  0.397E-04    0.34      28.1  T
  10   -122.5975231 -0.145457E-08  0.229E-04    0.34      48.8  T
     SCC iter.                  ...        0 min,  0.144 sec
     gradient                   ...        0 min,  0.074 sec
 * total energy  :  -120.6317774 Eh     change       -0.1912474E-03 Eh
   gradient norm :     0.0049890 Eh/α   predicted    -0.1571566E-03 ( -17.83%)
   displ. norm   :     0.5852732 α      lambda       -0.2564685E-03
   maximum displ.:     0.3738957 α      in ANC's #2, #4, #1, ...

........................................................................
.............................. CYCLE   63 ..............................
........................................................................

 iter      E             dE          RMSdq      gap      omega  full diag
   1   -122.5955114 -0.122596E+03  0.901E-02    0.31       0.0  T
   2   -122.5955167 -0.538688E-05  0.489E-02    0.33       1.0  T
   3   -122.5954762  0.405912E-04  0.328E-02    0.31       1.0  T
   4   -122.5955107 -0.345677E-04  0.190E-02    0.33       1.0  T
   5   -122.5955214 -0.107115E-04  0.753E-03    0.32       1.5  T
   6   -122.5955247 -0.323436E-05  0.238E-03    0.32       4.7  T
   7   -122.5955247 -0.400169E-07  0.165E-03    0.32       6.8  T
   8   -122.5955247  0.598082E-08  0.980E-04    0.32      11.4  T
   9   -122.5955247 -0.300049E-07  0.461E-04    0.32      24.3  T
  10   -122.5955247 -0.167547E-08  0.269E-04    0.32      41.6  T
     SCC iter.                  ...        0 min,  0.153 sec
     gradient                   ...        0 min,  0.068 sec
 * total energy  :  -120.6319848 Eh     change       -0.2073913E-03 Eh
   gradient norm :     0.0044432 Eh/α   predicted    -0.1721616E-03 ( -16.99%)
   displ. norm   :     0.6243305 α      lambda       -0.2633688E-03
   maximum displ.:     0.3990153 α      in ANC's #2, #4, #1, ...

........................................................................
.............................. CYCLE   64 ..............................
........................................................................

 iter      E             dE          RMSdq      gap      omega  full diag
   1   -122.5958380 -0.122596E+03  0.864E-02    0.31       0.0  T
   2   -122.5958417 -0.369869E-05  0.468E-02    0.31       1.0  T
   3   -122.5958204  0.212875E-04  0.270E-02    0.32       1.0  T
   4   -122.5958207 -0.252118E-06  0.233E-02    0.30       1.0  T
   5   -122.5958448 -0.241691E-04  0.388E-03    0.31       2.9  T
   6   -122.5958453 -0.448524E-06  0.278E-03    0.31       4.0  T
   7   -122.5958454 -0.156601E-06  0.179E-03    0.31       6.3  T
   8   -122.5958454  0.137840E-08  0.109E-03    0.31      10.3  T
   9   -122.5958455 -0.413806E-07  0.497E-04    0.31      22.5  T
  10   -122.5958455 -0.285628E-08  0.259E-04    0.31      43.1  T
     SCC iter.                  ...        0 min,  0.157 sec
     gradient                   ...        0 min,  0.067 sec
 * total energy  :  -120.6322162 Eh     change       -0.2314265E-03 Eh
   gradient norm :     0.0049414 Eh/α   predicted    -0.1830158E-03 ( -20.92%)
   displ. norm   :     0.6962599 α      lambda       -0.3386965E-03
   maximum displ.:     0.4330894 α      in ANC's #2, #4, #1, ...

........................................................................
.............................. CYCLE   65 ..............................
........................................................................

 iter      E             dE          RMSdq      gap      omega  full diag
   1   -122.5977144 -0.122598E+03  0.960E-02    0.31       0.0  T
   2   -122.5977195 -0.514960E-05  0.522E-02    0.31       1.0  T
   3   -122.5976911  0.283783E-04  0.275E-02    0.30       1.0  T
   4   -122.5977060 -0.148897E-04  0.209E-02    0.31       1.0  T
   5   -122.5977264 -0.204120E-04  0.330E-03    0.30       3.4  T
   6   -122.5977265 -0.296219E-07  0.252E-03    0.31       4.4  T
   7   -122.5977265 -0.562240E-07  0.226E-03    0.30       5.0  T
   8   -122.5977266 -0.622802E-07  0.122E-03    0.31       9.2  T
   9   -122.5977266 -0.508750E-07  0.568E-04    0.31      19.7  T
  10   -122.5977266 -0.311842E-08  0.290E-04    0.31      38.6  T
  11   -122.5977266 -0.556795E-09  0.106E-04    0.31     105.6  T
     SCC iter.                  ...        0 min,  0.171 sec
     gradient                   ...        0 min,  0.073 sec
 * total energy  :  -120.6325198 Eh     change       -0.3036091E-03 Eh
   gradient norm :     0.0042475 Eh/α   predicted    -0.2514481E-03 ( -17.18%)
   displ. norm   :     0.7035101 α      lambda       -0.4072446E-03
   maximum displ.:     0.4017114 α      in ANC's #2, #4, #1, ...

........................................................................
.............................. CYCLE   66 ..............................
........................................................................

 iter      E             dE          RMSdq      gap      omega  full diag
   1   -122.6021245 -0.122602E+03  0.101E-01    0.31       0.0  T
   2   -122.6021229  0.153270E-05  0.569E-02    0.30       1.0  T
   3   -122.6020383  0.846631E-04  0.474E-02    0.32       1.0  T
   4   -122.6021226 -0.843012E-04  0.181E-02    0.30       1.0  T
   5   -122.6021332 -0.106537E-04  0.438E-03    0.30       2.6  T
   6   -122.6021341 -0.844407E-06  0.247E-03    0.30       4.5  T
   7   -122.6021341 -0.698324E-07  0.160E-03    0.30       7.0  T
   8   -122.6021342 -0.170797E-07  0.945E-04    0.30      11.8  T
   9   -122.6021342 -0.238828E-07  0.492E-04    0.30      22.7  T
  10   -122.6021342 -0.191510E-08  0.237E-04    0.30      47.1  T
     SCC iter.                  ...        0 min,  0.146 sec
     gradient                   ...        0 min,  0.072 sec
 * total energy  :  -120.6328619 Eh     change       -0.3420668E-03 Eh
   gradient norm :     0.0038755 Eh/α   predicted    -0.3044020E-03 ( -11.01%)
   displ. norm   :     0.8072034 α      lambda       -0.3824605E-03
   maximum displ.:     0.4621184 α      in ANC's #2, #4, #1, ...
 * RMSD in coord.:     1.0311880 α      energy gain  -0.4644580E-02 Eh

generating ANC from exact Hessian ...
Using Lindh-Hessian (1995)
 Shifting diagonal of input Hessian by    1.0109241343114694E-002
 Lowest  eigenvalues of input Hessian
    0.010000    0.000000    0.000000    0.000000    0.000000    0.000000
    0.000000    0.010194    0.010257    0.010335    0.010400    0.010538
    0.010588    0.010608    0.010774    0.010830    0.010948    0.010951
 Highest eigenvalues
    1.999848    2.002474    2.022397    2.242976    2.375058    2.431887


........................................................................
.............................. CYCLE   67 ..............................
........................................................................

 iter      E             dE          RMSdq      gap      omega  full diag
   1   -122.5975509 -0.122598E+03  0.116E-01    0.30       0.0  T
   2   -122.5975367  0.141384E-04  0.689E-02    0.31       1.0  T
   3   -122.5973506  0.186157E-03  0.695E-02    0.27       1.0  T
   4   -122.5975621 -0.211547E-03  0.191E-02    0.31       1.0  T
   5   -122.5975692 -0.708808E-05  0.963E-03    0.30       1.2  T
   6   -122.5975741 -0.495249E-05  0.295E-03    0.30       3.8  T
   7   -122.5975742 -0.335339E-07  0.199E-03    0.30       5.6  T
   8   -122.5975742 -0.956658E-08  0.135E-03    0.30       8.3  T
   9   -122.5975742 -0.466880E-07  0.585E-04    0.30      19.1  T
  10   -122.5975742 -0.270859E-08  0.261E-04    0.30      42.9  T
  11   -122.5975742 -0.680487E-09  0.102E-04    0.30     109.1  T
     SCC iter.                  ...        0 min,  0.214 sec
     gradient                   ...        0 min,  0.091 sec
 * total energy  :  -120.6331729 Eh     change       -0.3110343E-03 Eh
   gradient norm :     0.0062906 Eh/α   predicted     0.0000000E+00 (-100.00%)
   displ. norm   :     0.0688919 α      lambda       -0.1174430E-03
   maximum displ.:     0.0303755 α      in ANC's #3, #8, #20, ...

........................................................................
.............................. CYCLE   68 ..............................
........................................................................

 iter      E             dE          RMSdq      gap      omega  full diag
   1   -122.6007341 -0.122601E+03  0.241E-02    0.29       0.0  T
   2   -122.6007252  0.892138E-05  0.209E-02    0.29       1.0  T
   3   -122.6007354 -0.102039E-04  0.138E-02    0.30       1.0  T
   4   -122.6007408 -0.537910E-05  0.392E-03    0.29       2.8  T
   5   -122.6007408 -0.142634E-09  0.209E-03    0.29       5.3  T
   6   -122.6007409 -0.106322E-06  0.134E-03    0.29       8.3  T
   7   -122.6007409 -0.843930E-08  0.981E-04    0.29      11.4  T
   8   -122.6007409 -0.170871E-07  0.429E-04    0.29      26.1  T
   9   -122.6007409 -0.142036E-08  0.256E-04    0.29      43.8  T
     SCC iter.                  ...        0 min,  0.144 sec
     gradient                   ...        0 min,  0.075 sec
 * total energy  :  -120.6332414 Eh     change       -0.6849325E-04 Eh
   gradient norm :     0.0023242 Eh/α   predicted    -0.5900045E-04 ( -13.86%)
   displ. norm   :     0.1452539 α      lambda       -0.1461963E-03
   maximum displ.:     0.0665293 α      in ANC's #3, #8, #22, ...

........................................................................
.............................. CYCLE   69 ..............................
........................................................................

 iter      E             dE          RMSdq      gap      omega  full diag
   1   -122.6050480 -0.122605E+03  0.412E-02    0.29       0.0  T
   2   -122.6050357  0.123001E-04  0.307E-02    0.28       1.0  T
   3   -122.6050337  0.200254E-05  0.266E-02    0.30       1.0  T
   4   -122.6050589 -0.251748E-04  0.523E-03    0.29       2.1  T
   5   -122.6050589 -0.709488E-07  0.237E-03    0.29       4.7  T
   6   -122.6050591 -0.218204E-06  0.112E-03    0.29      10.0  T
   7   -122.6050592 -0.176828E-07  0.814E-04    0.29      13.7  T
   8   -122.6050592 -0.112232E-08  0.567E-04    0.29      19.7  T
   9   -122.6050592 -0.665902E-08  0.309E-04    0.29      36.2  T
  10   -122.6050592 -0.124329E-08  0.150E-04    0.29      74.7  T
     SCC iter.                  ...        0 min,  0.147 sec
     gradient                   ...        0 min,  0.071 sec
 * total energy  :  -120.6333037 Eh     change       -0.6229627E-04 Eh
   gradient norm :     0.0058800 Eh/α   predicted    -0.7464171E-04 (  19.82%)
   displ. norm   :     0.0954454 α      lambda       -0.7479617E-04
   maximum displ.:     0.0487025 α      in ANC's #3, #8, #19, ...

........................................................................
.............................. CYCLE   70 ..............................
........................................................................

 iter      E             dE          RMSdq      gap      omega  full diag
   1   -122.6037909 -0.122604E+03  0.231E-02    0.29       0.0  T
   2   -122.6037904  0.454877E-06  0.134E-02    0.29       1.0  T
   3   -122.6037839  0.656912E-05  0.141E-02    0.29       1.0  T
   4   -122.6037918 -0.788118E-05  0.371E-03    0.29       3.0  T
   5   -122.6037919 -0.155077E-06  0.181E-03    0.29       6.2  T
   6   -122.6037921 -0.198286E-06  0.456E-04    0.29      24.5  T
   7   -122.6037921 -0.815803E-09  0.256E-04    0.29      43.6  T
     SCC iter.                  ...        0 min,  0.110 sec
     gradient                   ...        0 min,  0.071 sec
 * total energy  :  -120.6333627 Eh     change       -0.5901116E-04 Eh
   gradient norm :     0.0042120 Eh/α   predicted    -0.3774124E-04 ( -36.04%)
   displ. norm   :     0.2843761 α      lambda       -0.1861850E-03
   maximum displ.:     0.1426582 α      in ANC's #3, #8, #11, ...

........................................................................
.............................. CYCLE   71 ..............................
........................................................................

 iter      E             dE          RMSdq      gap      omega  full diag
   1   -122.5985448 -0.122599E+03  0.683E-02    0.30       0.0  T
   2   -122.5985242  0.205942E-04  0.476E-02    0.30       1.0  T
   3   -122.5984722  0.520173E-04  0.487E-02    0.28       1.0  T
   4   -122.5985634 -0.911344E-04  0.950E-03    0.30       1.2  T
   5   -122.5985632  0.195291E-06  0.822E-03    0.29       1.4  T
   6   -122.5985663 -0.313550E-05  0.389E-03    0.30       2.9  T
   7   -122.5985664 -0.599149E-07  0.255E-03    0.30       4.4  T
   8   -122.5985664 -0.386471E-07  0.144E-03    0.30       7.8  T
   9   -122.5985665 -0.511736E-07  0.667E-04    0.30      16.8  T
  10   -122.5985665 -0.515172E-08  0.317E-04    0.30      35.2  T
  11   -122.5985665 -0.172841E-08  0.144E-04    0.30      77.7  T
     SCC iter.                  ...        0 min,  0.159 sec
     gradient                   ...        0 min,  0.073 sec
 * total energy  :  -120.6334030 Eh     change       -0.4026839E-04 Eh
   gradient norm :     0.0058278 Eh/α   predicted    -0.1006227E-03 ( 149.88%)
   displ. norm   :     0.1535585 α      lambda       -0.1720949E-03
   maximum displ.:     0.0799020 α      in ANC's #3, #8, #11, ...

........................................................................
.............................. CYCLE   72 ..............................
........................................................................

 iter      E             dE          RMSdq      gap      omega  full diag
   1   -122.5984665 -0.122598E+03  0.431E-02    0.29       0.0  T
   2   -122.5984675 -0.102779E-05  0.257E-02    0.29       1.0  T
   3   -122.5984571  0.103752E-04  0.150E-02    0.30       1.0  T
   4   -122.5984690 -0.118334E-04  0.486E-03    0.29       2.3  T
   5   -122.5984692 -0.220310E-06  0.353E-03    0.29       3.2  T
   6   -122.5984693 -0.878197E-07  0.275E-03    0.29       4.1  T
   7   -122.5984693 -0.215595E-07  0.210E-03    0.29       5.3  T
   8   -122.5984694 -0.110929E-06  0.102E-03    0.29      11.0  T
   9   -122.5984694 -0.175046E-07  0.364E-04    0.29      30.7  T
  10   -122.5984694 -0.239496E-08  0.194E-04    0.29      57.6  T
     SCC iter.                  ...        0 min,  0.151 sec
     gradient                   ...        0 min,  0.084 sec
 * total energy  :  -120.6334959 Eh     change       -0.9288868E-04 Eh
   gradient norm :     0.0039786 Eh/α   predicted    -0.8807656E-04 (  -5.18%)
   displ. norm   :     0.1111451 α      lambda       -0.6835221E-04
   maximum displ.:     0.0628595 α      in ANC's #3, #8, #1, ...

........................................................................
.............................. CYCLE   73 ..............................
........................................................................

 iter      E             dE          RMSdq      gap      omega  full diag
   1   -122.6004458 -0.122600E+03  0.297E-02    0.29       0.0  T
   2   -122.6004444  0.148607E-05  0.186E-02    0.29       1.0  T
   3   -122.6004278  0.165279E-04  0.212E-02    0.30       1.0  T
   4   -122.6004477 -0.198634E-04  0.315E-03    0.29       3.5  T
   5   -122.6004476  0.104893E-06  0.238E-03    0.29       4.7  T
   6   -122.6004479 -0.345932E-06  0.431E-04    0.29      25.9  T
   7   -122.6004479 -0.117329E-08  0.322E-04    0.29      34.8  T
     SCC iter.                  ...        0 min,  0.115 sec
     gradient                   ...        0 min,  0.078 sec
 * total energy  :  -120.6335515 Eh     change       -0.5568438E-04 Eh
   gradient norm :     0.0020835 Eh/α   predicted    -0.3460074E-04 ( -37.86%)
   displ. norm   :     0.2895410 α      lambda       -0.1397266E-03
   maximum displ.:     0.1609730 α      in ANC's #3, #8, #1, ...

........................................................................
.............................. CYCLE   74 ..............................
........................................................................

 iter      E             dE          RMSdq      gap      omega  full diag
   1   -122.6032135 -0.122603E+03  0.744E-02    0.28       0.0  T
   2   -122.6032110  0.249750E-05  0.445E-02    0.28       1.0  T
   3   -122.6031092  0.101868E-03  0.468E-02    0.30       1.0  T
   4   -122.6032182 -0.109035E-03  0.522E-03    0.29       2.1  T
   5   -122.6032181  0.960082E-07  0.510E-03    0.29       2.2  T
   6   -122.6032198 -0.167486E-05  0.742E-04    0.29      15.1  T
   7   -122.6032198 -0.136012E-08  0.483E-04    0.29      23.1  T
   8   -122.6032198 -0.326843E-08  0.278E-04    0.29      40.3  T
     SCC iter.                  ...        0 min,  0.132 sec
     gradient                   ...        0 min,  0.087 sec
 * total energy  :  -120.6336607 Eh     change       -0.1091968E-03 Eh
   gradient norm :     0.0032805 Eh/α   predicted    -0.7572112E-04 ( -30.66%)
   displ. norm   :     0.4339500 α      lambda       -0.1572144E-03
   maximum displ.:     0.2433228 α      in ANC's #3, #8, #1, ...

........................................................................
.............................. CYCLE   75 ..............................
........................................................................

 iter      E             dE          RMSdq      gap      omega  full diag
   1   -122.6027098 -0.122603E+03  0.113E-01    0.28       0.0  T
   2   -122.6027113 -0.150547E-05  0.656E-02    0.29       1.0  T
   3   -122.6026840  0.272844E-04  0.249E-02    0.28       1.0  T
   4   -122.6026977 -0.136266E-04  0.173E-02    0.29       1.0  T
   5   -122.6027133 -0.155839E-04  0.223E-03    0.29       5.0  T
   6   -122.6027134 -0.152310E-06  0.135E-03    0.29       8.3  T
   7   -122.6027134 -0.239634E-07  0.828E-04    0.29      13.5  T
   8   -122.6027134 -0.745531E-08  0.477E-04    0.29      23.4  T
   9   -122.6027134 -0.427197E-08  0.316E-04    0.29      35.4  T
     SCC iter.                  ...        0 min,  0.142 sec
     gradient                   ...        0 min,  0.069 sec
 * total energy  :  -120.6337837 Eh     change       -0.1229792E-03 Eh
   gradient norm :     0.0045192 Eh/α   predicted    -0.9341294E-04 ( -24.04%)
   displ. norm   :     0.4466818 α      lambda       -0.1490124E-03
   maximum displ.:     0.2555886 α      in ANC's #3, #8, #1, ...

........................................................................
.............................. CYCLE   76 ..............................
........................................................................

 iter      E             dE          RMSdq      gap      omega  full diag
   1   -122.6006547 -0.122601E+03  0.112E-01    0.28       0.0  T
   2   -122.6006549 -0.200477E-06  0.656E-02    0.29       1.0  T
   3   -122.6005858  0.690522E-04  0.360E-02    0.27       1.0  T
   4   -122.6006548 -0.690095E-04  0.932E-03    0.29       1.2  T
   5   -122.6006582 -0.335983E-05  0.434E-03    0.29       2.6  T
   6   -122.6006591 -0.913301E-06  0.153E-03    0.29       7.3  T
   7   -122.6006591 -0.742237E-08  0.106E-03    0.29      10.5  T
   8   -122.6006591 -0.107226E-07  0.623E-04    0.29      18.0  T
   9   -122.6006591 -0.932779E-08  0.387E-04    0.29      28.9  T
  10   -122.6006591 -0.151438E-08  0.204E-04    0.29      54.8  T
     SCC iter.                  ...        0 min,  0.153 sec
     gradient                   ...        0 min,  0.091 sec
 * total energy  :  -120.6339045 Eh     change       -0.1207678E-03 Eh
   gradient norm :     0.0046670 Eh/α   predicted    -0.8937235E-04 ( -26.00%)
   displ. norm   :     0.4194592 α      lambda       -0.1558715E-03
   maximum displ.:     0.2499107 α      in ANC's #3, #1, #8, ...

........................................................................
.............................. CYCLE   77 ..............................
........................................................................

 iter      E             dE          RMSdq      gap      omega  full diag
   1   -122.5998112 -0.122600E+03  0.105E-01    0.30       0.0  T
   2   -122.5998108  0.425973E-06  0.622E-02    0.29       1.0  T
   3   -122.5997154  0.953345E-04  0.429E-02    0.28       1.0  T
   4   -122.5998141 -0.986790E-04  0.630E-03    0.30       1.8  T
   5   -122.5998155 -0.140821E-05  0.375E-03    0.29       3.0  T
   6   -122.5998161 -0.537463E-06  0.154E-03    0.29       7.3  T
   7   -122.5998161 -0.588690E-08  0.103E-03    0.29      10.8  T
   8   -122.5998161 -0.119303E-08  0.725E-04    0.29      15.4  T
   9   -122.5998161 -0.171732E-07  0.372E-04    0.29      30.1  T
  10   -122.5998161 -0.113531E-08  0.197E-04    0.29      56.6  T
     SCC iter.                  ...        0 min,  0.148 sec
     gradient                   ...        0 min,  0.074 sec
 * total energy  :  -120.6340335 Eh     change       -0.1290254E-03 Eh
   gradient norm :     0.0031962 Eh/α   predicted    -0.9164861E-04 ( -28.97%)
   displ. norm   :     0.4401263 α      lambda       -0.1749814E-03
   maximum displ.:     0.2721360 α      in ANC's #3, #1, #6, ...

........................................................................
.............................. CYCLE   78 ..............................
........................................................................

 iter      E             dE          RMSdq      gap      omega  full diag
   1   -122.5995551 -0.122600E+03  0.105E-01    0.30       0.0  T
   2   -122.5995549  0.231170E-06  0.620E-02    0.30       1.0  T
   3   -122.5994738  0.811024E-04  0.409E-02    0.28       1.0  T
   4   -122.5995547 -0.808935E-04  0.103E-02    0.30       1.1  T
   5   -122.5995595 -0.481283E-05  0.290E-03    0.30       3.9  T
   6   -122.5995598 -0.292371E-06  0.160E-03    0.30       7.0  T
   7   -122.5995598 -0.232986E-07  0.107E-03    0.30      10.5  T
   8   -122.5995598  0.503668E-08  0.674E-04    0.30      16.6  T
   9   -122.5995598 -0.167492E-07  0.357E-04    0.30      31.3  T
  10   -122.5995598 -0.144466E-08  0.185E-04    0.30      60.3  T
     SCC iter.                  ...        0 min,  0.151 sec
     gradient                   ...        0 min,  0.083 sec
 * total energy  :  -120.6341727 Eh     change       -0.1392126E-03 Eh
   gradient norm :     0.0041300 Eh/α   predicted    -0.1044430E-03 ( -24.98%)
   displ. norm   :     0.4913790 α      lambda       -0.1913496E-03
   maximum displ.:     0.3063671 α      in ANC's #3, #1, #6, ...

........................................................................
.............................. CYCLE   79 ..............................
........................................................................

 iter      E             dE          RMSdq      gap      omega  full diag
   1   -122.5986636 -0.122599E+03  0.119E-01    0.30       0.0  T
   2   -122.5986657 -0.207401E-05  0.695E-02    0.30       1.0  T
   3   -122.5986291  0.366285E-04  0.232E-02    0.30       1.0  T
   4   -122.5986672 -0.381331E-04  0.766E-03    0.30       1.5  T
   5   -122.5986690 -0.180295E-05  0.189E-03    0.30       5.9  T
   6   -122.5986690 -0.556566E-07  0.133E-03    0.30       8.4  T
   7   -122.5986691 -0.115361E-07  0.101E-03    0.30      11.0  T
   8   -122.5986691 -0.609040E-08  0.800E-04    0.30      14.0  T
   9   -122.5986691 -0.218826E-07  0.361E-04    0.30      30.9  T
  10   -122.5986691 -0.554095E-09  0.225E-04    0.30      49.7  T
     SCC iter.                  ...        0 min,  0.143 sec
     gradient                   ...        0 min,  0.073 sec
 * total energy  :  -120.6343355 Eh     change       -0.1627411E-03 Eh
   gradient norm :     0.0048840 Eh/α   predicted    -0.1187773E-03 ( -27.01%)
   displ. norm   :     0.5278933 α      lambda       -0.2148211E-03
   maximum displ.:     0.3357653 α      in ANC's #3, #1, #6, ...

........................................................................
.............................. CYCLE   80 ..............................
........................................................................

 iter      E             dE          RMSdq      gap      omega  full diag
   1   -122.5991012 -0.122599E+03  0.123E-01    0.30       0.0  T
   2   -122.5991023 -0.112912E-05  0.717E-02    0.30       1.0  T
   3   -122.5990164  0.859407E-04  0.398E-02    0.31       1.0  T
   4   -122.5991064 -0.899678E-04  0.799E-03    0.30       1.4  T
   5   -122.5991068 -0.469712E-06  0.532E-03    0.31       2.1  T
   6   -122.5991086 -0.173158E-05  0.158E-03    0.30       7.1  T
   7   -122.5991086 -0.517595E-07  0.845E-04    0.30      13.2  T
   8   -122.5991086  0.229923E-08  0.577E-04    0.30      19.4  T
   9   -122.5991086 -0.111270E-07  0.326E-04    0.30      34.3  T
  10   -122.5991086 -0.124113E-08  0.200E-04    0.30      56.0  T
     SCC iter.                  ...        0 min,  0.155 sec
     gradient                   ...        0 min,  0.083 sec
 * total energy  :  -120.6345304 Eh     change       -0.1949282E-03 Eh
   gradient norm :     0.0044519 Eh/α   predicted    -0.1373466E-03 ( -29.54%)
   displ. norm   :     0.6079054 α      lambda       -0.2683778E-03
   maximum displ.:     0.3912092 α      in ANC's #3, #1, #6, ...

........................................................................
.............................. CYCLE   81 ..............................
........................................................................

 iter      E             dE          RMSdq      gap      omega  full diag
   1   -122.6001144 -0.122600E+03  0.139E-01    0.30       0.0  T
   2   -122.6001163 -0.185726E-05  0.808E-02    0.30       1.0  T
   3   -122.6000182  0.980802E-04  0.415E-02    0.31       1.0  T
   4   -122.6001215 -0.103273E-03  0.991E-03    0.30       1.1  T
   5   -122.6001222 -0.697834E-06  0.601E-03    0.31       1.9  T
   6   -122.6001244 -0.217147E-05  0.162E-03    0.30       6.9  T
   7   -122.6001244 -0.634933E-07  0.807E-04    0.30      13.9  T
   8   -122.6001244  0.509658E-09  0.550E-04    0.30      20.3  T
   9   -122.6001244 -0.827386E-08  0.314E-04    0.30      35.6  T
  10   -122.6001244 -0.139339E-08  0.206E-04    0.30      54.4  T
     SCC iter.                  ...        0 min,  0.149 sec
     gradient                   ...        0 min,  0.077 sec
 * total energy  :  -120.6347738 Eh     change       -0.2434053E-03 Eh
   gradient norm :     0.0036814 Eh/α   predicted    -0.1837819E-03 ( -24.50%)
   displ. norm   :     0.6742472 α      lambda       -0.2958282E-03
   maximum displ.:     0.4395234 α      in ANC's #3, #1, #6, ...

........................................................................
.............................. CYCLE   82 ..............................
........................................................................

 iter      E             dE          RMSdq      gap      omega  full diag
   1   -122.6006221 -0.122601E+03  0.152E-01    0.30       0.0  T
   2   -122.6006257 -0.360687E-05  0.875E-02    0.31       1.0  T
   3   -122.6005574  0.682503E-04  0.334E-02    0.30       1.0  T
   4   -122.6006230 -0.655259E-04  0.145E-02    0.31       1.0  T
   5   -122.6006324 -0.939682E-05  0.214E-03    0.30       5.2  T
   6   -122.6006324 -0.649632E-07  0.166E-03    0.30       6.7  T
   7   -122.6006325 -0.838424E-07  0.101E-03    0.30      11.1  T
   8   -122.6006325 -0.102276E-07  0.608E-04    0.30      18.4  T
   9   -122.6006325 -0.108953E-07  0.339E-04    0.30      33.0  T
  10   -122.6006325 -0.546024E-09  0.223E-04    0.30      50.1  T
     SCC iter.                  ...        0 min,  0.161 sec
     gradient                   ...        0 min,  0.085 sec
 * total energy  :  -120.6350388 Eh     change       -0.2650296E-03 Eh
   gradient norm :     0.0034971 Eh/α   predicted    -0.2151609E-03 ( -18.82%)
   displ. norm   :     0.6872351 α      lambda       -0.2989270E-03
   maximum displ.:     0.4570840 α      in ANC's #3, #1, #6, ...

........................................................................
.............................. CYCLE   83 ..............................
........................................................................

 iter      E             dE          RMSdq      gap      omega  full diag
   1   -122.6020710 -0.122602E+03  0.151E-01    0.30       0.0  T
   2   -122.6020740 -0.300111E-05  0.868E-02    0.31       1.0  T
   3   -122.6019891  0.849587E-04  0.385E-02    0.29       1.0  T
   4   -122.6020674 -0.783375E-04  0.174E-02    0.31       1.0  T
   5   -122.6020791 -0.116902E-04  0.681E-03    0.30       1.6  T
   6   -122.6020816 -0.244183E-05  0.151E-03    0.30       7.4  T
   7   -122.6020816 -0.244697E-07  0.983E-04    0.30      11.4  T
   8   -122.6020816 -0.257641E-08  0.651E-04    0.30      17.2  T
   9   -122.6020816 -0.992526E-08  0.367E-04    0.30      30.5  T
  10   -122.6020816  0.106425E-09  0.218E-04    0.30      51.3  T
     SCC iter.                  ...        0 min,  0.141 sec
     gradient                   ...        0 min,  0.085 sec
 * total energy  :  -120.6353160 Eh     change       -0.2771224E-03 Eh
   gradient norm :     0.0033167 Eh/α   predicted    -0.2200553E-03 ( -20.59%)
   displ. norm   :     0.7834092 α      lambda       -0.3356684E-03
   maximum displ.:     0.5233884 α      in ANC's #3, #1, #6, ...

........................................................................
.............................. CYCLE   84 ..............................
........................................................................

 iter      E             dE          RMSdq      gap      omega  full diag
   1   -122.5983673 -0.122598E+03  0.172E-01    0.29       0.0  T
   2   -122.5983683 -0.994943E-06  0.100E-01    0.30       1.0  T
   3   -122.5981844  0.183953E-03  0.594E-02    0.27       1.0  T
   4   -122.5983666 -0.182183E-03  0.179E-02    0.30       1.0  T
   5   -122.5983771 -0.105691E-04  0.749E-03    0.30       1.5  T
   6   -122.5983806 -0.351393E-05  0.177E-03    0.30       6.3  T
   7   -122.5983807 -0.179036E-07  0.119E-03    0.30       9.4  T
   8   -122.5983807 -0.545221E-08  0.761E-04    0.30      14.7  T
   9   -122.5983807 -0.118456E-07  0.454E-04    0.30      24.6  T
  10   -122.5983807 -0.687535E-09  0.261E-04    0.30      42.8  T
     SCC iter.                  ...        0 min,  0.157 sec
     gradient                   ...        0 min,  0.077 sec
 * total energy  :  -120.6356151 Eh     change       -0.2991203E-03 Eh
   gradient norm :     0.0046787 Eh/α   predicted    -0.2708406E-03 (  -9.45%)
   displ. norm   :     0.7381305 α      lambda       -0.3972768E-03
   maximum displ.:     0.5134554 α      in ANC's #3, #1, #12, ...

........................................................................
.............................. CYCLE   85 ..............................
........................................................................

 iter      E             dE          RMSdq      gap      omega  full diag
   1   -122.6054096 -0.122605E+03  0.151E-01    0.31       0.0  T
   2   -122.6054162 -0.655675E-05  0.868E-02    0.30       1.0  T
   3   -122.6053797  0.365232E-04  0.285E-02    0.30       1.0  T
   4   -122.6054066 -0.269241E-04  0.169E-02    0.30       1.0  T
   5   -122.6054207 -0.141248E-04  0.245E-03    0.30       4.6  T
   6   -122.6054208 -0.975738E-07  0.188E-03    0.30       5.9  T
   7   -122.6054209 -0.802211E-07  0.130E-03    0.30       8.6  T
   8   -122.6054209 -0.203950E-07  0.793E-04    0.30      14.1  T
   9   -122.6054209 -0.187848E-07  0.437E-04    0.30      25.6  T
  10   -122.6054209 -0.126113E-08  0.301E-04    0.30      37.2  T
     SCC iter.                  ...        0 min,  0.149 sec
     gradient                   ...        0 min,  0.073 sec
 * total energy  :  -120.6359142 Eh     change       -0.2990749E-03 Eh
   gradient norm :     0.0053833 Eh/α   predicted    -0.3068652E-03 (   2.60%)
   displ. norm   :     0.7827612 α      lambda       -0.3612004E-03
   maximum displ.:     0.5434048 α      in ANC's #3, #1, #6, ...

........................................................................
.............................. CYCLE   86 ..............................
........................................................................

 iter      E             dE          RMSdq      gap      omega  full diag
   1   -122.5982647 -0.122598E+03  0.169E-01    0.26       0.0  T
   2   -122.5982466  0.181362E-04  0.103E-01    0.30       1.0  T
   3   -122.5976317  0.614882E-03  0.116E-01    0.23       1.0  T
   4   -122.5982863 -0.654554E-03  0.145E-02    0.29       1.0  T
   5   -122.5982927 -0.643328E-05  0.714E-03    0.29       1.6  T
   6   -122.5982959 -0.318240E-05  0.260E-03    0.28       4.3  T
   7   -122.5982960 -0.147874E-06  0.159E-03    0.28       7.0  T
   8   -122.5982961 -0.329784E-07  0.932E-04    0.28      12.0  T
   9   -122.5982961 -0.632738E-08  0.610E-04    0.28      18.3  T
  10   -122.5982961 -0.579900E-08  0.392E-04    0.28      28.5  T
  11   -122.5982961 -0.113104E-08  0.214E-04    0.28      52.3  T
     SCC iter.                  ...        0 min,  0.178 sec
     gradient                   ...        0 min,  0.071 sec
 * total energy  :  -120.6361897 Eh     change       -0.2755124E-03 Eh
   gradient norm :     0.0071434 Eh/α   predicted    -0.2912632E-03 (   5.72%)
   displ. norm   :     0.6375711 α      lambda       -0.2965428E-03
   maximum displ.:     0.4620709 α      in ANC's #3, #1, #6, ...

........................................................................
.............................. CYCLE   87 ..............................
........................................................................

 iter      E             dE          RMSdq      gap      omega  full diag
   1   -122.5974234 -0.122597E+03  0.128E-01    0.28       0.0  T
   2   -122.5974265 -0.308352E-05  0.744E-02    0.28       1.0  T
   3   -122.5974125  0.139560E-04  0.179E-02    0.28       1.0  T
   4   -122.5974183 -0.579576E-05  0.142E-02    0.28       1.0  T
   5   -122.5974278 -0.950320E-05  0.258E-03    0.28       4.3  T
   6   -122.5974281 -0.214458E-06  0.125E-03    0.28       9.0  T
   7   -122.5974281 -0.436080E-07  0.719E-04    0.28      15.6  T
   8   -122.5974281 -0.605975E-08  0.430E-04    0.28      26.0  T
   9   -122.5974281 -0.661045E-08  0.241E-04    0.28      46.4  T
     SCC iter.                  ...        0 min,  0.135 sec
     gradient                   ...        0 min,  0.071 sec
 * total energy  :  -120.6364444 Eh     change       -0.2547498E-03 Eh
   gradient norm :     0.0075747 Eh/α   predicted    -0.2085451E-03 ( -18.14%)
   displ. norm   :     0.5774383 α      lambda       -0.4987864E-03
   maximum displ.:     0.4292940 α      in ANC's #3, #4, #11, ...

........................................................................
.............................. CYCLE   88 ..............................
........................................................................

 iter      E             dE          RMSdq      gap      omega  full diag
   1   -122.6139192 -0.122614E+03  0.103E-01    0.28       0.0  T
   2   -122.6139141  0.516300E-05  0.623E-02    0.27       1.0  T
   3   -122.6137196  0.194421E-03  0.655E-02    0.31       1.0  T
   4   -122.6139299 -0.210256E-03  0.104E-02    0.28       1.1  T
   5   -122.6139325 -0.262076E-05  0.409E-03    0.28       2.7  T
   6   -122.6139331 -0.593807E-06  0.195E-03    0.28       5.7  T
   7   -122.6139332 -0.100426E-06  0.115E-03    0.28       9.7  T
   8   -122.6139332 -0.198232E-07  0.665E-04    0.28      16.8  T
   9   -122.6139332 -0.764969E-08  0.376E-04    0.28      29.7  T
  10   -122.6139332 -0.138483E-08  0.250E-04    0.28      44.7  T
     SCC iter.                  ...        0 min,  0.162 sec
     gradient                   ...        0 min,  0.088 sec
 * total energy  :  -120.6366839 Eh     change       -0.2394669E-03 Eh
   gradient norm :     0.0109379 Eh/α   predicted    -0.3325518E-03 (  38.87%)
   displ. norm   :     0.6567209 α      lambda       -0.5181165E-03
   maximum displ.:     0.4818043 α      in ANC's #3, #1, #12, ...

........................................................................
.............................. CYCLE   89 ..............................
........................................................................

 iter      E             dE          RMSdq      gap      omega  full diag
   1   -122.6034404 -0.122603E+03  0.137E-01    0.32       0.0  T
   2   -122.6034451 -0.471150E-05  0.826E-02    0.30       1.0  T
   3   -122.6031233  0.321736E-03  0.795E-02    0.27       1.0  T
   4   -122.6034621 -0.338786E-03  0.113E-02    0.30       1.0  T
   5   -122.6034676 -0.548740E-05  0.600E-03    0.29       1.9  T
   6   -122.6034690 -0.141767E-05  0.166E-03    0.29       6.7  T
   7   -122.6034691 -0.494403E-07  0.111E-03    0.30      10.0  T
   8   -122.6034691 -0.261925E-08  0.807E-04    0.29      13.9  T
   9   -122.6034691 -0.185450E-07  0.432E-04    0.29      25.9  T
  10   -122.6034691 -0.129542E-08  0.247E-04    0.29      45.2  T
     SCC iter.                  ...        0 min,  0.143 sec
     gradient                   ...        0 min,  0.073 sec
 * total energy  :  -120.6369889 Eh     change       -0.3049852E-03 Eh
   gradient norm :     0.0077096 Eh/α   predicted    -0.3707899E-03 (  21.58%)
   displ. norm   :     0.6412364 α      lambda       -0.3347243E-03
   maximum displ.:     0.4832418 α      in ANC's #3, #1, #6, ...

........................................................................
.............................. CYCLE   90 ..............................
........................................................................

 iter      E             dE          RMSdq      gap      omega  full diag
   1   -122.5963374 -0.122596E+03  0.126E-01    0.26       0.0  T
   2   -122.5963469 -0.952912E-05  0.745E-02    0.29       1.0  T
   3   -122.5962780  0.689497E-04  0.395E-02    0.27       1.0  T
   4   -122.5963499 -0.719479E-04  0.114E-02    0.28       1.0  T
   5   -122.5963536 -0.366151E-05  0.535E-03    0.28       2.1  T
   6   -122.5963548 -0.125631E-05  0.174E-03    0.28       6.4  T
   7   -122.5963549 -0.867830E-07  0.887E-04    0.28      12.6  T
   8   -122.5963549 -0.170172E-07  0.591E-04    0.28      18.9  T
   9   -122.5963549 -0.754636E-08  0.300E-04    0.28      37.2  T
  10   -122.5963549 -0.187372E-08  0.179E-04    0.28      62.6  T
     SCC iter.                  ...        0 min,  0.159 sec
     gradient                   ...        0 min,  0.075 sec
 * total energy  :  -120.6372103 Eh     change       -0.2214474E-03 Eh
   gradient norm :     0.0083030 Eh/α   predicted    -0.2361806E-03 (   6.65%)
   displ. norm   :     0.4143933 α      lambda       -0.3082564E-03
   maximum displ.:     0.3204124 α      in ANC's #3, #4, #2, ...

........................................................................
.............................. CYCLE   91 ..............................
........................................................................

 iter      E             dE          RMSdq      gap      omega  full diag
   1   -122.5999244 -0.122600E+03  0.717E-02    0.28       0.0  T
   2   -122.5999257 -0.136406E-05  0.420E-02    0.28       1.0  T
   3   -122.5999070  0.187574E-04  0.201E-02    0.28       1.0  T
   4   -122.5999257 -0.186886E-04  0.669E-03    0.28       1.7  T
   5   -122.5999271 -0.142459E-05  0.399E-03    0.28       2.8  T
   6   -122.5999277 -0.570554E-06  0.133E-03    0.28       8.4  T
   7   -122.5999277  0.101726E-07  0.106E-03    0.28      10.5  T
   8   -122.5999277 -0.200457E-07  0.614E-04    0.28      18.2  T
   9   -122.5999277 -0.948381E-08  0.319E-04    0.28      35.0  T
  10   -122.5999277 -0.118074E-08  0.169E-04    0.28      66.0  T
     SCC iter.                  ...        0 min,  0.152 sec
     gradient                   ...        0 min,  0.072 sec
 * total energy  :  -120.6374585 Eh     change       -0.2481853E-03 Eh
   gradient norm :     0.0081732 Eh/α   predicted    -0.1805990E-03 ( -27.23%)
   displ. norm   :     0.5945381 α      lambda       -0.4720152E-03
   maximum displ.:     0.4543765 α      in ANC's #3, #2, #4, ...

........................................................................
.............................. CYCLE   92 ..............................
........................................................................

 iter      E             dE          RMSdq      gap      omega  full diag
   1   -122.6087879 -0.122609E+03  0.964E-02    0.30       0.0  T
   2   -122.6087919 -0.401572E-05  0.559E-02    0.30       1.0  T
   3   -122.6087571  0.347818E-04  0.295E-02    0.29       1.0  T
   4   -122.6087883 -0.311364E-04  0.132E-02    0.30       1.0  T
   5   -122.6087956 -0.736655E-05  0.477E-03    0.30       2.3  T
   6   -122.6087965 -0.847583E-06  0.250E-03    0.30       4.5  T
   7   -122.6087966 -0.650148E-07  0.172E-03    0.30       6.5  T
   8   -122.6087966 -0.607990E-07  0.880E-04    0.30      12.7  T
   9   -122.6087966 -0.949262E-08  0.460E-04    0.30      24.3  T
  10   -122.6087966 -0.124629E-08  0.246E-04    0.30      45.5  T
     SCC iter.                  ...        0 min,  0.154 sec
     gradient                   ...        0 min,  0.072 sec
 * total energy  :  -120.6377667 Eh     change       -0.3081589E-03 Eh
   gradient norm :     0.0083141 Eh/α   predicted    -0.3194341E-03 (   3.66%)
   displ. norm   :     0.7307008 α      lambda       -0.4522379E-03
   maximum displ.:     0.5653096 α      in ANC's #3, #4, #2, ...
 * RMSD in coord.:     1.1977519 α      energy gain  -0.4904786E-02 Eh

generating ANC from exact Hessian ...
Using Lindh-Hessian (1995)
 Shifting diagonal of input Hessian by    1.0081789984184261E-002
 Lowest  eigenvalues of input Hessian
    0.010000    0.000000    0.000000    0.000000    0.000000    0.000000
    0.000000    0.010215    0.010242    0.010316    0.010398    0.010483
    0.010589    0.010637    0.010744    0.010817    0.010858    0.010914
 Highest eigenvalues
    2.000315    2.002554    2.024132    2.239979    2.383753    2.443704


........................................................................
.............................. CYCLE   93 ..............................
........................................................................

 iter      E             dE          RMSdq      gap      omega  full diag
   1   -122.6070472 -0.122607E+03  0.126E-01    0.32       0.0  T
   2   -122.6070490 -0.187528E-05  0.743E-02    0.31       1.0  T
   3   -122.6069456  0.103434E-03  0.459E-02    0.32       1.0  T
   4   -122.6070512 -0.105622E-03  0.108E-02    0.31       1.0  T
   5   -122.6070557 -0.451823E-05  0.414E-03    0.31       2.7  T
   6   -122.6070562 -0.466851E-06  0.233E-03    0.31       4.8  T
   7   -122.6070563 -0.375373E-07  0.169E-03    0.31       6.6  T
   8   -122.6070563 -0.379421E-07  0.858E-04    0.31      13.0  T
   9   -122.6070563 -0.142695E-07  0.453E-04    0.31      24.7  T
  10   -122.6070563 -0.979568E-09  0.259E-04    0.31      43.2  T
     SCC iter.                  ...        0 min,  0.151 sec
     gradient                   ...        0 min,  0.079 sec
 * total energy  :  -120.6380533 Eh     change       -0.2866136E-03 Eh
   gradient norm :     0.0081189 Eh/α   predicted     0.0000000E+00 (-100.00%)
   displ. norm   :     0.0697049 α      lambda       -0.1553511E-03
   maximum displ.:     0.0305435 α      in ANC's #2, #14, #29, ...

........................................................................
.............................. CYCLE   94 ..............................
........................................................................

 iter      E             dE          RMSdq      gap      omega  full diag
   1   -122.6080205 -0.122608E+03  0.263E-02    0.30       0.0  T
   2   -122.6080215 -0.980456E-06  0.154E-02    0.31       1.0  T
   3   -122.6080193  0.220721E-05  0.797E-03    0.30       1.4  T
   4   -122.6080205 -0.123081E-05  0.566E-03    0.31       2.0  T
   5   -122.6080220 -0.150072E-05  0.171E-03    0.31       6.5  T
   6   -122.6080221 -0.573376E-07  0.120E-03    0.31       9.3  T
   7   -122.6080221 -0.272902E-07  0.770E-04    0.31      14.5  T
   8   -122.6080221  0.119779E-08  0.529E-04    0.31      21.1  T
   9   -122.6080221 -0.888025E-08  0.233E-04    0.31      48.0  T
  10   -122.6080221 -0.180208E-09  0.122E-04    0.31      92.0  T
     SCC iter.                  ...        0 min,  0.166 sec
     gradient                   ...        0 min,  0.078 sec
 * total energy  :  -120.6381663 Eh     change       -0.1130346E-03 Eh
   gradient norm :     0.0028385 Eh/α   predicted    -0.8227001E-04 ( -27.22%)
   displ. norm   :     0.1328360 α      lambda       -0.1394760E-03
   maximum displ.:     0.0647937 α      in ANC's #2, #14, #10, ...

........................................................................
.............................. CYCLE   95 ..............................
........................................................................

 iter      E             dE          RMSdq      gap      omega  full diag
   1   -122.6086189 -0.122609E+03  0.430E-02    0.30       0.0  T
   2   -122.6086203 -0.138521E-05  0.255E-02    0.30       1.0  T
   3   -122.6086089  0.113098E-04  0.152E-02    0.30       1.0  T
   4   -122.6086204 -0.114719E-04  0.759E-03    0.31       1.5  T
   5   -122.6086224 -0.193649E-05  0.318E-03    0.30       3.5  T
   6   -122.6086225 -0.182438E-06  0.229E-03    0.30       4.9  T
   7   -122.6086226 -0.394813E-07  0.148E-03    0.30       7.6  T
   8   -122.6086226 -0.289029E-07  0.949E-04    0.30      11.8  T
   9   -122.6086226 -0.210433E-07  0.367E-04    0.30      30.5  T
  10   -122.6086226 -0.838241E-09  0.190E-04    0.30      58.9  T
     SCC iter.                  ...        0 min,  0.158 sec
     gradient                   ...        0 min,  0.078 sec
 * total energy  :  -120.6382160 Eh     change       -0.4971780E-04 Eh
   gradient norm :     0.0047066 Eh/α   predicted    -0.7101157E-04 (  42.83%)
   displ. norm   :     0.1508856 α      lambda       -0.1490875E-03
   maximum displ.:     0.0737765 α      in ANC's #2, #14, #34, ...

........................................................................
.............................. CYCLE   96 ..............................
........................................................................

 iter      E             dE          RMSdq      gap      omega  full diag
   1   -122.6086980 -0.122609E+03  0.469E-02    0.30       0.0  T
   2   -122.6086983 -0.257649E-06  0.278E-02    0.30       1.0  T
   3   -122.6086748  0.235028E-04  0.248E-02    0.31       1.0  T
   4   -122.6086995 -0.246931E-04  0.889E-03    0.30       1.3  T
   5   -122.6087015 -0.199337E-05  0.427E-03    0.30       2.6  T
   6   -122.6087016 -0.123804E-06  0.312E-03    0.30       3.6  T
   7   -122.6087016 -0.611724E-07  0.197E-03    0.30       5.7  T
   8   -122.6087017 -0.651537E-07  0.986E-04    0.30      11.3  T
   9   -122.6087017 -0.383348E-07  0.425E-04    0.30      26.3  T
  10   -122.6087017 -0.397729E-08  0.202E-04    0.30      55.3  T
     SCC iter.                  ...        0 min,  0.163 sec
     gradient                   ...        0 min,  0.076 sec
 * total energy  :  -120.6382523 Eh     change       -0.3626152E-04 Eh
   gradient norm :     0.0073308 Eh/α   predicted    -0.7624193E-04 ( 110.26%)
   displ. norm   :     0.1346545 α      lambda       -0.1946323E-03
   maximum displ.:     0.0654290 α      in ANC's #2, #14, #10, ...

........................................................................
.............................. CYCLE   97 ..............................
........................................................................

 iter      E             dE          RMSdq      gap      omega  full diag
   1   -122.6081608 -0.122608E+03  0.454E-02    0.30       0.0  T
   2   -122.6081610 -0.187486E-06  0.258E-02    0.30       1.0  T
   3   -122.6081439  0.170955E-04  0.227E-02    0.31       1.0  T
   4   -122.6081606 -0.167218E-04  0.974E-03    0.30       1.1  T
   5   -122.6081641 -0.343314E-05  0.171E-03    0.30       6.5  T
   6   -122.6081641 -0.380539E-07  0.111E-03    0.30      10.1  T
   7   -122.6081642 -0.315579E-07  0.488E-04    0.30      22.9  T
   8   -122.6081642 -0.135410E-08  0.341E-04    0.30      32.8  T
     SCC iter.                  ...        0 min,  0.123 sec
     gradient                   ...        0 min,  0.073 sec
 * total energy  :  -120.6383118 Eh     change       -0.5951098E-04 Eh
   gradient norm :     0.0059566 Eh/α   predicted    -0.9908081E-04 (  66.49%)
   displ. norm   :     0.0905085 α      lambda       -0.1637547E-03
   maximum displ.:     0.0439624 α      in ANC's #2, #14, #10, ...

........................................................................
.............................. CYCLE   98 ..............................
........................................................................

 iter      E             dE          RMSdq      gap      omega  full diag
   1   -122.6080291 -0.122608E+03  0.284E-02    0.31       0.0  T
   2   -122.6080301 -0.101694E-05  0.160E-02    0.30       1.0  T
   3   -122.6080293  0.813490E-06  0.708E-03    0.30       1.6  T
   4   -122.6080290  0.286342E-06  0.574E-03    0.30       1.9  T
   5   -122.6080304 -0.137843E-05  0.229E-03    0.30       4.9  T
   6   -122.6080305 -0.144790E-06  0.140E-03    0.30       8.0  T
   7   -122.6080305 -0.198219E-07  0.948E-04    0.30      11.8  T
   8   -122.6080305 -0.687116E-08  0.548E-04    0.30      20.4  T
   9   -122.6080305 -0.374096E-08  0.264E-04    0.30      42.3  T
  10   -122.6080305 -0.166992E-09  0.172E-04    0.30      65.0  T
     SCC iter.                  ...        0 min,  0.160 sec
     gradient                   ...        0 min,  0.078 sec
 * total energy  :  -120.6384198 Eh     change       -0.1079550E-03 Eh
   gradient norm :     0.0024079 Eh/α   predicted    -0.8254827E-04 ( -23.53%)
   displ. norm   :     0.2372458 α      lambda       -0.1459658E-03
   maximum displ.:     0.1245698 α      in ANC's #2, #14, #10, ...

........................................................................
.............................. CYCLE   99 ..............................
........................................................................

 iter      E             dE          RMSdq      gap      omega  full diag
   1   -122.6074395 -0.122607E+03  0.591E-02    0.31       0.0  T
   2   -122.6074398 -0.345352E-06  0.343E-02    0.31       1.0  T
   3   -122.6074271  0.127796E-04  0.159E-02    0.31       1.0  T
   4   -122.6074386 -0.114901E-04  0.726E-03    0.30       1.5  T
   5   -122.6074407 -0.212341E-05  0.175E-03    0.31       6.4  T
   6   -122.6074408 -0.145444E-06  0.833E-04    0.31      13.4  T
   7   -122.6074408 -0.688513E-08  0.579E-04    0.31      19.3  T
   8   -122.6074408 -0.347490E-08  0.351E-04    0.31      31.9  T
   9   -122.6074408 -0.233179E-08  0.231E-04    0.31      48.3  T
     SCC iter.                  ...        0 min,  0.132 sec
     gradient                   ...        0 min,  0.076 sec
 * total energy  :  -120.6385223 Eh     change       -0.1025626E-03 Eh
   gradient norm :     0.0028456 Eh/α   predicted    -0.7709104E-04 ( -24.84%)
   displ. norm   :     0.3827151 α      lambda       -0.1614869E-03
   maximum displ.:     0.1988249 α      in ANC's #2, #14, #10, ...

........................................................................
.............................. CYCLE  100 ..............................
........................................................................

 iter      E             dE          RMSdq      gap      omega  full diag
   1   -122.6060512 -0.122606E+03  0.925E-02    0.31       0.0  T
   2   -122.6060513 -0.370186E-07  0.541E-02    0.31       1.0  T
   3   -122.6060000  0.513151E-04  0.308E-02    0.31       1.0  T
   4   -122.6060533 -0.533068E-04  0.635E-03    0.31       1.8  T
   5   -122.6060542 -0.949539E-06  0.281E-03    0.31       4.0  T
   6   -122.6060546 -0.393033E-06  0.104E-03    0.31      10.8  T
   7   -122.6060546 -0.100935E-07  0.676E-04    0.31      16.5  T
   8   -122.6060546 -0.879746E-08  0.389E-04    0.31      28.7  T
   9   -122.6060546 -0.269213E-08  0.232E-04    0.31      48.2  T
     SCC iter.                  ...        0 min,  0.144 sec
     gradient                   ...        0 min,  0.067 sec
 * total energy  :  -120.6386473 Eh     change       -0.1249914E-03 Eh
   gradient norm :     0.0046086 Eh/α   predicted    -0.9257306E-04 ( -25.94%)
   displ. norm   :     0.4165863 α      lambda       -0.1763827E-03
   maximum displ.:     0.2226991 α      in ANC's #2, #14, #10, ...

........................................................................
.............................. CYCLE  101 ..............................
........................................................................

 iter      E             dE          RMSdq      gap      omega  full diag
   1   -122.6058065 -0.122606E+03  0.966E-02    0.31       0.0  T
   2   -122.6058029  0.359379E-05  0.572E-02    0.31       1.0  T
   3   -122.6056624  0.140432E-03  0.543E-02    0.32       1.0  T
   4   -122.6058119 -0.149499E-03  0.542E-03    0.31       2.1  T
   5   -122.6058126 -0.666023E-06  0.327E-03    0.31       3.4  T
   6   -122.6058132 -0.596584E-06  0.102E-03    0.31      11.0  T
   7   -122.6058132 -0.122988E-07  0.652E-04    0.31      17.2  T
   8   -122.6058132 -0.401485E-08  0.399E-04    0.31      28.0  T
   9   -122.6058132 -0.397102E-08  0.233E-04    0.31      47.9  T
     SCC iter.                  ...        0 min,  0.137 sec
     gradient                   ...        0 min,  0.075 sec
 * total energy  :  -120.6387923 Eh     change       -0.1450337E-03 Eh
   gradient norm :     0.0048199 Eh/α   predicted    -0.1034972E-03 ( -28.64%)
   displ. norm   :     0.4468042 α      lambda       -0.2248001E-03
   maximum displ.:     0.2510341 α      in ANC's #2, #14, #10, ...

........................................................................
.............................. CYCLE  102 ..............................
........................................................................

 iter      E             dE          RMSdq      gap      omega  full diag
   1   -122.6074703 -0.122607E+03  0.991E-02    0.31       0.0  T
   2   -122.6074683  0.205645E-05  0.587E-02    0.31       1.0  T
   3   -122.6073383  0.129944E-03  0.515E-02    0.32       1.0  T
   4   -122.6074764 -0.138035E-03  0.701E-03    0.31       1.6  T
   5   -122.6074776 -0.125659E-05  0.380E-03    0.31       2.9  T
   6   -122.6074783 -0.720773E-06  0.132E-03    0.31       8.5  T
   7   -122.6074784 -0.242359E-07  0.882E-04    0.31      12.7  T
   8   -122.6074784 -0.552953E-08  0.548E-04    0.31      20.4  T
   9   -122.6074784 -0.778554E-08  0.297E-04    0.31      37.7  T
  10   -122.6074784 -0.896293E-09  0.189E-04    0.31      59.0  T
     SCC iter.                  ...        0 min,  0.158 sec
     gradient                   ...        0 min,  0.082 sec
 * total energy  :  -120.6389708 Eh     change       -0.1784945E-03 Eh
   gradient norm :     0.0032567 Eh/α   predicted    -0.1348445E-03 ( -24.45%)
   displ. norm   :     0.5233074 α      lambda       -0.2112882E-03
   maximum displ.:     0.2983625 α      in ANC's #2, #10, #14, ...

........................................................................
.............................. CYCLE  103 ..............................
........................................................................

 iter      E             dE          RMSdq      gap      omega  full diag
   1   -122.6077900 -0.122608E+03  0.115E-01    0.31       0.0  T
   2   -122.6077914 -0.139047E-05  0.676E-02    0.31       1.0  T
   3   -122.6077167  0.746327E-04  0.361E-02    0.31       1.0  T
   4   -122.6077944 -0.776699E-04  0.956E-03    0.31       1.2  T
   5   -122.6077970 -0.257754E-05  0.398E-03    0.31       2.8  T
   6   -122.6077976 -0.619266E-06  0.168E-03    0.31       6.6  T
   7   -122.6077976 -0.420002E-07  0.115E-03    0.31       9.7  T
   8   -122.6077976 -0.913867E-08  0.665E-04    0.31      16.8  T
   9   -122.6077977 -0.106038E-07  0.346E-04    0.31      32.3  T
  10   -122.6077977 -0.811937E-09  0.241E-04    0.31      46.5  T
     SCC iter.                  ...        0 min,  0.157 sec
     gradient                   ...        0 min,  0.097 sec
 * total energy  :  -120.6391425 Eh     change       -0.1716760E-03 Eh
   gradient norm :     0.0035748 Eh/α   predicted    -0.1345765E-03 ( -21.61%)
   displ. norm   :     0.5600805 α      lambda       -0.2301011E-03
   maximum displ.:     0.3297451 α      in ANC's #2, #10, #11, ...

........................................................................
.............................. CYCLE  104 ..............................
........................................................................

 iter      E             dE          RMSdq      gap      omega  full diag
   1   -122.6086327 -0.122609E+03  0.120E-01    0.31       0.0  T
   2   -122.6086356 -0.289717E-05  0.704E-02    0.31       1.0  T
   3   -122.6086017  0.338709E-04  0.231E-02    0.30       1.0  T
   4   -122.6086377 -0.359910E-04  0.655E-03    0.31       1.7  T
   5   -122.6086394 -0.165514E-05  0.282E-03    0.31       4.0  T
   6   -122.6086395 -0.104032E-06  0.206E-03    0.31       5.4  T
   7   -122.6086395  0.190227E-07  0.163E-03    0.31       6.9  T
   8   -122.6086395 -0.500880E-07  0.947E-04    0.31      11.8  T
   9   -122.6086395 -0.248070E-07  0.533E-04    0.31      21.0  T
  10   -122.6086396 -0.613345E-08  0.280E-04    0.31      40.0  T
  11   -122.6086396 -0.251536E-08  0.953E-05    0.31     117.3  T
     SCC iter.                  ...        0 min,  0.180 sec
     gradient                   ...        0 min,  0.088 sec
 * total energy  :  -120.6393243 Eh     change       -0.1818244E-03 Eh
   gradient norm :     0.0034114 Eh/α   predicted    -0.1511416E-03 ( -16.87%)
   displ. norm   :     0.5229335 α      lambda       -0.2042379E-03
   maximum displ.:     0.3166623 α      in ANC's #2, #10, #11, ...

........................................................................
.............................. CYCLE  105 ..............................
........................................................................

 iter      E             dE          RMSdq      gap      omega  full diag
   1   -122.6104059 -0.122610E+03  0.108E-01    0.31       0.0  T
   2   -122.6104084 -0.246461E-05  0.642E-02    0.31       1.0  T
   3   -122.6103549  0.534744E-04  0.301E-02    0.30       1.0  T
   4   -122.6104120 -0.570666E-04  0.655E-03    0.31       1.7  T
   5   -122.6104132 -0.123516E-05  0.410E-03    0.31       2.7  T
   6   -122.6104136 -0.356876E-06  0.240E-03    0.31       4.7  T
   7   -122.6104136 -0.243171E-07  0.184E-03    0.31       6.1  T
   8   -122.6104137 -0.713364E-07  0.828E-04    0.31      13.5  T
   9   -122.6104137 -0.968092E-08  0.433E-04    0.31      25.8  T
  10   -122.6104137 -0.324756E-08  0.239E-04    0.31      46.7  T
     SCC iter.                  ...        0 min,  0.144 sec
     gradient                   ...        0 min,  0.085 sec
 * total energy  :  -120.6394849 Eh     change       -0.1605254E-03 Eh
   gradient norm :     0.0030515 Eh/α   predicted    -0.1300475E-03 ( -18.99%)
   displ. norm   :     0.6929173 α      lambda       -0.2110004E-03
   maximum displ.:     0.4100049 α      in ANC's #2, #10, #11, ...

........................................................................
.............................. CYCLE  106 ..............................
........................................................................

 iter      E             dE          RMSdq      gap      omega  full diag
   1   -122.6050123 -0.122605E+03  0.145E-01    0.31       0.0  T
   2   -122.6050162 -0.398575E-05  0.853E-02    0.31       1.0  T
   3   -122.6049812  0.350351E-04  0.267E-02    0.30       1.0  T
   4   -122.6050181 -0.368558E-04  0.728E-03    0.31       1.5  T
   5   -122.6050201 -0.208223E-05  0.351E-03    0.31       3.2  T
   6   -122.6050204 -0.228096E-06  0.239E-03    0.31       4.7  T
   7   -122.6050204 -0.342383E-07  0.157E-03    0.31       7.1  T
   8   -122.6050205 -0.505354E-07  0.971E-04    0.31      11.5  T
   9   -122.6050205 -0.149347E-07  0.530E-04    0.31      21.1  T
  10   -122.6050205 -0.363687E-08  0.247E-04    0.31      45.2  T
  11   -122.6050205 -0.719680E-09  0.874E-05    0.31     127.9  T
     SCC iter.                  ...        0 min,  0.165 sec
     gradient                   ...        0 min,  0.065 sec
 * total energy  :  -120.6395779 Eh     change       -0.9302755E-04 Eh
   gradient norm :     0.0072387 Eh/α   predicted    -0.1561558E-03 (  67.86%)
   displ. norm   :     0.3170510 α      lambda       -0.3204562E-03
   maximum displ.:     0.1795786 α      in ANC's #2, #12, #3, ...

........................................................................
.............................. CYCLE  107 ..............................
........................................................................

 iter      E             dE          RMSdq      gap      omega  full diag
   1   -122.6123143 -0.122612E+03  0.747E-02    0.31       0.0  T
   2   -122.6123151 -0.814824E-06  0.439E-02    0.31       1.0  T
   3   -122.6122654  0.497080E-04  0.322E-02    0.30       1.0  T
   4   -122.6123170 -0.515653E-04  0.943E-03    0.31       1.2  T
   5   -122.6123193 -0.231923E-05  0.380E-03    0.31       2.9  T
   6   -122.6123200 -0.652175E-06  0.194E-03    0.31       5.8  T
   7   -122.6123200 -0.967830E-08  0.132E-03    0.31       8.5  T
   8   -122.6123200 -0.392744E-07  0.803E-04    0.31      13.9  T
   9   -122.6123200 -0.962224E-08  0.396E-04    0.31      28.2  T
  10   -122.6123200 -0.555858E-09  0.203E-04    0.31      55.2  T
     SCC iter.                  ...        0 min,  0.150 sec
     gradient                   ...        0 min,  0.088 sec
 * total energy  :  -120.6397414 Eh     change       -0.1635063E-03 Eh
   gradient norm :     0.0048184 Eh/α   predicted    -0.1763383E-03 (   7.85%)
   displ. norm   :     0.4255212 α      lambda       -0.1604881E-03
   maximum displ.:     0.2592266 α      in ANC's #2, #10, #12, ...

........................................................................
.............................. CYCLE  108 ..............................
........................................................................

 iter      E             dE          RMSdq      gap      omega  full diag
   1   -122.6105399 -0.122611E+03  0.879E-02    0.31       0.0  T
   2   -122.6105418 -0.192509E-05  0.518E-02    0.32       1.0  T
   3   -122.6104908  0.510930E-04  0.312E-02    0.30       1.0  T
   4   -122.6105445 -0.537826E-04  0.668E-03    0.32       1.7  T
   5   -122.6105458 -0.131006E-05  0.414E-03    0.31       2.7  T
   6   -122.6105466 -0.781441E-06  0.174E-03    0.31       6.4  T
   7   -122.6105467 -0.337709E-07  0.120E-03    0.31       9.3  T
   8   -122.6105467 -0.320179E-07  0.693E-04    0.31      16.1  T
   9   -122.6105467 -0.329821E-08  0.339E-04    0.31      33.0  T
  10   -122.6105467 -0.133358E-08  0.179E-04    0.31      62.6  T
     SCC iter.                  ...        0 min,  0.158 sec
     gradient                   ...        0 min,  0.071 sec
 * total energy  :  -120.6398452 Eh     change       -0.1038244E-03 Eh
   gradient norm :     0.0044980 Eh/α   predicted    -0.9477815E-04 (  -8.71%)
   displ. norm   :     0.4556334 α      lambda       -0.1382257E-03
   maximum displ.:     0.2768376 α      in ANC's #2, #12, #10, ...

........................................................................
.............................. CYCLE  109 ..............................
........................................................................

 iter      E             dE          RMSdq      gap      omega  full diag
   1   -122.6074743 -0.122607E+03  0.919E-02    0.31       0.0  T
   2   -122.6074764 -0.213108E-05  0.543E-02    0.32       1.0  T
   3   -122.6074175  0.588734E-04  0.317E-02    0.30       1.0  T
   4   -122.6074819 -0.643288E-04  0.473E-03    0.32       2.4  T
   5   -122.6074821 -0.282825E-06  0.331E-03    0.32       3.4  T
   6   -122.6074826 -0.432633E-06  0.195E-03    0.32       5.7  T
   7   -122.6074826 -0.489677E-07  0.129E-03    0.32       8.6  T
   8   -122.6074827 -0.353996E-07  0.724E-04    0.32      15.4  T
   9   -122.6074827 -0.356748E-08  0.354E-04    0.32      31.6  T
  10   -122.6074827 -0.140635E-08  0.198E-04    0.32      56.6  T
     SCC iter.                  ...        0 min,  0.140 sec
     gradient                   ...        0 min,  0.079 sec
 * total energy  :  -120.6399210 Eh     change       -0.7574610E-04 Eh
   gradient norm :     0.0046951 Eh/α   predicted    -0.8346410E-04 (  10.19%)
   displ. norm   :     0.1668395 α      lambda       -0.1270044E-03
   maximum displ.:     0.0762190 α      in ANC's #12, #2, #3, ...

........................................................................
.............................. CYCLE  110 ..............................
........................................................................

 iter      E             dE          RMSdq      gap      omega  full diag
   1   -122.6111728 -0.122611E+03  0.494E-02    0.32       0.0  T
   2   -122.6111738 -0.964593E-06  0.283E-02    0.32       1.0  T
   3   -122.6111702  0.358335E-05  0.995E-03    0.32       1.1  T
   4   -122.6111716 -0.137783E-05  0.764E-03    0.32       1.5  T
   5   -122.6111742 -0.264735E-05  0.160E-03    0.32       7.0  T
   6   -122.6111743 -0.114002E-06  0.832E-04    0.32      13.4  T
   7   -122.6111744 -0.132839E-07  0.513E-04    0.32      21.8  T
   8   -122.6111744 -0.116628E-09  0.394E-04    0.32      28.4  T
   9   -122.6111744 -0.428733E-08  0.226E-04    0.32      49.5  T
     SCC iter.                  ...        0 min,  0.123 sec
     gradient                   ...        0 min,  0.078 sec
 * total energy  :  -120.6399838 Eh     change       -0.6285157E-04 Eh
   gradient norm :     0.0030709 Eh/α   predicted    -0.6527255E-04 (   3.85%)
   displ. norm   :     0.3577613 α      lambda       -0.9284385E-04
   maximum displ.:     0.2168763 α      in ANC's #2, #12, #5, ...

........................................................................
.............................. CYCLE  111 ..............................
........................................................................

 iter      E             dE          RMSdq      gap      omega  full diag
   1   -122.6093813 -0.122609E+03  0.710E-02    0.32       0.0  T
   2   -122.6093805  0.757531E-06  0.427E-02    0.32       1.0  T
   3   -122.6093067  0.737500E-04  0.400E-02    0.31       1.0  T
   4   -122.6093858 -0.790305E-04  0.591E-03    0.32       1.9  T
   5   -122.6093870 -0.121383E-05  0.395E-03    0.32       2.8  T
   6   -122.6093878 -0.795493E-06  0.108E-03    0.32      10.3  T
   7   -122.6093878 -0.101023E-07  0.777E-04    0.32      14.4  T
   8   -122.6093878 -0.976834E-08  0.521E-04    0.32      21.4  T
   9   -122.6093878 -0.234016E-08  0.316E-04    0.32      35.4  T
  10   -122.6093878 -0.760494E-09  0.168E-04    0.32      66.4  T
     SCC iter.                  ...        0 min,  0.134 sec
     gradient                   ...        0 min,  0.088 sec
 * total energy  :  -120.6400353 Eh     change       -0.5145834E-04 Eh
   gradient norm :     0.0035243 Eh/α   predicted    -0.5236728E-04 (   1.77%)
   displ. norm   :     0.1251765 α      lambda       -0.5499625E-04
   maximum displ.:     0.0646886 α      in ANC's #2, #12, #5, ...

........................................................................
.............................. CYCLE  112 ..............................
........................................................................

 iter      E             dE          RMSdq      gap      omega  full diag
   1   -122.6107695 -0.122611E+03  0.268E-02    0.32       0.0  T
   2   -122.6107696 -0.124246E-06  0.156E-02    0.32       1.0  T
   3   -122.6107643  0.531736E-05  0.115E-02    0.32       1.0  T
   4   -122.6107696 -0.536036E-05  0.397E-03    0.32       2.8  T
   5   -122.6107703 -0.610996E-06  0.155E-03    0.32       7.2  T
   6   -122.6107704 -0.983620E-07  0.675E-04    0.32      16.6  T
   7   -122.6107704 -0.739736E-08  0.444E-04    0.32      25.2  T
   8   -122.6107704 -0.260113E-08  0.260E-04    0.32      42.9  T
     SCC iter.                  ...        0 min,  0.120 sec
     gradient                   ...        0 min,  0.069 sec
 * total energy  :  -120.6400655 Eh     change       -0.3021682E-04 Eh
   gradient norm :     0.0036550 Eh/α   predicted    -0.2793051E-04 (  -7.57%)
   displ. norm   :     0.2410174 α      lambda       -0.7632784E-04
   maximum displ.:     0.1317233 α      in ANC's #2, #5, #12, ...

........................................................................
.............................. CYCLE  113 ..............................
........................................................................

 iter      E             dE          RMSdq      gap      omega  full diag
   1   -122.6113099 -0.122611E+03  0.474E-02    0.32       0.0  T
   2   -122.6113068  0.313730E-05  0.294E-02    0.31       1.0  T
   3   -122.6112602  0.465752E-04  0.337E-02    0.33       1.0  T
   4   -122.6113133 -0.531392E-04  0.414E-03    0.32       2.7  T
   5   -122.6113136 -0.256988E-06  0.205E-03    0.32       5.4  T
   6   -122.6113138 -0.209390E-06  0.785E-04    0.32      14.2  T
   7   -122.6113138 -0.894066E-08  0.508E-04    0.32      22.0  T
   8   -122.6113138 -0.282010E-08  0.340E-04    0.32      32.9  T
   9   -122.6113138 -0.225639E-08  0.188E-04    0.32      59.4  T
     SCC iter.                  ...        0 min,  0.126 sec
     gradient                   ...        0 min,  0.080 sec
 * total energy  :  -120.6401084 Eh     change       -0.4288492E-04 Eh
   gradient norm :     0.0036213 Eh/α   predicted    -0.4038233E-04 (  -5.84%)
   displ. norm   :     0.2477810 α      lambda       -0.6155101E-04
   maximum displ.:     0.1383012 α      in ANC's #2, #4, #5, ...

........................................................................
.............................. CYCLE  114 ..............................
........................................................................

 iter      E             dE          RMSdq      gap      omega  full diag
   1   -122.6112529 -0.122611E+03  0.494E-02    0.31       0.0  T
   2   -122.6112507  0.214866E-05  0.303E-02    0.31       1.0  T
   3   -122.6112039  0.468739E-04  0.329E-02    0.32       1.0  T
   4   -122.6112568 -0.529330E-04  0.535E-03    0.31       2.1  T
   5   -122.6112574 -0.616223E-06  0.343E-03    0.32       3.3  T
   6   -122.6112580 -0.634499E-06  0.715E-04    0.32      15.6  T
   7   -122.6112580 -0.589125E-08  0.464E-04    0.32      24.1  T
   8   -122.6112580 -0.193982E-08  0.305E-04    0.32      36.6  T
     SCC iter.                  ...        0 min,  0.151 sec
     gradient                   ...        0 min,  0.133 sec
 * total energy  :  -120.6401445 Eh     change       -0.3616831E-04 Eh
   gradient norm :     0.0027186 Eh/α   predicted    -0.3266938E-04 (  -9.67%)
   displ. norm   :     0.1774260 α      lambda       -0.3492738E-04
   maximum displ.:     0.0958938 α      in ANC's #2, #12, #4, ...

........................................................................
.............................. CYCLE  115 ..............................
........................................................................

 iter      E             dE          RMSdq      gap      omega  full diag
   1   -122.6111526 -0.122611E+03  0.352E-02    0.31       0.0  T
   2   -122.6111528 -0.214142E-06  0.205E-02    0.32       1.0  T
   3   -122.6111468  0.597682E-05  0.105E-02    0.31       1.1  T
   4   -122.6111529 -0.611626E-05  0.362E-03    0.32       3.1  T
   5   -122.6111534 -0.458792E-06  0.132E-03    0.32       8.5  T
   6   -122.6111534 -0.647576E-07  0.540E-04    0.32      20.7  T
   7   -122.6111535 -0.761598E-08  0.301E-04    0.32      37.2  T
   8   -122.6111535 -0.314259E-09  0.199E-04    0.32      56.3  T
     SCC iter.                  ...        0 min,  0.206 sec
     gradient                   ...        0 min,  0.108 sec
 * total energy  :  -120.6401692 Eh     change       -0.2463468E-04 Eh
   gradient norm :     0.0022370 Eh/α   predicted    -0.1801522E-04 ( -26.87%)
   displ. norm   :     0.2550787 α      lambda       -0.4083037E-04
   maximum displ.:     0.1319002 α      in ANC's #2, #12, #4, ...

........................................................................
.............................. CYCLE  116 ..............................
........................................................................

 iter      E             dE          RMSdq      gap      omega  full diag
   1   -122.6112636 -0.122611E+03  0.506E-02    0.31       0.0  T
   2   -122.6112640 -0.432559E-06  0.296E-02    0.32       1.0  T
   3   -122.6112558  0.821819E-05  0.122E-02    0.31       1.0  T
   4   -122.6112640 -0.825527E-05  0.421E-03    0.31       2.7  T
   5   -122.6112647 -0.694060E-06  0.173E-03    0.32       6.5  T
   6   -122.6112648 -0.113443E-06  0.676E-04    0.32      16.5  T
   7   -122.6112648 -0.879088E-08  0.433E-04    0.32      25.8  T
   8   -122.6112648 -0.788845E-09  0.262E-04    0.32      42.6  T
     SCC iter.                  ...        0 min,  0.136 sec
     gradient                   ...        0 min,  0.096 sec
 * total energy  :  -120.6401979 Eh     change       -0.2875415E-04 Eh
   gradient norm :     0.0016121 Eh/α   predicted    -0.2174801E-04 ( -24.37%)
   displ. norm   :     0.4464315 α      lambda       -0.3258090E-04
   maximum displ.:     0.2376275 α      in ANC's #2, #12, #4, ...

........................................................................
.............................. CYCLE  117 ..............................
........................................................................

 iter      E             dE          RMSdq      gap      omega  full diag
   1   -122.6098747 -0.122610E+03  0.884E-02    0.31       0.0  T
   2   -122.6098753 -0.614968E-06  0.522E-02    0.32       1.0  T
   3   -122.6098244  0.509295E-04  0.301E-02    0.31       1.0  T
   4   -122.6098777 -0.532982E-04  0.607E-03    0.31       1.8  T
   5   -122.6098788 -0.109739E-05  0.336E-03    0.32       3.3  T
   6   -122.6098792 -0.416503E-06  0.129E-03    0.32       8.7  T
   7   -122.6098792 -0.983380E-08  0.960E-04    0.32      11.7  T
   8   -122.6098792 -0.166484E-07  0.479E-04    0.32      23.4  T
   9   -122.6098792 -0.400367E-08  0.265E-04    0.32      42.2  T
     SCC iter.                  ...        0 min,  0.161 sec
     gradient                   ...        0 min,  0.090 sec
 * total energy  :  -120.6402194 Eh     change       -0.2147182E-04 Eh
   gradient norm :     0.0030891 Eh/α   predicted    -0.1773477E-04 ( -17.40%)
   displ. norm   :     0.1155422 α      lambda       -0.3845757E-04
   maximum displ.:     0.0474556 α      in ANC's #12, #10, #8, ...

........................................................................
.............................. CYCLE  118 ..............................
........................................................................

 iter      E             dE          RMSdq      gap      omega  full diag
   1   -122.6139177 -0.122614E+03  0.274E-02    0.32       0.0  T
   2   -122.6139172  0.437060E-06  0.164E-02    0.31       1.0  T
   3   -122.6139052  0.120478E-04  0.168E-02    0.32       1.0  T
   4   -122.6139184 -0.131947E-04  0.260E-03    0.31       4.3  T
   5   -122.6139185 -0.124351E-06  0.129E-03    0.32       8.7  T
   6   -122.6139186 -0.880971E-07  0.486E-04    0.32      23.0  T
   7   -122.6139186 -0.328144E-08  0.330E-04    0.32      33.9  T
     SCC iter.                  ...        0 min,  0.117 sec
     gradient                   ...        0 min,  0.083 sec
 * total energy  :  -120.6402301 Eh     change       -0.1073042E-04 Eh
   gradient norm :     0.0029154 Eh/α   predicted    -0.1949041E-04 (  81.64%)
   displ. norm   :     0.1024369 α      lambda       -0.2815566E-04
   maximum displ.:     0.0538397 α      in ANC's #2, #12, #4, ...

........................................................................
.............................. CYCLE  119 ..............................
........................................................................

 iter      E             dE          RMSdq      gap      omega  full diag
   1   -122.6123058 -0.122612E+03  0.229E-02    0.32       0.0  T
   2   -122.6123060 -0.209870E-06  0.136E-02    0.32       1.0  T
   3   -122.6123026  0.337158E-05  0.701E-03    0.31       1.6  T
   4   -122.6123063 -0.366049E-05  0.158E-03    0.32       7.1  T
   5   -122.6123064 -0.671254E-07  0.725E-04    0.32      15.4  T
   6   -122.6123064 -0.128123E-07  0.481E-04    0.32      23.2  T
   7   -122.6123064 -0.247898E-08  0.337E-04    0.32      33.2  T
     SCC iter.                  ...        0 min,  0.112 sec
     gradient                   ...        0 min,  0.074 sec
 * total energy  :  -120.6402454 Eh     change       -0.1529288E-04 Eh
   gradient norm :     0.0023566 Eh/α   predicted    -0.1422733E-04 (  -6.97%)
   displ. norm   :     0.0621104 α      lambda       -0.2086553E-04
   maximum displ.:     0.0306271 α      in ANC's #12, #3, #4, ...

........................................................................
.............................. CYCLE  120 ..............................
........................................................................

 iter      E             dE          RMSdq      gap      omega  full diag
   1   -122.6119725 -0.122612E+03  0.165E-02    0.32       0.0  T
   2   -122.6119726 -0.951252E-07  0.974E-03    0.32       1.1  T
   3   -122.6119720  0.651747E-06  0.348E-03    0.32       3.2  T
   4   -122.6119726 -0.620918E-06  0.168E-03    0.32       6.6  T
   5   -122.6119727 -0.122570E-06  0.511E-04    0.32      21.9  T
   6   -122.6119727  0.253891E-09  0.454E-04    0.32      24.6  T
   7   -122.6119727 -0.381122E-08  0.294E-04    0.32      38.1  T
     SCC iter.                  ...        0 min,  0.126 sec
     gradient                   ...        0 min,  0.080 sec
 * total energy  :  -120.6402570 Eh     change       -0.1161479E-04 Eh
   gradient norm :     0.0010609 Eh/α   predicted    -0.1047778E-04 (  -9.79%)
   displ. norm   :     0.1345268 α      lambda       -0.1045513E-04
   maximum displ.:     0.0711379 α      in ANC's #12, #4, #3, ...
 * RMSD in coord.:     0.7923897 α      energy gain  -0.2490385E-02 Eh

generating ANC from exact Hessian ...
Using Lindh-Hessian (1995)
 Shifting diagonal of input Hessian by    9.9671538922131899E-003
 Lowest  eigenvalues of input Hessian
    0.000000    0.000000    0.000000    0.000000    0.000000    0.000000
    0.010000    0.010104    0.010126    0.010179    0.010345    0.010398
    0.010444    0.010501    0.010586    0.010632    0.010723    0.010837
 Highest eigenvalues
    2.003674    2.004136    2.021288    2.238832    2.382357    2.450330


........................................................................
.............................. CYCLE  121 ..............................
........................................................................

 iter      E             dE          RMSdq      gap      omega  full diag
   1   -122.6123824 -0.122612E+03  0.319E-02    0.32       0.0  T
   2   -122.6123824  0.790179E-07  0.187E-02    0.32       1.0  T
   3   -122.6123731  0.929871E-05  0.141E-02    0.32       1.0  T
   4   -122.6123826 -0.956773E-05  0.332E-03    0.32       3.4  T
   5   -122.6123830 -0.369392E-06  0.115E-03    0.32       9.7  T
   6   -122.6123830 -0.417190E-07  0.634E-04    0.32      17.6  T
   7   -122.6123830 -0.357670E-08  0.469E-04    0.32      23.8  T
   8   -122.6123830 -0.124071E-08  0.247E-04    0.32      45.2  T
     SCC iter.                  ...        0 min,  0.157 sec
     gradient                   ...        0 min,  0.098 sec
 * total energy  :  -120.6402668 Eh     change       -0.9778135E-05 Eh
   gradient norm :     0.0012950 Eh/α   predicted     0.0000000E+00 (-100.00%)
   displ. norm   :     0.0380400 α      lambda       -0.8785224E-05
   maximum displ.:     0.0309602 α      in ANC's #1, #8, #2, ...

........................................................................
.............................. CYCLE  122 ..............................
........................................................................

 iter      E             dE          RMSdq      gap      omega  full diag
   1   -122.6122885 -0.122612E+03  0.971E-03    0.32       0.0  T
   2   -122.6122885 -0.434360E-07  0.542E-03    0.32       2.1  T
   3   -122.6122876  0.957138E-06  0.475E-03    0.32       2.4  T
   4   -122.6122889 -0.129354E-05  0.148E-03    0.32       7.5  T
   5   -122.6122889 -0.176085E-08  0.421E-04    0.32      26.6  T
   6   -122.6122889 -0.454739E-08  0.256E-04    0.32      43.7  T
     SCC iter.                  ...        0 min,  0.113 sec
     gradient                   ...        0 min,  0.091 sec
 * total energy  :  -120.6402766 Eh     change       -0.9756055E-05 Eh
   gradient norm :     0.0006566 Eh/α   predicted    -0.4735099E-05 ( -51.47%)
   displ. norm   :     0.0707781 α      lambda       -0.1383122E-04
   maximum displ.:     0.0524234 α      in ANC's #1, #8, #2, ...

........................................................................
.............................. CYCLE  123 ..............................
........................................................................

 iter      E             dE          RMSdq      gap      omega  full diag
   1   -122.6120975 -0.122612E+03  0.150E-02    0.32       0.0  T
   2   -122.6120977 -0.207971E-06  0.807E-03    0.32       1.4  T
   3   -122.6120969  0.793709E-06  0.519E-03    0.32       2.2  T
   4   -122.6120976 -0.671245E-06  0.335E-03    0.32       3.3  T
   5   -122.6120980 -0.398803E-06  0.107E-03    0.32      10.4  T
   6   -122.6120980  0.393214E-10  0.924E-04    0.32      12.1  T
   7   -122.6120980 -0.141412E-07  0.615E-04    0.32      18.2  T
   8   -122.6120980 -0.511139E-08  0.307E-04    0.32      36.4  T
   9   -122.6120980 -0.217823E-08  0.163E-04    0.32      68.8  T
     SCC iter.                  ...        0 min,  0.171 sec
     gradient                   ...        0 min,  0.101 sec
 * total energy  :  -120.6402869 Eh     change       -0.1029238E-04 Eh
   gradient norm :     0.0019520 Eh/α   predicted    -0.6947048E-05 ( -32.50%)
   displ. norm   :     0.0706871 α      lambda       -0.1374383E-04
   maximum displ.:     0.0498581 α      in ANC's #1, #2, #8, ...

........................................................................
.............................. CYCLE  124 ..............................
........................................................................

 iter      E             dE          RMSdq      gap      omega  full diag
   1   -122.6119914 -0.122612E+03  0.138E-02    0.32       0.0  T
   2   -122.6119915 -0.702746E-07  0.813E-03    0.32       1.4  T
   3   -122.6119898  0.163685E-05  0.662E-03    0.32       1.7  T
   4   -122.6119915 -0.166669E-05  0.263E-03    0.32       4.2  T
   5   -122.6119917 -0.222491E-06  0.127E-03    0.32       8.8  T
   6   -122.6119918 -0.295668E-07  0.783E-04    0.32      14.3  T
   7   -122.6119918  0.861334E-09  0.579E-04    0.32      19.3  T
   8   -122.6119918 -0.104407E-07  0.291E-04    0.32      38.4  T
   9   -122.6119918 -0.968512E-09  0.140E-04    0.32      79.9  T
     SCC iter.                  ...        0 min,  0.197 sec
     gradient                   ...        0 min,  0.091 sec
 * total energy  :  -120.6403005 Eh     change       -0.1361187E-04 Eh
   gradient norm :     0.0018773 Eh/α   predicted    -0.6888606E-05 ( -49.39%)
   displ. norm   :     0.1461617 α      lambda       -0.3038424E-04
   maximum displ.:     0.0977189 α      in ANC's #1, #2, #10, ...

........................................................................
.............................. CYCLE  125 ..............................
........................................................................

 iter      E             dE          RMSdq      gap      omega  full diag
   1   -122.6119342 -0.122612E+03  0.292E-02    0.32       0.0  T
   2   -122.6119348 -0.574986E-06  0.168E-02    0.32       1.0  T
   3   -122.6119287  0.609934E-05  0.134E-02    0.33       1.0  T
   4   -122.6119344 -0.576139E-05  0.633E-03    0.32       1.8  T
   5   -122.6119358 -0.139861E-05  0.216E-03    0.32       5.2  T
   6   -122.6119359 -0.103267E-06  0.126E-03    0.32       8.9  T
   7   -122.6119359 -0.125915E-07  0.785E-04    0.32      14.2  T
   8   -122.6119359 -0.823377E-09  0.493E-04    0.32      22.7  T
   9   -122.6119359 -0.663535E-08  0.260E-04    0.32      43.1  T
     SCC iter.                  ...        0 min,  0.176 sec
     gradient                   ...        0 min,  0.089 sec
 * total energy  :  -120.6402916 Eh     change        0.8907464E-05 Eh
   gradient norm :     0.0039239 Eh/α   predicted    -0.1533700E-04 (-272.18%)
   displ. norm   :     0.0406839 α      lambda       -0.4732948E-04
   maximum displ.:     0.0255713 α      in ANC's #1, #2, #10, ...

........................................................................
.............................. CYCLE  126 ..............................
........................................................................

 iter      E             dE          RMSdq      gap      omega  full diag
   1   -122.6121736 -0.122612E+03  0.143E-02    0.32       0.0  T
   2   -122.6121738 -0.242354E-06  0.771E-03    0.32       1.5  T
   3   -122.6121731  0.752719E-06  0.514E-03    0.32       2.2  T
   4   -122.6121739 -0.782578E-06  0.288E-03    0.32       3.9  T
   5   -122.6121741 -0.209106E-06  0.136E-03    0.32       8.2  T
   6   -122.6121741 -0.663329E-07  0.608E-04    0.32      18.4  T
   7   -122.6121741 -0.777958E-08  0.358E-04    0.32      31.2  T
   8   -122.6121741 -0.227826E-08  0.235E-04    0.32      47.5  T
     SCC iter.                  ...        0 min,  0.153 sec
     gradient                   ...        0 min,  0.088 sec
 * total energy  :  -120.6403244 Eh     change       -0.3279875E-04 Eh
   gradient norm :     0.0021710 Eh/α   predicted    -0.2370669E-04 ( -27.72%)
   displ. norm   :     0.0688081 α      lambda       -0.3130632E-04
   maximum displ.:     0.0469715 α      in ANC's #1, #2, #10, ...

........................................................................
.............................. CYCLE  127 ..............................
........................................................................

 iter      E             dE          RMSdq      gap      omega  full diag
   1   -122.6122205 -0.122612E+03  0.158E-02    0.33       0.0  T
   2   -122.6122208 -0.272479E-06  0.868E-03    0.32       1.3  T
   3   -122.6122199  0.931198E-06  0.519E-03    0.33       2.2  T
   4   -122.6122206 -0.792089E-06  0.311E-03    0.32       3.6  T
   5   -122.6122210 -0.389016E-06  0.749E-04    0.32      14.9  T
   6   -122.6122210 -0.311010E-08  0.543E-04    0.32      20.6  T
   7   -122.6122210 -0.424905E-10  0.490E-04    0.32      22.8  T
   8   -122.6122210 -0.439384E-08  0.285E-04    0.32      39.2  T
     SCC iter.                  ...        0 min,  0.168 sec
     gradient                   ...        0 min,  0.106 sec
 * total energy  :  -120.6403403 Eh     change       -0.1596357E-04 Eh
   gradient norm :     0.0011169 Eh/α   predicted    -0.1572882E-04 (  -1.47%)
   displ. norm   :     0.1035154 α      lambda       -0.1377786E-04
   maximum displ.:     0.0716638 α      in ANC's #1, #2, #10, ...

........................................................................
.............................. CYCLE  128 ..............................
........................................................................

 iter      E             dE          RMSdq      gap      omega  full diag
   1   -122.6121030 -0.122612E+03  0.190E-02    0.33       0.0  T
   2   -122.6121031 -0.182385E-06  0.107E-02    0.33       1.0  T
   3   -122.6121027  0.457183E-06  0.374E-03    0.33       3.0  T
   4   -122.6121028 -0.142604E-06  0.285E-03    0.33       3.9  T
   5   -122.6121032 -0.417146E-06  0.670E-04    0.33      16.7  T
   6   -122.6121032 -0.415223E-08  0.499E-04    0.33      22.4  T
   7   -122.6121032 -0.154284E-08  0.348E-04    0.33      32.1  T
     SCC iter.                  ...        0 min,  0.153 sec
     gradient                   ...        0 min,  0.157 sec
 * total energy  :  -120.6403509 Eh     change       -0.1057045E-04 Eh
   gradient norm :     0.0015272 Eh/α   predicted    -0.6924404E-05 ( -34.49%)
   displ. norm   :     0.0902891 α      lambda       -0.1191786E-04
   maximum displ.:     0.0620504 α      in ANC's #1, #2, #10, ...

........................................................................
.............................. CYCLE  129 ..............................
........................................................................

 iter      E             dE          RMSdq      gap      omega  full diag
   1   -122.6120962 -0.122612E+03  0.145E-02    0.33       0.0  T
   2   -122.6120963 -0.102849E-06  0.813E-03    0.33       1.4  T
   3   -122.6120954  0.908312E-06  0.468E-03    0.33       2.4  T
   4   -122.6120962 -0.768456E-06  0.254E-03    0.33       4.4  T
   5   -122.6120964 -0.228917E-06  0.102E-03    0.33      10.9  T
   6   -122.6120964 -0.472855E-07  0.449E-04    0.33      24.9  T
   7   -122.6120964 -0.883901E-09  0.334E-04    0.33      33.4  T
     SCC iter.                  ...        0 min,  0.132 sec
     gradient                   ...        0 min,  0.085 sec
 * total energy  :  -120.6403653 Eh     change       -0.1437774E-04 Eh
   gradient norm :     0.0007129 Eh/α   predicted    -0.5982391E-05 ( -58.39%)
   displ. norm   :     0.1444801 α      lambda       -0.1501142E-04
   maximum displ.:     0.0978824 α      in ANC's #1, #2, #10, ...

........................................................................
.............................. CYCLE  130 ..............................
........................................................................

 iter      E             dE          RMSdq      gap      omega  full diag
   1   -122.6121639 -0.122612E+03  0.248E-02    0.33       0.0  T
   2   -122.6121641 -0.185080E-06  0.137E-02    0.33       1.0  T
   3   -122.6121613  0.279271E-05  0.965E-03    0.33       1.2  T
   4   -122.6121631 -0.182488E-05  0.580E-03    0.33       1.9  T
   5   -122.6121645 -0.142460E-05  0.106E-03    0.33      10.6  T
   6   -122.6121646 -0.526486E-07  0.482E-04    0.33      23.2  T
   7   -122.6121646 -0.199080E-08  0.301E-04    0.33      37.2  T
     SCC iter.                  ...        0 min,  0.115 sec
     gradient                   ...        0 min,  0.093 sec
 * total energy  :  -120.6403789 Eh     change       -0.1361800E-04 Eh
   gradient norm :     0.0007737 Eh/α   predicted    -0.7577619E-05 ( -44.36%)
   displ. norm   :     0.1377033 α      lambda       -0.1192080E-04
   maximum displ.:     0.0926704 α      in ANC's #1, #2, #12, ...

........................................................................
.............................. CYCLE  131 ..............................
........................................................................

 iter      E             dE          RMSdq      gap      omega  full diag
   1   -122.6121724 -0.122612E+03  0.224E-02    0.33       0.0  T
   2   -122.6121726 -0.168707E-06  0.128E-02    0.33       1.0  T
   3   -122.6121700  0.261778E-05  0.796E-03    0.33       1.4  T
   4   -122.6121723 -0.227066E-05  0.374E-03    0.33       3.0  T
   5   -122.6121729 -0.584609E-06  0.985E-04    0.33      11.3  T
   6   -122.6121729 -0.571461E-07  0.380E-04    0.33      29.4  T
   7   -122.6121729 -0.123732E-08  0.250E-04    0.33      44.7  T
     SCC iter.                  ...        0 min,  0.128 sec
     gradient                   ...        0 min,  0.085 sec
 * total energy  :  -120.6403919 Eh     change       -0.1296843E-04 Eh
   gradient norm :     0.0010067 Eh/α   predicted    -0.6014045E-05 ( -53.63%)
   displ. norm   :     0.1395171 α      lambda       -0.1019480E-04
   maximum displ.:     0.0939944 α      in ANC's #1, #2, #12, ...

........................................................................
.............................. CYCLE  132 ..............................
........................................................................

 iter      E             dE          RMSdq      gap      omega  full diag
   1   -122.6121424 -0.122612E+03  0.241E-02    0.33       0.0  T
   2   -122.6121426 -0.196002E-06  0.136E-02    0.33       1.0  T
   3   -122.6121413  0.129218E-05  0.580E-03    0.33       1.9  T
   4   -122.6121419 -0.635883E-06  0.423E-03    0.33       2.6  T
   5   -122.6121427 -0.775518E-06  0.975E-04    0.33      11.5  T
   6   -122.6121427 -0.500889E-07  0.432E-04    0.33      25.9  T
   7   -122.6121427 -0.242380E-08  0.288E-04    0.33      38.8  T
     SCC iter.                  ...        0 min,  0.132 sec
     gradient                   ...        0 min,  0.080 sec
 * total energy  :  -120.6404044 Eh     change       -0.1254036E-04 Eh
   gradient norm :     0.0007552 Eh/α   predicted    -0.5143835E-05 ( -58.98%)
   displ. norm   :     0.1621988 α      lambda       -0.1131659E-04
   maximum displ.:     0.1082671 α      in ANC's #1, #12, #2, ...

........................................................................
.............................. CYCLE  133 ..............................
........................................................................

 iter      E             dE          RMSdq      gap      omega  full diag
   1   -122.6121849 -0.122612E+03  0.287E-02    0.33       0.0  T
   2   -122.6121849  0.568134E-07  0.169E-02    0.33       1.0  T
   3   -122.6121768  0.810904E-05  0.133E-02    0.34       1.0  T
   4   -122.6121852 -0.848308E-05  0.241E-03    0.33       4.6  T
   5   -122.6121854 -0.181558E-06  0.121E-03    0.33       9.2  T
   6   -122.6121855 -0.643867E-07  0.499E-04    0.33      22.4  T
   7   -122.6121855 -0.118675E-08  0.354E-04    0.33      31.6  T
     SCC iter.                  ...        0 min,  0.114 sec
     gradient                   ...        0 min,  0.093 sec
 * total energy  :  -120.6404181 Eh     change       -0.1366266E-04 Eh
   gradient norm :     0.0004006 Eh/α   predicted    -0.5725719E-05 ( -58.09%)
   displ. norm   :     0.1671329 α      lambda       -0.9268496E-05
   maximum displ.:     0.1107288 α      in ANC's #1, #12, #2, ...

........................................................................
.............................. CYCLE  134 ..............................
........................................................................

 iter      E             dE          RMSdq      gap      omega  full diag
   1   -122.6121820 -0.122612E+03  0.315E-02    0.33       0.0  T
   2   -122.6121823 -0.251749E-06  0.181E-02    0.34       1.0  T
   3   -122.6121813  0.102080E-05  0.522E-03    0.34       2.1  T
   4   -122.6121819 -0.607367E-06  0.313E-03    0.34       3.6  T
   5   -122.6121825 -0.571309E-06  0.781E-04    0.34      14.3  T
   6   -122.6121825 -0.166087E-07  0.468E-04    0.34      23.9  T
   7   -122.6121825 -0.817138E-09  0.364E-04    0.34      30.7  T
     SCC iter.                  ...        0 min,  0.118 sec
     gradient                   ...        0 min,  0.092 sec
 * total energy  :  -120.6404292 Eh     change       -0.1113122E-04 Eh
   gradient norm :     0.0004487 Eh/α   predicted    -0.4696351E-05 ( -57.81%)
   displ. norm   :     0.1422165 α      lambda       -0.6757085E-05
   maximum displ.:     0.0931500 α      in ANC's #1, #12, #7, ...

........................................................................
.............................. CYCLE  135 ..............................
........................................................................

 iter      E             dE          RMSdq      gap      omega  full diag
   1   -122.6123010 -0.122612E+03  0.280E-02    0.34       0.0  T
   2   -122.6123011 -0.981457E-07  0.164E-02    0.34       1.0  T
   3   -122.6122983  0.283588E-05  0.750E-03    0.34       1.5  T
   4   -122.6123011 -0.278934E-05  0.240E-03    0.34       4.6  T
   5   -122.6123013 -0.239051E-06  0.904E-04    0.34      12.4  T
   6   -122.6123014 -0.390375E-07  0.317E-04    0.34      35.2  T
   7   -122.6123014 -0.566757E-09  0.219E-04    0.34      51.1  T
     SCC iter.                  ...        0 min,  0.127 sec
     gradient                   ...        0 min,  0.097 sec
 * total energy  :  -120.6404374 Eh     change       -0.8180936E-05 Eh
   gradient norm :     0.0004648 Eh/α   predicted    -0.3410443E-05 ( -58.31%)
   displ. norm   :     0.1204569 α      lambda       -0.5531574E-05
   maximum displ.:     0.0770758 α      in ANC's #1, #12, #7, ...

........................................................................
.............................. CYCLE  136 ..............................
........................................................................

 iter      E             dE          RMSdq      gap      omega  full diag
   1   -122.6124053 -0.122612E+03  0.251E-02    0.34       0.0  T
   2   -122.6124054 -0.104597E-06  0.147E-02    0.34       1.0  T
   3   -122.6124041  0.122735E-05  0.471E-03    0.34       2.4  T
   4   -122.6124054 -0.125261E-05  0.145E-03    0.34       7.7  T
   5   -122.6124055 -0.824693E-07  0.664E-04    0.34      16.8  T
   6   -122.6124055 -0.197557E-07  0.269E-04    0.34      41.6  T
   7   -122.6124055 -0.391708E-09  0.188E-04    0.34      59.4  T
     SCC iter.                  ...        0 min,  0.122 sec
     gradient                   ...        0 min,  0.083 sec
 * total energy  :  -120.6404441 Eh     change       -0.6746437E-05 Eh
   gradient norm :     0.0003273 Eh/α   predicted    -0.2784718E-05 ( -58.72%)
   displ. norm   :     0.1102093 α      lambda       -0.5046936E-05
   maximum displ.:     0.0680137 α      in ANC's #1, #7, #13, ...

........................................................................
.............................. CYCLE  137 ..............................
........................................................................

 iter      E             dE          RMSdq      gap      omega  full diag
   1   -122.6124791 -0.122612E+03  0.237E-02    0.34       0.0  T
   2   -122.6124792 -0.666919E-07  0.139E-02    0.34       1.0  T
   3   -122.6124774  0.180961E-05  0.588E-03    0.34       1.9  T
   4   -122.6124793 -0.185159E-05  0.133E-03    0.34       8.4  T
   5   -122.6124793 -0.832428E-07  0.457E-04    0.34      24.4  T
   6   -122.6124793 -0.736264E-08  0.234E-04    0.34      47.7  T
     SCC iter.                  ...        0 min,  0.108 sec
     gradient                   ...        0 min,  0.081 sec
 * total energy  :  -120.6404503 Eh     change       -0.6218166E-05 Eh
   gradient norm :     0.0002613 Eh/α   predicted    -0.2538559E-05 ( -59.18%)
   displ. norm   :     0.1110344 α      lambda       -0.4859080E-05
   maximum displ.:     0.0651682 α      in ANC's #1, #7, #13, ...

........................................................................
.............................. CYCLE  138 ..............................
........................................................................

 iter      E             dE          RMSdq      gap      omega  full diag
   1   -122.6125433 -0.122613E+03  0.242E-02    0.34       0.0  T
   2   -122.6125434 -0.101660E-06  0.142E-02    0.34       1.0  T
   3   -122.6125419  0.149489E-05  0.546E-03    0.34       2.0  T
   4   -122.6125434 -0.147531E-05  0.189E-03    0.34       5.9  T
   5   -122.6125436 -0.139989E-06  0.625E-04    0.34      17.9  T
   6   -122.6125436 -0.151370E-07  0.318E-04    0.34      35.1  T
   7   -122.6125436 -0.587860E-09  0.197E-04    0.34      56.9  T
     SCC iter.                  ...        0 min,  0.119 sec
     gradient                   ...        0 min,  0.075 sec
 * total energy  :  -120.6404562 Eh     change       -0.5820704E-05 Eh
   gradient norm :     0.0002200 Eh/α   predicted    -0.2444771E-05 ( -58.00%)
   displ. norm   :     0.1001056 α      lambda       -0.3908094E-05
   maximum displ.:     0.0560194 α      in ANC's #1, #7, #13, ...

........................................................................
.............................. CYCLE  139 ..............................
........................................................................

 iter      E             dE          RMSdq      gap      omega  full diag
   1   -122.6125318 -0.122613E+03  0.212E-02    0.34       0.0  T
   2   -122.6125317  0.637348E-07  0.126E-02    0.34       1.0  T
   3   -122.6125267  0.497766E-05  0.103E-02    0.34       1.1  T
   4   -122.6125320 -0.522589E-05  0.127E-03    0.34       8.8  T
   5   -122.6125320 -0.682289E-07  0.611E-04    0.34      18.3  T
   6   -122.6125320 -0.150939E-07  0.313E-04    0.34      35.7  T
   7   -122.6125320  0.178389E-09  0.221E-04    0.34      50.5  T
     SCC iter.                  ...        0 min,  0.120 sec
     gradient                   ...        0 min,  0.093 sec
 * total energy  :  -120.6404606 Eh     change       -0.4413367E-05 Eh
   gradient norm :     0.0002410 Eh/α   predicted    -0.1965008E-05 ( -55.48%)
   displ. norm   :     0.0768078 α      lambda       -0.2586938E-05
   maximum displ.:     0.0410733 α      in ANC's #1, #7, #13, ...

........................................................................
.............................. CYCLE  140 ..............................
........................................................................

 iter      E             dE          RMSdq      gap      omega  full diag
   1   -122.6125784 -0.122613E+03  0.153E-02    0.34       0.0  T
   2   -122.6125784 -0.473310E-07  0.895E-03    0.34       1.2  T
   3   -122.6125773  0.112835E-05  0.465E-03    0.34       2.4  T
   4   -122.6125785 -0.114795E-05  0.156E-03    0.34       7.2  T
   5   -122.6125785 -0.689852E-07  0.656E-04    0.34      17.0  T
   6   -122.6125785 -0.186814E-07  0.336E-04    0.34      33.3  T
   7   -122.6125785 -0.344997E-09  0.222E-04    0.34      50.4  T
     SCC iter.                  ...        0 min,  0.120 sec
     gradient                   ...        0 min,  0.089 sec
 * total energy  :  -120.6404634 Eh     change       -0.2839256E-05 Eh
   gradient norm :     0.0002112 Eh/α   predicted    -0.1298785E-05 ( -54.26%)
   displ. norm   :     0.0580375 α      lambda       -0.1868641E-05
   maximum displ.:     0.0294851 α      in ANC's #1, #7, #13, ...

........................................................................
.............................. CYCLE  141 ..............................
........................................................................

 iter      E             dE          RMSdq      gap      omega  full diag
   1   -122.6125731 -0.122613E+03  0.102E-02    0.34       0.0  T
   2   -122.6125731 -0.198214E-07  0.593E-03    0.35       1.9  T
   3   -122.6125726  0.587295E-06  0.361E-03    0.34       3.1  T
   4   -122.6125731 -0.567871E-06  0.146E-03    0.35       7.6  T
   5   -122.6125732 -0.680618E-07  0.542E-04    0.34      20.6  T
   6   -122.6125732 -0.139028E-07  0.288E-04    0.35      38.8  T
   7   -122.6125732 -0.484206E-09  0.195E-04    0.34      57.3  T
     SCC iter.                  ...        0 min,  0.117 sec
     gradient                   ...        0 min,  0.090 sec
 * total energy  :  -120.6404655 Eh     change       -0.2119749E-05 Eh
   gradient norm :     0.0001844 Eh/α   predicted    -0.9371774E-06 ( -55.79%)
   displ. norm   :     0.0523512 α      lambda       -0.1732114E-05
   maximum displ.:     0.0250003 α      in ANC's #1, #7, #12, ...

........................................................................
.............................. CYCLE  142 ..............................
........................................................................

 iter      E             dE          RMSdq      gap      omega  full diag
   1   -122.6125571 -0.122613E+03  0.805E-03    0.35       0.0  T
   2   -122.6125572 -0.268819E-07  0.457E-03    0.35       2.4  T
   3   -122.6125569  0.246828E-06  0.257E-03    0.35       4.3  T
   4   -122.6125571 -0.219082E-06  0.135E-03    0.35       8.3  T
   5   -122.6125572 -0.559880E-07  0.507E-04    0.35      22.0  T
   6   -122.6125572 -0.112048E-07  0.259E-04    0.35      43.2  T
   7   -122.6125572 -0.739732E-09  0.166E-04    0.35      67.5  T
     SCC iter.                  ...        0 min,  0.117 sec
     gradient                   ...        0 min,  0.082 sec
 * total energy  :  -120.6404677 Eh     change       -0.2109416E-05 Eh
   gradient norm :     0.0001920 Eh/α   predicted    -0.8685730E-06 ( -58.82%)
   displ. norm   :     0.0637943 α      lambda       -0.2072088E-05
   maximum displ.:     0.0286346 α      in ANC's #1, #7, #12, ...

........................................................................
.............................. CYCLE  143 ..............................
........................................................................

 iter      E             dE          RMSdq      gap      omega  full diag
   1   -122.6125754 -0.122613E+03  0.984E-03    0.35       0.0  T
   2   -122.6125754 -0.626674E-07  0.518E-03    0.35       2.2  T
   3   -122.6125752  0.239942E-06  0.300E-03    0.35       3.7  T
   4   -122.6125752 -0.712161E-07  0.220E-03    0.35       5.1  T
   5   -122.6125755 -0.205309E-06  0.643E-04    0.35      17.4  T
   6   -122.6125755 -0.170529E-07  0.270E-04    0.35      41.3  T
   7   -122.6125755 -0.504158E-09  0.199E-04    0.35      56.3  T
     SCC iter.                  ...        0 min,  0.108 sec
     gradient                   ...        0 min,  0.078 sec
 * total energy  :  -120.6404700 Eh     change       -0.2318777E-05 Eh
   gradient norm :     0.0001686 Eh/α   predicted    -0.1040723E-05 ( -55.12%)
   displ. norm   :     0.0542303 α      lambda       -0.1458346E-05
   maximum displ.:     0.0234421 α      in ANC's #1, #7, #12, ...

........................................................................
.............................. CYCLE  144 ..............................
........................................................................

 iter      E             dE          RMSdq      gap      omega  full diag
   1   -122.6125662 -0.122613E+03  0.862E-03    0.35       0.0  T
   2   -122.6125662 -0.463638E-07  0.458E-03    0.35       2.4  T
   3   -122.6125661  0.140473E-06  0.258E-03    0.35       4.3  T
   4   -122.6125661  0.642962E-08  0.192E-03    0.35       5.8  T
   5   -122.6125663 -0.170441E-06  0.536E-04    0.35      20.9  T
   6   -122.6125663 -0.955711E-08  0.181E-04    0.35      61.8  T
   7   -122.6125663 -0.724185E-10  0.139E-04    0.35      80.4  T
     SCC iter.                  ...        0 min,  0.124 sec
     gradient                   ...        0 min,  0.077 sec
 * total energy  :  -120.6404715 Eh     change       -0.1500846E-05 Eh
   gradient norm :     0.0001399 Eh/α   predicted    -0.7321404E-06 ( -51.22%)
   displ. norm   :     0.0361583 α      lambda       -0.8330144E-06
   maximum displ.:     0.0155075 α      in ANC's #7, #1, #3, ...

........................................................................
.............................. CYCLE  145 ..............................
........................................................................

 iter      E             dE          RMSdq      gap      omega  full diag
   1   -122.6126055 -0.122613E+03  0.617E-03    0.35       0.0  T
   2   -122.6126055 -0.190049E-07  0.323E-03    0.35       3.5  T
   3   -122.6126054  0.119114E-06  0.214E-03    0.35       5.2  T
   4   -122.6126054 -0.417828E-07  0.151E-03    0.35       7.4  T
   5   -122.6126055 -0.985030E-07  0.199E-04    0.35      56.1  T
   6   -122.6126055 -0.158873E-08  0.108E-04    0.35     104.0  T
     SCC iter.                  ...        0 min,  0.095 sec
     gradient                   ...        0 min,  0.079 sec
 * total energy  :  -120.6404723 Eh     change       -0.8755800E-06 Eh
   gradient norm :     0.0001148 Eh/α   predicted    -0.4198947E-06 ( -52.04%)
   displ. norm   :     0.0293891 α      lambda       -0.6646010E-06
   maximum displ.:     0.0130155 α      in ANC's #7, #1, #3, ...

   *** GEOMETRY OPTIMIZATION CONVERGED AFTER 145 ITERATIONS ***

------------------------------------------------------------------------
 total energy gain   :        -0.2959106 Eh     -185.6867 kcal/mol
 total RMSD          :         2.9788525 a0        1.5763 Å
 total power (kW/mol):        -5.3580211 (step)  -19.2954 (real)
------------------------------------------------------------------------

 ANCopt (total)                0 d,  0 h,  0 min, 40.264 sec
 optimizer setup                ...        0 min,  0.001 sec (  0.004%)
 model hessian                  ...        0 min,  0.380 sec (  0.945%)
 ANC generation                 ...        0 min,  0.081 sec (  0.202%)
 coordinate transformation      ...        0 min,  0.021 sec (  0.052%)
 single point calculation       ...        0 min, 39.563 sec ( 98.258%)
 optimization log               ...        0 min,  0.102 sec (  0.254%)
 hessian update                 ...        0 min,  0.028 sec (  0.070%)
 rational function              ...        0 min,  0.062 sec (  0.154%)

================
 final structure:
================
80
 xtb: 6.7.1 (edcfbbe)
Mn           0.26217624360736       -0.30227756074870       -0.63378039903636
N            0.57611714388621       -2.53829779814619       -0.89870548640664
C            1.76672321621577       -2.97555951626441       -0.16586674718818
C            2.95709754531649       -2.14832315010960       -0.64330233985652
P            2.46950552583350       -0.35907806147088       -0.53909970676717
C            3.22812346541205        0.22725635339809        1.01565166294882
C            3.60853964181982       -0.58712988518465        2.07516427984767
C            4.09971106262290       -0.02340109112911        3.24077885123712
C            4.20314381464879        1.35139568229073        3.36339451974035
C            3.80339372416415        2.17073259100940        2.31822481832025
C            3.31418596162851        1.61226177740479        1.15409321546639
C            3.64560382046549        0.42822335196070       -1.69424730397492
C            3.16706336180674        1.42935486771102       -2.53115814222311
C            4.03480757648561        2.09902023131853       -3.37730763402282
C            5.37874333243272        1.76280900341046       -3.39686746530811
C            5.85847751708256        0.76497274242207       -2.56162504724799
C            4.99922083728437        0.10370823482773       -1.70337205078775
C           -0.60689837275535       -3.38647445817697       -0.67681555250869
C           -1.57790713582469       -2.72180620179152        0.29647176036541
P           -1.81172336632020       -1.01196330858296       -0.37712545108382
C           -2.87710334435029       -0.17403473156111        0.83419304506141
C           -3.27431156342348       -0.68912891013759        2.06158841838429
C           -4.06305041431096        0.07596944373963        2.90520530936119
C           -4.45731302838308        1.34956939191305        2.53220138099895
C           -4.06062205247000        1.86919165794739        1.30866094221404
C           -3.27240923969976        1.11164517281161        0.46536277123004
C           -3.07300807566366       -1.35604108777542       -1.66674949896499
C           -2.77497431320088       -1.10913277138811       -3.00061509502944
C           -3.71205660590824       -1.37671152903541       -3.98416868245834
C           -4.95038857285829       -1.89139624921523       -3.63908354876261
C           -5.25612967243462       -2.13026629352091       -2.30722907862612
C           -4.32465458115492       -1.86107913152007       -1.32224666239940
H            1.95890285303700       -4.04575774703928       -0.34339537747805
H            1.60269516843237       -2.82770919186132        0.90921491633043
H            3.14699298428448       -2.36194777652732       -1.70226126453863
H            3.86303482326063       -2.36581207630572       -0.07295814676044
H            3.51919159744954       -1.66308745890335        2.00859633964410
H            4.39644208281949       -0.66302239819344        4.06054044122740
H            4.58427731523855        1.78537143982848        4.27657750109232
H            3.86695740992350        3.24509744218392        2.41682978343877
H            2.97945348287151        2.24160651886437        0.33673757428094
H            2.10740648991037        1.66165610443704       -2.50278862999372
H            3.66417041619256        2.88713563700070       -4.01789074319269
H            6.05675102050486        2.28159739655961       -4.05925834529816
H            6.90840053771816        0.50897685527823       -2.57455981729383
H            5.37863735082537       -0.65826282421203       -1.03598532089537
H           -1.12146302141054       -3.51843761883694       -1.63624976036892
H           -0.30543381378976       -4.37803982768993       -0.31320038566634
H           -2.52029648544707       -3.27360254020782        0.35667118064859
H           -1.13348316500963       -2.64634388119189        1.29452042289015
H           -2.97134265220265       -1.67980630223863        2.37071125913596
H           -4.36838081822880       -0.32555666796949        3.86149037485870
H           -5.06950647818190        1.94088678864346        3.19785083560267
H           -4.36143544158792        2.86589652662640        1.01933113762794
H           -2.93622820715226        1.50243627015950       -0.48996928210943
H           -1.80607860976108       -0.69522173683921       -3.25083880165193
H           -3.47764666674179       -1.17397551911607       -5.01952123993328
H           -5.68370043958530       -2.10013984700267       -4.40482311399361
H           -6.22647353387547       -2.52263670876951       -2.03754557601024
H           -4.57032445106045       -2.03024299576884       -0.28138159426728
C            0.02881852459529        1.42705023734088       -0.39542269456895
O           -0.11936177415263        2.55169115136044       -0.11272470266260
C            0.25238375862796       -0.31792147102902        1.11368856052398
O            0.21465214687504       -0.17682431081879        2.26821107713119
O            0.71879953336768       -3.43093574469854       -3.63513522701225
C            0.04156477997026       -2.96349462786248       -4.52798296558166
C            0.30848902221572       -1.72423776090105       -5.24285121906442
C            1.41508254250259       -0.93542687435945       -4.91421846843362
C            1.65408437866000        0.23975881473340       -5.59758855540842
C            0.79218063004329        0.64209557768500       -6.60705643320125
C           -0.30993204878261       -0.13379750345004       -6.94034438850042
C           -0.55196637570073       -1.31262947457461       -6.26467048366814
H            0.81952737980234       -2.63434137145652       -1.89198406953090
H            0.23014335037015       -0.18671832986104       -2.15538872171394
H           -0.87282997730322       -3.49351477825679       -4.86145065129709
H            2.07242043451045       -1.25176343784065       -4.11738873925809
H            2.51028548981217        0.84393439682201       -5.33908536393677
H            0.97790645421625        1.56473859210209       -7.13733906119891
H           -0.97697649504574        0.18600582154490       -7.72750035893083
H           -1.40445429476578       -1.92669130295140       -6.52013082519820

 Bond Distances (Angstroems)
 ---------------------------
Mn1-N2=2.2734        Mn1-P5=2.2101        Mn1-P20=2.2069       Mn1-C61=1.7612       Mn1-C63=1.7476       Mn1-H74=1.5263       
N2-Mn1=2.2734        N2-C3=1.4649         N2-C18=1.4725        N2-H73=1.0272        C3-N2=1.4649         C3-C4=1.5262         
C3-H33=1.1017        C3-H34=1.0975        C4-C3=1.5262         C4-P5=1.8574         C4-H35=1.0969        C4-H36=1.0924        
P5-Mn1=2.2101        P5-C4=1.8574         P5-C6=1.8266         P5-C12=1.8269        C6-P5=1.8266         C6-C7=1.3894         
C6-C11=1.3946        C7-C6=1.3894         C7-C8=1.3848         C7-H37=1.0817        C8-C7=1.3848         C8-C9=1.3841         
C8-H38=1.0813        C9-C8=1.3841         C9-C10=1.3869        C9-H39=1.0805        C10-C9=1.3869        C10-C11=1.3807       
C10-H40=1.0808       C11-C6=1.3946        C11-C10=1.3807       C11-H41=1.0845       C12-P5=1.8269        C12-C13=1.3899       
C12-C17=1.3920       C13-C12=1.3899       C13-C14=1.3847       C13-H42=1.0852       C14-C13=1.3847       C14-C15=1.3855       
C14-H43=1.0811       C15-C14=1.3855       C15-C16=1.3869       C15-H44=1.0806       C16-C15=1.3869       C16-C17=1.3828       
C16-H45=1.0808       C17-C12=1.3920       C17-C16=1.3828       C17-H46=1.0816       C18-N2=1.4725        C18-C19=1.5271       
C18-H47=1.0967       C18-H48=1.0983       C19-C18=1.5271       C19-P20=1.8526       C19-H49=1.0937       C19-H50=1.0951       
P20-Mn1=2.2069       P20-C19=1.8526       P20-C21=1.8178       P20-C27=1.8364       C21-P20=1.8178       C21-C22=1.3891       
C21-C26=1.3947       C22-C21=1.3891       C22-C23=1.3853       C22-H51=1.0811       C23-C22=1.3853       C23-C24=1.3844       
C23-H52=1.0812       C24-C23=1.3844       C24-C25=1.3872       C24-H53=1.0805       C25-C24=1.3872       C25-C26=1.3807       
C25-H54=1.0806       C26-C21=1.3947       C26-C25=1.3807       C26-H55=1.0855       C27-P20=1.8364       C27-C28=1.3889       
C27-C32=1.3930       C28-C27=1.3889       C28-C29=1.3846       C28-H56=1.0829       C29-C28=1.3846       C29-C30=1.3847       
C29-H57=1.0807       C30-C29=1.3847       C30-C31=1.3872       C30-H58=1.0806       C31-C30=1.3872       C31-C32=1.3821       
C31-H59=1.0809       C32-C27=1.3930       C32-C31=1.3821       C32-H60=1.0828       H33-C3=1.1017        H34-C3=1.0975        
H35-C4=1.0969        H36-C4=1.0924        H37-C7=1.0817        H38-C8=1.0813        H39-C9=1.0805        H40-C10=1.0808       
H41-C11=1.0845       H42-C13=1.0852       H43-C14=1.0811       H44-C15=1.0806       H45-C16=1.0808       H46-C17=1.0816       
H47-C18=1.0967       H48-C18=1.0983       H49-C19=1.0937       H50-C19=1.0951       H51-C22=1.0811       H52-C23=1.0812       
H53-C24=1.0805       H54-C25=1.0806       H55-C26=1.0855       H56-C28=1.0829       H57-C29=1.0807       H58-C30=1.0806       
H59-C31=1.0809       H60-C32=1.0828       C61-Mn1=1.7612       C61-O62=1.1691       O62-C61=1.1691       C63-Mn1=1.7476       
C63-O64=1.1637       O64-C63=1.1637       O65-C66=1.2142       C66-O65=1.2142       C66-C67=1.4553       C66-H75=1.1083       
C67-C66=1.4553       C67-C68=1.3981       C67-C72=1.3978       C68-C67=1.3981       C68-C69=1.3803       C68-H76=1.0803       
C69-C68=1.3803       C69-C70=1.3870       C69-H77=1.0793       C70-C69=1.3870       C70-C71=1.3884       C70-H78=1.0803       
C71-C70=1.3884       C71-C72=1.3801       C71-H79=1.0802       C72-C67=1.3978       C72-C71=1.3801       C72-H80=1.0812       
H73-N2=1.0272        H74-Mn1=1.5263       H75-C66=1.1083       H76-C68=1.0803       H77-C69=1.0793       H78-C70=1.0803       
H79-C71=1.0802       H80-C72=1.0812       
 C  H  Rav=1.0858 sigma=0.0077  Rmin=1.0793  Rmax=1.1083    34
 C  C  Rav=1.3977 sigma=0.0351  Rmin=1.3801  Rmax=1.5271    33
 N  H  Rav=1.0272 sigma=0.0000  Rmin=1.0272  Rmax=1.0272     1
 N  C  Rav=1.4687 sigma=0.0038  Rmin=1.4649  Rmax=1.4725     2
 O  C  Rav=1.1823 sigma=0.0227  Rmin=1.1637  Rmax=1.2142     3
 P  C  Rav=1.8363 sigma=0.0143  Rmin=1.8178  Rmax=1.8574     6
 Mn H  Rav=1.5263 sigma=0.0000  Rmin=1.5263  Rmax=1.5263     1
 Mn C  Rav=1.7544 sigma=0.0068  Rmin=1.7476  Rmax=1.7612     2
 Mn N  Rav=2.2734 sigma=0.0000  Rmin=2.2734  Rmax=2.2734     1
 Mn P  Rav=2.2085 sigma=0.0016  Rmin=2.2069  Rmax=2.2101     2

 selected bond angles (degree)
 --------------------
P5-Mn1-N2= 80.90               P20-Mn1-N2= 80.04              P20-Mn1-P5=157.71              C61-Mn1-N2=178.87              
C61-Mn1-P5= 98.73              C61-Mn1-P20=100.11             C63-Mn1-N2= 96.23              C63-Mn1-P5= 87.85              
C63-Mn1-P20= 82.85             C63-Mn1-C61= 82.69             H74-Mn1-N2= 87.78              H74-Mn1-P5= 93.76              
H74-Mn1-P20= 96.92             H74-Mn1-C61= 93.31             H74-Mn1-C63=175.88             C3-N2-Mn1=110.34               
C18-N2-Mn1=115.98              C18-N2-C3=113.93               H73-N2-Mn1=103.73              H73-N2-C3=105.26               
H73-N2-C18=106.39              C4-C3-N2=108.40                H33-C3-N2=110.56               H33-C3-C4=109.88               
H34-C3-N2=109.17               H34-C3-C4=110.49               H34-C3-H33=108.35              P5-C4-C3=107.45                
H35-C4-C3=109.36               H35-C4-P5=106.69               H36-C4-C3=112.06               H36-C4-P5=112.35               
H36-C4-H35=108.77              C4-P5-Mn1=106.53               C6-P5-Mn1=116.30               C6-P5-C4=104.36                
C12-P5-Mn1=127.22              C12-P5-C4=102.16               C12-P5-C6= 97.61               C7-C6-P5=125.07                
C11-C6-P5=115.40               C11-C6-C7=119.31               C8-C7-C6=120.02                H37-C7-C6=120.90               
H37-C7-C8=119.08               C9-C8-C7=120.36                H38-C8-C7=119.65               H38-C8-C9=119.99               
C10-C9-C8=119.90               H39-C9-C8=120.01               H39-C9-C10=120.09              C11-C10-C9=119.90              
H40-C10-C9=120.10              H40-C10-C11=119.99             

 selected dihedral angles (degree)
 ---------------------------------
C3-N2-Mn1-P5= 31.92           C3-N2-Mn1-P20=223.52          C3-N2-Mn1-C61=321.14          C3-N2-Mn1-C63=305.11          
C3-N2-Mn1-H74=126.09          C18-N2-Mn1-P5=163.36          C18-N2-Mn1-P20=354.96         C18-N2-Mn1-C61= 92.59         
C18-N2-Mn1-C63= 76.55         C18-N2-Mn1-H74=257.53         H73-N2-Mn1-P5=279.61          H73-N2-Mn1-P20=111.21         
H73-N2-Mn1-C61=208.84         H73-N2-Mn1-C63=192.80         H73-N2-Mn1-H74= 13.78         C4-C3-N2-Mn1=304.09           
C4-C3-N2-C18=171.59           C4-C3-N2-H73= 55.40           H33-C3-N2-Mn1=183.59          H33-C3-N2-C18= 51.09          
H33-C3-N2-H73=294.91          H34-C3-N2-Mn1= 64.49          H34-C3-N2-C18=291.99          H34-C3-N2-H73=175.81          
P5-C4-C3-N2= 51.18            P5-C4-C3-H33=172.09           P5-C4-C3-H34=291.59           H35-C4-C3-N2=295.74           
H35-C4-C3-H33= 56.66          H35-C4-C3-H34=176.16          H36-C4-C3-N2=175.05           H36-C4-C3-H33=295.97          
H36-C4-C3-H34= 55.47          C4-P5-Mn1-N2=356.91           C4-P5-Mn1-P20= 28.39          C4-P5-Mn1-C61=175.83          
C4-P5-Mn1-C63= 93.57          C4-P5-Mn1-H74=269.77          C6-P5-Mn1-N2=241.11           C6-P5-Mn1-P20=272.60          
C6-P5-Mn1-C61= 60.04          C6-P5-Mn1-C63=337.77          C6-P5-Mn1-H74=153.98          C12-P5-Mn1-N2=117.00          
C12-P5-Mn1-P20=148.48         C12-P5-Mn1-C61=295.92         C12-P5-Mn1-C63=213.66         C12-P5-Mn1-H74= 29.86         
Mn1-P5-C4-C3=336.23           Mn1-P5-C4-H35= 93.42          Mn1-P5-C4-H36=212.53          C6-P5-C4-C3= 99.80            
C6-P5-C4-H35=216.99           C6-P5-C4-H36=336.10           C12-P5-C4-C3=201.05           C12-P5-C4-H35=318.24          
C12-P5-C4-H36= 77.35          C7-C6-P5-Mn1= 95.21           C7-C6-P5-C4=338.20            C7-C6-P5-C12=233.51           
C11-C6-P5-Mn1=280.65          C11-C6-P5-C4=163.64           C11-C6-P5-C12= 58.95          C8-C7-C6-P5=183.98            
C8-C7-C6-C11=358.34           H37-C7-C6-P5=  3.44           H37-C7-C6-C11=177.81          C9-C8-C7-C6=  0.61            
C9-C8-C7-H37=181.14           H38-C8-C7-C6=180.16           H38-C8-C7-H37=  0.69          C10-C9-C8-C7=  0.51           
C10-C9-C8-H38=180.96          H39-C9-C8-C7=179.81           H39-C9-C8-H38=  0.26          C11-C10-C9-C8=359.44          
C11-C10-C9-H39=180.14         H40-C10-C9-C8=178.96          H40-C10-C9-H39=359.66         
           -------------------------------------------------
          |                Final Singlepoint                |
           -------------------------------------------------

          ...................................................
          :                      SETUP                      :
          :.................................................:
          :  # basis functions                 230          :
          :  # atomic orbitals                 227          :
          :  # shells                          127          :
          :  # electrons                       224          :
          :  max. iterations                   500          :
          :  Hamiltonian                  GFN2-xTB          :
          :  restarted?                      false          :
          :  GBSA solvation                   true          :
          :  PC potential                    false          :
          :  electronic temp.          300.0000000     K    :
          :  accuracy                    0.5000000          :
          :  -> integral cutoff          0.2801030E+02      :
          :  -> integral neglect         0.5000000E-08      :
          :  -> SCF convergence          0.5000000E-06 Eh   :
          :  -> wf. convergence          0.5000000E-04 e    :
          :  Broyden damping             0.4000000          :
          :  net charge                          0          :
          :  unpaired electrons                  0          :
          ...................................................

 iter      E             dE          RMSdq      gap      omega  full diag
   1   -122.6126055 -0.122613E+03  0.736E-05    0.35       0.0  T
   2   -122.6126055  0.108855E-10  0.609E-05    0.35     183.7  T
   3   -122.6126055 -0.491838E-10  0.486E-05    0.35     230.0  T

   *** convergence criteria satisfied after 3 iterations ***

         #    Occupation            Energy/Eh            Energy/eV
      -------------------------------------------------------------
         1        2.0000           -0.7196547             -19.5828
       ...           ...                  ...                  ...
       106        2.0000           -0.4008868             -10.9087
       107        2.0000           -0.3940679             -10.7231
       108        2.0000           -0.3867917             -10.5251
       109        2.0000           -0.3628810              -9.8745
       110        2.0000           -0.3200937              -8.7102
       111        1.9999           -0.3137874              -8.5386
       112        1.9977           -0.3105128              -8.4495 (HOMO)
       113        0.0023           -0.2976661              -8.0999 (LUMO)
       114                         -0.2461744              -6.6987
       115                         -0.2447117              -6.6589
       116                         -0.2378167              -6.4713
       117                         -0.2353591              -6.4044
       ...                                ...                  ...
       227                          3.1889518              86.7758
      -------------------------------------------------------------
                  HL-Gap            0.0128467 Eh            0.3496 eV
             Fermi-level           -0.3040745 Eh           -8.2743 eV

 SCC (total)                   0 d,  0 h,  0 min,  0.166 sec
 SCC setup                      ...        0 min,  0.003 sec (  1.746%)
 Dispersion                     ...        0 min,  0.002 sec (  1.205%)
 classical contributions        ...        0 min,  0.000 sec (  0.241%)
 integral evaluation            ...        0 min,  0.022 sec ( 13.472%)
 iterations                     ...        0 min,  0.046 sec ( 27.782%)
 molecular gradient             ...        0 min,  0.091 sec ( 54.722%)
 printout                       ...        0 min,  0.001 sec (  0.812%)

         :::::::::::::::::::::::::::::::::::::::::::::::::::::
         ::                     SUMMARY                     ::
         :::::::::::::::::::::::::::::::::::::::::::::::::::::
         :: total energy            -120.640472347416 Eh    ::
         :: total w/o Gsasa/hb      -120.589697482992 Eh    ::
         :: gradient norm              0.000114728226 Eh/a0 ::
         :: HOMO-LUMO gap              0.349577241362 eV    ::
         ::.................................................::
         :: SCC energy              -122.607516063765 Eh    ::
         :: -> isotropic ES            0.060453751559 Eh    ::
         :: -> anisotropic ES          0.007228540474 Eh    ::
         :: -> anisotropic XC          0.059246321085 Eh    ::
         :: -> dispersion             -0.118211611670 Eh    ::
         :: -> Gsolv                  -0.058916389307 Eh    ::
         ::    -> Gelec               -0.008141524883 Eh    ::
         ::    -> Gsasa               -0.052983007563 Eh    ::
         ::    -> Ghb                  0.000000000000 Eh    ::
         ::    -> Gshift               0.002208143139 Eh    ::
         :: repulsion energy           1.967043716348 Eh    ::
         :: add. restraining           0.000000000000 Eh    ::
         :: total charge               0.000000000000 e     ::
         :::::::::::::::::::::::::::::::::::::::::::::::::::::

           -------------------------------------------------
          |                Property Printout                |
           -------------------------------------------------

    * Orbital Energies and Occupations

         #    Occupation            Energy/Eh            Energy/eV
      -------------------------------------------------------------
         1        2.0000           -0.7196547             -19.5828
       ...           ...                  ...                  ...
       100        2.0000           -0.4095658             -11.1449
       101        2.0000           -0.4086899             -11.1210
       102        2.0000           -0.4079502             -11.1009
       103        2.0000           -0.4074078             -11.0861
       104        2.0000           -0.4063003             -11.0560
       105        2.0000           -0.4044360             -11.0053
       106        2.0000           -0.4008868             -10.9087
       107        2.0000           -0.3940679             -10.7231
       108        2.0000           -0.3867917             -10.5251
       109        2.0000           -0.3628810              -9.8745
       110        2.0000           -0.3200937              -8.7102
       111        1.9999           -0.3137874              -8.5386
       112        1.9977           -0.3105128              -8.4495 (HOMO)
       113        0.0023           -0.2976661              -8.0999 (LUMO)
       114                         -0.2461744              -6.6987
       115                         -0.2447117              -6.6589
       116                         -0.2378167              -6.4713
       117                         -0.2353591              -6.4044
       118                         -0.2350075              -6.3949
       119                         -0.2292616              -6.2385
       120                         -0.2279124              -6.2018
       121                         -0.2258616              -6.1460
       122                         -0.2249869              -6.1222
       123                         -0.2185842              -5.9480
       ...                                ...                  ...
       227                          3.1889518              86.7758
      -------------------------------------------------------------
                  HL-Gap            0.0128467 Eh            0.3496 eV
             Fermi-level           -0.3040745 Eh           -8.2743 eV

     #   Z          covCN         q      C6AA      α(0)
     1  25 Mn       4.835    -0.555    62.669    19.925
     2   7 N        3.230    -0.096    23.117     7.141
     3   6 C        3.852     0.036    19.937     6.351
     4   6 C        3.752    -0.028    21.140     6.557
     5  15 P        4.200    -0.086   164.079    23.010
     6   6 C        2.917     0.040    27.114     8.539
     7   6 C        2.960    -0.022    28.555     8.765
     8   6 C        2.919    -0.027    28.677     8.782
     9   6 C        2.920    -0.026    28.651     8.778
    10   6 C        2.918    -0.025    28.621     8.773
    11   6 C        3.037    -0.015    28.347     8.733
    12   6 C        2.919     0.034    27.230     8.557
    13   6 C        3.009    -0.015    28.359     8.735
    14   6 C        2.918    -0.026    28.649     8.777
    15   6 C        2.920    -0.025    28.637     8.775
    16   6 C        2.919    -0.027    28.681     8.782
    17   6 C        2.976    -0.025    28.613     8.774
    18   6 C        3.903     0.030    20.014     6.359
    19   6 C        3.750    -0.021    21.005     6.536
    20  15 P        4.377    -0.096   164.577    23.045
    21   6 C        2.918     0.043    27.045     8.528
    22   6 C        2.959    -0.023    28.575     8.768
    23   6 C        2.919    -0.028    28.690     8.784
    24   6 C        2.920    -0.026    28.650     8.778
    25   6 C        2.918    -0.025    28.620     8.773
    26   6 C        3.054    -0.013    28.285     8.722
    27   6 C        2.918     0.034    27.249     8.560
    28   6 C        2.991    -0.018    28.459     8.751
    29   6 C        2.918    -0.028    28.694     8.784
    30   6 C        2.920    -0.025    28.636     8.775
    31   6 C        2.919    -0.028    28.693     8.784
    32   6 C        2.980    -0.024    28.595     8.772
    33   1 H        0.923     0.031     2.578     2.511
    34   1 H        0.924     0.045     2.380     2.412
    35   1 H        0.925     0.068     2.104     2.269
    36   1 H        0.925     0.062     2.170     2.304
    37   1 H        0.925     0.032     2.560     2.502
    38   1 H        0.925     0.033     2.547     2.496
    39   1 H        0.926     0.034     2.529     2.487
    40   1 H        0.926     0.034     2.534     2.489
    41   1 H        0.925     0.042     2.422     2.434
    42   1 H        0.925     0.068     2.109     2.271
    43   1 H        0.926     0.039     2.461     2.453
    44   1 H        0.926     0.039     2.456     2.451
    45   1 H        0.926     0.039     2.466     2.456
    46   1 H        0.925     0.037     2.484     2.464
    47   1 H        0.924     0.051     2.313     2.378
    48   1 H        0.923     0.035     2.513     2.479
    49   1 H        0.925     0.054     2.268     2.355
    50   1 H        0.925     0.056     2.250     2.346
    51   1 H        0.926     0.034     2.534     2.489
    52   1 H        0.926     0.034     2.525     2.485
    53   1 H        0.926     0.036     2.502     2.474
    54   1 H        0.926     0.037     2.495     2.470
    55   1 H        0.925     0.049     2.336     2.390
    56   1 H        0.925     0.062     2.171     2.304
    57   1 H        0.926     0.037     2.495     2.470
    58   1 H        0.926     0.038     2.471     2.458
    59   1 H        0.926     0.037     2.491     2.468
    60   1 H        0.925     0.035     2.516     2.481
    61   6 C        1.753     0.224    26.006     8.247
    62   8 O        0.856    -0.282    19.469     5.916
    63   6 C        2.045     0.200    26.268     8.278
    64   8 O        0.857    -0.311    19.987     5.994
    65   8 O        0.856    -0.381    21.308     6.189
    66   6 C        2.768     0.215    23.453     7.931
    67   6 C        2.970    -0.007    28.180     8.708
    68   6 C        2.922     0.001    28.009     8.679
    69   6 C        2.916    -0.020    28.507     8.755
    70   6 C        2.921    -0.012    28.318     8.727
    71   6 C        2.916    -0.022    28.564     8.764
    72   6 C        2.923    -0.021    28.527     8.759
    73   1 H        0.859     0.217     1.024     1.586
    74   1 H        0.861    -0.119     6.329     3.941
    75   1 H        0.922     0.010     2.888     2.658
    76   1 H        0.926     0.059     2.212     2.326
    77   1 H        0.926     0.049     2.329     2.386
    78   1 H        0.926     0.049     2.330     2.387
    79   1 H        0.926     0.047     2.362     2.403
    80   1 H        0.925     0.043     2.416     2.430

 Mol. C6AA /au·bohr⁶  :      89740.795262
 Mol. C8AA /au·bohr⁸  :    2478420.695228
 Mol. α(0) /au        :        491.580463


Wiberg/Mayer (AO) data.
largest (>0.10) Wiberg bond orders for each atom

 ---------------------------------------------------------------------------
     #   Z sym  total        # sym  WBO       # sym  WBO       # sym  WBO
 ---------------------------------------------------------------------------
     1  25 Mn   7.074 --    61 C    1.490    63 C    1.191     5 P    0.987
                            20 P    0.952    74 H    0.840     2 N    0.439
                            62 O    0.360    64 O    0.321
     2   7 N    3.471 --     3 C    0.992    18 C    0.986    73 H    0.879
                             1 Mn   0.439
     3   6 C    3.983 --     2 N    0.992     4 C    0.991    33 H    0.963
                            34 H    0.959
     4   6 C    3.992 --     5 P    0.998     3 C    0.991    36 H    0.936
                            35 H    0.935
     5  15 P    4.646 --     4 C    0.998     6 C    0.991    12 C    0.989
                             1 Mn   0.987
     6   6 C    3.982 --     7 C    1.391    11 C    1.367     5 P    0.991
                             9 C    0.105
     7   6 C    3.991 --     8 C    1.438     6 C    1.391    37 H    0.959
                            10 C    0.106
     8   6 C    3.990 --     9 C    1.442     7 C    1.438    38 H    0.970
                            11 C    0.110
     9   6 C    3.983 --     8 C    1.442    10 C    1.426    39 H    0.971
                             6 C    0.105
    10   6 C    3.991 --    11 C    1.459     9 C    1.426    40 H    0.970
                             7 C    0.106
    11   6 C    3.992 --    10 C    1.459     6 C    1.367    41 H    0.948
                             8 C    0.110
    12   6 C    3.984 --    13 C    1.388    17 C    1.378     5 P    0.989
                            15 C    0.105
    13   6 C    3.988 --    14 C    1.439    12 C    1.388    42 H    0.936
                            16 C    0.107
    14   6 C    3.991 --    15 C    1.442    13 C    1.439    43 H    0.969
                            17 C    0.110
    15   6 C    3.987 --    14 C    1.442    16 C    1.429    44 H    0.971
                            12 C    0.105
    16   6 C    3.989 --    17 C    1.453    15 C    1.429    45 H    0.969
                            13 C    0.107
    17   6 C    3.991 --    16 C    1.453    12 C    1.378    46 H    0.960
                            14 C    0.110
    18   6 C    3.981 --    19 C    0.986     2 N    0.986    48 H    0.965
                            47 H    0.964
    19   6 C    3.995 --    20 P    0.996    18 C    0.986    49 H    0.939
                            50 H    0.935
    20  15 P    4.646 --    21 C    1.007    19 C    0.996    27 C    0.979
                             1 Mn   0.952    63 C    0.136
    21   6 C    3.984 --    22 C    1.391    26 C    1.366    20 P    1.007
                            24 C    0.105
    22   6 C    3.991 --    23 C    1.437    21 C    1.391    51 H    0.961
                            25 C    0.107
    23   6 C    3.990 --    24 C    1.443    22 C    1.437    52 H    0.970
                            26 C    0.110
    24   6 C    3.986 --    23 C    1.443    25 C    1.426    53 H    0.971
                            21 C    0.105
    25   6 C    3.990 --    26 C    1.458    24 C    1.426    54 H    0.969
                            22 C    0.107
    26   6 C    3.990 --    25 C    1.458    21 C    1.366    55 H    0.943
                            23 C    0.110
    27   6 C    3.984 --    28 C    1.394    32 C    1.375    20 P    0.979
                            30 C    0.105
    28   6 C    3.987 --    29 C    1.437    27 C    1.394    56 H    0.941
                            31 C    0.107
    29   6 C    3.991 --    30 C    1.445    28 C    1.437    57 H    0.968
                            32 C    0.111
    30   6 C    3.989 --    29 C    1.445    31 C    1.427    58 H    0.971
                            27 C    0.105
    31   6 C    3.989 --    32 C    1.456    30 C    1.427    59 H    0.969
                            28 C    0.107
    32   6 C    3.991 --    31 C    1.456    27 C    1.375    60 H    0.959
                            29 C    0.111
    33   1 H    0.998 --     3 C    0.963
    34   1 H    0.997 --     3 C    0.959
    35   1 H    0.995 --     4 C    0.935
    36   1 H    0.995 --     4 C    0.936
    37   1 H    0.999 --     7 C    0.959
    38   1 H    0.998 --     8 C    0.970
    39   1 H    0.998 --     9 C    0.971
    40   1 H    0.998 --    10 C    0.970
    41   1 H    0.998 --    11 C    0.948
    42   1 H    0.995 --    13 C    0.936
    43   1 H    0.998 --    14 C    0.969
    44   1 H    0.998 --    15 C    0.971
    45   1 H    0.997 --    16 C    0.969
    46   1 H    0.998 --    17 C    0.960
    47   1 H    0.997 --    18 C    0.964
    48   1 H    0.998 --    18 C    0.965
    49   1 H    0.996 --    19 C    0.939
    50   1 H    0.996 --    19 C    0.935
    51   1 H    0.999 --    22 C    0.961
    52   1 H    0.998 --    23 C    0.970
    53   1 H    0.998 --    24 C    0.971
    54   1 H    0.998 --    25 C    0.969
    55   1 H    0.997 --    26 C    0.943
    56   1 H    0.996 --    28 C    0.941
    57   1 H    0.998 --    29 C    0.968
    58   1 H    0.998 --    30 C    0.971
    59   1 H    0.997 --    31 C    0.969
    60   1 H    0.999 --    32 C    0.959
    61   6 C    3.717 --    62 O    1.948     1 Mn   1.490    63 C    0.130
    62   8 O    2.379 --    61 C    1.948     1 Mn   0.360
    63   6 C    3.601 --    64 O    1.974     1 Mn   1.191    20 P    0.136
                            61 C    0.130
    64   8 O    2.372 --    63 C    1.974     1 Mn   0.321
    65   8 O    2.052 --    66 C    1.798
    66   6 C    3.918 --    65 O    1.798    67 C    1.092    75 H    0.933
    67   6 C    3.989 --    68 C    1.358    72 C    1.355    66 C    1.092
    68   6 C    3.986 --    69 C    1.459    67 C    1.358    76 H    0.961
                            71 C    0.102
    69   6 C    3.991 --    68 C    1.459    70 C    1.430    77 H    0.966
                            72 C    0.103
    70   6 C    3.987 --    69 C    1.430    71 C    1.421    78 H    0.970
    71   6 C    3.991 --    72 C    1.469    70 C    1.421    79 H    0.970
                            68 C    0.102
    72   6 C    3.988 --    71 C    1.469    67 C    1.355    80 H    0.966
                            69 C    0.103
    73   1 H    0.953 --     2 N    0.879
    74   1 H    0.983 --     1 Mn   0.840
    75   1 H    0.999 --    66 C    0.933
    76   1 H    0.996 --    68 C    0.961
    77   1 H    0.997 --    69 C    0.966
    78   1 H    0.997 --    70 C    0.970
    79   1 H    0.997 --    71 C    0.970
    80   1 H    0.998 --    72 C    0.966
 ---------------------------------------------------------------------------

Topologies differ in total number of bonds
Writing topology from bond orders to xtbtopo.mol

molecular dipole:
                 x           y           z       tot (Debye)
 q only:        0.395      -1.675      -2.415
   full:        0.296      -2.524      -1.521       7.529
molecular quadrupole (traceless):
                xx          xy          yy          xz          yz          zz
 q only:       12.353       7.250     -20.979      -1.637      -5.467       8.626
  q+dip:        7.161       8.121     -17.983       2.554      -8.362      10.821
   full:        9.312       6.984     -17.408       0.830      -3.939       8.096

           -------------------------------------------------
          |                Geometry Summary                 |
           -------------------------------------------------

      molecular mass/u    :      659.5735812
   center of mass at/Å    :        0.2727113      -0.4102394      -1.1059462
  moments of inertia/u·Å² :        0.5966537E+04   0.7210678E+04   0.1057797E+05
rotational constants/cm⁻¹ :        0.2825363E-02   0.2337871E-02   0.1593655E-02

 * 82 selected distances

     #   Z          #   Z                                           value/Å
     2   7 N        3   6 C                                       1.4648528
     3   6 C        4   6 C                                       1.5261901
     1  25 Mn       5  15 P                                       2.2100892 (max)
     4   6 C        5  15 P                                       1.8574183
     5  15 P        6   6 C                                       1.8266203
     6   6 C        7   6 C                                       1.3894275
     7   6 C        8   6 C                                       1.3848094
     8   6 C        9   6 C                                       1.3841241
     9   6 C       10   6 C                                       1.3869006
     6   6 C       11   6 C                                       1.3945656
    10   6 C       11   6 C                                       1.3807305
     5  15 P       12   6 C                                       1.8268600
    12   6 C       13   6 C                                       1.3898509
    13   6 C       14   6 C                                       1.3847025
    14   6 C       15   6 C                                       1.3854906
    15   6 C       16   6 C                                       1.3868858
    12   6 C       17   6 C                                       1.3920031
    16   6 C       17   6 C                                       1.3828201
     2   7 N       18   6 C                                       1.4724690
    18   6 C       19   6 C                                       1.5270660
     1  25 Mn      20  15 P                                       2.2069404
    19   6 C       20  15 P                                       1.8525568
    20  15 P       21   6 C                                       1.8178151
    21   6 C       22   6 C                                       1.3890990
    22   6 C       23   6 C                                       1.3853427
    23   6 C       24   6 C                                       1.3844248
    24   6 C       25   6 C                                       1.3872356
    21   6 C       26   6 C                                       1.3947314
    25   6 C       26   6 C                                       1.3806912
    20  15 P       27   6 C                                       1.8363985
    27   6 C       28   6 C                                       1.3888793
    28   6 C       29   6 C                                       1.3845937
    29   6 C       30   6 C                                       1.3847204
    30   6 C       31   6 C                                       1.3872178
    27   6 C       32   6 C                                       1.3929698
    31   6 C       32   6 C                                       1.3821354
     3   6 C       33   1 H                                       1.1017141
     3   6 C       34   1 H                                       1.0975271
     4   6 C       35   1 H                                       1.0968546
     4   6 C       36   1 H                                       1.0923903
     7   6 C       37   1 H                                       1.0817113
     8   6 C       38   1 H                                       1.0812835
     9   6 C       39   1 H                                       1.0805096
    10   6 C       40   1 H                                       1.0807513
    11   6 C       41   1 H                                       1.0845234
    13   6 C       42   1 H                                       1.0851920
    14   6 C       43   1 H                                       1.0811312
    15   6 C       44   1 H                                       1.0805544
    16   6 C       45   1 H                                       1.0807589
    17   6 C       46   1 H                                       1.0816478
    18   6 C       47   1 H                                       1.0966792
    18   6 C       48   1 H                                       1.0983164
    19   6 C       49   1 H                                       1.0937098
    19   6 C       50   1 H                                       1.0951295
    22   6 C       51   1 H                                       1.0811055
    23   6 C       52   1 H                                       1.0811712
    24   6 C       53   1 H                                       1.0805214
    25   6 C       54   1 H                                       1.0805652
    26   6 C       55   1 H                                       1.0855390
    28   6 C       56   1 H                                       1.0829097
    29   6 C       57   1 H                                       1.0807428
    30   6 C       58   1 H                                       1.0805913
    31   6 C       59   1 H                                       1.0808567
    32   6 C       60   1 H                                       1.0827605
     1  25 Mn      61   6 C                                       1.7612057
    61   6 C       62   8 O                                       1.1690565
     1  25 Mn      63   6 C                                       1.7475666
    63   6 C       64   8 O                                       1.1637244
    65   8 O       66   6 C                                       1.2142180
    67   6 C       68   6 C                                       1.3981315
    68   6 C       69   6 C                                       1.3802820
    69   6 C       70   6 C                                       1.3870035
    70   6 C       71   6 C                                       1.3884321
    67   6 C       72   6 C                                       1.3978268
    71   6 C       72   6 C                                       1.3801308
     2   7 N       73   1 H                                       1.0271687 (min)
     1  25 Mn      74   1 H                                       1.5263264
    68   6 C       76   1 H                                       1.0803239
    69   6 C       77   1 H                                       1.0793204
    70   6 C       78   1 H                                       1.0802611
    71   6 C       79   1 H                                       1.0802024
    72   6 C       80   1 H                                       1.0812344

 * 9 distinct bonds (by element types)

   Z      Z             #   av. dist./Å        max./Å        min./Å
   1 H    6 C          33     1.0851058     1.1017141     1.0793204
   6 C    6 C          32     1.3959192     1.5270660     1.3801308
   1 H    7 N           1     1.0271687     1.0271687     1.0271687
   6 C    7 N           2     1.4686609     1.4724690     1.4648528
   6 C    8 O           3     1.1823330     1.2142180     1.1637244
   6 C   15 P           6     1.8362782     1.8574183     1.8178151
   1 H   25 Mn          1     1.5263264     1.5263264     1.5263264
   6 C   25 Mn          2     1.7543861     1.7612057     1.7475666
  15 P   25 Mn          2     2.2085148     2.2100892     2.2069404


optimized geometry written to: xtbopt.xyz


           -------------------------------------------------
          | TOTAL ENERGY             -120.640472347416 Eh   |
          | GRADIENT NORM               0.000114728226 Eh/α |
          | HOMO-LUMO GAP               0.349577241362 eV   |
           -------------------------------------------------

------------------------------------------------------------------------
 * finished run on 2026/09/13 at 01:21:29.822     
------------------------------------------------------------------------
 total:
 * wall-time:     0 d,  0 h,  0 min, 41.018 sec
 *  cpu-time:     0 d,  0 h,  0 min, 10.891 sec
 * ratio c/w:     0.266 speedup
 SCF:
 * wall-time:     0 d,  0 h,  0 min,  0.474 sec
 *  cpu-time:     0 d,  0 h,  0 min,  0.156 sec
 * ratio c/w:     0.330 speedup
 ANC optimizer:
 * wall-time:     0 d,  0 h,  0 min, 40.440 sec
 *  cpu-time:     0 d,  0 h,  0 min, 10.703 sec
 * ratio c/w:     0.265 speedup


normal termination of xtb
Note: The following floating-point exceptions are signalling: IEEE_INVALID_FLAG IEEE_DIVIDE_BY_ZERO IEEE_UNDERFLOW_FLAG IEEE_DENORMAL
