      -----------------------------------------------------------      
     |                   =====================                   |     
     |                           x T B                           |     
     |                   =====================                   |     
     |                         S. Grimme                         |     
     |          Mulliken Center for Theoretical Chemistry        |     
     |                    University of Bonn                     |     
      -----------------------------------------------------------      

   * xtb version 6.7.1 (edcfbbe) compiled by 'VssAdministrator@runnervm171ch' on 2026-06-10

   xtb is free software: you can redistribute it and/or modify it under
   the terms of the GNU Lesser General Public License as published by
   the Free Software Foundation, either version 3 of the License, or
   (at your option) any later version.
   
   xtb is distributed in the hope that it will be useful,
   but WITHOUT ANY WARRANTY; without even the implied warranty of
   MERCHANTABILITY or FITNESS FOR A PARTICULAR PURPOSE.  See the
   GNU Lesser General Public License for more details.
   
   Cite this work as:
   * C. Bannwarth, E. Caldeweyher, S. Ehlert, A. Hansen, P. Pracht,
     J. Seibert, S. Spicher, S. Grimme, WIREs Comput. Mol. Sci., 2020, 11,
     e01493. DOI: 10.1002/wcms.1493
   
   for GFN2-xTB:
   * C. Bannwarth, S. Ehlert and S. Grimme., J. Chem. Theory Comput., 2019,
     15, 1652-1671. DOI: 10.1021/acs.jctc.8b01176
   for GFN1-xTB:
   * S. Grimme, C. Bannwarth, P. Shushkov, J. Chem. Theory Comput., 2017,
     13, 1989-2009. DOI: 10.1021/acs.jctc.7b00118
   for GFN0-xTB:
   * P. Pracht, E. Caldeweyher, S. Ehlert, S. Grimme, ChemRxiv, 2019, preprint.
     DOI: 10.26434/chemrxiv.8326202.v1
   for GFN-FF:
   * S. Spicher and S. Grimme, Angew. Chem. Int. Ed., 2020, 59, 15665-15673.
     DOI: 10.1002/anie.202004239
   
   for ALPB and GBSA implicit solvation:
   * S. Ehlert, M. Stahn, S. Spicher, S. Grimme, J. Chem. Theory Comput.,
     2021, 17, 4250-4261. DOI: 10.1021/acs.jctc.1c00471
   
   for ddCOSMO and CPCM-X implicit solvation:
   * M. Stahn, S. Ehlert, S. Grimme, J. Phys. Chem. A,
     2023, XX, XXXX-XXXX. DOI: 10.1021/acs.jpca.3c04382
   
   for DFT-D4:
   * E. Caldeweyher, C. Bannwarth and S. Grimme, J. Chem. Phys., 2017,
     147, 034112. DOI: 10.1063/1.4993215
   * E. Caldeweyher, S. Ehlert, A. Hansen, H. Neugebauer, S. Spicher,
     C. Bannwarth and S. Grimme, J. Chem. Phys., 2019, 150, 154122.
     DOI: 10.1063/1.5090222
   * E. Caldeweyher, J.-M. Mewes, S. Ehlert and S. Grimme, Phys. Chem. Chem. Phys.
     2020, 22, 8499-8512. DOI: 10.1039/D0CP00502A
   
   for sTDA-xTB:
   * S. Grimme and C. Bannwarth, J. Chem. Phys., 2016, 145, 054103.
     DOI: 10.1063/1.4959605
   
   in the mass-spec context:
   * V. Asgeirsson, C. Bauer and S. Grimme, Chem. Sci., 2017, 8, 4879.
     DOI: 10.1039/c7sc00601b
   * J. Koopman and S. Grimme, ACS Omega 2019, 4, 12, 15120-15133.
     DOI: 10.1021/acsomega.9b02011
   
   for metadynamics refer to:
   * S. Grimme, J. Chem. Theory Comput., 2019, 155, 2847-2862
     DOI: 10.1021/acs.jctc.9b00143
   
   for SPH calculations refer to:
   * S. Spicher and S. Grimme, J. Chem. Theory Comput., 2021, 17, 1701-1714
     DOI: 10.1021/acs.jctc.0c01306
   
   for ONIOM refer to:
   * C. Plett, A. Katbashev, S. Ehlert, S. Grimme, M. Bursch,
     Phys. Chem. Chem. Phys., 2023, 25, 17860-17868. DOI: 10.1039/D3CP02178E
   
   for DIPRO refer to:
   * J. Kohn, N. Gildemeister, S. Grimme, D. Fazzi, A. Hansen,
     J. Chem. Phys., 2023, just accepted.
   
   for PTB refer to:
   * S. Grimme, M. Mueller, A. Hansen, J. Chem. Phys., 2023, 158, 124111.
     DOI: 10.1063/5.0137838
   
   with help from (in alphabetical order)
   P. Atkinson, C. Bannwarth, F. Bohle, G. Brandenburg, E. Caldeweyher
   M. Checinski, S. Dohm, S. Ehlert, S. Ehrlich, I. Gerasimov, C. Hölzer
   A. Katbashev, J. Kohn, J. Koopman, C. Lavigne, S. Lehtola, F. März, M. Müller,
   F. Musil, H. Neugebauer, J. Pisarek, C. Plett, P. Pracht, F. Pultar,
   J. Seibert, P. Shushkov, S. Spicher, M. Stahn, M. Steiner, T. Strunk,
   J. Stückrath, T. Rose, and J. Unsleber
   
 * started run on 2026/09/20 at 00:14:27.936     
   ID    Z sym.   atoms
    1    6 C      1, 3, 5-11
    2    7 N      2, 4
    3    8 O      12
    4    1 H      13-20

           -------------------------------------------------
          |                Calculation Setup                |
           -------------------------------------------------

          program call               : C:\Users\HUIWEI\miniconda3\envs\phase2ff\Library\bin\xtb.exe input.xyz --gfn 1 --chrg -1 --uhf 1 --acc 0.1 --iterations 250
          coordinate file            : input.xyz
          omp threads                :                     2


           -------------------------------------------------
          |                 G F N 1 - x T B                 |
           -------------------------------------------------

        Reference                      10.1021/acs.jctc.7b00118
      * Hamiltonian:
        H0-scaling (s, p, d)           1.850000    2.250000    2.000000
        zeta-weighting                 0.000000
      * Dispersion:
        s8                             2.400000
        a1                             0.630000
        a2                             5.000000
        s9                             0.000000
      * Repulsion:
        kExp                           1.500000
        rExp                           1.000000
      * Coulomb:
        alpha                          2.000000
        third order                    atomic
        anisotropic                    false
      * Halogen bond correction:
        rad-scale                      1.300000
        damping                        0.440000


          ...................................................
          :                      SETUP                      :
          :.................................................:
          :  # basis functions                  64          :
          :  # atomic orbitals                  64          :
          :  # shells                           40          :
          :  # electrons                        61          :
          :  # halogen bonds                     0          :
          :  max. iterations                   250          :
          :  Hamiltonian                  GFN1-xTB          :
          :  restarted?                      false          :
          :  GBSA solvation                  false          :
          :  PC potential                    false          :
          :  electronic temp.          300.0000000     K    :
          :  accuracy                    0.1000000          :
          :  -> integral cutoff          0.3500000E+02      :
          :  -> integral neglect         0.1000000E-08      :
          :  -> SCF convergence          0.1000000E-06 Eh   :
          :  -> wf. convergence          0.2000000E-05 e    :
          :  Broyden damping             0.4000000          :
          :  net charge                         -1          :
          :  unpaired electrons                  1          :
          ...................................................

 iter      E             dE          RMSdq      gap      omega  full diag
   1    -34.9787720 -0.349788E+02  0.987E+00    0.45       0.0  T
   2    -35.0271148 -0.483428E-01  0.603E+00    0.35       1.0  T
   3    -34.8505172  0.176598E+00  0.311E+00    1.01       1.0  T
   4    -35.0779285 -0.227411E+00  0.940E-01    0.35       1.0  T
   5    -35.0802229 -0.229435E-02  0.766E-01    0.11       1.0  T
   6    -35.0938050 -0.135821E-01  0.437E-01    0.13       1.0  T
   7    -35.0996541 -0.584910E-02  0.117E-01    0.02       1.0  T
   8    -35.0998907 -0.236657E-03  0.106E-01    0.05       1.0  T
   9    -35.1001895 -0.298712E-03  0.420E-02    0.04       1.0  T
  10    -35.1002316 -0.421229E-04  0.179E-02    0.04       1.2  T
  11    -35.1002397 -0.812947E-05  0.463E-03    0.03       4.8  T
  12    -35.1002404 -0.677389E-06  0.135E-03    0.03      16.5  T
  13    -35.1002404 -0.400656E-07  0.689E-04    0.03      32.4  T
  14    -35.1002404 -0.563603E-08  0.581E-04    0.03      38.5  T
  15    -35.1002404 -0.112546E-07  0.196E-05    0.03    1143.2  T
  16    -35.1002404  0.677502E-10  0.479E-05    0.03     467.1  T
  17    -35.1002404 -0.678284E-10  0.108E-05    0.03    2066.9  T

   *** convergence criteria satisfied after 17 iterations ***

         #    Occupation            Energy/Eh            Energy/eV
      -------------------------------------------------------------
         1        2.0000           -0.6397865             -17.4095
       ...           ...                  ...                  ...
        25        2.0000           -0.3026930              -8.2367
        26        2.0000           -0.2759739              -7.5096
        27        2.0000           -0.2562024              -6.9716
        28        2.0000           -0.2554160              -6.9502
        29        2.0000           -0.2462699              -6.7013
        30        2.0000           -0.2325879              -6.3290
        31        0.6558           -0.1026596              -2.7935 (HOMO)
        32        0.3442           -0.1014351              -2.7602 (LUMO)
        33                         -0.0448618              -1.2208
        34                         -0.0161698              -0.4400
        35                         -0.0137351              -0.3738
        36                          0.0426228               1.1598
       ...                                ...                  ...
        64                          0.9204401              25.0464
      -------------------------------------------------------------
                  HL-Gap            0.0012245 Eh            0.0333 eV
             Fermi-level           -0.1348355 Eh           -3.6691 eV

 SCC (total)                   0 d,  0 h,  0 min,  0.028 sec
 SCC setup                      ...        0 min,  0.000 sec (  0.737%)
 Dispersion                     ...        0 min,  0.000 sec (  0.968%)
 classical contributions        ...        0 min,  0.000 sec (  0.366%)
 integral evaluation            ...        0 min,  0.003 sec ( 10.682%)
 iterations                     ...        0 min,  0.018 sec ( 66.205%)
 molecular gradient             ...        0 min,  0.005 sec ( 19.658%)
 printout                       ...        0 min,  0.000 sec (  1.333%)

         :::::::::::::::::::::::::::::::::::::::::::::::::::::
         ::                     SUMMARY                     ::
         :::::::::::::::::::::::::::::::::::::::::::::::::::::
         :: total energy             -34.620569410465 Eh    ::
         :: gradient norm              0.098364928747 Eh/a0 ::
         :: HOMO-LUMO gap              0.033319992268 eV    ::
         ::.................................................::
         :: SCC energy               -35.100240447044 Eh    ::
         :: -> electrostatic           0.174795126951 Eh    ::
         :: repulsion energy           0.490661552215 Eh    ::
         :: dispersion energy         -0.010990515636 Eh    ::
         :: halogen bond corr.         0.000000000000 Eh    ::
         :: add. restraining           0.000000000000 Eh    ::
         :: total charge              -1.000000000000 e     ::
         :::::::::::::::::::::::::::::::::::::::::::::::::::::

           -------------------------------------------------
          |                Property Printout                |
           -------------------------------------------------

    * Orbital Energies and Occupations

         #    Occupation            Energy/Eh            Energy/eV
      -------------------------------------------------------------
         1        2.0000           -0.6397865             -17.4095
       ...           ...                  ...                  ...
        19        2.0000           -0.3532173              -9.6115
        20        2.0000           -0.3489597              -9.4957
        21        2.0000           -0.3432405              -9.3400
        22        2.0000           -0.3411330              -9.2827
        23        2.0000           -0.3221425              -8.7659
        24        2.0000           -0.3052050              -8.3051
        25        2.0000           -0.3026930              -8.2367
        26        2.0000           -0.2759739              -7.5096
        27        2.0000           -0.2562024              -6.9716
        28        2.0000           -0.2554160              -6.9502
        29        2.0000           -0.2462699              -6.7013
        30        2.0000           -0.2325879              -6.3290
        31        0.6558           -0.1026596              -2.7935 (HOMO)
        32        0.3442           -0.1014351              -2.7602 (LUMO)
        33                         -0.0448618              -1.2208
        34                         -0.0161698              -0.4400
        35                         -0.0137351              -0.3738
        36                          0.0426228               1.1598
        37                          0.0429898               1.1698
        38                          0.0578119               1.5731
        39                          0.0664296               1.8076
        40                          0.0756558               2.0587
        41                          0.0788631               2.1460
        42                          0.0862107               2.3459
       ...                                ...                  ...
        64                          0.9204401              25.0464
      -------------------------------------------------------------
                  HL-Gap            0.0012245 Eh            0.0333 eV
             Fermi-level           -0.1348355 Eh           -3.6691 eV

  Mulliken/CM5 charges         n(s)   n(p)   n(d)
     1C     0.05979 -0.02613   0.975  2.965  0.000
     2N    -0.26276 -0.52044   1.439  3.824  0.000
     3C     0.21715  0.32583   0.953  2.830  0.000
     4N    -0.45020 -0.63883   1.534  3.917  0.000
     5C     0.13791  0.20517   1.035  2.827  0.000
     6C    -0.11177 -0.15920   1.040  3.072  0.000
     7C    -0.08929 -0.14513   1.035  3.054  0.000
     8C    -0.08096 -0.13703   1.040  3.041  0.000
     9C    -0.07256 -0.12439   1.038  3.034  0.000
    10C    -0.10949 -0.10094   1.077  3.033  0.000
    11C     0.41251  0.51164   0.974  2.613  0.000
    12O    -0.64085 -0.68862   1.727  4.913  0.000
    13H     0.05235  0.12358   0.948  0.000  0.000
    14H     0.00489  0.06673   0.995  0.000  0.000
    15H     0.00486  0.06670   0.995  0.000  0.000
    16H    -0.02511  0.05336   1.025  0.000  0.000
    17H    -0.00843  0.05192   1.008  0.000  0.000
    18H    -0.02326  0.03327   1.023  0.000  0.000
    19H    -0.02089  0.03566   1.021  0.000  0.000
    20H     0.00612  0.06683   0.994  0.000  0.000

Wiberg/Mayer (AO) data.
largest (>0.10) Wiberg bond orders for each atom

 ---------------------------------------------------------------------------
     #   Z sym  total        # sym  WBO       # sym  WBO       # sym  WBO
 ---------------------------------------------------------------------------
     1   6 C    3.970 --    15 H    0.987    14 H    0.987    13 H    0.976
                             2 N    0.969
     2   7 N    3.357 --     3 C    1.123    11 C    1.018     1 C    0.969
     3   6 C    3.770 --     4 N    1.541     2 N    1.123    16 H    0.969
     4   7 N    2.937 --     3 C    1.541     5 C    1.146
     5   6 C    3.889 --     6 C    1.346    10 C    1.245     4 N    1.146
     6   6 C    3.888 --     7 C    1.390     5 C    1.346    17 H    0.975
     7   6 C    3.870 --     6 C    1.390     8 C    1.371    18 H    0.976
     8   6 C    3.917 --     9 C    1.443     7 C    1.371    19 H    0.977
     9   6 C    3.877 --     8 C    1.443    10 C    1.292    20 H    0.973
    10   6 C    3.895 --     9 C    1.292     5 C    1.245    11 C    1.139
    11   6 C    3.804 --    12 O    1.502    10 C    1.139     2 N    1.018
    12   8 O    1.802 --    11 C    1.502
    13   1 H    1.023 --     1 C    0.976
    14   1 H    1.009 --     1 C    0.987
    15   1 H    1.009 --     1 C    0.987
    16   1 H    1.017 --     3 C    0.969
    17   1 H    1.009 --     6 C    0.975
    18   1 H    1.007 --     7 C    0.976
    19   1 H    1.008 --     8 C    0.977
    20   1 H    1.012 --     9 C    0.973
 ---------------------------------------------------------------------------

Topologies differ in total number of bonds
Writing topology from bond orders to xtbtopo.mol

 dipole moment from electron density (au)
     X       Y       Z   
  -1.3171  -0.8214  -0.2531  total (Debye):    3.998


           -------------------------------------------------
          | TOTAL ENERGY              -34.620569410465 Eh   |
          | GRADIENT NORM               0.098364928747 Eh/α |
          | HOMO-LUMO GAP               0.033319992268 eV   |
           -------------------------------------------------

------------------------------------------------------------------------
 * finished run on 2026/09/20 at 00:14:27.981     
------------------------------------------------------------------------
 total:
 * wall-time:     0 d,  0 h,  0 min,  0.044 sec
 *  cpu-time:     0 d,  0 h,  0 min,  0.000 sec
 * ratio c/w:     0.000 speedup
 SCF:
 * wall-time:     0 d,  0 h,  0 min,  0.028 sec
 *  cpu-time:     0 d,  0 h,  0 min,  0.000 sec
 * ratio c/w:     0.000 speedup

