55
Properties=species:S:1:pos:R:3:forces:R:3 energy:=T -70.315524595007=T gnorm:=T 0.000148973523=T xtb:=T 6.7.1=T (edcfbbe)=T energy=-1913.3828832563252 pbc="F F F"
Ru       0.24108232      -0.10352398      -0.16257454      -0.00092500      -0.00080162       0.00074107
C        2.49551222      -2.29356157      -0.63840481       0.00071444      -0.00005750      -0.00017385
P        2.47123937      -0.53486617      -0.03650444      -0.00275841       0.00090868       0.00084872
C        4.01890948       0.20407777      -0.72796483      -0.00051592      -0.00024631       0.00055261
C        5.24323363      -0.68293451      -0.51199559       0.00016386      -0.00040865      -0.00022265
C        3.77908934       0.53043490      -2.20109267      -0.00113285      -0.00054177      -0.00054822
C        2.63082266      -0.63763204       1.81941363       0.00110799      -0.00072136       0.00026721
C        1.17927095      -0.77379881       2.32128734      -0.00018481      -0.00012406      -0.00046171
C        3.24937466       0.65396034       2.35400821      -0.00048728       0.00017560       0.00002419
C        1.16638336      -2.93626602      -0.39334606      -0.00001652       0.00027214       0.00004132
C        1.00495187      -4.31387795      -0.38244479       0.00007064      -0.00013991       0.00027555
C       -0.24390684      -4.85070878      -0.11382566       0.00004278       0.00005775      -0.00009657
C       -1.29155036      -3.99590858       0.19614541       0.00008967       0.00020938      -0.00004772
C       -1.06533860      -2.63049167       0.18323850       0.00011674      -0.00014667       0.00007193
C       -2.09206015      -1.63534866       0.65514923       0.00027612       0.00030421      -0.00042178
N       -1.92950749      -0.30822050       0.02718934      -0.00095554       0.00016893       0.00160259
C       -2.40749092       0.76244982       0.94140545       0.00042121       0.00056890      -0.00037969
C       -3.84625463       0.64793506       1.44373588       0.00021666      -0.00036824      -0.00009969
C       -2.69639679      -0.24524312      -1.24244857       0.00054729      -0.00057080      -0.00051950
C       -2.39227849      -1.36417484      -2.23100884      -0.00057189      -0.00016051      -0.00011170
N        0.12978834      -2.12014827      -0.14740063       0.00017937       0.00049490      -0.00046075
H        2.67459532      -2.23659397      -1.72084474      -0.00033175       0.00023955      -0.00011496
H        3.30264401      -2.87982121      -0.18741414       0.00002521      -0.00022640      -0.00058175
H        4.14259402       1.15209876      -0.19006459      -0.00041468      -0.00048355      -0.00041934
H        6.14240278      -0.12520924      -0.76705791       0.00046786       0.00004335       0.00062620
H        5.32728126      -1.00242635       0.52570244      -0.00045959       0.00058167      -0.00136459
H        5.20721039      -1.56293899      -1.15036871       0.00030818       0.00165107       0.00083047
H        2.89382662       1.15905178      -2.30556248       0.00236025      -0.00100437       0.00070098
H        3.64106432      -0.37083608      -2.79678388      -0.00003868       0.00230020       0.00163796
H        4.63339420       1.06992587      -2.60490075      -0.00025912      -0.00009921      -0.00032631
H        3.22362441      -1.50350941       2.14064309       0.00046645      -0.00072334      -0.00005928
H        0.83533097      -1.81157746       2.28096739       0.00027178      -0.00054932      -0.00017525
H        1.10643159      -0.44733212       3.36094702       0.00026509      -0.00060683      -0.00046984
H        0.50303597      -0.08342152       1.72265167      -0.00033862      -0.00045338      -0.00094260
H        3.17582663       0.68419961       3.44033823      -0.00018858      -0.00040982      -0.00036359
H        4.30180938       0.72837786       2.09143389      -0.00036160      -0.00019379       0.00030987
H        2.72080895       1.51786536       1.94627554       0.00014471      -0.00032546       0.00040506
H        1.84976641      -4.95280744      -0.58570960       0.00015108       0.00003019       0.00013955
H       -0.39401230      -5.91874285      -0.12251498       0.00018517       0.00003038       0.00029326
H       -2.26574291      -4.38082460       0.45299774       0.00010112      -0.00006704       0.00005598
H       -3.10327354      -2.02590820       0.49093594       0.00018628       0.00007227       0.00014368
H       -1.95269618      -1.52513376       1.74239108       0.00019015       0.00018360      -0.00024740
H       -1.73837449       0.77872884       1.81307699       0.00036471       0.00070797      -0.00037189
H       -2.28690346       1.70935138       0.40807604      -0.00000410      -0.00009865      -0.00067684
H       -4.02386553       1.46713403       2.13664317       0.00073140      -0.00009275       0.00021591
H       -4.02680592      -0.28214438       1.97749711      -0.00000849      -0.00001757      -0.00030988
H       -4.57117004       0.74103278       0.64014495      -0.00012431       0.00069340       0.00004419
H       -2.46695464       0.72163055      -1.70019809       0.00012167      -0.00040772      -0.00012858
H       -3.76761075      -0.28245825      -1.01568068       0.00007296       0.00013699       0.00000614
H       -1.32260276      -1.47521717      -2.41010776      -0.00047547       0.00035939      -0.00045520
H       -2.86045749      -1.11589215      -3.18083003      -0.00083284      -0.00067341       0.00021787
H       -2.79416083      -2.32052451      -1.90301105       0.00042293       0.00015501       0.00029569
C        0.27492239       0.22041487      -1.96510894       0.00020310      -0.00030090      -0.00082396
O        0.37375335       0.50143458      -3.07382422      -0.00023976       0.00083158       0.00096785
H        0.25774560       1.43638385      -0.02538269       0.00063892      -0.00015622       0.00005921
