55
Properties=species:S:1:pos:R:3 energy:=T -70.315524595007=T gnorm:=T 0.000148973523=T xtb:=T 6.7.1=T (edcfbbe)=T pbc="F F F"
Ru       0.24108232      -0.10352398      -0.16257454
C        2.49551222      -2.29356157      -0.63840481
P        2.47123937      -0.53486617      -0.03650444
C        4.01890948       0.20407777      -0.72796483
C        5.24323363      -0.68293451      -0.51199559
C        3.77908934       0.53043490      -2.20109267
C        2.63082266      -0.63763204       1.81941363
C        1.17927095      -0.77379881       2.32128734
C        3.24937466       0.65396034       2.35400821
C        1.16638336      -2.93626602      -0.39334606
C        1.00495187      -4.31387795      -0.38244479
C       -0.24390684      -4.85070878      -0.11382566
C       -1.29155036      -3.99590858       0.19614541
C       -1.06533860      -2.63049167       0.18323850
C       -2.09206015      -1.63534866       0.65514923
N       -1.92950749      -0.30822050       0.02718934
C       -2.40749092       0.76244982       0.94140545
C       -3.84625463       0.64793506       1.44373588
C       -2.69639679      -0.24524312      -1.24244857
C       -2.39227849      -1.36417484      -2.23100884
N        0.12978834      -2.12014827      -0.14740063
H        2.67459532      -2.23659397      -1.72084474
H        3.30264401      -2.87982121      -0.18741414
H        4.14259402       1.15209876      -0.19006459
H        6.14240278      -0.12520924      -0.76705791
H        5.32728126      -1.00242635       0.52570244
H        5.20721039      -1.56293899      -1.15036871
H        2.89382662       1.15905178      -2.30556248
H        3.64106432      -0.37083608      -2.79678388
H        4.63339420       1.06992587      -2.60490075
H        3.22362441      -1.50350941       2.14064309
H        0.83533097      -1.81157746       2.28096739
H        1.10643159      -0.44733212       3.36094702
H        0.50303597      -0.08342152       1.72265167
H        3.17582663       0.68419961       3.44033823
H        4.30180938       0.72837786       2.09143389
H        2.72080895       1.51786536       1.94627554
H        1.84976641      -4.95280744      -0.58570960
H       -0.39401230      -5.91874285      -0.12251498
H       -2.26574291      -4.38082460       0.45299774
H       -3.10327354      -2.02590820       0.49093594
H       -1.95269618      -1.52513376       1.74239108
H       -1.73837449       0.77872884       1.81307699
H       -2.28690346       1.70935138       0.40807604
H       -4.02386553       1.46713403       2.13664317
H       -4.02680592      -0.28214438       1.97749711
H       -4.57117004       0.74103278       0.64014495
H       -2.46695464       0.72163055      -1.70019809
H       -3.76761075      -0.28245825      -1.01568068
H       -1.32260276      -1.47521717      -2.41010776
H       -2.86045749      -1.11589215      -3.18083003
H       -2.79416083      -2.32052451      -1.90301105
C        0.27492239       0.22041487      -1.96510894
O        0.37375335       0.50143458      -3.07382422
H        0.25774560       1.43638385      -0.02538269
