56
Properties=species:S:1:pos:R:3:forces:R:3 energy:=T -80.886888276136=T gnorm:=T 0.000620529710=T xtb:=T 6.7.1=T (edcfbbe)=T energy=-2201.0443411898154 pbc="F F F"
Ru       0.00041239       0.02073925      -1.14131961      -0.00195784      -0.00000469      -0.00103295
C        2.12801789      -2.14750217      -1.96690832      -0.00035969      -0.00256585       0.00076933
P        2.10956888      -0.39262859      -1.92023617       0.00336653       0.00008630      -0.00119327
C        3.29882632       0.18930393      -3.14907647       0.00906361       0.00394298      -0.00424329
C        3.37565885      -0.46965773      -4.37285511       0.00120693       0.00521999       0.01246921
C        4.25575698      -0.02474282      -5.34218423       0.00679100       0.00781963       0.00141301
C        5.05229035       1.08396552      -5.09930033      -0.00641020      -0.00597325      -0.00307360
C        4.96010320       1.75618403      -3.89011461       0.00287293      -0.00059612       0.00270179
C        4.08093484       1.31739359      -2.91709451      -0.00945162      -0.00998198      -0.01197022
C        2.82573302       0.03518220      -0.28098855       0.00107126       0.00068871       0.00114562
C        1.85224052       0.42289196       0.64915733       0.00085955      -0.00099485       0.00070061
C        2.17168872       0.55188393       1.98853229      -0.00018666      -0.00057299       0.00012761
C        3.46833653       0.28812997       2.40976456       0.00063944      -0.00104283      -0.00011393
C        4.43578963      -0.10078506       1.49576810      -0.00035175       0.00004244      -0.00044209
C        4.11615938      -0.24314853       0.15645037      -0.00013720       0.00050025      -0.00047763
C        1.19397610      -2.73202938      -1.11765413       0.00153601       0.00085733      -0.00122457
C        1.15874960      -4.12196892      -0.80755713      -0.00011299       0.00044096      -0.00010929
C        0.23718504      -4.60571149       0.07414134       0.00001359       0.00042149       0.00040327
C       -0.65308473      -3.72350233       0.70791560       0.00059658      -0.00054629       0.00058439
C       -0.58957029      -2.38847581       0.36741703       0.00113263       0.00067174      -0.00090482
C       -1.41588458      -1.33718320       1.07281832      -0.00014560       0.00075183      -0.00052764
N       -1.84097130      -0.25111220       0.16706802       0.00109580       0.00067857       0.00214455
C       -2.16064336       0.96971890       0.93659400       0.00106990      -0.00027077      -0.00154581
C       -3.29966134       0.85489249       1.95267737      -0.00125849       0.00018900       0.00031953
C       -3.00087864      -0.73502565      -0.61101573      -0.00238746      -0.00076422      -0.00158458
C       -3.58328532       0.30225269      -1.56392179      -0.00048792      -0.00022107       0.00005859
N        0.26364951      -1.91395483      -0.53666072      -0.00132207      -0.00033148       0.00136756
H        2.94479560      -2.70898073      -2.39356842      -0.00002361       0.00072759      -0.00038821
H        2.73849247      -1.32604135      -4.55122874       0.00160524       0.00439940       0.00048766
H        4.32050409      -0.53981937      -6.29015237      -0.00000980       0.00234862       0.00185442
H        5.74047762       1.42994522      -5.85708437      -0.00103497      -0.00120183       0.00132860
H        5.57458022       2.62670722      -3.70787888      -0.00408400      -0.00512053      -0.00207614
H        3.99471085       1.84363665      -1.97548596       0.00069706      -0.00044642       0.00194479
H        0.83500589       0.73415277       0.27155870      -0.00089020       0.00078369      -0.00037368
H        1.42692521       0.86296758       2.71037815       0.00024630      -0.00010239       0.00003515
H        3.72174383       0.38974046       3.45482925      -0.00017628      -0.00023408       0.00014357
H        5.44279670      -0.29992649       1.83360873      -0.00006525      -0.00052660       0.00020341
H        4.86142076      -0.56163624      -0.56028737      -0.00021583      -0.00060081       0.00041267
H        1.87708935      -4.77104732      -1.28487978       0.00004034      -0.00065074      -0.00028930
H        0.19786161      -5.66059846       0.30596173       0.00092686       0.00015967      -0.00004879
H       -1.36275427      -4.07657317       1.43856709       0.00061799       0.00044642       0.00052967
H       -2.28271178      -1.81145966       1.55418915       0.00000337      -0.00045461       0.00013843
H       -0.78618348      -0.90581358       1.86650767      -0.00007013       0.00025196       0.00017616
H       -2.39317071       1.75758723       0.21680043       0.00066129       0.00007306      -0.00021971
H       -1.25031263       1.27370955       1.47006519      -0.00038554      -0.00017453       0.00031234
H       -3.40366741       1.81114790       2.46006918      -0.00017691       0.00058055      -0.00077266
H       -4.24729853       0.62837875       1.47209799      -0.00024253       0.00107473      -0.00076918
H       -3.09541347       0.09669229       2.70547364      -0.00104354       0.00051850      -0.00124543
H       -3.78744820      -1.08355104       0.07435290       0.00020221       0.00009945       0.00099067
H       -2.65764377      -1.60092344      -1.18895122      -0.00096556      -0.00010676       0.00023126
H       -4.21518981      -0.19824787      -2.29310963      -0.00004033       0.00021222       0.00031664
H       -4.18742068       1.03798064      -1.03887651      -0.00052447      -0.00062468       0.00020541
H       -2.77995965       0.81451792      -2.09598513      -0.00057642      -0.00017442       0.00061614
C       -0.71141758      -0.43877311      -2.75606594      -0.00158327       0.00009665       0.00026762
O       -1.05712173      -0.73689721      -3.81946604       0.00094673      -0.00026865      -0.00005513
H       -0.20707721       1.54891741      -1.45800626      -0.00058504       0.00046969       0.00028226
