56
Properties=species:S:1:pos:R:3 energy:=T -80.886888276136=T gnorm:=T 0.000620529710=T xtb:=T 6.7.1=T (edcfbbe)=T pbc="F F F"
Ru       0.00041239       0.02073925      -1.14131961
C        2.12801789      -2.14750217      -1.96690832
P        2.10956888      -0.39262859      -1.92023617
C        3.29882632       0.18930393      -3.14907647
C        3.37565885      -0.46965773      -4.37285511
C        4.25575698      -0.02474282      -5.34218423
C        5.05229035       1.08396552      -5.09930033
C        4.96010320       1.75618403      -3.89011461
C        4.08093484       1.31739359      -2.91709451
C        2.82573302       0.03518220      -0.28098855
C        1.85224052       0.42289196       0.64915733
C        2.17168872       0.55188393       1.98853229
C        3.46833653       0.28812997       2.40976456
C        4.43578963      -0.10078506       1.49576810
C        4.11615938      -0.24314853       0.15645037
C        1.19397610      -2.73202938      -1.11765413
C        1.15874960      -4.12196892      -0.80755713
C        0.23718504      -4.60571149       0.07414134
C       -0.65308473      -3.72350233       0.70791560
C       -0.58957029      -2.38847581       0.36741703
C       -1.41588458      -1.33718320       1.07281832
N       -1.84097130      -0.25111220       0.16706802
C       -2.16064336       0.96971890       0.93659400
C       -3.29966134       0.85489249       1.95267737
C       -3.00087864      -0.73502565      -0.61101573
C       -3.58328532       0.30225269      -1.56392179
N        0.26364951      -1.91395483      -0.53666072
H        2.94479560      -2.70898073      -2.39356842
H        2.73849247      -1.32604135      -4.55122874
H        4.32050409      -0.53981937      -6.29015237
H        5.74047762       1.42994522      -5.85708437
H        5.57458022       2.62670722      -3.70787888
H        3.99471085       1.84363665      -1.97548596
H        0.83500589       0.73415277       0.27155870
H        1.42692521       0.86296758       2.71037815
H        3.72174383       0.38974046       3.45482925
H        5.44279670      -0.29992649       1.83360873
H        4.86142076      -0.56163624      -0.56028737
H        1.87708935      -4.77104732      -1.28487978
H        0.19786161      -5.66059846       0.30596173
H       -1.36275427      -4.07657317       1.43856709
H       -2.28271178      -1.81145966       1.55418915
H       -0.78618348      -0.90581358       1.86650767
H       -2.39317071       1.75758723       0.21680043
H       -1.25031263       1.27370955       1.47006519
H       -3.40366741       1.81114790       2.46006918
H       -4.24729853       0.62837875       1.47209799
H       -3.09541347       0.09669229       2.70547364
H       -3.78744820      -1.08355104       0.07435290
H       -2.65764377      -1.60092344      -1.18895122
H       -4.21518981      -0.19824787      -2.29310963
H       -4.18742068       1.03798064      -1.03887651
H       -2.77995965       0.81451792      -2.09598513
C       -0.71141758      -0.43877311      -2.75606594
O       -1.05712173      -0.73689721      -3.81946604
H       -0.20707721       1.54891741      -1.45800626
