73

O       0.023178060000000     -1.603156760000000     -1.433093100000000
C       0.254215950000000     -0.377425990000000     -0.771153520000000
N      -0.410793960000000     -0.347360960000000      0.511014970000000
C      -1.754025670000000     -0.046839380000000      0.651949350000000
C      -2.661511470000000     -0.238127860000000     -0.390496350000000
C      -4.002971950000000      0.037425150000000     -0.202476920000000
C      -4.467992640000000      0.495349810000000      1.018966020000000
C      -3.572933820000000      0.674785220000000      2.061659360000000
C      -2.229722460000000      0.411052110000000      1.882657260000000
C       1.733391870000000     -0.122216620000000     -0.570985930000000
C       2.478848310000000     -0.967239050000000      0.245080500000000
C       3.832717040000000     -0.748762950000000      0.427668000000000
C       4.455413560000000      0.315574750000000     -0.203228400000000
C       3.718956440000000      1.159836020000000     -1.016876840000000
C       2.364069230000000      0.941344220000000     -1.201339910000000
H       0.321565160000000     -2.321266750000000     -0.861136850000000
H      -0.169687050000000      0.375467960000000     -1.453512320000000
H       0.168589920000000     -0.071357830000000      1.290073420000000
H      -2.316187280000000     -0.616431360000000     -1.340057990000000
H      -4.693539820000000     -0.112827300000000     -1.020518920000000
H      -5.517804110000000      0.706744590000000      1.159383930000000
H      -3.923672940000000      1.029012120000000      3.020936320000000
H      -1.534310910000000      0.557448500000000      2.698410180000000
H       1.997561960000000     -1.796655270000000      0.745876750000000
H       4.402432380000000     -1.411010070000000      1.063153420000000
H       5.512443260000000      0.485864800000000     -0.060808030000000
H       4.200167180000000      1.990878050000000     -1.511419330000000
H       1.791603770000000      1.599894880000000     -1.838684450000000
C       1.376358318246472      2.884931965837841      2.104993079418158
C       1.572038735721937      1.855024537282376      3.218819547130427
C       3.034724232603990      1.840709545596949      3.682063582824161
C       0.649227700642682      2.168338266394707      4.404060120598817
O       1.227525475460176      0.593594777444202      2.653522546016591
H       1.620746679732076      3.881256922645496      2.461707769839087
H       0.343368901247055      2.867606733814978      1.767287653730926
H       2.015902006918307      2.638504540212171      1.261406187280246
H       3.177056934648845      1.109338871905448      4.476738020469909
H       3.684103330297560      1.577746001369487      2.849830386520483
H       3.322074573972328      2.819385838264474      4.056553161862546
H       0.788458935374655      1.438304887259372      5.200505271761367
H      -0.389669870056691      2.135755109905574      4.082992651963879
H       0.864106052436787      3.157358717451916      4.799360661368269
H       1.340134511958204     -0.083568899203321      3.330540241664078
C       0.913492403702409     -4.519540266838357     -2.282947314796711
C       0.998484360317586     -5.029730521319184     -0.843471087519231
C       0.062305721236573     -6.229207415213073     -0.645800768237444
C       2.440587696502881     -5.427731563641888     -0.502188133970000
O       0.583622531585793     -3.946308639314283     -0.016705211576018
H       1.217450406660631     -5.295457783039080     -2.979507435418070
H       1.560531997314456     -3.654603418665324     -2.403927754566511
H      -0.106581777873209     -4.217000430392658     -2.504982811629125
H       0.121861758762650     -6.596147328516689      0.378151037598096
H      -0.965085212275176     -5.934288899917878     -0.848152121624951
H       0.335414846567529     -7.036749534558265     -1.319527033471874
H       2.503950706988325     -5.794560564101706      0.521569925100089
H       3.095990497066842     -4.565156289161292     -0.601511891325141
H       2.785500083098727     -6.210282679189310     -1.172446198703292
H       0.624066969135798     -4.233198262799523      0.902883278836623
C       3.471980722750653     -2.133367609642192      4.551904928675763
C       2.038594155404976     -2.552937977315341      4.882015807740802
C       1.610969955252826     -3.733226236972780      3.999799288998993
C       1.921885916770224     -2.935691121429921      6.363373338526392
O       1.222874187667784     -1.417966649623162      4.606523258800973
H       4.160076700788589     -2.952768279715223      4.738294113022319
H       3.754392720180512     -1.280785654965717      5.164081151755160
H       3.536792309667459     -1.840443325393152      3.507215370813770
H       0.590946252820628     -4.035692706247764      4.233753993366688
H       1.654706751760157     -3.446642378213574      2.951270836512471
H       2.269415280581452     -4.582614139717119      4.159830203346036
H       0.902703413236857     -3.238077171142912      6.601046752305704
H       2.184262559529574     -2.084151633317216      6.987467194790486
H       2.590621154574848     -3.760262818089130      6.594612122035398
H       0.307271552612854     -1.646975861935899      4.803528323832325
