73

O       0.609275257087720     -2.026279121440220     -1.548331181198020
C       0.576838276568210     -0.740020585639870     -0.982225120163500
N       0.019456314560670     -0.772590165150410      0.355207621551370
C      -1.340046630615200     -0.872960315192790      0.579620880612380
C      -2.207865285390390     -1.444181404828760     -0.353983366340310
C      -3.549356829707450     -1.596204509906220     -0.057697782912580
C      -4.055521785039730     -1.191649756691090      1.166126108405760
C      -3.201649408218800     -0.616974823322160      2.095285048600320
C      -1.862020312033080     -0.454012146258610      1.807936577376370
C       1.959562094295000     -0.124276447220430     -0.915693493166790
C       2.989849004730440     -0.801847568181000     -0.273664763170170
C       4.254774658166810     -0.244792274142190     -0.207136688719310
C       4.503729995437290      0.991265592227200     -0.781985564879460
C       3.482240907283640      1.667677602147590     -1.427205503742810
C       2.215573687984780      1.111207552959340     -1.494617781659020
H       0.993550355506650     -2.624179859392120     -0.874873500612140
H      -0.058977579870230     -0.148194828710660     -1.663680413678550
H       0.511034214936670     -0.205753029639310      1.038247638628390
H      -1.827266939140970     -1.772115400096500     -1.308752632776280
H      -4.206504031935650     -2.039873612415300     -0.792941396597340
H      -5.104291564996130     -1.317396098608550      1.392714117221850
H      -3.587378663167550     -0.286185266206060      3.050027605633680
H      -1.199770693708560      0.014493094543040      2.521491080847290
H       2.802551736979430     -1.769656168288870      0.166450330303930
H       5.048668648140060     -0.776913839823340      0.296698901459850
H       5.491297115473030      1.426229398664640     -0.727952857898500
H       3.670667690522100      2.630952177447650     -1.878924035234150
H       1.420140833058690      1.639526988581940     -2.002393450613980
C       1.044872055219120      2.837795391275610      1.584242668995880
C       1.641531369615850      2.080993320050140      2.772554010436420
C       3.172903060305720      2.085271855422560      2.701624911637920
C       1.177312440520580      2.708538841178720      4.093604355073630
O       1.164732333560440      0.745084355854220      2.687551591417150
H       1.345834923274900      3.881117793555430      1.611945403770700
H      -0.040925771617830      2.778520236344930      1.615877478007750
H       1.388979007571530      2.393163650565470      0.653511503308480
H       3.584360890939270      1.517313159991600      3.534429185939040
H       3.501899409725160      1.626744074136310      1.771625043440790
H       3.552478602599090      3.102366834493680      2.747023072132760
H       1.608045460550770      2.167626220125180      4.934552427494800
H       0.092407289940990      2.663015917957920      4.166198488258070
H       1.488726530064390      3.747944815021970      4.150190608025620
H       1.519398382372450      0.259173308752670      3.456585379287210
C       1.525453360110280     -5.494231793600410     -0.785367335108370
C       0.735700309243880     -4.914613805579960      0.389358049090130
C      -0.746666412682810     -4.784659990252640      0.030665200178940
C       0.905970944661190     -5.794411145575660      1.634221109337530
O       1.293191291623390     -3.622418943695650      0.637720889457810
H       1.178876650104260     -6.497519620146710     -1.014748622130390
H       2.583203035523240     -5.530682389893870     -0.536265713165270
H       1.398930398894980     -4.865555643135830     -1.663517655990180
H      -1.302511640598580     -4.324653896505280      0.847498447068510
H      -0.864391752407270     -4.163408594795180     -0.853747759918670
H      -1.172198278872690     -5.764014751345590     -0.170415994220830
H       0.305089431614550     -5.411669811853550      2.457573089914350
H       1.950614491387190     -5.810065002683600      1.938190431991950
H       0.588430387469220     -6.811317133031930      1.421947774576380
H       0.731029434022690     -3.151767521360480      1.267832832062650
C       2.946840079742670     -2.173223865239620      3.370946686709440
C       1.986202412975960     -2.071769966773510      4.555419040519430
C       0.567139916458040     -2.472218363580760      4.136642023410870
C       2.463851033508720     -2.950154010137190      5.716590352646590
O       1.997445891699540     -0.697603208905230      4.959705603468840
H       2.969828495281080     -3.189233904696140      2.989192532415210
H       3.948411418874770     -1.886792657489810      3.682247571333590
H       2.629560228334690     -1.505114489277070      2.574935811606880
H      -0.124991305674770     -2.361242315881400      4.970889775055890
H       0.222352584259840     -1.843441933421200      3.318493735239020
H       0.554663126246410     -3.511355470398590      3.821258357077980
H       1.770606535655400     -2.889900396716910      6.554786248067620
H       3.444301116582920     -2.620098838856020      6.053263257908880
H       2.533625810085790     -3.986863400010270      5.399635959803110
H       1.403567105741370     -0.597241409836420      5.713360462705620
