48
 energy: -71.032400395678 gnorm: 0.000454425226 xtb: 6.7.1 (edcfbbe)
Co           0.03514081808408       -0.24279568187903        0.33270536392451
C            2.39140804874031       -2.05104445680174        0.57645447862031
P            2.21390610734210       -0.41208825665569       -0.27345203570376
C            2.80496849910871       -0.70780927897664       -2.02890380361098
C            1.75359754108222       -1.55727997020572       -2.74445720744906
C            4.19596040505338       -1.30661876372388       -2.21245273401688
C            3.50864966585724        0.63038976581074        0.58104268679143
C            3.77880886323466        1.88679603389881       -0.24478241183396
C            4.80418188169679       -0.05819586660139        1.00544883850699
C            1.14669455829880       -2.80811856032178        0.24606253267153
C            1.13810009038870       -4.17699638202613        0.08185010023479
C           -0.04554482767530       -4.81734367658983       -0.28731608260628
C           -1.16139950606530       -4.04654402931295       -0.51790765230158
C           -1.09470131182908       -2.66117503138935       -0.34083193471523
C           -2.17458941157588       -1.75197479645872       -0.64980758018250
C           -3.49515410751247       -2.13593522505579       -0.88433247906419
C           -4.42718489339111       -1.17507760640069       -1.22043184921952
C           -4.02413895016796        0.14807930540870       -1.32133706585927
C           -2.69873473959364        0.46462130621752       -1.04413251328767
O           -2.31240728834181        1.74359471818374       -1.15464947402692
N           -1.78599188808239       -0.45163997903102       -0.70737654405249
N            0.04362457389992       -2.05319249309599        0.07706348859958
H            3.29651284273549       -2.60795549353048        0.32649452918837
H            2.39327958413008       -1.80974188048418        1.64669145791457
H            2.78737158741011        0.29533233512079       -2.47829065553871
H            0.75174482911096       -1.16437330183223       -2.56317247942428
H            1.78699697808181       -2.59023446686019       -2.39914072343132
H            1.92954603605620       -1.55248926212996       -3.81938227658510
H            4.30653867057722       -2.23891108297390       -1.66312215138469
H            4.35281469506072       -1.52298786243323       -3.26912599750789
H            4.97335171276418       -0.61587436449319       -1.89865490776456
H            2.97638649879664        0.93547411994668        1.49542454367471
H            4.32807411720262        2.61652246267096        0.34807836091806
H            4.36687856627137        1.65678535967882       -1.13097794420405
H            2.83935174153611        2.34340552298349       -0.55758569933586
H            5.37809757826399       -0.41171437967841        0.15470493599230
H            5.41856553045787        0.65905653217166        1.54893986301903
H            4.61003884747651       -0.89736189811968        1.66863091953445
H            2.04482625066431       -4.74240893831133        0.23425725065866
H           -0.07311054195769       -5.88846924070266       -0.41324397363690
H           -2.07994987636377       -4.49951938479451       -0.85333197758159
H           -3.78581771738987       -3.16884694392810       -0.78746380326391
H           -5.45519992055280       -1.44479982490265       -1.40698469114505
H           -4.69927748294403        0.93795985471206       -1.60438962836253
H           -1.37315746800961        1.80980973071258       -0.90743771301440
C            0.11175801225309        1.44130726801029        0.67816196372085
O            0.26939691899148        2.55243242321300        0.98085460948537
H           -0.21480958051662       -0.43869076558754        1.79509928838450
