62

Mn      0.000000000000000      0.000000000000000      0.000000000000000
Br     -0.528357895543028      0.345281327999999      2.495969444451208
C       1.359708420281973      2.927957928000001      0.052029613201184
H       1.563097699210807      3.716743184000000     -0.510374205773473
H       1.366907289952662      3.210607904000000      0.999694568065537
C       2.401189067196572      1.847971551999999     -0.173996706472796
H       2.502360935309579      1.673713103999999     -1.144409492225107
H       3.276709026217489      2.142870464000000      0.181740648902740
C       2.986663020046043     -0.454597303999998      0.459070587175097
H       3.832089192706597     -0.135893855999999      0.864175575541523
H       3.165435865634139     -0.698651576000000     -0.483754403670541
C       2.466833909292212     -1.664699736000001      1.221122921921737
H       2.383678553355722     -1.453232256000001      2.185485752650656
H       3.089998631292968     -2.427369336000000      1.118273686524049
C      -1.492578146115378      3.208643452000000      0.652427149722752
H      -1.444312265157324      2.788828504000000      1.558710412227093
C      -2.929847424389691      3.010118244000001      0.198438524767306
H      -3.539492381646432      3.370075184000001      0.876275485588310
H      -3.105127674346452      2.053892343999999      0.077681422500373
H      -3.071864428294045      3.478697824000001     -0.650733162316201
C      -1.202397784284129      4.696195840000000      0.883051435214511
H      -1.371637810510999      5.193548864000000      0.055901584416156
H      -0.264620837154303      4.808747384000002      1.147313470636337
H      -1.784435988216415      5.036392703999999      1.595010142367453
C      -0.490262718040536      2.748152792000001     -2.170239865991704
H       0.341867510991059      2.432916024000001     -2.627858463961185
C      -1.646434843849463      2.028585580000000     -2.877358609125932
H      -2.500290383833182      2.363582424000001     -2.531059183586890
H      -1.581808253408338      1.064732984000001     -2.710137852279336
H      -1.595770918835335      2.197181784000001     -3.840269450649235
C      -0.558366342144483      4.253154135999999     -2.434017905011659
H      -0.506390900156235      4.418168104000001     -3.397412742936834
H       0.190961420280467      4.697813624000000     -1.986563231481478
H      -1.402865000024686      4.607679943999999     -2.085782493865131
C       0.000951878084104     -3.287683756000000      1.684791474914612
H       0.222771879102974     -4.205776176000001      1.357851905450430
C       0.506305282177048     -3.198821192000000      3.126616756089743
H       0.322617862710906     -2.304879976000000      3.482596109666214
H       1.472637009725140     -3.364528495999999      3.146218610365539
H       0.049506323062424     -3.869508216000001      3.676194670414805
C      -1.524208410167352     -3.161265491999999      1.642683787951793
H      -1.924663390738520     -3.859108176000000      2.202425626716158
H      -1.834679965057042     -3.263994776000001      0.718976654980080
H      -1.788659982642769     -2.279457656000000      1.979787281855279
C       1.230273908540979     -3.176518883999999     -0.934355053812887
H       1.721400186371689     -2.605325575999999     -1.592106163956224
C       2.135860699974016     -4.371136812000000     -0.627017338624498
H       1.689637032289305     -4.962667976000000      0.014761890257080
H       2.980284263444146     -4.052086695999999     -0.244176184744160
H       2.317902748747148     -4.864445375999999     -1.454167189422853
C      -0.055741054258675     -3.629729515999999     -1.622597937274127
H       0.166782820048638     -4.091375736000000     -2.458459723306168
H      -0.613605285791348     -2.847993176000000     -1.819584472835819
H      -0.544642568738297     -4.240442976000001     -1.033090319794668
C      -1.684573577743582     -0.471237368000001     -0.313145672010846
C       0.391907376527718     -0.257689879999999     -1.692051420942684
N       1.960818099793832      0.613602360000002      0.519812135609967
O      -2.788123714979618     -0.769140736000001     -0.532638040259560
O       0.635552274514780     -0.444312819999999     -2.814439076882640
P      -0.298179425961829      2.248141980000000     -0.392037085515896
P       0.819563599203256     -2.087981364000000      0.518118148203417
H       1.900960273197215      0.810509783999999      1.340912031384928
