79
Properties=species:S:1:pos:R:3:forces:R:3 charge=0 unpaired=0 uhf=0 endpoint_role="alcohol encounter complex; requires optimization" energy=-3131.3140937500452 pbc="F F F"
Ru       0.15264345      -0.40262420      -0.48610547      -0.49481495      -0.31587144      -0.31239412
N        0.71560243      -2.43538415       0.01209231      -0.09483694      -0.69407248      -0.43311722
C        1.04246198      -1.77749080       1.10423855       0.37575290      -0.35833808       0.21610866
C        2.41119083      -1.13707850       1.20347871       0.38247993      -0.20609227      -0.24053348
P        2.33740897       0.06431639      -0.19234189       0.11873967      -0.07994686      -0.29869435
C        3.10003039       1.55815176       0.48423166       0.00625482       0.00216886      -0.03056586
C        2.37861228       2.74385086       0.50014306       0.01935381       0.01505297       0.00439478
C        2.95725328       3.88962242       1.01742067      -0.01366572       0.02220958       0.01981384
C        4.24791523       3.84512369       1.51842269       0.00734797       0.02023128       0.01500037
C        4.96568661       2.65758315       1.50470765       0.03338543       0.02373658       0.03528845
C        4.39608168       1.51059739       0.98783435       0.03242224       0.00680526       0.02867183
C        3.53615480      -0.55762759      -1.37665196       0.22884067      -0.04091857      -0.04056041
C        4.35758481       0.31584957      -2.07422751       0.10566141       0.05202001      -0.08019292
C        5.22042623      -0.17688559      -3.03406160       0.05991005       0.00953312      -0.08185015
C        5.25337514      -1.53379916      -3.30971927       0.02261600      -0.00956208      -0.02942229
C        4.40942949      -2.40215140      -2.63411055       0.01387927      -0.03133475      -0.04557229
C        3.54403917      -1.91703898      -1.67421462       0.04858521      -0.04898941      -0.03270000
C       -0.28121407      -3.51832105      -0.06658885      -0.66125373       0.64843552       0.44446667
C       -1.73645918      -3.24431688       0.45475714      -1.57950843      -0.97019483      -2.07569088
P       -2.06107471      -1.46153999      -0.14619467      -0.87241964       0.64162033       0.21020045
C       -3.53509312      -0.62465239       0.79296179       0.68487303      -0.78062907      -0.08979177
C       -4.20815837      -1.39963920       1.74243134      -0.42706043       0.00157875      -0.53939164
C       -5.10234846      -0.77519445       2.60257917      -0.08106702       0.16218382      -0.39447806
C       -5.21986835       0.60957923       2.59927782      -0.32337900      -0.19225079      -0.01912749
C       -4.41496361       1.39872678       1.79713426       0.17627795      -0.32939528      -1.12599214
C       -3.58398447       0.78173301       0.85434185      -0.18900646       0.13940038       0.12133294
C       -3.12871500      -1.61322433      -1.61206099       0.85720669      -0.35571821       0.46808884
C       -2.89639502      -0.81608609      -2.71720257      -0.16143101      -0.23325334       0.21405297
C       -3.69872260      -1.00177215      -3.81853582      -0.08582155       0.09598929      -0.07271194
C       -4.69549801      -1.96017974      -3.78712122      -0.13271251      -0.01959202      -0.17512438
C       -4.92012669      -2.72818838      -2.65563554      -0.34111567      -0.04899575      -0.32870592
C       -4.13672635      -2.55429965      -1.54574277      -0.08340237       0.02287724      -0.18426235
H        0.66056471      -2.04100900       2.11509106       0.76760885      -0.29168091      -0.24097266
H        0.25219028       0.44566762       0.71434676       0.50692002       0.40651963      -0.10051749
H        3.18059974      -1.89852563       1.16509404       0.44987046      -0.19812558      -0.20766447
H        2.51055529      -0.60615861       2.14983439       0.30867932      -0.18875610      -0.09234012
H        1.37012739       2.74413455       0.10545048      -0.00039608       0.02718534      -0.01608424
H        2.40153635       4.81559704       1.03056434       0.00216276       0.00905261       0.00173190
H        4.69934876       4.73900720       1.92337308       0.00264266      -0.00003923      -0.00390536
H        5.97125035       2.62924950       1.89834742       0.00956013       0.00634034       0.00268857
H        4.94821929       0.57934491       0.96377709      -0.00925860       0.00286840      -0.00020408
H        4.31784492       1.37612171      -1.86032762       0.01923645      -0.00346799      -0.01134873
H        5.86629154       0.50196254      -3.57032775       0.02968272       0.00336234      -0.03620003
H        5.92900759      -1.91475926      -4.06132918       0.00834063      -0.00542177      -0.00049566
H        4.42411385      -3.45867670      -2.86192859       0.00329176       0.00034187      -0.00924209
H        2.86192770      -2.58534978      -1.16218589       0.02201684       0.02136777      -0.01117014
H       -0.41284933      -3.75067825      -1.11612075       0.48210523      -0.35094534      -0.35510478
H        0.08440598      -4.34666948       0.53604473       0.31358412      -0.40371788      -0.26283724
H       -2.60355473      -3.96981280       0.18695643       1.77280579       0.65871446      -0.57938396
H       -1.71946518      -3.34585874       1.50154400      -0.17519675      -0.02476043       1.32600604
H       -4.04014100      -2.47959406       1.82327859      -0.14575876       0.49467021      -0.19285516
H       -5.74048179      -1.37868535       3.22648487       0.06327078       0.02233335       0.25100684
H       -5.96640965       1.07883917       3.21759866       0.04320799       0.03897929       0.26097223
H       -4.46762226       2.48000666       1.82496815       0.03862069      -0.15706825       0.13756947
H       -2.76663525       1.36530534       0.39166182      -1.00536852      -0.27131031      -0.32788128
H       -2.10354097      -0.08291350      -2.67402948       0.05723073       0.04119699      -0.08653853
H       -3.53005882      -0.39474474      -4.68607769      -0.08918232       0.08536515      -0.33897162
H       -5.31422177      -2.10401589      -4.65660333      -0.07915152      -0.04983228      -0.11797700
H       -5.70487350      -3.46165492      -2.63608598      -0.22789468      -0.13880341      -0.12872226
H       -4.30512439      -3.12921397      -0.64597327      -0.02179501       0.03288953      -0.05369306
C        0.22682981      -1.07627895      -2.17648771       0.01295271      -0.33481855      -0.48520223
O        0.50432728      -1.57609547      -3.16969083       0.13412074      -0.26989437      -0.80609143
H       -0.40870429       0.99062861      -0.95000781       0.11259793      -0.16390316      -0.28407112
O       -1.25658412      -1.53964489       1.90284150      -2.14874559       0.90006464       1.65807178
C       -1.42352823      -0.06471168       2.10135922      -1.15366176      -3.78903594       1.07330111
C       -0.66692657       0.01644863       3.31692478      -1.31236032       0.84860207      -1.69611736
C       -1.39101571      -0.33913488       4.41829152       0.47279491       0.56453597       0.05572974
C       -0.68524028      -0.13256774       5.54956755       0.51122112      -0.07278089       1.11685300
C        0.63835921       0.26028815       5.49171737       0.25737264       0.00013935       0.65619735
C        1.32288983       0.42103998       4.31172968       0.71997943       0.05576092       1.09516903
C        0.65440325       0.26287819       3.15936478      -0.40617526       0.55283537       0.78378216
H       -0.66906718      -1.77428929       1.19426883       0.41502487       0.77734601      -0.36494402
H       -2.47066396      -0.12261117       2.18361635      -0.38204130       1.03623869       1.72296473
H       -1.24513839       0.23601876       1.13795012       0.71738130       2.05566241      -0.85149250
H       -2.41484210      -0.63936933       4.34622497      -0.20821449       0.03893698       0.11131066
H       -1.19776282      -0.24783260       6.45944545      -0.14755262      -0.16910781       1.32642234
H        1.16675990       0.43707001       6.39558706       0.26472985       0.10044819       0.71557243
H        2.33119774       0.71184343       4.23709222       1.21542950       0.24156367       0.53490604
H        1.06356291       0.40076218       2.20600331       0.14621903       0.71146092      -0.31476695
