66
Properties=species:S:1:pos:R:3 energy:=T -98.535767295865=T gnorm:=T 0.000183255070=T xtb:=T 6.7.1=T (edcfbbe)=T pbc="F F F"
Mn       0.37908615      -0.31579484      -0.70504136
N       -0.12320670      -2.47360062      -0.39567141
C        0.72741891      -3.10010386       0.61545740
C        2.19398785      -2.87910936       0.26042356
P        2.40631797      -1.07973626      -0.21337634
C        3.68452439      -1.16818694      -1.51796757
C        3.60675854      -2.09259388      -2.55607941
C        4.53197919      -2.07461396      -3.58351057
C        5.53385819      -1.11870945      -3.60039814
C        5.59578651      -0.16986862      -2.59272353
C        4.67401569      -0.18817344      -1.56255830
C        3.43733000      -0.47574860       1.16974858
C        4.58222236      -1.16604467       1.56451555
C        5.35101298      -0.69000168       2.60945663
C        4.99068516       0.47943118       3.26281746
C        3.86786548       1.18149273       2.85800088
C        3.09470654       0.70809863       1.81113807
C       -1.54792910      -2.68350879      -0.14643652
C       -2.35560869      -1.97072675      -1.22409837
P       -1.77135668      -0.20248575      -1.24584318
C       -2.34935938       0.38131171      -2.87849314
C       -1.72991583       1.53016483      -3.36411365
C       -2.12154375       2.07926963      -4.57041913
C       -3.13852719       1.48579432      -5.30172257
C       -3.76269173       0.34715331      -4.81984618
C       -3.37653939      -0.20461660      -3.61035891
C       -3.01452201       0.69662580      -0.24391804
C       -4.37102358       0.38657886      -0.22983591
C       -5.24885808       1.15427251       0.51408918
C       -4.78804862       2.24533646       1.23348712
C       -3.44395184       2.57864687       1.19626338
C       -2.56230114       1.81035784       0.45779517
H        0.09618218      -2.91496564      -1.29384117
H        0.50658638      -2.63846925       1.58499477
H        0.51244330      -4.17846792       0.69866932
H        2.83332361      -3.12915360       1.10949050
H        2.47649862      -3.51073442      -0.58682271
H        2.81401902      -2.83001756      -2.57966034
H        4.46522173      -2.80352795      -4.37919840
H        6.25499900      -1.10543960      -4.40478790
H        6.36252762       0.59136385      -2.61297123
H        4.71320446       0.56326322      -0.78550319
H        4.87997553      -2.06539550       1.04017654
H        6.23732212      -1.22842826       2.91429418
H        5.59348848       0.84649419       4.08103175
H        3.59470548       2.10082965       3.35578119
H        2.22449323       1.25451313       1.46786391
H       -1.79375961      -2.25927801       0.83555617
H       -1.79217833      -3.75864220      -0.12415050
H       -3.42442896      -2.06769457      -1.02804558
H       -2.12925078      -2.39906336      -2.20880460
H       -0.92684558       1.96897818      -2.78181176
H       -1.63174555       2.96706894      -4.94390322
H       -3.44410600       1.90889087      -6.24791495
H       -4.55621732      -0.11579024      -5.38987066
H       -3.87782136      -1.09233484      -3.25154605
H       -4.75646805      -0.44509344      -0.80267917
H       -6.30007442       0.90253263       0.52863349
H       -5.47905888       2.83923021       1.81426032
H       -3.08250949       3.43752424       1.74322708
H       -1.50805116       2.05965860       0.41134070
C        0.72218199      -0.48469588      -2.43694430
O        0.92556627      -0.58748266      -3.57345713
C       -0.00158004      -0.04550942       1.00283167
O       -0.27850270       0.08819373       2.12233525
H        0.78704876       1.20900016      -0.85150903
