47
 energy: -70.121402680802 gnorm: 0.000222009767 xtb: 6.7.1 (edcfbbe)
Ru           0.01756181907118       -0.32472870538505       -0.01000813137356
C            2.32363703203433       -2.43460177466063       -0.40653684207608
P            2.22711431285595       -0.56525518965941       -0.55147029639264
C            3.52918029956242       -0.00725147025491        0.65568636340430
C            4.97800471578067       -0.25939678003800        0.25458016004642
C            3.24921349061771        1.45724093590196        0.99483744089525
C            2.94423201542597       -0.33003888523909       -2.25790348983620
C            2.10145628410432       -1.08726070533293       -3.28140708421085
C            2.97406292004243        1.15959197876310       -2.58728403556677
C            0.96233834204747       -3.06814895094791       -0.54966852099377
C            0.79067848330336       -4.42058616241235       -0.80441024924787
C           -0.48703074347373       -4.97017104329759       -0.76573126574774
C           -1.55999368826998       -4.16834307214854       -0.41763235461352
C           -1.34974108366608       -2.81275302227070       -0.18406075476310
C           -2.35484708266042       -1.83643749648042        0.25025918084244
C           -3.72327915946368       -1.94956459262717        0.49445037873798
C           -4.39501843980456       -0.79944977671249        0.91126546240877
C           -3.76637024452427        0.42465031775701        1.06974439143607
C           -2.38191240348591        0.49768566100664        0.79932928001414
O           -1.55614838904474        1.47356327316918        0.80233586802931
N           -1.78700800625665       -0.64982048126024        0.43769555908808
N           -0.09829017432335       -2.28119183482156       -0.31758534890235
H            2.65289848595486       -2.62950743770639        0.62296782729619
H            3.05274752495674       -2.88047570187335       -1.08813586558247
H            3.29051657384534       -0.60024680386278        1.55076516166484
H            5.13188925988934       -1.30153222452153       -0.01975151808414
H            5.27084262103706        0.37241300637631       -0.58065096281280
H            5.63151702295077       -0.02778133746449        1.09412384585910
H            3.73728730312173        1.73731035640303        1.92645006140807
H            2.16572584303175        1.60152093359428        1.11139551375515
H            3.60137156601438        2.12486705445805        0.21157478078189
H            3.96173411567699       -0.73855512613217       -2.25887331179054
H            2.09712677409468       -2.15923379891015       -3.09442868353595
H            1.07102088819494       -0.73477197931353       -3.26108298721245
H            2.49497794693747       -0.91862954378083       -4.28264125569169
H            3.21340944206824        1.31533297469264       -3.63817534310891
H            3.71532106379136        1.68441495897126       -1.98947991016882
H            1.99663160329216        1.60421083007681       -2.38761868388065
H            1.64837064224059       -5.04125546618422       -1.01236828327250
H           -0.63347278762033       -6.01867724164031       -0.97210946454651
H           -2.55371094752255       -4.57559617683444       -0.32164008384896
H           -4.24912755171565       -2.88122838660810        0.36715284008269
H           -5.45540664794313       -0.86560031007117        1.11056395763495
H           -4.31299295410807        1.30250282971503        1.37558930771565
C           -0.57990269622150        0.31064862528925       -1.64752366617042
O           -1.09330669230788        0.80878447340763       -2.54809447859083
H            0.41775625834809       -0.61481732707310        1.47265732978467
