61
 energy: -71.692979462206 gnorm: 0.000598513111 xtb: 6.7.1 (edcfbbe)
Ru           0.03274741496514       -0.14681196781471       -0.33756788061062
N           -0.17785083050612       -2.34916123910973       -0.19714445859503
C            1.01251759481477       -3.07497653902909       -0.63929554926251
C            2.26017929635106       -2.45862127305441       -0.01298453365173
P            2.26538128477483       -0.63056223361215       -0.41370397821309
C            3.13747827711274       -0.68219338902097       -2.08077811206313
C            4.59230151919032       -1.14470288851593       -2.08067360996440
C            2.99327996782539        0.64814802998581       -2.82340586165229
C            3.58176902175779        0.02410511768142        0.74175049329415
C            3.71219211994012        1.52092564639070        0.46452370514964
C            3.21600306594145       -0.19690139549790        2.20590610981309
C           -1.40719567760072       -2.81842232085390       -0.83853094209058
C           -2.61634423156351       -2.09484496769168       -0.25151944279962
P           -2.23852272469425       -0.25908212980837       -0.08281596678626
C           -3.18219721734654        0.05757578974800        1.51428290286658
C           -3.22590234495316        1.55681702180732        1.79838111105675
C           -2.54210143915519       -0.65162101068429        2.70488938196345
C           -3.42405382098701        0.55919042718352       -1.29469324472503
C           -2.85337494282140        1.93785498139455       -1.62831837037249
C           -3.63503237904031       -0.22218934319245       -2.59005661444772
H           -0.27708514495596       -2.50008522963863        0.81238217454067
H            1.06716933639659       -3.00289689546614       -1.73301767054090
H            0.93883341155366       -4.14352253456191       -0.37520104369737
H            2.20194317988871       -2.55914680612009        1.07480793945869
H            3.15991065990986       -2.96869534942483       -0.36293762734238
H            2.53899651863344       -1.43001278264777       -2.62404741488891
H            4.91219850984610       -1.31999062336872       -3.10759802105180
H            5.24305762239394       -0.38420986326599       -1.65504521068644
H            4.73092573526532       -2.07015660227546       -1.52521940289384
H            2.08594810300915        1.16539180542825       -2.50401687277354
H            2.93620107460570        0.48347830890094       -3.89880264546186
H            3.84173285612617        1.30099290527959       -2.63169878497523
H            4.52562519228333       -0.49100510207284        0.52590087808895
H            4.34945429779779        1.99779575947932        1.20830479108361
H            4.13623260251636        1.70989937155098       -0.51822239652917
H            2.72107973519136        1.97715689494140        0.50514531287136
H            3.90815184765474        0.34934480912813        2.84555340309001
H            2.20989302810166        0.17558963839682        2.39168662821203
H            3.26377606310621       -1.24788624041045        2.48420548619339
H           -1.52056495719348       -3.90826434885279       -0.70840753950265
H           -1.33072837614593       -2.61572548746683       -1.91328138331688
H           -2.82299785169969       -2.49200441172256        0.74551467042340
H           -3.49982435250191       -2.26694506010985       -0.86615850170659
H           -4.20144119750449       -0.32883456298119        1.36457540911924
H           -3.85730754372373        2.08537005566129        1.08827081382667
H           -2.21393222886615        1.96067968289587        1.74439624539334
H           -3.61881961479115        1.74081421353274        2.79794198062258
H           -2.57498451957019       -1.73651660389165        2.61732816568860
H           -3.06519168953454       -0.38144071170481        3.62130309946120
H           -1.50276163853403       -0.33971209697104        2.79784153470093
H           -4.39204741140827        0.67460811947675       -0.78915825847835
H           -3.57531784438572        2.52974384846192       -2.19030323624522
H           -2.57198263071240        2.48238139643074       -0.72934730873768
H           -1.95066529738790        1.82309739670016       -2.22800741226102
H           -2.68163325271738       -0.51882875713657       -3.02190658530971
H           -4.24862276421308       -1.10902080458048       -2.44611025987991
H           -4.14267059422052        0.41382280877268       -3.31472987406564
C           -0.10397962570996       -0.20696885934362       -2.16130850601985
O           -0.16350645875501       -0.33620002140588       -3.31884136071299
H            0.18664270448662       -0.11067120433614        1.23161501967424
H            0.16671114397941        1.41407827760385       -0.30612307252895
