59
Properties=species:S:1:pos:R:3:forces:R:3 energy:=T -70.643106802698=T gnorm:=T 0.000083162442=T xtb:=T 6.7.1=T (edcfbbe)=T energy=-1922.2968491672134 pbc="F F F"
Ru       0.05101028      -0.19945121      -0.32752790      -0.00050764      -0.00010061       0.00090131
N       -0.09293179      -2.11677784      -0.63275423       0.00027905      -0.00002242       0.00030646
C        0.99960943      -3.07311359      -0.53305313       0.00019059      -0.00016011       0.00015066
C        2.21546916      -2.47271121       0.17138359       0.00006555       0.00012736       0.00002387
P        2.27027658      -0.70841470      -0.35226557       0.00033448       0.00005179       0.00006638
C        3.09445189      -0.89325024      -2.02995294      -0.00023674       0.00052852       0.00004094
C        4.60815963      -1.08204655      -1.99502663      -0.00029288       0.00006091      -0.00022430
C        2.69333901       0.24713509      -2.96231303      -0.00058927       0.00002268       0.00008145
C        3.55688074       0.05467021       0.75996294       0.00035253      -0.00004502      -0.00015597
C        3.63459050       1.54239748       0.42502418       0.00022268      -0.00003549       0.00014450
C        3.15084626      -0.13445870       2.21953820       0.00035154      -0.00009225       0.00000328
C       -1.29702309      -2.84582362      -0.99556243       0.00019283      -0.00000174       0.00004515
C       -2.48033604      -1.92600834      -1.29878038       0.00012306      -0.00017967       0.00016785
P       -2.22529504      -0.33379545      -0.39205565      -0.00005690      -0.00007944      -0.00017796
C       -3.13131326      -0.66793802       1.21152021      -0.00052620      -0.00010996      -0.00028821
C       -3.22936142       0.60002526       2.05570332      -0.00024313       0.00001393      -0.00012862
C       -2.38894553      -1.75111898       1.99090136      -0.00038220       0.00007986      -0.00000792
C       -3.43325391       0.84265339      -1.21564603       0.00026516       0.00006881      -0.00044406
C       -2.97697538       2.27849855      -0.94646014       0.00014146       0.00002270      -0.00024752
C       -3.55820062       0.63223659      -2.72261563       0.00017871      -0.00035995      -0.00023953
H        1.28248518      -3.43639501      -1.53974074       0.00012386       0.00005923       0.00006446
H        0.65925405      -3.96472041       0.02798553       0.00013758      -0.00004447       0.00009869
H        2.03959231      -2.48267737       1.25107890       0.00031439      -0.00012680       0.00002277
H        3.13243818      -3.02486738      -0.05357812       0.00011751       0.00010483      -0.00013823
H        2.64321395      -1.81406861      -2.42939034      -0.00042718       0.00040311      -0.00017001
H        4.96182513      -1.36304293      -2.98695965      -0.00051644       0.00033848      -0.00037346
H        5.11163842      -0.16117431      -1.70963797      -0.00022489      -0.00004098      -0.00028349
H        4.89552535      -1.86999725      -1.30041866      -0.00021394      -0.00000847      -0.00057151
H        1.60449323       0.33454531      -2.99528941      -0.00049661       0.00058133       0.00056812
H        3.05639073       0.05945923      -3.97286924      -0.00078475       0.00028168      -0.00012345
H        3.09647502       1.19980237      -2.62483196      -0.00001104       0.00007327       0.00005199
H        4.52650752      -0.42476071       0.58521523       0.00014355      -0.00032417      -0.00011512
H        4.31059608       2.05621952       1.10734893       0.00060186      -0.00022818      -0.00018861
H        3.98918473       1.70518942      -0.59089039       0.00001344      -0.00015409      -0.00001244
H        2.64061730       1.98412018       0.51659946       0.00039143       0.00008905       0.00029826
H        3.73300729       0.52736818       2.85876427       0.00034039       0.00012189       0.00004771
H        2.09346032       0.11307264       2.33840916       0.00022550      -0.00026063       0.00009753
H        3.31707527      -1.15651792       2.55347162       0.00063299      -0.00007034       0.00002381
H       -1.56015353      -3.55110412      -0.18608793       0.00009942       0.00009472       0.00007350
H       -1.08989574      -3.47339999      -1.88505827       0.00016989      -0.00011365       0.00022110
H       -3.43669443      -2.39892228      -1.05647287       0.00009066      -0.00002051      -0.00017069
H       -2.46560922      -1.68258241      -2.36483703       0.00034597      -0.00000251       0.00012390
H       -4.14192399      -1.01922119       0.95539313      -0.00032227       0.00002576      -0.00039719
H       -3.88637373       1.33645715       1.59956603      -0.00017630       0.00002811      -0.00028740
H       -2.23589623       1.03395161       2.17599465      -0.00040593       0.00005240       0.00006072
H       -3.62529087       0.36286041       3.04275385      -0.00060153       0.00014589      -0.00036682
H       -2.54109190      -2.73436920       1.55198576      -0.00056884       0.00009437       0.00005611
H       -2.73838691      -1.78780775       3.02216703      -0.00050618       0.00009012      -0.00001899
H       -1.31800113      -1.52311804       1.99562490      -0.00031996      -0.00013886       0.00008800
H       -4.41238750       0.67434470      -0.74795936       0.00009031      -0.00003201      -0.00037551
H       -3.79570456       2.97840473      -1.10967521       0.00019499      -0.00004253      -0.00059165
H       -2.60422552       2.39967332       0.06865625      -0.00001768       0.00010094      -0.00023982
H       -2.16524254       2.53903454      -1.62226698       0.00021669      -0.00017722      -0.00025611
H       -2.56944081       0.60855771      -3.18332111       0.00036866      -0.00015291      -0.00015690
H       -4.09019494      -0.28581090      -2.96400143       0.00032413      -0.00032015      -0.00031800
H       -4.11096343       1.46347930      -3.15934171       0.00025157      -0.00019892      -0.00036283
C        0.25687497       1.48772131      -1.02505207       0.00034863      -0.00018565       0.00151441
O        0.40248412       2.49577686      -1.59337610       0.00029494       0.00071052       0.00124510
H        0.06795002       0.45259809       1.09289466      -0.00010752      -0.00054251       0.00084427
