59
Properties=species:S:1:pos:R:3 energy:=T -70.643106802698=T gnorm:=T 0.000083162442=T xtb:=T 6.7.1=T (edcfbbe)=T pbc="F F F"
Ru       0.05101028      -0.19945121      -0.32752790
N       -0.09293179      -2.11677784      -0.63275423
C        0.99960943      -3.07311359      -0.53305313
C        2.21546916      -2.47271121       0.17138359
P        2.27027658      -0.70841470      -0.35226557
C        3.09445189      -0.89325024      -2.02995294
C        4.60815963      -1.08204655      -1.99502663
C        2.69333901       0.24713509      -2.96231303
C        3.55688074       0.05467021       0.75996294
C        3.63459050       1.54239748       0.42502418
C        3.15084626      -0.13445870       2.21953820
C       -1.29702309      -2.84582362      -0.99556243
C       -2.48033604      -1.92600834      -1.29878038
P       -2.22529504      -0.33379545      -0.39205565
C       -3.13131326      -0.66793802       1.21152021
C       -3.22936142       0.60002526       2.05570332
C       -2.38894553      -1.75111898       1.99090136
C       -3.43325391       0.84265339      -1.21564603
C       -2.97697538       2.27849855      -0.94646014
C       -3.55820062       0.63223659      -2.72261563
H        1.28248518      -3.43639501      -1.53974074
H        0.65925405      -3.96472041       0.02798553
H        2.03959231      -2.48267737       1.25107890
H        3.13243818      -3.02486738      -0.05357812
H        2.64321395      -1.81406861      -2.42939034
H        4.96182513      -1.36304293      -2.98695965
H        5.11163842      -0.16117431      -1.70963797
H        4.89552535      -1.86999725      -1.30041866
H        1.60449323       0.33454531      -2.99528941
H        3.05639073       0.05945923      -3.97286924
H        3.09647502       1.19980237      -2.62483196
H        4.52650752      -0.42476071       0.58521523
H        4.31059608       2.05621952       1.10734893
H        3.98918473       1.70518942      -0.59089039
H        2.64061730       1.98412018       0.51659946
H        3.73300729       0.52736818       2.85876427
H        2.09346032       0.11307264       2.33840916
H        3.31707527      -1.15651792       2.55347162
H       -1.56015353      -3.55110412      -0.18608793
H       -1.08989574      -3.47339999      -1.88505827
H       -3.43669443      -2.39892228      -1.05647287
H       -2.46560922      -1.68258241      -2.36483703
H       -4.14192399      -1.01922119       0.95539313
H       -3.88637373       1.33645715       1.59956603
H       -2.23589623       1.03395161       2.17599465
H       -3.62529087       0.36286041       3.04275385
H       -2.54109190      -2.73436920       1.55198576
H       -2.73838691      -1.78780775       3.02216703
H       -1.31800113      -1.52311804       1.99562490
H       -4.41238750       0.67434470      -0.74795936
H       -3.79570456       2.97840473      -1.10967521
H       -2.60422552       2.39967332       0.06865625
H       -2.16524254       2.53903454      -1.62226698
H       -2.56944081       0.60855771      -3.18332111
H       -4.09019494      -0.28581090      -2.96400143
H       -4.11096343       1.46347930      -3.15934171
C        0.25687497       1.48772131      -1.02505207
O        0.40248412       2.49577686      -1.59337610
H        0.06795002       0.45259809       1.09289466
