80

Mn      0.084942180225578     -0.239155736375352     -0.437515229192532
N       0.382721938855038     -2.383732595633587     -0.126425860210488
C       1.752094652189835     -2.874307769174946      0.061819143119377
C       2.724393098916913     -2.077987952456045     -0.798238960349192
P       2.329440179221144     -0.272360293006699     -0.632609328630732
C       3.368555144412175      0.245967865002252      0.789148317400584
C       3.043956719172043     -0.245015893284964      2.052483857449037
C       3.761909727157129      0.141874882438496      3.167536190157437
C       4.805634380944948      1.043731343194106      3.039791197063303
C       5.123504883184235      1.552400243813364      1.792179380988481
C       4.414158384332664      1.156031029576234      0.670635253802617
C       3.259657020076921      0.460140631650190     -2.018388406068494
C       2.960379851512057      1.781333766432775     -2.346615193551832
C       3.654782637705207      2.428841705641903     -3.350965580907849
C       4.653670331053918      1.761667918848400     -4.042205914385077
C       4.956888223305127      0.449967029984549     -3.719838896154096
C       4.268368133685404     -0.201279595705476     -2.710846518662181
C      -0.548518552047083     -3.143937667539979      0.720932947422423
C      -1.855870338184103     -2.384385151748643      0.985075098707239
P      -2.047779948730744     -0.922536671159271     -0.147669769632444
C      -3.217184497828178      0.090620471272921      0.825700093144731
C      -4.295805533824204     -0.490212979925766      1.489110745361300
C      -5.162722453524260      0.297170042902366      2.224351434949088
C      -4.976376828442064      1.669387236964734      2.288551129248462
C      -3.918831360870017      2.254639902237916      1.613736247682380
C      -3.040113298724015      1.468225241747591      0.889182667616494
C      -3.205064897389398     -1.555379419088345     -1.414296859031205
C      -3.117571879322623     -2.857852905202289     -1.895099533727025
C      -4.000117622482786     -3.299675117850936     -2.864750988916276
C      -4.974196605415941     -2.449081926406558     -3.360430283706732
C      -5.051552262169027     -1.143910997802290     -2.900672347463119
C      -4.164406839178091     -0.693786535104917     -1.940429291263459
H       1.810701721927020     -3.941000092246030     -0.204597113798602
H       2.024585759866129     -2.779256810468949      1.119883182093016
H       2.565680143045177     -2.326204569416478     -1.853490274176887
H       3.759374237934766     -2.289413923727003     -0.515758928074310
H       2.203673042973510     -0.916877776972273      2.168701363487210
H       3.495625571080696     -0.246385746748229      4.140212973041004
H       5.360492053387823      1.357407205868688      3.911620905729738
H       5.923118701992594      2.271472678172263      1.689450670276491
H       4.672270432813617      1.566408346852620     -0.295114250640743
H       2.181265157982661      2.294277833527784     -1.796125049538859
H       3.418712095188640      3.454798954304268     -3.594303261126815
H       5.199025611638595      2.264475658973014     -4.827573358032731
H       5.741216988098416     -0.069868801020272     -4.250530585242784
H       4.533408940906211     -1.218480463795057     -2.466770406141425
H      -0.759359581489618     -4.116819290449083      0.254950425671788
H      -0.057316477599812     -3.343548452125942      1.681162840995056
H      -2.722194927092360     -3.046909949640393      0.911171617832301
H      -1.834488108476726     -1.946882847954505      1.989464393657095
H      -4.461446138674171     -1.556504320210268      1.428251409924198
H      -5.988608049816182     -0.161024049662099      2.748359757381180
H      -5.657568263697423      2.280796982174453      2.861943943837933
H      -3.773182253754510      3.324337022731580      1.652267336369453
H      -2.206256281386811      1.919637880758053      0.367681810540371
H      -2.346640431086917     -3.524684130566278     -1.535526389324949
H      -3.924714287365741     -4.311903181013592     -3.235692971947910
H      -5.668712093817302     -2.800756150780340     -4.109867083554449
H      -5.805294683736410     -0.475604928177929     -3.292126248525370
H      -4.215938150492547      0.329119017336078     -1.587700647084810
C      -0.195361717962321      1.406614404553681     -0.991418838945151
O      -0.379560582128419      2.496692775858574     -1.361884119986820
C       0.056637936349127      0.326653196726699      1.233319813950206
O      -0.030793348460510      0.796218694504258      2.291284710439476
O      -0.087524302009092     -2.828179297359276     -2.732208309344143
C      -0.218828093241628     -1.658438653959822     -3.184754954444563
C       0.681925797963347     -1.133442459387075     -4.265046228720220
C       0.880783807649847      0.224794752960784     -4.480417532291694
C       1.624322849287438      0.658382154110539     -5.559062525107122
C       2.168300227289791     -0.256732897214685     -6.447312446756188
C       1.971389020912989     -1.612776646325567     -6.241413215279269
C       1.239445267949585     -2.048187803846276     -5.151737895918155
H       0.145841241006562     -2.646657074156120     -1.116010586458440
H       0.069004141114425     -0.665079049824236     -2.036901768473206
H      -1.257606486745643     -1.284467880299928     -3.349522513429045
H       0.453531179901824      0.941048530150629     -3.790879764878129
H       1.773488279769098      1.717367701731247     -5.714810267132489
H       2.733862496599191      0.085672480009708     -7.301372378464569
H       2.375657217938385     -2.332384885086253     -6.938098412883177
H       1.067991428886190     -3.103338267219667     -4.988956611401557
