75
Properties=species:S:1:pos:R:3:forces:R:3 charge=0 unpaired=0 uhf=0 energy=-2552.223642919111 pbc="F F F"
Ru       0.04386599       0.09765019      -0.38911051       0.00503368      -0.00633692       0.01177722
N       -0.12384372      -2.07504842      -0.67768252       0.00081058       0.00403121       0.00057590
C        0.99545545      -2.65757187      -1.41396570       0.00567485      -0.00094377      -0.00118938
C        2.30659785      -2.15089398      -0.81661848      -0.00555996      -0.00209692      -0.00448834
P        2.24679028      -0.28436848      -0.86545288       0.00046023      -0.00175867      -0.00063829
C        2.86787057       0.03739385      -2.60907953      -0.00204427      -0.00003049       0.00646486
C        4.16292069      -0.65302185      -3.03090280       0.00299941       0.00029312      -0.00654379
C        2.96129027       1.54802005      -2.81495837      -0.00036203       0.00839712       0.00308084
C        3.69532724       0.26575365       0.19056060       0.00073631      -0.00099299      -0.00231979
C        3.35594194       1.65429599       0.73010568       0.00106190       0.00121099      -0.00252690
C        3.98160322      -0.68261448       1.35012665       0.00066324       0.00266595      -0.00385766
C       -1.43280802      -2.46866539      -1.19675506      -0.00001893      -0.00150659      -0.00135782
C       -2.51286831      -1.94739325      -0.25448049       0.00499211       0.00085664       0.00122514
P       -2.18237745      -0.14235926       0.12861036       0.00291882      -0.00938549       0.00548446
C       -2.93797670      -0.09774669       1.84831985       0.00915064      -0.00461818       0.00408016
C       -3.12759948       1.33914162       2.32942162       0.00714553      -0.01179698      -0.00089271
C       -2.05610797      -0.84003665       2.84902789       0.00183905       0.00109643      -0.00382408
C       -3.52949003       0.75688668      -0.83003917      -0.00365064      -0.00948233      -0.00731204
C       -3.09659917       2.21341232      -0.99520863      -0.00235545      -0.00348251      -0.00190405
C       -3.82010408       0.16543102      -2.20833450      -0.00161514      -0.00416719      -0.00152795
H        0.91668627      -2.35819862      -2.46818657      -0.00142450      -0.00356687       0.00312245
H        0.95631655      -3.75970942      -1.37164054       0.00245466       0.00443736       0.00434392
H        2.34943045      -2.44909702       0.23428260       0.00333396       0.00248718      -0.00216565
H        3.17075938      -2.56887618      -1.33505527       0.00245128       0.00336959      -0.00259718
H        2.05720231      -0.33732972      -3.25006382      -0.00468035       0.00167607      -0.00511722
H        4.45463834      -0.28548770      -4.01432544      -0.00178963      -0.00113439      -0.00025223
H        4.97775578      -0.44125784      -2.34230437       0.00126880      -0.00093180      -0.00292685
H        4.04166115      -1.73130978      -3.10616499       0.00294680       0.00357259      -0.00041604
H        2.07990484       2.03500604      -2.39092588       0.00095357       0.00276853      -0.00144370
H        3.01179150       1.78810144      -3.87646083       0.00019916       0.00428670       0.00059039
H        3.85010063       1.94882478      -2.33162949       0.00431020       0.00538494       0.00236616
H        4.58446801       0.33307939      -0.44737462       0.00112847      -0.00158939      -0.00080240
H        4.16463773       2.03274578       1.35413952       0.00199628       0.00031720      -0.00325899
H        3.17712876       2.35982301      -0.07858220       0.00294742       0.00036607       0.00011125
H        2.44257348       1.59481896       1.32153064       0.00317447       0.00151587      -0.00185802
H        4.71940854      -0.23612629       2.01579068      -0.00040170      -0.00110998      -0.00252011
H        3.07200360      -0.85132579       1.92390178      -0.00160569       0.00065103      -0.00039322
H        4.37387774      -1.63830812       1.00728734      -0.00232370       0.00225102       0.00082614
H       -1.50280159      -3.56672142      -1.27667461       0.00294243       0.00529894       0.00581144
H       -1.55830603      -2.04679045      -2.20219385      -0.00013600      -0.00411421       0.00470788
H       -2.44936074      -2.50604116       0.68311024       0.00295490       0.00259878       0.00737017
H       -3.51021921      -2.09790074      -0.66948684      -0.00081930      -0.00233524       0.00130379
H       -3.91370249      -0.60102182       1.77312272       0.00532034       0.00094596       0.00316534
H       -3.90524513       1.85498779       1.77154304       0.00051190       0.00502197       0.00280635
H       -2.18844588       1.88291042       2.22040189       0.00014290      -0.00180486       0.00158653
H       -3.40943846       1.34564039       3.38214650       0.00422756       0.00236827      -0.00573442
H       -1.87225855      -1.87438515       2.55916322      -0.00164717       0.02651226       0.01488303
H       -2.52664284      -0.84268080       3.83231358       0.00082916      -0.00498199      -0.01390193
H       -1.09665459      -0.32968490       2.92231395      -0.01458385       0.00339161      -0.00064681
H       -4.44667080       0.70826795      -0.22776071       0.00169886      -0.00049639      -0.00097060
H       -3.90478261       2.80969309      -1.41682930      -0.01009799       0.00442882      -0.00779830
H       -2.79196773       2.65238473      -0.04866808       0.00660800       0.00166965       0.01624076
H       -2.23812324       2.26592551      -1.66409476       0.00249581      -0.00297367      -0.00482117
H       -2.90849799       0.08806934      -2.79664003      -0.00361450      -0.00161987       0.00629118
H       -4.28537288      -0.81644097      -2.15292000      -0.00040887       0.00738394       0.00215327
H       -4.50302440       0.82466599      -2.74468808       0.00812510      -0.01290455       0.00888598
C       -0.31445567       0.43842079      -2.15251774      -0.01831482       0.01579151      -0.02203212
O       -0.47855517       0.61077931      -3.29341726       0.01474527      -0.00616485       0.01888854
H        0.15464141       1.62300457      -0.05663437      -0.00183644      -0.00157926      -0.00238472
O        0.11944562      -3.74941776       1.69231160       0.00249327      -0.00335261      -0.00475390
C        1.25044721      -4.09456682       1.99494888       0.00911041       0.00658967       0.00673722
C        2.11711913      -3.44619438       2.96353457       0.01041498      -0.00650706      -0.00057198
C        1.64714021      -2.38737300       3.75076000       0.00706297      -0.01239032      -0.00567469
C        2.48895063      -1.77015807       4.65435020      -0.00181983      -0.00823709      -0.00887184
C        3.80647225      -2.19068513       4.77732790      -0.00466722      -0.00465133      -0.01041265
C        4.28415801      -3.23493147       3.99569554      -0.01184686       0.00092504      -0.00174919
C        3.44667099      -3.86467094       3.09753486      -0.00800859       0.00086062       0.01046636
H       -0.07797317      -2.44599708       0.28152854       0.00143498      -0.00046397      -0.00120919
H        0.43464818      -0.19029277       1.11703563       0.00269612       0.00179624      -0.00204347
H        1.71033030      -4.96883732       1.49013985      -0.01106554      -0.00076781      -0.00019249
H        0.62239871      -2.06728461       3.63330383       0.00580367      -0.00359536      -0.00312038
H        2.12287191      -0.95529810       5.26163122       0.00093332      -0.00939923      -0.01344081
H        4.46366165      -1.70275787       5.48259832      -0.01139952      -0.00803805      -0.01334282
H        5.31199516      -3.55495844       4.08957849      -0.02072032       0.00662592       0.01078835
H        3.81246357      -4.67886535       2.48559059      -0.01238457       0.01746436       0.01967286
