60
Properties=species:S:1:pos:R:3:forces:R:3 energy:=T -75.947631307645=T gnorm:=T 0.000319605572=T xtb:=T 6.7.1=T (edcfbbe)=T energy=-2066.6403131454636 pbc="F F F"
Mn       0.23233779      -0.08401645       0.54248929      -0.00050978      -0.00596768       0.00091244
N        0.07444464      -1.90929305       0.74960919      -0.00049684       0.00271275       0.00000741
C        1.13360683      -2.89486159       0.55920737       0.00122332      -0.00137492       0.00003426
C        2.20875526      -2.41725210      -0.41684375       0.00017492       0.00062448       0.00103996
P        2.27379454      -0.58752513      -0.24025926      -0.00178816       0.00111650      -0.00041558
C        2.83144835       0.00490252      -1.92605632       0.00075223       0.00024499      -0.00016984
C        4.13667349      -0.61348369      -2.42331623       0.00054331      -0.00038790      -0.00028097
C        1.71170743      -0.20845661      -2.94492057      -0.00013550      -0.00093900      -0.00025081
C        3.80396999      -0.32162450       0.78916778       0.00048710       0.00021833      -0.00123738
C        3.63229587      -0.99310079       2.14953704      -0.00053492       0.00004094       0.00035890
C        4.03058176       1.17934359       0.95089606      -0.00096444       0.00022696       0.00006056
C       -1.07061337      -2.62948671       1.29177959       0.00015880      -0.00057154      -0.00031976
C       -2.24462392      -1.71227988       1.63142196      -0.00030842      -0.00001026       0.00006968
P       -1.98815566      -0.20010048       0.62513166       0.00153075       0.00212974       0.00032682
C       -3.15439259       1.02116462       1.41751459      -0.00039897       0.00001367       0.00035383
C       -3.39428540       2.22189514       0.50351232       0.00002738       0.00000197       0.00034388
C       -2.56093551       1.50645204       2.73783793       0.00120457      -0.00064127       0.00051518
C       -2.83343292      -0.53621843      -1.01354415       0.00078699      -0.00105851       0.00025003
C       -4.30290577      -0.94239276      -0.92358505      -0.00155025      -0.00088940       0.00127077
C       -2.04493340      -1.56970361      -1.81731275       0.00052200       0.00012415      -0.00082351
H        1.58806784      -3.13740997       1.53537568      -0.00002307       0.00063982      -0.00013314
H        0.70083752      -3.83723471       0.17656694       0.00025429       0.00014456       0.00049417
H        3.17573710      -2.89060391      -0.22857298       0.00002932      -0.00036474      -0.00013065
H        1.89606404      -2.64307554      -1.44137768      -0.00023919       0.00021459       0.00019541
H        2.96125493       1.08878393      -1.80166604      -0.00012964      -0.00038233      -0.00036772
H        4.31681785      -0.29468136      -3.44953740       0.00032257      -0.00029803      -0.00001739
H        4.08512206      -1.70089011      -2.41337911       0.00013797      -0.00005151       0.00002674
H        4.98689901      -0.29629463      -1.82519251       0.00027231      -0.00003402       0.00036523
H        1.93716830       0.32387029      -3.86809336      -0.00009602      -0.00127968       0.00067159
H        1.58996522      -1.26356911      -3.18785548       0.00039152      -0.00032809       0.00005316
H        0.76723013       0.17663028      -2.55581271      -0.00034719      -0.00062142      -0.00038048
H        4.65554823      -0.78065550       0.27199258       0.00021287       0.00077266       0.00048122
H        4.44708066      -0.70907911       2.81439079      -0.00014606       0.00018802       0.00042517
H        3.63413464      -2.07779616       2.06001200      -0.00005721       0.00081797      -0.00014197
H        2.69263820      -0.67982201       2.60638198      -0.00008497       0.00002525      -0.00010589
H        3.11768576       1.64946245       1.32304956       0.00065686      -0.00013988      -0.00030938
H        4.83351249       1.36989219       1.66145953      -0.00029449       0.00051807       0.00030346
H        4.29594104       1.64641276       0.00456783      -0.00053357      -0.00012641       0.00075960
H       -0.75760693      -3.18488393       2.19541045      -0.00002996      -0.00010553      -0.00016406
H       -1.40114318      -3.39351315       0.56441906       0.00027113       0.00027730      -0.00016624
H       -2.18897131      -1.40197171       2.67900452      -0.00038584      -0.00040348      -0.00101511
H       -3.21041634      -2.19171687       1.45769947       0.00060682      -0.00012880      -0.00046270
H       -4.09788633       0.49598214       1.61951092       0.00013646       0.00008623       0.00009380
H       -3.99449656       1.96673514      -0.36645209       0.00000282       0.00012426       0.00003646
H       -3.91455746       3.00626475       1.05174181       0.00022659      -0.00002004       0.00015397
H       -2.43854724       2.62260786       0.16429278       0.00032396      -0.00004746       0.00001201
H       -3.27750950       2.13569619       3.26417355       0.00077683      -0.00027839      -0.00048612
H       -2.28936780       0.68010430       3.39262393      -0.00104497       0.00094985      -0.00069650
H       -1.66350991       2.09294102       2.54207274      -0.00102940      -0.00154202       0.00074147
H       -2.75246274       0.42657607      -1.53951738      -0.00036895      -0.00060822      -0.00007782
H       -4.41539920      -1.90168289      -0.42109260      -0.00006351       0.00229915      -0.00074948
H       -4.90322040      -0.20427688      -0.39809576       0.00108329      -0.00085595      -0.00101615
H       -4.70583148      -1.04760109      -1.93092455      -0.00080179       0.00024295       0.00051758
H       -0.97308820      -1.36240213      -1.75566811      -0.00233473      -0.00056041       0.00042923
H       -2.22693085      -2.57573297      -1.44174594      -0.00045389       0.00169069      -0.00083764
H       -2.33925049      -1.54196352      -2.86632035       0.00093897      -0.00040262       0.00150460
C        0.19438944       1.44410626      -0.33554248      -0.00101012       0.00440682      -0.00229274
O        0.17525823       2.46756277      -0.89973752       0.00122365      -0.00397254       0.00192159
C        0.59348804       0.74055807       2.06176621       0.00219670       0.00820162      -0.00038669
O        0.83111349       1.24301891       3.08861950      -0.00131444      -0.00466226      -0.00129445
