60
Properties=species:S:1:pos:R:3 energy:=T -75.947631307645=T gnorm:=T 0.000319605572=T xtb:=T 6.7.1=T (edcfbbe)=T pbc="F F F"
Mn       0.23233779      -0.08401645       0.54248929
N        0.07444464      -1.90929305       0.74960919
C        1.13360683      -2.89486159       0.55920737
C        2.20875526      -2.41725210      -0.41684375
P        2.27379454      -0.58752513      -0.24025926
C        2.83144835       0.00490252      -1.92605632
C        4.13667349      -0.61348369      -2.42331623
C        1.71170743      -0.20845661      -2.94492057
C        3.80396999      -0.32162450       0.78916778
C        3.63229587      -0.99310079       2.14953704
C        4.03058176       1.17934359       0.95089606
C       -1.07061337      -2.62948671       1.29177959
C       -2.24462392      -1.71227988       1.63142196
P       -1.98815566      -0.20010048       0.62513166
C       -3.15439259       1.02116462       1.41751459
C       -3.39428540       2.22189514       0.50351232
C       -2.56093551       1.50645204       2.73783793
C       -2.83343292      -0.53621843      -1.01354415
C       -4.30290577      -0.94239276      -0.92358505
C       -2.04493340      -1.56970361      -1.81731275
H        1.58806784      -3.13740997       1.53537568
H        0.70083752      -3.83723471       0.17656694
H        3.17573710      -2.89060391      -0.22857298
H        1.89606404      -2.64307554      -1.44137768
H        2.96125493       1.08878393      -1.80166604
H        4.31681785      -0.29468136      -3.44953740
H        4.08512206      -1.70089011      -2.41337911
H        4.98689901      -0.29629463      -1.82519251
H        1.93716830       0.32387029      -3.86809336
H        1.58996522      -1.26356911      -3.18785548
H        0.76723013       0.17663028      -2.55581271
H        4.65554823      -0.78065550       0.27199258
H        4.44708066      -0.70907911       2.81439079
H        3.63413464      -2.07779616       2.06001200
H        2.69263820      -0.67982201       2.60638198
H        3.11768576       1.64946245       1.32304956
H        4.83351249       1.36989219       1.66145953
H        4.29594104       1.64641276       0.00456783
H       -0.75760693      -3.18488393       2.19541045
H       -1.40114318      -3.39351315       0.56441906
H       -2.18897131      -1.40197171       2.67900452
H       -3.21041634      -2.19171687       1.45769947
H       -4.09788633       0.49598214       1.61951092
H       -3.99449656       1.96673514      -0.36645209
H       -3.91455746       3.00626475       1.05174181
H       -2.43854724       2.62260786       0.16429278
H       -3.27750950       2.13569619       3.26417355
H       -2.28936780       0.68010430       3.39262393
H       -1.66350991       2.09294102       2.54207274
H       -2.75246274       0.42657607      -1.53951738
H       -4.41539920      -1.90168289      -0.42109260
H       -4.90322040      -0.20427688      -0.39809576
H       -4.70583148      -1.04760109      -1.93092455
H       -0.97308820      -1.36240213      -1.75566811
H       -2.22693085      -2.57573297      -1.44174594
H       -2.33925049      -1.54196352      -2.86632035
C        0.19438944       1.44410626      -0.33554248
O        0.17525823       2.46756277      -0.89973752
C        0.59348804       0.74055807       2.06176621
O        0.83111349       1.24301891       3.08861950
