57
Properties=species:S:1:pos:R:3 energy:=T -86.157867347925=T gnorm:=T 0.000128786742=T xtb:=T 6.7.1=T (edcfbbe)=T pbc="F F F"
Mn      -0.12745993      -0.12827733      -0.66759531
C        2.14929956      -2.18946596      -0.50707731
P        2.06524785      -0.48113045      -0.93099469
C        2.90435312      -0.30591256      -2.55449404
C        2.75564149      -1.33798791      -3.47617803
C        3.32763831      -1.24386990      -4.73086753
C        4.05222154      -0.11444323      -5.07807345
C        4.19785197       0.92028960      -4.16787938
C        3.62365539       0.83010435      -2.91246888
C        3.26980765       0.44356235       0.08845706
C        2.97516479       1.75764910       0.43635787
C        3.86453147       2.49999521       1.19108961
C        5.05794796       1.92908937       1.60425553
C        5.35910391       0.62135448       1.25766642
C        4.47050612      -0.12047695       0.49950474
C        0.93226592      -2.85098146      -0.40755641
C        0.78744848      -4.25280172      -0.18095245
C       -0.45227154      -4.81720874      -0.12723430
C       -1.59904188      -4.02346898      -0.30751720
C       -1.42121184      -2.67328968      -0.51593464
C       -2.55797988      -1.70822254      -0.78850758
N       -2.23011482      -0.39816053      -0.19166688
C       -2.55915811      -0.42060468       1.24980567
C       -4.04586580      -0.41708748       1.62041371
C       -2.82101785       0.76247884      -0.87459239
C       -1.94779621       1.99893454      -0.62184526
N       -0.21169026      -2.10679097      -0.53815206
H        3.08669888      -2.72687063      -0.49606605
H        2.18472461      -2.21322872      -3.19035874
H        3.20843184      -2.04991424      -5.44163105
H        4.50104071      -0.03926009      -6.05847762
H        4.75948633       1.80340620      -4.43987073
H        3.73495793       1.64270269      -2.20678151
H        2.03121210       2.18581380       0.10411575
H        3.63037416       3.52055931       1.46138928
H        5.75375856       2.50412559       2.19864925
H        6.29131073       0.17960690       1.58120191
H        4.70218121      -1.14001243       0.22648502
H        1.68057018      -4.84688181      -0.05952498
H       -0.56352993      -5.87827964       0.04617898
H       -2.58539672      -4.45779096      -0.28982738
H       -2.64003536      -1.59278122      -1.87615929
H       -3.50751202      -2.11139479      -0.41942819
H       -2.08916339       0.44294946       1.72854614
H       -2.09355502      -1.32005334       1.66352087
H       -4.12970220      -0.62186079       2.68506447
H       -4.51097082       0.54806860       1.43345400
H       -4.60556629      -1.18275616       1.08920705
H       -3.85108802       0.95641885      -0.55249595
H       -2.84133947       0.55907172      -1.95051204
H       -2.23334181       2.80312617      -1.29816418
H       -2.05640928       2.35908728       0.40112689
H       -0.85758292       1.78072643      -0.81612796
C       -0.24803001      -0.21170344      -2.44176455
O       -0.18396627      -0.28610003      -3.59425955
C        0.41806294      -0.02943985       1.02238662
O        0.88801338      -0.00970928       2.07701080
