47
Properties=species:S:1:pos:R:3 energy:=T -70.006131852519=T gnorm:=T 0.000159159886=T xtb:=T 6.7.1=T (edcfbbe)=T pbc="F F F"
Fe       0.06243129      -0.37463639      -0.09849250
C        2.31037556      -2.45190201      -0.44755685
P        2.15779927      -0.59026514      -0.57380630
C        3.43252715      -0.02352676       0.66573597
C        4.89328128      -0.22379510       0.27660314
C        3.11335826       1.42017857       1.05149231
C        2.91469527      -0.31315405      -2.26267763
C        2.12467761      -1.08184174      -3.31880408
C        2.90381282       1.17946144      -2.57844602
C        0.95048479      -3.07845117      -0.58171542
C        0.77277951      -4.43139134      -0.82355881
C       -0.50693886      -4.97442937      -0.78146820
C       -1.57079864      -4.16132314      -0.43596883
C       -1.34343199      -2.80847539      -0.21147242
C       -2.30774895      -1.81194728       0.23920434
C       -3.66139224      -1.87240720       0.55803300
C       -4.26445522      -0.69671287       1.00809128
C       -3.57768670       0.49760713       1.13619816
C       -2.20675082       0.52075662       0.79275870
O       -1.33686859       1.44696322       0.77106529
N       -1.67573286      -0.64826210       0.37682845
N       -0.09633849      -2.27105285      -0.35674620
H        2.65181650      -2.65651080       0.57495568
H        3.03621001      -2.88176156      -1.14279539
H        3.20117668      -0.64935645       1.53971988
H        5.07898955      -1.25030334      -0.03533330
H        5.18168299       0.44697560      -0.52965349
H        5.53058049      -0.00845645       1.13340145
H        3.63395392       1.69575515       1.96754408
H        2.03659408       1.51934808       1.21589196
H        3.40767593       2.11928509       0.27169527
H        3.94554777      -0.68714745      -2.24383298
H        2.14019918      -2.15536085      -3.14235447
H        1.08738811      -0.75574954      -3.32904448
H        2.54661873      -0.89488193      -4.30578054
H        3.20522537       1.35516513      -3.61068054
H        3.58257130       1.72895022      -1.93015143
H        1.89881709       1.58064790      -2.44033765
H        1.62825739      -5.05786784      -1.02475641
H       -0.65987909      -6.02396793      -0.98046567
H       -2.56880523      -4.55653291      -0.33286619
H       -4.22571701      -2.78591930       0.46661555
H       -5.31479305      -0.72142370       1.26526733
H       -4.07002889       1.39308029       1.48212321
C       -0.53346130       0.12822788      -1.66491479
O       -1.09761458       0.47642819      -2.60608640
H        0.49997959      -0.68818714       1.27369382
