59
Properties=species:S:1:pos:R:3 energy:=T -70.518726579523=T gnorm:=T 0.000531770064=T xtb:=T 6.7.1=T (edcfbbe)=T pbc="F F F"
Fe       0.08469345      -0.24211564      -0.15862374
N        0.07375878      -2.05592778      -0.11325553
C        1.18854128      -2.92863604       0.24586739
C        2.31042301      -2.16818200       0.94902686
P        2.16018156      -0.41582760       0.37166765
C        2.95486666       0.56051953       1.74917429
C        3.03489649       2.01684714       1.29705923
C        2.09831735       0.45973942       3.00804393
C        3.42761172      -0.29445599      -1.00273687
C        3.04126353      -1.28258424      -2.10264898
C        4.88593967      -0.48198508      -0.59068862
C       -1.02269787      -2.91262570      -0.55848988
C       -2.12042084      -2.09930465      -1.23645620
P       -2.04079153      -0.46987367      -0.37721626
C       -3.02830836       0.65749126      -1.48734094
C       -2.92253376       2.08355853      -0.95215590
C       -4.47880901       0.26548249      -1.75138674
C       -3.09301400      -0.66751237       1.16846856
C       -2.17232253      -0.93801546       2.35768535
C       -4.19160805      -1.72757713       1.10236706
H        0.81868225      -3.73598688       0.90151991
H        1.57059588      -3.41706554      -0.66533012
H        2.13697785      -2.17321799       2.02824693
H        3.29058642      -2.60764490       0.75008143
H        3.95581804       0.15689219       1.94953404
H        3.36227150       2.65704938       2.11579267
H        3.72556288       2.14729955       0.46631229
H        2.04430248       2.33831686       0.97438645
H        2.12960555      -0.53613163       3.44603617
H        2.44608650       1.16766847       3.75957780
H        1.06592371       0.69949446       2.75404154
H        3.28922651       0.72035281      -1.40080057
H        1.96569417      -1.23822215      -2.27984777
H        3.31226390      -2.29901658      -1.82302811
H        3.55447792      -1.03977178      -3.03290037
H        5.51236552      -0.50480248      -1.48278359
H        5.03026085      -1.42056199      -0.05804181
H        5.23576876       0.33146658       0.04023536
H       -0.63023259      -3.67166128      -1.25650991
H       -1.43800980      -3.46304384       0.30280509
H       -3.08634100      -2.60496682      -1.21364795
H       -1.84218052      -1.89557342      -2.27678342
H       -2.46771545       0.60811614      -2.43361136
H       -3.53692799       2.21424455      -0.06276646
H       -3.25350495       2.80086633      -1.70221460
H       -1.88663319       2.29759183      -0.69013276
H       -5.08222366       0.38315083      -0.85391682
H       -4.89565710       0.91647614      -2.52001421
H       -4.55476302      -0.76149820      -2.10340866
H       -3.55160875       0.32065954       1.31182699
H       -1.73891795      -1.93485529       2.29076371
H       -2.72222177      -0.86417261       3.29575179
H       -1.35738568      -0.21467944       2.36367735
H       -4.81537743      -1.65281356       1.99366172
H       -3.76174652      -2.72762194       1.08284016
H       -4.83206331      -1.60836145       0.23284411
C        0.32108237       0.81256068      -1.51642454
O        0.47756695       1.40552365      -2.50799406
H       -0.12771807       0.87014176       0.78985359
