57
Properties=species:S:1:pos:R:3 energy:=T -41.446831717917=T gnorm:=T 0.000032131053=T xtb:=T 6.7.1=T (edcfbbe)=T pbc="F F F"
O       -0.27579747      -3.28107753      -2.18527475
C        0.31342322       0.51837616      -0.25992525
N       -0.39370287      -0.03125379       0.63698448
C       -1.76611561       0.07958832       0.69992346
C       -2.58260030      -0.08745441      -0.42205940
C       -3.95786177      -0.05179344      -0.29246694
C       -4.53907244       0.16478856       0.94615753
C       -3.73464310       0.32950060       2.06414255
C       -2.36048288       0.27389640       1.94961842
C        1.74894182       0.31232496      -0.33441778
C        2.39918050      -0.53892500       0.56253816
C        3.76408172      -0.72787216       0.47832396
C        4.49957387      -0.07301905      -0.49929812
C        3.86395603       0.77350591      -1.39417664
C        2.49762732       0.96652130      -1.31398915
H        0.09593049      -4.10448013      -1.85812364
H       -0.11225508       1.19843831      -1.01287919
H        1.43961411       0.06256196       1.96190078
H       -2.12673551      -0.27574090      -1.38463095
H       -4.58050028      -0.19074554      -1.16523791
H       -5.61448028       0.19784223       1.04183735
H       -4.18491009       0.49426362       3.03269389
H       -1.72447118       0.40126159       2.81288774
H        1.80997340      -1.03911048       1.31559156
H        4.26152862      -1.38728290       1.17480049
H        5.56761415      -0.22234065      -0.56372495
H        4.43651764       1.28359968      -2.15542375
H        2.00207997       1.62741205      -2.01207242
C       -1.22113301      -4.52508816       0.96529109
C       -1.78569218      -3.17107888       0.37439554
C       -2.59391334      -3.58617898      -0.92016878
C       -2.87827517      -2.68751295       1.41052375
O       -0.84596577      -2.26692797       0.14043962
H       -2.01668835      -5.24866316       1.14641264
H       -0.70314335      -4.31766597       1.90053896
H       -0.50242600      -4.94783985       0.26475322
H       -3.06637330      -2.70160482      -1.34486335
H       -1.90258753      -3.99011229      -1.65836667
H       -3.35839661      -4.33103874      -0.69651160
H       -3.35519906      -1.78501646       1.03095766
H       -2.39226238      -2.44423077       2.35425529
H       -3.63722513      -3.45158792       1.58214279
H       -0.58238674      -2.79398735      -1.41589320
C        0.58353050       0.45937893       5.03190609
C        1.42917002      -0.13982567       3.90698067
C        2.90480584       0.23966579       4.08790594
C        1.27930262      -1.66672771       3.88146858
O        0.92711382       0.41910764       2.69661368
H       -0.46231182       0.20597545       4.87889381
H        0.90807018       0.07778643       5.99559464
H        0.67750437       1.54219500       5.02417707
H        3.01440048       1.32173939       4.06422308
H        3.51015985      -0.18716599       3.28913797
H        3.27623063      -0.13053845       5.03954263
H        0.23870113      -1.93369552       3.71020596
H        1.88292834      -2.09692158       3.08320285
H        1.60070420      -2.09400293       4.82737216
