53
Properties=species:S:1:pos:R:3:forces:R:3 energy:=T -69.997733374229=T gnorm:=T 0.000113716001=T xtb:=T 6.7.1=T (edcfbbe)=T energy=-1904.7353436764713 pbc="F F F"
Co       0.16550300      -0.36824763      -0.00092707       0.00178060      -0.00006916       0.00021719
C        2.39162657      -2.45848621      -0.09574388      -0.00023584       0.00026435      -0.00056840
P        2.31689927      -0.71834844       0.12425996      -0.00030323      -0.00012636      -0.00007946
C        3.53474446       0.07357555      -1.04376254      -0.00077538       0.00053459       0.00008720
C        4.94214965      -0.49537055      -0.89982427      -0.00028579       0.00018333      -0.00076849
C        2.99325342      -0.13107185      -2.45566467       0.00000330      -0.00048900       0.00001590
C        2.98554485      -0.35237892       1.83339525       0.00022396       0.00010631       0.00018243
C        1.90985237      -0.85546132       2.79334162       0.00045515      -0.00001644       0.00008866
C        3.27949707       1.12480043       2.06539251       0.00036792       0.00026381      -0.00036667
C        1.14650664      -3.04948207      -0.08025358      -0.00016358      -0.00031076       0.00021116
C        0.94305701      -4.45978990      -0.19345790       0.00024915       0.00034602       0.00032288
C       -0.31258708      -4.97995113      -0.16112669      -0.00038183       0.00004414      -0.00003306
C       -1.41307644      -4.11984812       0.00408260       0.00030299      -0.00094065      -0.00062972
C       -1.17233178      -2.76811846       0.11144637      -0.00037877       0.00049406      -0.00022336
C       -2.29156263      -1.80076609       0.38691826      -0.00003859       0.00059200       0.00003580
N       -1.94026595      -0.43144787      -0.02661139      -0.00036258      -0.00034591      -0.00039960
C       -2.55759552       0.55403497       0.88213862      -0.00042440       0.00005577       0.00021541
C       -4.08593679       0.52442883       0.96435850      -0.00040337      -0.00000327      -0.00015504
C       -2.35813276      -0.18691408      -1.41751659       0.00034579       0.00017242       0.00058734
C       -1.47582144      -0.90971160      -2.42819435      -0.00004533       0.00000805       0.00017690
N        0.04677979      -2.22798069       0.05226417       0.00015913       0.00016290       0.00093955
H        3.30524373      -3.02778421      -0.15755354      -0.00025847      -0.00027077       0.00011708
H        3.54602724       1.14689025      -0.82099049      -0.00014934       0.00004672       0.00026164
H        5.61776641      -0.00272708      -1.59891741       0.00004450      -0.00020879      -0.00090583
H        5.32824043      -0.34951256       0.10683952       0.00031186       0.00074954       0.00030709
H        4.94382914      -1.56035307      -1.12146529       0.00015300      -0.00117909       0.00041038
H        2.00426193       0.31976157      -2.54448708       0.00051393       0.00019556       0.00008306
H        2.90550269      -1.19591433      -2.67004340      -0.00046370       0.00029081      -0.00021040
H        3.65130083       0.32156597      -3.19615642       0.00014430      -0.00024162      -0.00023587
H        3.89924043      -0.94516101       1.97351939       0.00010284       0.00015783      -0.00019176
H        1.76078826      -1.92704523       2.66388509       0.00025645       0.00021027       0.00026783
H        2.18112111      -0.66305353       3.83069444       0.00030032       0.00040477      -0.00018575
H        0.96394985      -0.34828232       2.57180794       0.00024834       0.00017656      -0.00002983
H        3.53805430       1.29541718       3.11044276       0.00030419       0.00019843      -0.00024717
H        4.10990400       1.46777366       1.45214397       0.00038932       0.00004220      -0.00038384
H        2.40225949       1.72392090       1.82819361       0.00049130       0.00000807      -0.00024818
H        1.81294046      -5.09076479      -0.30354540      -0.00005696      -0.00003936       0.00045539
H       -0.47434891      -6.04567956      -0.25185506      -0.00032020      -0.00000817      -0.00004476
H       -2.41866792      -4.50675934       0.05589851      -0.00037317       0.00021998      -0.00037189
H       -3.21812257      -2.13966022      -0.09503552      -0.00032568      -0.00016209       0.00057827
H       -2.45591532      -1.80601282       1.47048267       0.00043395       0.00013808       0.00047722
H       -2.14137920       0.38523158       1.87985820      -0.00046026       0.00026913      -0.00021788
H       -2.24642733       1.55080453       0.56065083      -0.00030167      -0.00021985      -0.00028605
H       -4.40834901       1.26235992       1.69527412      -0.00044445      -0.00024914      -0.00031230
H       -4.45527238      -0.44728336       1.28261157      -0.00024325      -0.00007306      -0.00019053
H       -4.54063738       0.77829426       0.01024675      -0.00015631      -0.00005065      -0.00024011
H       -2.28782973       0.88883049      -1.59933041      -0.00035714       0.00001240      -0.00003435
H       -3.40250858      -0.49601136      -1.56404097       0.00014595      -0.00054165      -0.00002084
H       -0.42040268      -0.68765231      -2.21966161       0.00039849      -0.00021814       0.00044477
H       -1.71298407      -0.56883386      -3.43369375       0.00057032       0.00040336       0.00001207
H       -1.61965289      -1.98687422      -2.38498987       0.00010274      -0.00051341      -0.00032335
C        0.33641395       1.34169222      -0.11215028      -0.00286081      -0.00068543       0.00088774
O        0.51933012       2.48205000      -0.21164783       0.00177033       0.00021132       0.00052154
