53
Properties=species:S:1:pos:R:3 energy:=T -69.997733374229=T gnorm:=T 0.000113716001=T xtb:=T 6.7.1=T (edcfbbe)=T pbc="F F F"
Co       0.16550300      -0.36824763      -0.00092707
C        2.39162657      -2.45848621      -0.09574388
P        2.31689927      -0.71834844       0.12425996
C        3.53474446       0.07357555      -1.04376254
C        4.94214965      -0.49537055      -0.89982427
C        2.99325342      -0.13107185      -2.45566467
C        2.98554485      -0.35237892       1.83339525
C        1.90985237      -0.85546132       2.79334162
C        3.27949707       1.12480043       2.06539251
C        1.14650664      -3.04948207      -0.08025358
C        0.94305701      -4.45978990      -0.19345790
C       -0.31258708      -4.97995113      -0.16112669
C       -1.41307644      -4.11984812       0.00408260
C       -1.17233178      -2.76811846       0.11144637
C       -2.29156263      -1.80076609       0.38691826
N       -1.94026595      -0.43144787      -0.02661139
C       -2.55759552       0.55403497       0.88213862
C       -4.08593679       0.52442883       0.96435850
C       -2.35813276      -0.18691408      -1.41751659
C       -1.47582144      -0.90971160      -2.42819435
N        0.04677979      -2.22798069       0.05226417
H        3.30524373      -3.02778421      -0.15755354
H        3.54602724       1.14689025      -0.82099049
H        5.61776641      -0.00272708      -1.59891741
H        5.32824043      -0.34951256       0.10683952
H        4.94382914      -1.56035307      -1.12146529
H        2.00426193       0.31976157      -2.54448708
H        2.90550269      -1.19591433      -2.67004340
H        3.65130083       0.32156597      -3.19615642
H        3.89924043      -0.94516101       1.97351939
H        1.76078826      -1.92704523       2.66388509
H        2.18112111      -0.66305353       3.83069444
H        0.96394985      -0.34828232       2.57180794
H        3.53805430       1.29541718       3.11044276
H        4.10990400       1.46777366       1.45214397
H        2.40225949       1.72392090       1.82819361
H        1.81294046      -5.09076479      -0.30354540
H       -0.47434891      -6.04567956      -0.25185506
H       -2.41866792      -4.50675934       0.05589851
H       -3.21812257      -2.13966022      -0.09503552
H       -2.45591532      -1.80601282       1.47048267
H       -2.14137920       0.38523158       1.87985820
H       -2.24642733       1.55080453       0.56065083
H       -4.40834901       1.26235992       1.69527412
H       -4.45527238      -0.44728336       1.28261157
H       -4.54063738       0.77829426       0.01024675
H       -2.28782973       0.88883049      -1.59933041
H       -3.40250858      -0.49601136      -1.56404097
H       -0.42040268      -0.68765231      -2.21966161
H       -1.71298407      -0.56883386      -3.43369375
H       -1.61965289      -1.98687422      -2.38498987
C        0.33641395       1.34169222      -0.11215028
O        0.51933012       2.48205000      -0.21164783
