79
 energy: -115.308161400872 gnorm: 0.000166334025 xtb: 6.7.1 (edcfbbe)
Ru           0.34379856628578        0.16372983367527       -0.27605400662565
N           -0.15335996919277       -1.76606499133848        0.58571931380416
C            0.95568787887518       -2.70381113651867        0.50573849977308
C            2.36528574710050       -2.07205134015703        0.60947619570994
P            2.39223428321928       -0.70489822558705       -0.63175849356376
C            2.94043120624152       -1.59093937741692       -2.13487858265571
C            4.25763265051003       -1.58601898621029       -2.58202392451564
C            4.60798911795463       -2.30331472095958       -3.71289465730533
C            3.65161755158769       -3.02854866621060       -4.40441109008082
C            2.33619465387145       -3.02850533088000       -3.96789493286652
C            1.97885285547116       -2.30803040445586       -2.84292576636251
C            3.81364736255617        0.34375160464547       -0.21552410078849
C            4.99486210190326       -0.08113169323743        0.38059250553912
C            5.99231352647574        0.84010340606682        0.65330521560290
C            5.81694570375754        2.17710583035921        0.33280345708547
C            4.63595864738577        2.60681947953209       -0.25438962871738
C            3.63770957934587        1.69021559351377       -0.52224653543259
C           -0.54820253039149       -1.51232850196653        1.96099106133903
C           -1.78512358944207       -0.60209977963398        2.03406128239978
P           -1.59164388970257        0.70280658018475        0.74117906708353
C           -1.44415469562055        2.35987635315660        1.48446878594986
C           -0.57226393178937        3.18924770600379        0.78183036985990
C           -0.38087512542675        4.49898977930295        1.17422334574833
C           -1.06382901428802        4.98448967064942        2.28054122820607
C           -1.93369229687605        4.16457288958673        2.98107853823772
C           -2.13517273333025        2.85361647081945        2.58160891600042
C           -3.29183624573906        0.90062139839606        0.09415589438933
C           -3.44040534512103        1.30720600338872       -1.22649698605242
C           -4.69800821020159        1.54848356789000       -1.74919424003683
C           -5.81744619654208        1.39829084453915       -0.94743592494967
C           -5.67476197796066        1.00849967574183        0.37443826651453
C           -4.41873666407369        0.76057073425716        0.89665092529042
H            0.89033149399755       -3.22422156726712       -0.45804620739489
H            0.85265237928159       -3.45995861984803        1.29681592795284
H            3.13532301574768       -2.82508243507886        0.41754293016528
H            2.52104217260588       -1.61968923734976        1.59390047617443
H            5.01069853147270       -1.01824413066522       -2.05355249920006
H            5.63297222122406       -2.29431849343980       -4.05598500927106
H            3.92988674886370       -3.58715839538995       -5.28649821015673
H            1.58358855906723       -3.58537395011194       -4.50741482509416
H            0.94727422753282       -2.29363549670940       -2.51435150760657
H            5.12960524062999       -1.12468553973096        0.63099844782221
H            6.91162238265354        0.51460251302311        1.11920428545183
H            6.60027654382950        2.88937481973265        0.54837487788700
H            4.49872810962484        3.65181601624011       -0.49405817646884
H            2.68601428107398        1.99983695097809       -0.96431803629669
H            0.27158082017251       -1.06147474285720        2.54877437781041
H           -0.79803673552404       -2.47560534831339        2.43272253177380
H           -2.67752271296816       -1.18347065151982        1.78215253342190
H           -1.89058422754796       -0.17479432963987        3.03495416257758
H           -0.02827387832463        2.76609987839160       -0.08036600698792
H            0.29745139789877        5.14193222846605        0.63116222511266
H           -0.91363300800696        6.00628918861381        2.59773021513625
H           -2.46000557053386        4.55049207014456        3.84243612654168
H           -2.82132750083641        2.21815181949347        3.12394827858927
H           -2.55796284668548        1.43058426405757       -1.84361425759833
H           -4.80531108022294        1.85555028351446       -2.78012343162304
H           -6.80096929642182        1.58714342456537       -1.35275665243117
H           -6.54729653729274        0.89808960108270        1.00197547723553
H           -4.31933340554475        0.45489199005796        1.92812094533417
C           -0.26714736893880       -0.05390442627647       -2.00112902541074
O           -0.53944024608467        0.08374143860118       -3.11935974764978
H            0.99006170376682        0.64152191140752        1.07889290127078
O           -1.46212876335338       -2.79824872237244       -1.72005544499031
C           -2.76594006763116       -2.39012303707246       -2.02751729400092
C           -3.76755348137600       -2.55303594976676       -0.91027388079866
C           -3.43625164493444       -3.19459779777820        0.27431563303181
C           -4.37638434855420       -3.32955748064289        1.28349093144276
C           -5.65691056564882       -2.83317413209056        1.11448048264382
C           -5.99690066975925       -2.20337014843857       -0.07226081397265
C           -5.05754500184581       -2.06232399342970       -1.07609574782403
H           -1.15774060951265       -2.29575283121339       -0.93051611351451
H           -3.08078741939484       -3.00255536158176       -2.88286843460887
H           -2.78047568894588       -1.33725999606835       -2.35535956532515
H           -2.44046525117338       -3.59381596527990        0.39964003155062
H           -4.10684718823547       -3.82894015314850        2.20375523074480
H           -6.39034179784891       -2.94109170932953        1.90063958971736
H           -6.99757446904433       -1.82186104589976       -0.21581437815775
H           -5.32127421132205       -1.56596880888752       -1.99983203749241
