43
Properties=species:S:1:pos:R:3:forces:R:3 energy:=T -59.203319823605=T gnorm:=T 0.000024897949=T xtb:=T 6.7.1=T (edcfbbe)=T energy=-1611.0043896418492 pbc="F F F"
O        0.27015216      -1.52585804      -1.64851193       0.00001111      -0.00000895      -0.00004750
C        0.40902308      -0.38582695      -0.84353357       0.00002333       0.00007384      -0.00000057
N       -0.16880358      -0.60645933       0.46882494       0.00008964       0.00010199      -0.00002562
C       -1.52942722      -0.59451488       0.71295301      -0.00001721      -0.00005231       0.00007935
C       -2.46548953      -0.75784203      -0.30942911       0.00007320       0.00000144       0.00003993
C       -3.81513397      -0.80532594      -0.01523149       0.00000777      -0.00003424       0.00010960
C       -4.26028914      -0.69931428       1.29192758       0.00008663      -0.00001780       0.00010445
C       -3.33576350      -0.54111046       2.31230389       0.00008499      -0.00001098       0.00008143
C       -1.98558356      -0.48702836       2.02978530       0.00010171      -0.00004148       0.00000956
C        1.85883585       0.01598865      -0.65623189       0.00002045       0.00004255      -0.00001370
C        2.77942158      -0.90813179      -0.17336629       0.00003917      -0.00005392      -0.00004849
C        4.10166846      -0.54234541       0.00801006       0.00007817      -0.00001517      -0.00006647
C        4.51549860       0.74657188      -0.28573370       0.00000525      -0.00000163       0.00008802
C        3.60179674       1.67020434      -0.76451667       0.00004108       0.00002011       0.00007346
C        2.27886684       1.30604378      -0.94980751       0.00005843       0.00003859       0.00002678
H        0.53991999      -2.29633374      -1.10787435      -0.00009804       0.00002517       0.00004391
H       -0.12891490       0.41226258      -1.38210635       0.00004250       0.00006030      -0.00000836
H        0.40986325      -0.31370908       1.24239791       0.00005512       0.00012659       0.00000060
H       -2.13260766      -0.85862922      -1.33031016       0.00001495       0.00004974       0.00001657
H       -4.52692116      -0.93102462      -0.81884197       0.00001556      -0.00002640       0.00009569
H       -5.31616315      -0.74001979       1.51470719       0.00007466      -0.00010003       0.00012598
H       -3.66957939      -0.45561321       3.33692723       0.00012462      -0.00009627       0.00008771
H       -1.26795609      -0.35844567       2.82942331       0.00011034      -0.00000860       0.00002365
H        2.46131291      -1.91445918       0.05713697      -0.00002660      -0.00001074      -0.00006164
H        4.81147061      -1.26657911       0.38066320       0.00000422      -0.00003313       0.00000644
H        5.54823886       1.03016107      -0.14374973       0.00003933      -0.00001761       0.00006255
H        3.91928008       2.67646107      -0.99673488       0.00006450       0.00002719       0.00007312
H        1.56753783       2.02761476      -1.32675878       0.00004520       0.00005673       0.00002888
C        0.52970638      -5.32449212      -1.24464943       0.00010160      -0.00003962       0.00012519
C       -0.16674556      -4.66595103      -0.05344114      -0.00011300      -0.00003678      -0.00002866
C       -1.58544773      -4.23095803      -0.43174203      -0.00004205      -0.00006944      -0.00029752
C       -0.20484402      -5.61811991       1.14716108      -0.00023725       0.00005396       0.00001965
O        0.62110210      -3.51936696       0.27760785      -0.00024554       0.00010741      -0.00013921
H        0.00235825      -6.22750833      -1.53732191       0.00016620      -0.00004923       0.00006052
H        1.55283304      -5.57937560      -0.97932912       0.00009855      -0.00004038       0.00027936
H        0.55214061      -4.63691562      -2.08696353       0.00025129      -0.00008283       0.00005468
H       -2.07418412      -3.73647985       0.40742017      -0.00021463      -0.00002418      -0.00037457
H       -1.55408546      -3.53469817      -1.26660244       0.00004184      -0.00011147      -0.00036643
H       -2.17902160      -5.09472655      -0.71823672       0.00004874      -0.00010725      -0.00030913
H       -0.69726411      -5.14191305       1.99389331      -0.00043734       0.00009913      -0.00012035
H        0.80749540      -5.88767108       1.44058730      -0.00026755       0.00019821       0.00020736
H       -0.74982154      -6.52300792       0.89371167      -0.00011199       0.00001560      -0.00000145
H        0.15782010      -3.01781273       0.96203653      -0.00020892      -0.00000814      -0.00001478
43
Properties=species:S:1:pos:R:3:forces:R:3 energy:=T -59.203319823605=T gnorm:=T 0.000024897949=T xtb:=T 6.7.1=T (edcfbbe)=T energy=-1610.9931475772837 pbc="F F F"
O        0.26354725      -1.40066094      -1.69339932       0.00779184      -0.03105724      -0.01436314
C        0.40120251      -0.33773721      -0.78672585      -0.00116197      -0.01245302      -0.01177779
N       -0.16954702      -0.68483423       0.50191844      -0.00261205      -0.00336119       0.00978094
C       -1.53476926      -0.67076536       0.74473288       0.02163783       0.00271955      -0.00070385
C       -2.47132251      -0.72719106      -0.28775264       0.00330302      -0.00570129      -0.01488482
C       -3.82267074      -0.76814861       0.00140008      -0.00567879       0.00197120       0.01478860
C       -4.26628171      -0.76736464       1.31360056      -0.00291148       0.01039036       0.01095747
C       -3.33977494      -0.72720431       2.34422819      -0.01253634       0.00565027      -0.01522282
C       -1.98855157      -0.67668840       2.06563754      -0.00511569      -0.00264584       0.02533664
C        1.85356315       0.05163062      -0.60181090       0.01494389       0.00197514       0.00289325
C        2.76958120      -0.87154796      -0.10674283       0.00472729      -0.00511868      -0.00017716
C        4.10465832      -0.52767613       0.01653799       0.00051252       0.00066146      -0.00984295
C        4.53669804       0.73531110      -0.35304153       0.00115764       0.00755973       0.00559235
C        3.62734712       1.66009746      -0.83698019      -0.00692270      -0.00088622      -0.00907639
C        2.29112265       1.31928058      -0.96021644      -0.00090090       0.00987432      -0.00433506
H        0.59938447      -2.20621458      -1.25321222      -0.01583175       0.00417543       0.00739902
H       -0.14792286       0.49926892      -1.24748460      -0.01138199       0.00710995      -0.00098362
H        0.40478991      -0.43890752       1.29555173       0.00108163       0.01097025       0.00195975
H       -2.13914710      -0.75403438      -1.31350239       0.00100133       0.00798533       0.00272343
H       -4.53657567      -0.80437184      -0.80991311       0.01538068      -0.00476798       0.01530698
H       -5.32354557      -0.79668623       1.53325776       0.01249515      -0.01173167      -0.00451343
H       -3.67187080      -0.73021889       3.37311908      -0.00138241      -0.00010571      -0.01241162
H       -1.26824801      -0.64195956       2.87241469      -0.00306366       0.01044237       0.00276192
H        2.44291406      -1.86267770       0.17396473      -0.00758234       0.00918193      -0.01936509
H        4.81336005      -1.25098043       0.39357304      -0.01712157      -0.00096174       0.00593569
H        5.58070943       0.99801249      -0.26751621       0.01279378       0.00193935       0.01222535
H        3.95940955       2.64579540      -1.12908768      -0.00216830       0.00304513       0.01154318
H        1.58270265       2.04073217      -1.34334140       0.00935235      -0.00648473      -0.00466815
C        0.54118154      -5.44028523      -1.16613644      -0.00268410       0.00343453       0.00143718
C       -0.16491112      -4.63165421      -0.07685245       0.00452970      -0.00358520      -0.00618837
C       -1.55120204      -4.18062234      -0.54711702       0.00473859      -0.00777470      -0.00301300
C       -0.28110986      -5.45628881       1.21154100       0.00167508       0.00767682      -0.00992664
O        0.66247577      -3.49150934       0.15704510      -0.02024122       0.02017414       0.01141737
H       -0.01287750      -6.34785426      -1.38609942      -0.00043449       0.00149047      -0.00028002
H        1.54201172      -5.70354501      -0.83276897       0.00256204      -0.01070901      -0.01005219
H        0.62576359      -4.84438306      -2.07170551      -0.00655367      -0.00223462      -0.00985371
H       -2.06021834      -3.61604386       0.23382097       0.01311153      -0.00220422       0.00218157
H       -1.45990673      -3.54372875      -1.42437139      -0.00059782      -0.00220499      -0.00400025
H       -2.16147943      -5.04212166      -0.80308056       0.00025912      -0.01347460       0.00082820
H       -0.77889412      -4.88300376       1.99230622      -0.00298962       0.01867342      -0.01780534
H        0.70983567      -5.73391388       1.56456095      -0.00100433       0.00000046      -0.00108203
H       -0.85424848      -6.36051706       1.02647270      -0.00228590       0.00208119       0.00596118
H        0.17511248      -2.87104745       0.71962921       0.00010808      -0.02172017       0.03349739
43
Properties=species:S:1:pos:R:3:forces:R:3 energy:=T -59.203319823605=T gnorm:=T 0.000024897949=T xtb:=T 6.7.1=T (edcfbbe)=T energy=-1610.9099080529609 pbc="F F F"
O        0.27135222      -1.25136539      -1.74892725      -0.04384711       0.09737519      -0.08101613
C        0.39595822      -0.27451931      -0.73903755      -0.00024287      -0.03063468      -0.03278046
N       -0.17698584      -0.74566588       0.50775342       0.00562665      -0.05006850      -0.01841465
C       -1.54179692      -0.72430054       0.76399375       0.02677819      -0.01651711      -0.00148200
C       -2.48147025      -0.68355893      -0.26596756       0.00032469      -0.01057708      -0.04015480
C       -3.83299923      -0.72988469       0.02267883      -0.00180637       0.01029751       0.02902035
C       -4.27169137      -0.82821639       1.33280645       0.03168041       0.00604272       0.04263363
C       -3.34248435      -0.88428751       2.36104030       0.02651200       0.01998685      -0.02518213
C       -1.99041466      -0.82897355       2.08225225       0.00570264      -0.00951660       0.03032094
C        1.84869262       0.10242775      -0.55196199      -0.00588241      -0.00329943       0.02363748
C        2.75601560      -0.82677813      -0.04886425       0.02733445       0.00776937      -0.00837000
C        4.10227920      -0.51061015       0.02330020       0.01205049       0.00768369      -0.02392126
C        4.55224620       0.72603719      -0.40915740       0.01257295       0.01134075       0.00027750
C        3.65097217       1.65645437      -0.89778452       0.02113331      -0.01039622      -0.01318341
C        2.30408950       1.34655162      -0.96612414       0.00218923      -0.01153500      -0.00083113
H        0.87352191      -1.98158889      -1.54935501      -0.02796815      -0.09671152       0.10075487
H       -0.17385518       0.58660133      -1.12135862       0.00265656      -0.00687584       0.01426603
H        0.41188465      -0.63841845       1.32030374       0.01286791       0.04474563       0.02326428
H       -2.15216410      -0.63749221      -1.29242491       0.00188444       0.00454578       0.01236665
H       -4.54982003      -0.69469271      -0.78663126       0.02797141      -0.00166372       0.02884572
H       -5.32715189      -0.86220134       1.55500502      -0.02616000      -0.01414631      -0.00659807
H       -3.67006816      -0.96668243       3.38905725      -0.00277430       0.00351119      -0.05249086
H       -1.26643916      -0.87219416       2.88637530      -0.02591327       0.00637560      -0.02462942
H        2.42102249      -1.80231754       0.27629129      -0.02447629       0.01172932      -0.03003119
H        4.80821324      -1.23842094       0.39810900      -0.04685702       0.00992535       0.01903889
H        5.60537102       0.96345178      -0.37347980       0.00369198      -0.00465002       0.02137532
H        3.99955653       2.61749328      -1.24585030      -0.00390422       0.02131895       0.02972516
H        1.60160065       2.06888457      -1.35470023      -0.00916790       0.01609371      -0.02014791
C        0.54088095      -5.52340264      -1.06696270      -0.00660665      -0.00981095       0.00186195
C       -0.17417526      -4.62416319      -0.05418002       0.02276193       0.00247864      -0.01382087
C       -1.52912359      -4.16288058      -0.59840823       0.01380912      -0.00887951      -0.00904744
C       -0.36682019      -5.37208433       1.27380652       0.01114017       0.01260132      -0.01379692
O        0.69267949      -3.51037216       0.14795550      -0.01551526       0.02009547      -0.04363467
H       -0.02605622      -6.43061574      -1.25107351      -0.00503225      -0.01233181       0.00249931
H        1.52236374      -5.78244965      -0.67740945       0.00442959      -0.03970655      -0.02667934
H        0.67485418      -4.98692218      -2.00376713      -0.01781247      -0.02016897      -0.01106515
H       -2.05771607      -3.55390318       0.13524029       0.04116328      -0.00907306       0.00914675
H       -1.39634821      -3.57066864      -1.50220508       0.02675402      -0.00161908       0.00191607
H       -2.14723133      -5.02485572      -0.83531754      -0.00374003      -0.00506847      -0.00889697
H       -0.87351992      -4.74101187       2.00170111       0.00041015       0.02838709      -0.03000913
H        0.60347020      -5.65247910       1.67699497      -0.00038735      -0.01019793       0.01300537
H       -0.95821781      -6.27044896       1.11754105       0.00194726       0.01434208       0.00305593
H        0.15182069      -2.72173472       0.30519602      -0.07529889       0.02680214       0.12917171
43
Properties=species:S:1:pos:R:3:forces:R:3 energy:=T -59.203319823605=T gnorm:=T 0.000024897949=T xtb:=T 6.7.1=T (edcfbbe)=T energy=-1610.8306066304656 pbc="F F F"
O        0.28520876      -1.43167575      -1.55747541       0.11281548       0.04741746       0.00826877
C        0.39252957      -0.27289614      -0.69635349       0.13028821       0.11909439       0.03875387
N       -0.19439415      -0.49081829       0.58466896       0.15158634      -0.06494094      -0.02620725
C       -1.55077341      -0.66459831       0.79847570       0.07647282      -0.00865999      -0.01426879
C       -2.47883376      -0.61952831      -0.24029306      -0.03231439       0.01526514       0.01880647
C       -3.83031151      -0.71421859       0.03013336      -0.07961692      -0.01517661       0.09507480
C       -4.27840377      -0.85584648       1.33364187      -0.01516003      -0.06594002       0.04643443
C       -3.35749746      -0.94156527       2.36995202      -0.02694787       0.00793052      -0.06872786
C       -2.00483867      -0.85213700       2.10754495      -0.06659926       0.02101432      -0.05521735
C        1.85198285       0.11023356      -0.54540519       0.02160655       0.05405736      -0.03907334
C        2.76703626      -0.81294262      -0.03795418      -0.08559511      -0.00558306      -0.03956032
C        4.11527299      -0.49910803       0.02092221      -0.08141939      -0.04946891      -0.00036364
C        4.56437400       0.73222319      -0.42373843      -0.03631133      -0.01040662      -0.00721459
C        3.66151294       1.65545414      -0.91977321      -0.07450710       0.00243627      -0.01103364
C        2.31096461       1.34997375      -0.97636628      -0.02100817      -0.01122743      -0.02797746
H        1.15487331      -1.62865536      -1.93851001      -0.20148967       0.10454373       0.09747609
H       -0.17621290       0.54697229      -1.16732596       0.11629938      -0.11173599      -0.13020887
H        0.40752227      -0.92033642       1.26966896       0.01633873      -0.06396636       0.07133838
H       -2.14915006      -0.53310342      -1.26246792       0.03264388       0.01133562      -0.02478114
H       -4.53640712      -0.69074819      -0.78975123       0.00802400       0.03048076       0.06043956
H       -5.33702489      -0.91845306       1.54287376       0.02328741      -0.01255636      -0.01056152
H       -3.69441567      -1.07882248       3.39047461       0.00126664       0.01672974      -0.09432880
H       -1.29079684      -0.91777339       2.91593652       0.03243381      -0.00232177      -0.02585208
H        2.42413624      -1.78513985       0.29716282       0.03729870       0.06247361      -0.02162451
H        4.82003665      -1.22532968       0.39702315      -0.02094466      -0.01655727       0.04436804
H        5.61480665       0.97157937      -0.39085621       0.07313344      -0.00117979       0.01141376
H        4.01504505       2.60898195      -1.28158656      -0.03566563       0.04564235       0.02486419
H        1.61320030       2.07706850      -1.36986985       0.00750157      -0.05720051       0.01384759
C        0.53743780      -5.48721176      -1.01255724      -0.01225819       0.01461827       0.02552719
C       -0.21556374      -4.62312030       0.01232730      -0.01369241       0.00611374       0.01083908
C       -1.56591943      -4.18539591      -0.56493718      -0.00074924      -0.02089519       0.01049859
C       -0.41425857      -5.40235954       1.31450896       0.00927843       0.00242480       0.00458335
O        0.56693496      -3.48354022       0.34123609      -0.02398016       0.00437022       0.00371073
H       -0.02407237      -6.39455383      -1.21542752       0.01826885      -0.01666894      -0.02715230
H        1.51612060      -5.75380121      -0.61973390      -0.00325836      -0.01502013       0.00482185
H        0.67861413      -4.94265977      -1.94438102      -0.03044695       0.01843968       0.00521014
H       -2.09740407      -3.55482678       0.14567017       0.00786343      -0.00922369       0.02587421
H       -1.42047314      -3.61435031      -1.48105784       0.01892780      -0.00279413       0.00686933
H       -2.17918151      -5.05379105      -0.79027603      -0.01121326      -0.00614783       0.00249589
H       -0.93337974      -4.77487987       2.03483521      -0.01908728      -0.01106531       0.01422489
H        0.55663225      -5.66644468       1.72580989      -0.00145084      -0.02785369       0.02496208
H       -0.99145346      -6.30586460       1.14286436      -0.00314659      -0.00454847      -0.01093464
H        0.34881980      -2.79825020      -0.31317934       0.00152731       0.02675102      -0.03561521
43
Properties=species:S:1:pos:R:3:forces:R:3 energy:=T -59.203319823605=T gnorm:=T 0.000024897949=T xtb:=T 6.7.1=T (edcfbbe)=T energy=-1610.7050790615385 pbc="F F F"
O        0.33340936      -1.21169901      -1.61984041      -0.10219429      -0.11470108       0.07457518
C        0.44397245      -0.19690358      -0.59980513      -0.18661665       0.06380322       0.02750933
N       -0.17427115      -0.66640459       0.59555419      -0.07277092       0.18772450      -0.02273841
C       -1.53477325      -0.77082084       0.79733582      -0.14810442      -0.00771802       0.05768123
C       -2.49059010      -0.57987742      -0.20645102      -0.03261699      -0.00072202       0.01106215
C       -3.84454447      -0.66838094       0.07772137      -0.00403973       0.01809556      -0.04449461
C       -4.29934395      -0.94892228       1.35313717       0.09728472      -0.00351605      -0.00950907
C       -3.36102663      -1.17019614       2.34582154       0.02421628      -0.03854841       0.08104247
C       -2.00950902      -1.08421575       2.07725740       0.01022304      -0.03581176       0.02356121
C        1.89421182       0.16553467      -0.42737930      -0.12305059      -0.05116866      -0.02819994
C        2.78856231      -0.75468097       0.09817361       0.00692417      -0.02295698      -0.06942244
C        4.14245234      -0.47129283       0.06759218      -0.01617171       0.00196573      -0.04059846
C        4.58507879       0.71583984      -0.49707964       0.04477750       0.02054242      -0.02188495
C        3.68938435       1.64206438      -1.00991832      -0.02325626      -0.02790369       0.01106942
C        2.33601431       1.36749385      -0.96420994      -0.02444942      -0.10861464      -0.03011959
H        0.87161073      -0.97728369      -2.38640266      -0.01625747       0.07611587       0.14143630
H       -0.06281285       0.72078174      -0.95662272      -0.32647910      -0.20659380      -0.03414175
H        0.41626756      -0.92559930       1.37452317      -0.07348984      -0.04265549      -0.25920597
H       -2.18508364      -0.38364655      -1.22103143       0.07415238       0.02219942      -0.03398943
H       -4.57514481      -0.52645334      -0.70442185       0.07914471       0.05604523      -0.15471740
H       -5.35691799      -1.00357391       1.57446574       0.08213773      -0.01199165      -0.06544974
H       -3.69985613      -1.41787052       3.34080054       0.08014557       0.00116538       0.08913287
H       -1.30317477      -1.27204116       2.87060926       0.10856892       0.00651193       0.05763728
H        2.40569325      -1.69675748       0.46682563       0.14764924       0.01126497       0.04137548
H        4.84906075      -1.19743988       0.44520434       0.00367352       0.08767373       0.01132750
H        5.64181024       0.90973751      -0.56353492       0.14892589       0.04444649       0.03807184
H        4.02625419       2.55731130      -1.47831616       0.09554609      -0.06404955       0.11849925
H        1.60396121       2.05041794      -1.37804021       0.15516013       0.05487985       0.01864174
C        0.51504638      -5.68918741      -0.89132183      -0.02520893       0.00909452       0.04098211
C       -0.20636857      -4.65069813      -0.01063896       0.00601188       0.03959217       0.02198299
C       -1.49262125      -4.17905935      -0.69812799       0.00521751       0.03685159       0.02037951
C       -0.51853868      -5.19692397       1.39128477       0.01729568       0.00158140      -0.05283511
O        0.65469699      -3.53349282       0.19684378       0.04003336      -0.02401176      -0.02647849
H       -0.08762033      -6.58597645      -1.01140762      -0.03823359       0.03182758       0.04341596
H        1.47089860      -5.96643416      -0.45046852      -0.04790545       0.03540093       0.06248033
H        0.71012462      -5.26913045      -1.87773753      -0.02509396       0.01935652       0.04046423
H       -1.98544064      -3.44283288      -0.06622414      -0.03903188       0.03904435      -0.04660471
H       -1.24461989      -3.71046839      -1.64983166      -0.04057193       0.02584239       0.00049714
H       -2.19156820      -4.99120429      -0.88786345       0.13101106      -0.06842994       0.07372007
H       -1.04919469      -4.43197473       1.95465337       0.02228097       0.00627898       0.00737638
H        0.40623750      -5.42646309       1.91505981       0.02749383       0.00156207      -0.04605895
H       -1.13499675      -6.08973522       1.35888624      -0.00254428      -0.03300414      -0.13980410
H        0.50556575      -2.88379962      -0.50862069      -0.03978678      -0.03646916       0.01233116
43
Properties=species:S:1:pos:R:3:forces:R:3 energy:=T -59.203319823605=T gnorm:=T 0.000024897949=T xtb:=T 6.7.1=T (edcfbbe)=T energy=-1609.2086878937973 pbc="F F F"
O        0.44704894      -1.65356336      -1.80766611       0.04349267      -0.03663778       0.08537604
C        0.39481777      -0.24511217      -0.31554229      -0.04769787       0.04787214       0.06197501
N       -0.19646032      -0.91590306       0.64692944      -0.05135600       0.05409063      -0.01078084
C       -1.59115108      -0.86829817       0.83267584       0.00779064      -0.03946779       0.01258108
C       -2.51169713      -0.65340337      -0.19072483       0.03813763      -0.01692772      -0.00318118
C       -3.86719279      -0.68584301       0.08447065       0.02843150       0.01219474       0.04892090
C       -4.31608100      -0.91436878       1.37473216      -0.03262666      -0.02338013       0.03170196
C       -3.40552007      -1.13251534       2.39697765       0.06765021       0.02326926      -0.02265235
C       -2.05026237      -1.11430068       2.12684683       0.04526286      -0.02725520       0.00931553
C        1.83356274       0.04674591      -0.33443133      -0.00088050      -0.00829986       0.03228690
C        2.78718141      -0.83518166       0.17735072       0.00771116      -0.05541781      -0.02074913
C        4.13536897      -0.55156871       0.05276389      -0.01798054      -0.00992382      -0.02696908
C        4.55148295       0.62123909      -0.55970027       0.00782040       0.00722755       0.04448848
C        3.61376320       1.53228036      -1.01919001      -0.03712158      -0.04351341      -0.01531288
C        2.26412760       1.24630387      -0.91133520      -0.00501541      -0.03314486      -0.04320031
H        1.32934308      -1.60297408      -2.18192329      -0.03959751       0.01591968      -0.04016663
H       -0.19638714       0.49409547      -0.85407606      -0.04516848       0.04017744      -0.02508255
H        0.16752886      -2.03530899       0.71027635       0.10810673       0.00481835      -0.06518476
H       -2.16867863      -0.51625450      -1.20571355       0.00969393      -0.00399885       0.01700047
H       -4.57780048      -0.54755236      -0.71618338      -0.01270903       0.03281999      -0.02216869
H       -5.37487532      -0.93820083       1.58354830      -0.02353796      -0.00200215      -0.01199026
H       -3.74872450      -1.32542005       3.40363696      -0.01028909       0.01580038      -0.03417061
H       -1.32346218      -1.28968291       2.90830929      -0.04626324      -0.00055080      -0.02830362
H        2.46101337      -1.75727669       0.63263141       0.00630976      -0.02364014      -0.02593505
H        4.86987745      -1.25926622       0.41016368      -0.03353000       0.02567212       0.04151216
H        5.60531286       0.82582377      -0.67642548       0.01043892       0.00748843       0.01579418
H        3.93738654       2.45284800      -1.48609583      -0.03964156      -0.03503953       0.05108292
H        1.53932342       1.96103976      -1.27829832      -0.00486714      -0.07623237      -0.01839465
C        0.59548441      -5.31971971      -0.86151424       0.01661960      -0.03640066      -0.01187716
C       -0.17662665      -4.32050921       0.01521750      -0.01007507      -0.03510860      -0.01743944
C       -1.52065373      -4.01584553      -0.66450120      -0.03043086       0.01822305      -0.00011056
C       -0.44320720      -4.96653392       1.38365165      -0.01189120      -0.01697943       0.00163793
O        0.62094366      -3.17140138       0.13433322       0.01410281      -0.01053928       0.01491074
H        0.01813612      -6.23099401      -0.98647929       0.02587233      -0.04111939      -0.04957533
H        1.54789105      -5.56291276      -0.39671427       0.02651455       0.00686198       0.00001927
H        0.78960425      -4.87764975      -1.83660850      -0.00588615      -0.03092617      -0.02197563
H       -2.14214750      -3.38484506      -0.03490835      -0.00317065       0.03019107       0.03555141
H       -1.34938002      -3.50416460      -1.60876773      -0.03569065       0.01457966      -0.01591069
H       -2.05774681      -4.94064540      -0.85947397       0.00009931      -0.00300846      -0.00923361
H       -1.00424970      -4.29914313       2.03544851       0.05040135       0.06635584      -0.04056417
H        0.49088516      -5.23841653       1.87126072       0.01093577       0.08475439      -0.00721430
H       -1.02710554      -5.87038429       1.22936455      -0.02052360      -0.02175044       0.07014017
H        0.53162211      -2.47747590      -0.98786202       0.04055865       0.12294793       0.01384835
43
Properties=species:S:1:pos:R:3:forces:R:3 energy:=T -59.203319823605=T gnorm:=T 0.000024897949=T xtb:=T 6.7.1=T (edcfbbe)=T energy=-1610.2781122300903 pbc="F F F"
O        0.70858396      -1.95979989      -2.18445164      -0.02497885       0.00310109      -0.07550998
C        0.34149843       0.14496423      -0.10279277      -0.01824531       0.03432129       0.03064783
N       -0.20651109      -0.69944120       0.67159830       0.01520065       0.01281852       0.01184763
C       -1.57987273      -0.74949702       0.85556379       0.00780439       0.01227077      -0.00560324
C       -2.50233316      -0.61942583      -0.18514066      -0.00265265      -0.00602415      -0.00527516
C       -3.85616780      -0.71780002       0.07719952      -0.00469190       0.01077562       0.02401074
C       -4.30681581      -0.93188078       1.37034467      -0.00208214      -0.03740665       0.00647309
C       -3.39375943      -1.09143607       2.40211183       0.00775630       0.01468261      -0.00127452
C       -2.03910441      -1.01492716       2.14799567       0.00898053      -0.00575691      -0.00449654
C        1.77899517       0.25212492      -0.28272217      -0.02455913       0.02660652       0.02767587
C        2.67733663      -0.71831387       0.17165742      -0.01091822       0.01060233      -0.00232544
C        4.03796173      -0.53252695       0.01189033      -0.01016455       0.00503229      -0.01271100
C        4.52405777       0.62035841      -0.58741631       0.00315076       0.01254831       0.01396361
C        3.64117831       1.58478709      -1.04686768       0.00118361      -0.00215287      -0.01842232
C        2.28004219       1.39874245      -0.90417918      -0.00143312      -0.00163587      -0.00749434
H        1.63165593      -1.75324417      -2.34123436       0.02384515       0.00233524      -0.00593399
H       -0.24965254       0.90166046      -0.63454892       0.01172452       0.05161064       0.02750148
H        0.16559999      -2.64792495       0.75826675       0.07780927      -0.01345112      -0.05943925
H       -2.14807999      -0.48148988      -1.19678344       0.01933604       0.00581275       0.00810809
H       -4.56707460      -0.62425086      -0.73153409       0.01576792       0.01042558      -0.00287369
H       -5.36613689      -0.98842914       1.57420382       0.00464494      -0.01756689      -0.01782431
H       -3.73870208      -1.28081674       3.40834885      -0.01543279       0.00747016      -0.00189551
H       -1.31473151      -1.13066434       2.94114013      -0.01034465       0.00636898       0.00766152
H        2.29730277      -1.61652417       0.63113456      -0.01087076       0.01116222       0.01634467
H        4.73104885      -1.28652913       0.35582980      -0.02791725      -0.01409574       0.01927545
H        5.58865340       0.77147705      -0.69381376      -0.00568214      -0.02594856      -0.01102677
H        4.01611997       2.48161603      -1.51767176       0.00544178       0.00762893      -0.00873040
H        1.59127451       2.15004468      -1.26468986       0.00692329       0.01005459      -0.00127889
C        0.57889080      -5.39785122      -0.86162235      -0.03728557      -0.04987480       0.00465131
C       -0.20926297      -4.45716043       0.05248474       0.07226676      -0.02852786      -0.03828608
C       -1.52655934      -4.04741444      -0.60982429      -0.05016013       0.03867836      -0.03020922
C       -0.49461451      -5.11629371       1.40446367      -0.00344638      -0.01839407       0.03968077
O        0.63652880      -3.32492254       0.23861219      -0.08340894       0.05040309       0.05669755
H        0.02812180      -6.31959090      -1.02696491       0.01002356       0.01183294      -0.00933963
H        1.53787514      -5.63070323      -0.40544557       0.00149630      -0.00594966      -0.00819552
H        0.75794892      -4.91000512      -1.81718758      -0.00622694      -0.03111341       0.00973469
H       -2.10260647      -3.39827930       0.04688771       0.00009711       0.00508172       0.02506886
H       -1.33765204      -3.51408409      -1.53836786       0.02495521       0.00412601      -0.01240662
H       -2.12263608      -4.92723645      -0.83106542      -0.01497716      -0.04463054      -0.00743421
H       -1.04532236      -4.43085179       2.04779774       0.01033774      -0.00802179      -0.00236803
H        0.43716909      -5.38474812       1.89662535       0.01976047       0.01103127       0.00381141
H       -1.08752314      -6.01547121       1.26438135      -0.01756801      -0.00909553       0.01148239
H        0.68957053      -2.42850051      -1.32775980       0.03454027      -0.05713541       0.00571770
43
Properties=species:S:1:pos:R:3:forces:R:3 energy:=T -59.203319823605=T gnorm:=T 0.000024897949=T xtb:=T 6.7.1=T (edcfbbe)=T energy=-1610.3352168011047 pbc="F F F"
O        0.99418593      -2.08806453      -2.32753843      -0.01232306      -0.02478216       0.02063630
C        0.32112186       0.25901650       0.03524582      -0.00988384       0.00420125       0.00697326
N       -0.22286240      -0.68361162       0.68964176       0.00098643      -0.00054050      -0.00125749
C       -1.59080275      -0.74709212       0.89996601       0.00643324      -0.00178183      -0.00167079
C       -2.51889589      -0.53224969      -0.12085294      -0.00101271       0.00008198      -0.00488567
C       -3.86956604      -0.68319779       0.13106286      -0.00244028       0.00215797       0.00443633
C       -4.31152351      -1.03309965       1.39683366       0.00040072      -0.00881498       0.00061430
C       -3.39256051      -1.25822972       2.41090638      -0.00012313      -0.00079210       0.00240412
C       -2.03985883      -1.13264269       2.16493652       0.00160500      -0.00525641       0.00311204
C        1.74781071       0.32905181      -0.21495631       0.00009117       0.01009123       0.00948832
C        2.62898305      -0.66748764       0.21584882       0.00025338       0.00163542       0.00527327
C        3.98425408      -0.54710963      -0.02449308      -0.00559421       0.00083331      -0.00290181
C        4.48199924       0.56383832      -0.69016581       0.00032165       0.00106620       0.00238244
C        3.61593733       1.55499297      -1.12566497       0.00252784      -0.00178442      -0.00523713
C        2.25923234       1.43914698      -0.89178416       0.00309403       0.00241105       0.00019453
H        1.85816788      -1.67400987      -2.28607323       0.02178787       0.01064238      -0.00855437
H       -0.26273660       1.10662858      -0.34663259      -0.00778625       0.01190048       0.01035827
H        0.21081524      -2.58196133       0.57989404       0.03788136      -0.04732059      -0.04980143
H       -2.16695132      -0.28889707      -1.11355650       0.00393994       0.00638101       0.00677708
H       -4.58204103      -0.52660023      -0.66609072       0.00195885       0.00598626      -0.00055486
H       -5.36842687      -1.13909096       1.59145848      -0.00069374      -0.00807206      -0.00498319
H       -3.73323773      -1.54046932       3.39661627      -0.00315845      -0.00117930      -0.00068081
H       -1.31328677      -1.30207772       2.94634605      -0.00460304       0.00034994      -0.00006159
H        2.23754922      -1.53065673       0.72914198       0.00755382       0.00467198       0.00918053
H        4.66023066      -1.32073541       0.30959207      -0.01002635      -0.00070886       0.00230901
H        5.54337746       0.65856930      -0.86717597      -0.00106978      -0.00594412      -0.00966586
H        4.00115413       2.41981964      -1.64578232       0.00167560       0.00046783      -0.00426768
H        1.58425901       2.21237648      -1.23166056       0.00534543       0.00315599       0.00100562
C        0.56058831      -5.49482353      -0.76376239      -0.00581727      -0.01385605       0.00025806
C       -0.21323414      -4.43656798       0.02530375      -0.00213694      -0.01878600      -0.01276990
C       -1.48424748      -4.03190696      -0.72732101      -0.02069414       0.01488211      -0.01795071
C       -0.57845829      -4.95821209       1.41880906      -0.00080030      -0.00175572       0.03589171
O        0.67106010      -3.32531589       0.14419886      -0.03472889       0.05721718       0.02391396
H       -0.02376476      -6.40333983      -0.87331592      -0.03544722       0.00966477       0.01889675
H        1.48606883      -5.72917145      -0.24484880       0.03112992      -0.00290985      -0.01045636
H        0.80113853      -5.10849638      -1.75078075       0.02311375      -0.00068061      -0.01063859
H       -2.05324319      -3.30278161      -0.15209116       0.00093247      -0.01798130      -0.01069872
H       -1.22918722      -3.59113982      -1.68906926       0.00712783      -0.00356045       0.00875281
H       -2.10906726      -4.90458110      -0.89727126      -0.00993506       0.00576262      -0.00304601
H       -1.12774706      -4.19765909       1.97297512       0.00934007      -0.01133422      -0.00434335
H        0.32435531      -5.21003552       1.97132939      -0.00058763       0.00962955       0.00113062
H       -1.19833919      -5.84722337       1.33719031      -0.00304787       0.01635295       0.00622212
H        0.90004536      -2.56716212      -1.47995525       0.00440979      -0.00170192      -0.01578509
43
Properties=species:S:1:pos:R:3:forces:R:3 energy:=T -59.179405858755=T gnorm:=T 0.000165444664=T xtb:=T 6.7.1=T (edcfbbe)=T energy=-1610.354107613785 pbc="F F F"
O        1.20132633      -2.14796864      -2.43194496       0.00375959      -0.00203238       0.00008303
C        0.31275224       0.30727136       0.15767440      -0.00091195      -0.00036919      -0.00008960
N       -0.23636465      -0.68848463       0.72321152      -0.00084678       0.00111031       0.00022567
C       -1.60146618      -0.76378811       0.94558402       0.00230137       0.00104294       0.00252805
C       -2.53401861      -0.45796287      -0.04755872      -0.00089203      -0.00147658      -0.00018755
C       -3.88269015      -0.64714326       0.18836844      -0.00048174      -0.00076574       0.00158451
C       -4.31861540      -1.12815846       1.41232754      -0.00077851      -0.00092679      -0.00017486
C       -3.39626676      -1.43170090       2.40256979      -0.00027239       0.00141119       0.00088932
C       -2.04524235      -1.26457684       2.17140370       0.00085238       0.00015947      -0.00001033
C        1.73089271       0.35592129      -0.14272280      -0.00118520      -0.00087434      -0.00009139
C        2.60931371      -0.64931103       0.27303262      -0.00048755       0.00114284       0.00018338
C        3.95117291      -0.57538365      -0.04679177      -0.00019604      -0.00044219      -0.00027201
C        4.43849895       0.49665637      -0.78036670       0.00006232       0.00058730      -0.00069565
C        3.57694330       1.50226807      -1.19119661      -0.00037019      -0.00013174      -0.00120259
C        2.23396890       1.43573144      -0.87270310       0.00065175       0.00152878      -0.00009560
H        2.00294669      -1.64095539      -2.28722206       0.00353363      -0.00168723       0.00128851
H       -0.26067860       1.20093016      -0.12150719      -0.00009633      -0.00035953      -0.00057872
H        0.26188116      -2.51409374       0.42415494      -0.00018092      -0.00032660      -0.00039766
H       -2.18587175      -0.11205815      -1.01076467      -0.00032419       0.00011551       0.00010460
H       -4.59723034      -0.41879779      -0.58935067      -0.00016530      -0.00033335       0.00049150
H       -5.37352504      -1.27255180       1.59222678       0.00039978      -0.00035514       0.00131124
H       -3.73310324      -1.80946661       3.35707113       0.00050339      -0.00027865       0.00091947
H       -1.31735718      -1.49170498       2.93671993       0.00038292       0.00009695       0.00023975
H        2.22848712      -1.48151593       0.84206322       0.00008036       0.00002893       0.00001673
H        4.62269150      -1.35744350       0.27570884       0.00052270       0.00088505       0.00033350
H        5.48822328       0.54993270      -1.02928530      -0.00011859       0.00054808      -0.00035428
H        3.95504446       2.33926807      -1.75983149      -0.00087451       0.00031104      -0.00047947
H        1.56320510       2.21963661      -1.19573360      -0.00106084      -0.00029474      -0.00083220
C        0.54986386      -5.54426189      -0.65796148      -0.00090762       0.00069321      -0.00002584
C       -0.20972925      -4.38651721      -0.00622904      -0.00017362       0.00138399      -0.00186063
C       -1.43712010      -4.01598660      -0.84639768       0.00049804      -0.00031372      -0.00039391
C       -0.63938405      -4.75599585       1.41818191      -0.00135942       0.00050276       0.00090928
O        0.70490161      -3.29484573       0.03904198      -0.00018109       0.00055961       0.00052349
H       -0.07608556      -6.43048462      -0.70456320      -0.00008327      -0.00090294      -0.00075782
H        1.44438209      -5.76795647      -0.08193901      -0.00082675      -0.00059771       0.00046115
H        0.84901912      -5.26551460      -1.66550863       0.00003958      -0.00022075       0.00030590
H       -2.00069321      -3.21672748      -0.36818058       0.00021203       0.00054318      -0.00135134
H       -1.12541459      -3.67859755      -1.83276298       0.00093316       0.00094605      -0.00020735
H       -2.08828770      -4.87854083      -0.95979885       0.00004261       0.00082272      -0.00125182
H       -1.18656177      -3.93082658       1.87111140      -0.00125756       0.00022130      -0.00061615
H        0.23706452      -4.97080808       2.02599567      -0.00133863      -0.00014212      -0.00039403
H       -1.28107395      -5.63266613       1.40391405      -0.00125369      -0.00032366      -0.00087578
H        1.04649661      -2.62708009      -1.59358702       0.00184910      -0.00148612       0.00079750
