43
Properties=species:S:1:pos:R:3:forces:R:3 energy:=T -59.179405858755=T gnorm:=T 0.000165444664=T xtb:=T 6.7.1=T (edcfbbe)=T energy=-1610.35365751365 pbc="F F F"
O        0.94511130      -2.41242545      -2.65402903       0.00346678      -0.00159254       0.00011485
C        0.24672781       0.19316778      -0.15462106      -0.00023034      -0.00004913      -0.00014711
N       -0.21304875      -0.77396278       0.52813481      -0.00008861       0.00001499       0.00007013
C       -1.54621609      -0.86543370       0.89271708       0.00002749      -0.00005451       0.00029602
C       -2.58210611      -0.65000258      -0.01834655      -0.00020306      -0.00016602       0.00049372
C       -3.89416875      -0.85374402       0.36551126      -0.00007467      -0.00019685       0.00077775
C       -4.19096914      -1.25977111       1.65645427       0.00017178      -0.00009838       0.00088118
C       -3.16558550      -1.47336017       2.56552678       0.00040678       0.00005119       0.00069726
C       -1.85004655      -1.29123686       2.18760674       0.00028049       0.00007897       0.00039064
C        1.62564346       0.25393913      -0.60029601      -0.00030695       0.00011078      -0.00025495
C        2.57092409      -0.69986243      -0.21084105      -0.00012145       0.00034915      -0.00006460
C        3.87127616      -0.61697555      -0.66970186      -0.00012823       0.00053399      -0.00006386
C        4.25051864       0.41330196      -1.51798956      -0.00029577       0.00045122      -0.00021223
C        3.32249227       1.36820954      -1.90429624      -0.00049334       0.00022484      -0.00040059
C        2.02067676       1.29257713      -1.44712931      -0.00047346       0.00002570      -0.00040003
H        1.74164166      -1.87827569      -2.62529262       0.00396488      -0.00215132       0.00058522
H       -0.37823546       1.05209893      -0.43219904      -0.00040027      -0.00016277      -0.00025117
H        0.30724385      -2.60374476       0.30070167      -0.00000401      -0.00003090      -0.00001646
H       -2.34249554      -0.36290724      -1.03263698      -0.00040239      -0.00024493       0.00043127
H       -4.68938371      -0.69579196      -0.34880007      -0.00023837      -0.00029533       0.00094651
H       -5.21781480      -1.41588094       1.95186114       0.00026515      -0.00010985       0.00110445
H       -3.39386358      -1.79256749       3.57212221       0.00059818       0.00013454       0.00076705
H       -1.04283566      -1.44851530       2.88816868       0.00045746       0.00017965       0.00025609
H        2.27397157      -1.49973575       0.44749897       0.00002127       0.00040395       0.00006498
H        4.59478048      -1.35936308      -0.36644661       0.00001044       0.00070633       0.00007872
H        5.26803640       0.47368661      -1.87538471      -0.00031047       0.00058926      -0.00022383
H        3.61663022       2.17282944      -2.56228165      -0.00062335       0.00015828      -0.00052817
H        1.29781492       2.03678633      -1.75110874      -0.00061328      -0.00014176      -0.00053981
C        0.57621370      -5.69342577      -0.60337547      -0.00039469      -0.00007570       0.00013479
C       -0.14875095      -4.51165770       0.04466780      -0.00042714       0.00011262      -0.00024817
C       -1.46451636      -4.22803812      -0.68880742       0.00005778       0.00057311      -0.00097749
C       -0.42261799      -4.79256768       1.52660933      -0.00127652       0.00005994      -0.00040932
O        0.73272717      -3.39857441      -0.07528045       0.00005776      -0.00012694       0.00038442
H       -0.02444307      -6.59500790      -0.52763764      -0.00067932       0.00005857      -0.00021027
H        1.53012397      -5.85638630      -0.10789279      -0.00062812      -0.00038642       0.00056751
H        0.76467861      -5.47748255      -1.65227712       0.00015052      -0.00009565       0.00024655
H       -2.00114196      -3.41116383      -0.20935903       0.00003596       0.00064217      -0.00115205
H       -1.26320821      -3.95186553      -1.72181850       0.00075980       0.00064153      -0.00080630
H       -2.09763940      -5.11117181      -0.67836827      -0.00016671       0.00071017      -0.00143458
H       -0.94624113      -3.95120331       1.97758351      -0.00123362       0.00017458      -0.00063792
H        0.51623308      -4.94491017       2.05490319      -0.00158769      -0.00029325       0.00011822
H       -1.03598333      -5.68277237       1.63541584      -0.00166574       0.00025697      -0.00077942
H        0.88927140      -2.83645483      -1.77457178       0.00233505      -0.00097026       0.00035102
