43
Properties=species:S:1:pos:R:3:forces:R:3 energy:=T -59.203319823605=T gnorm:=T 0.000024897949=T xtb:=T 6.7.1=T (edcfbbe)=T energy=-1611.0043896418492 pbc="F F F"
O        0.27015216      -1.52585804      -1.64851193       0.00001111      -0.00000895      -0.00004750
C        0.40902308      -0.38582695      -0.84353357       0.00002333       0.00007384      -0.00000057
N       -0.16880358      -0.60645933       0.46882494       0.00008964       0.00010199      -0.00002562
C       -1.52942722      -0.59451488       0.71295301      -0.00001721      -0.00005231       0.00007935
C       -2.46548953      -0.75784203      -0.30942911       0.00007320       0.00000144       0.00003993
C       -3.81513397      -0.80532594      -0.01523149       0.00000777      -0.00003424       0.00010960
C       -4.26028914      -0.69931428       1.29192758       0.00008663      -0.00001780       0.00010445
C       -3.33576350      -0.54111046       2.31230389       0.00008499      -0.00001098       0.00008143
C       -1.98558356      -0.48702836       2.02978530       0.00010171      -0.00004148       0.00000956
C        1.85883585       0.01598865      -0.65623189       0.00002045       0.00004255      -0.00001370
C        2.77942158      -0.90813179      -0.17336629       0.00003917      -0.00005392      -0.00004849
C        4.10166846      -0.54234541       0.00801006       0.00007817      -0.00001517      -0.00006647
C        4.51549860       0.74657188      -0.28573370       0.00000525      -0.00000163       0.00008802
C        3.60179674       1.67020434      -0.76451667       0.00004108       0.00002011       0.00007346
C        2.27886684       1.30604378      -0.94980751       0.00005843       0.00003859       0.00002678
H        0.53991999      -2.29633374      -1.10787435      -0.00009804       0.00002517       0.00004391
H       -0.12891490       0.41226258      -1.38210635       0.00004250       0.00006030      -0.00000836
H        0.40986325      -0.31370908       1.24239791       0.00005512       0.00012659       0.00000060
H       -2.13260766      -0.85862922      -1.33031016       0.00001495       0.00004974       0.00001657
H       -4.52692116      -0.93102462      -0.81884197       0.00001556      -0.00002640       0.00009569
H       -5.31616315      -0.74001979       1.51470719       0.00007466      -0.00010003       0.00012598
H       -3.66957939      -0.45561321       3.33692723       0.00012462      -0.00009627       0.00008771
H       -1.26795609      -0.35844567       2.82942331       0.00011034      -0.00000860       0.00002365
H        2.46131291      -1.91445918       0.05713697      -0.00002660      -0.00001074      -0.00006164
H        4.81147061      -1.26657911       0.38066320       0.00000422      -0.00003313       0.00000644
H        5.54823886       1.03016107      -0.14374973       0.00003933      -0.00001761       0.00006255
H        3.91928008       2.67646107      -0.99673488       0.00006450       0.00002719       0.00007312
H        1.56753783       2.02761476      -1.32675878       0.00004520       0.00005673       0.00002888
C        0.52970638      -5.32449212      -1.24464943       0.00010160      -0.00003962       0.00012519
C       -0.16674556      -4.66595103      -0.05344114      -0.00011300      -0.00003678      -0.00002866
C       -1.58544773      -4.23095803      -0.43174203      -0.00004205      -0.00006944      -0.00029752
C       -0.20484402      -5.61811991       1.14716108      -0.00023725       0.00005396       0.00001965
O        0.62110210      -3.51936696       0.27760785      -0.00024554       0.00010741      -0.00013921
H        0.00235825      -6.22750833      -1.53732191       0.00016620      -0.00004923       0.00006052
H        1.55283304      -5.57937560      -0.97932912       0.00009855      -0.00004038       0.00027936
H        0.55214061      -4.63691562      -2.08696353       0.00025129      -0.00008283       0.00005468
H       -2.07418412      -3.73647985       0.40742017      -0.00021463      -0.00002418      -0.00037457
H       -1.55408546      -3.53469817      -1.26660244       0.00004184      -0.00011147      -0.00036643
H       -2.17902160      -5.09472655      -0.71823672       0.00004874      -0.00010725      -0.00030913
H       -0.69726411      -5.14191305       1.99389331      -0.00043734       0.00009913      -0.00012035
H        0.80749540      -5.88767108       1.44058730      -0.00026755       0.00019821       0.00020736
H       -0.74982154      -6.52300792       0.89371167      -0.00011199       0.00001560      -0.00000145
H        0.15782010      -3.01781273       0.96203653      -0.00020892      -0.00000814      -0.00001478
43
Properties=species:S:1:pos:R:3 energy:=T -59.203319823605=T gnorm:=T 0.000024897949=T xtb:=T 6.7.1=T (edcfbbe)=T pbc="F F F"
O        0.36622531      -1.58122440      -1.80521203
C        0.40464245      -0.26477077      -0.77054732
N       -0.23590533      -0.59876868       0.44341983
C       -1.56960898      -0.60599097       0.74295685
C       -2.48798495      -0.71542450      -0.28953773
C       -3.82954878      -0.78275709       0.00148857
C       -4.27689262      -0.75513591       1.30748733
C       -3.34884305      -0.65762476       2.32702318
C       -2.00278992      -0.58555357       2.06140452
C        1.85265556       0.06449575      -0.59051580
C        2.76218962      -0.86813935      -0.11593992
C        4.09376082      -0.54835869       0.00526263
C        4.51087034       0.71722394      -0.35138323
C        3.60867434       1.64999929      -0.82108546
C        2.27340834       1.33126298      -0.94243981
H        0.75268464      -2.26260192      -1.26492667
H       -0.16047902       0.55174245      -1.24422295
H        0.46774365      -0.57844826       1.31187748
H       -2.14684577      -0.75740799      -1.31044287
H       -4.54274542      -0.86210704      -0.80484779
H       -5.33262561      -0.81000890       1.52295238
H       -3.68565475      -0.63442486       3.35244003
H       -1.27895479      -0.50418413       2.85946963
H        2.46425430      -1.86288282       0.17170980
H        4.79446301      -1.28252978       0.37276311
H        5.55579587       0.97010052      -0.25987186
H        3.93495032       2.63976920      -1.10136461
H        1.56913684       2.06171069      -1.31295367
C        0.54167510      -5.37668617      -1.18065677
C       -0.18611993      -4.64988801      -0.05483862
C       -1.57502219      -4.20358170      -0.49315583
C       -0.26581574      -5.51711844       1.19877188
O        0.73719301      -3.58295429       0.17786603
H       -0.00761490      -6.27537833      -1.43331959
H        1.55191005      -5.62863423      -0.86577578
H        0.59703924      -4.73090496      -2.05415481
H       -2.07820736      -3.66467186       0.30757741
H       -1.49945121      -3.54726791      -1.35583928
H       -2.17537906      -5.06946926      -0.75486027
H       -0.77337678      -4.97843674       1.99731413
H        0.73489481      -5.77825206       1.53483741
H       -0.82667918      -6.41788676       0.97249502
H        0.19467344      -2.88908963       0.74522925
43
Properties=species:S:1:pos:R:3 energy:=T -59.203319823605=T gnorm:=T 0.000024897949=T xtb:=T 6.7.1=T (edcfbbe)=T pbc="F F F"
O        0.44094764      -1.62876245      -1.94380370
C        0.39366498      -0.14236444      -0.68500086
N       -0.28318563      -0.52621051       0.46488344
C       -1.60445778      -0.62029176       0.77482641
C       -2.50839435      -0.67284001      -0.26765415
C       -3.84381869      -0.76099214       0.01996790
C       -4.29124921      -0.80997710       1.32234757
C       -3.36147556      -0.77150199       2.34077585
C       -2.01820392      -0.68488851       2.09153393
C        1.84369338       0.11462201      -0.52186154
C        2.74730278      -0.82493526      -0.05783574
C        4.08740404      -0.55168040       0.00066767
C        4.50593764       0.68893639      -0.41672381
C        3.61348538       1.63011922      -0.87809620
C        2.26921784       1.35571301      -0.93620357
H        0.99089881      -2.22486632      -1.41872321
H       -0.18886060       0.68524752      -1.10789513
H        0.48960117      -0.86614834       1.35450279
H       -2.16042568      -0.65681067      -1.28674111
H       -4.55723013      -0.79504383      -0.78807828
H       -5.34681331      -0.87845630       1.53092780
H       -3.69985409      -0.80905479       3.36420752
H       -1.28750556      -0.64849385       2.88526852
H        2.48347789      -1.81252526       0.28360491
H        4.77880296      -1.29613682       0.36359113
H        5.55997892       0.91092291      -0.37515483
H        3.94789109       2.60178933      -1.20492364
H        1.57144597       2.09426400      -1.30122883
C        0.55115821      -5.42587375      -1.11297694
C       -0.20550172      -4.63784384      -0.05130773
C       -1.56584412      -4.17843813      -0.55258844
C       -0.32708652      -5.41627054       1.25110943
O        0.84480567      -3.67023684       0.19966164
H       -0.01759767      -6.31893555      -1.32812066
H        1.54833121      -5.67931239      -0.75457044
H        0.64030566      -4.81982663      -2.01176788
H       -2.08014615      -3.59607963       0.20937276
H       -1.44781248      -3.56484379      -1.44175121
H       -2.17085009      -5.04609358      -0.78883452
H       -0.84480986      -4.81514330       1.99579076
H        0.65986102      -5.67270500       1.63005588
H       -0.90190140      -6.31282932       1.04998907
H        0.22710798      -2.78746129       0.33521127
43
Properties=species:S:1:pos:R:3 energy:=T -59.203319823605=T gnorm:=T 0.000024897949=T xtb:=T 6.7.1=T (edcfbbe)=T pbc="F F F"
O        0.51498003      -1.69975874      -2.05029610
C        0.37970678      -0.03213661      -0.57774606
N       -0.30029345      -0.48016036       0.51906560
C       -1.61796041      -0.64404769       0.79955384
C       -2.51921367      -0.63835245      -0.24270084
C       -3.85265628      -0.74294309       0.03791885
C       -4.30021993      -0.85571613       1.33501041
C       -3.36903636      -0.86657848       2.35133827
C       -2.02690447      -0.77093835       2.11068843
C        1.83241163       0.15839585      -0.45903892
C        2.73243348      -0.78613322      -0.00066899
C        4.08004909      -0.55394910      -0.00555971
C        4.50083502       0.66431264      -0.47333422
C        3.61540214       1.61248166      -0.92804317
C        2.26585925       1.37418289      -0.93245538
H        1.22184785      -2.13431105      -1.61688339
H       -0.21267828       0.79327526      -0.98252414
H        0.45915681      -1.19902778       1.33269403
H       -2.16987975      -0.57115846      -1.25908807
H       -4.56715976      -0.73893804      -0.76948046
H       -5.35573048      -0.93508060       1.53851358
H       -3.70877323      -0.95423014       3.37083597
H       -1.29329176      -0.77083706       2.90184688
H        2.49594217      -1.76438049       0.38702324
H        4.76486510      -1.30649925       0.35344748
H        5.56032805       0.86009625      -0.47408638
H        3.95644571       2.56748489      -1.29340407
H        1.57324375       2.11941956      -1.29327969
C        0.55654694      -5.45528853      -1.04338734
C       -0.21684711      -4.61766103      -0.03556457
C       -1.55725696      -4.15869504      -0.59712893
C       -0.38092090      -5.33106868       1.29627587
O        0.83279796      -3.66782979       0.33745245
H       -0.02417534      -6.34775741      -1.23440908
H        1.54037843      -5.70307964      -0.65025169
H        0.67685303      -4.89384432      -1.96650316
H       -2.07459873      -3.53616026       0.12916451
H       -1.41513108      -3.58915353      -1.51343380
H       -2.16603285      -5.02716951      -0.81360770
H       -0.90614284      -4.68099340       1.99317391
H        0.59321417      -5.58715552       1.71119552
H       -0.96535023      -6.22307813       1.11396391
H        0.32925219      -2.72779702      -0.16983308
43
Properties=species:S:1:pos:R:3 energy:=T -59.203319823605=T gnorm:=T 0.000024897949=T xtb:=T 6.7.1=T (edcfbbe)=T pbc="F F F"
O        0.60295311      -1.78143562      -2.14968207
C        0.36722338       0.04997779      -0.45181844
N       -0.29602380      -0.47549572       0.58388567
C       -1.61931652      -0.66321490       0.82146138
C       -2.52321746      -0.60557617      -0.21389349
C       -3.85783377      -0.72440963       0.05747528
C       -4.30680977      -0.90097705       1.34703178
C       -3.37475316      -0.96127552       2.36063055
C       -2.03274443      -0.85521336       2.12439937
C        1.81748649       0.19878102      -0.39564830
C        2.71300382      -0.74991681       0.06075019
C        4.06574579      -0.55823859      -0.01211753
C        4.49393581       0.63653462      -0.52999987
C        3.61467617       1.59283684      -0.97850311
C        2.26136026       1.38820822      -0.92763777
H        1.43528425      -2.01417503      -1.78782912
H       -0.23032582       0.88129898      -0.84023942
H        0.38723957      -1.54822409       1.19900005
H       -2.17195646      -0.48939217      -1.22485878
H       -4.57417228      -0.68210652      -0.74719491
H       -5.36231945      -0.99115822       1.54598560
H       -3.71602763      -1.09936408       3.37390157
H       -1.29735309      -0.89314196       2.91302958
H        2.47775192      -1.70833897       0.49129579
H        4.74596548      -1.31715012       0.34209954
H        5.55679436       0.80640664      -0.57401766
H        3.96275475       2.52956215      -1.38208456
H        1.57352606       2.13982310      -1.28432861
C        0.55825909      -5.48017477      -0.96868372
C       -0.21964065      -4.57741129      -0.01818295
C       -1.54028627      -4.13645956      -0.63787311
C       -0.43124660      -5.23648391       1.33329518
O        0.75777141      -3.57464530       0.38784030
H       -0.03218753      -6.37179106      -1.13626542
H        1.52792324      -5.71715662      -0.53920584
H        0.71134097      -4.97452029      -1.91977585
H       -2.06630206      -3.47598118       0.04547183
H       -1.37609072      -3.60994412      -1.57540479
H       -2.15672977      -5.00462496      -0.83630048
H       -0.96671317      -4.55004332       1.98707330
H        0.52976668      -5.48536312       1.78061945
H       -1.02593541      -6.12623987       1.17521866
H        0.49951894      -2.72604537      -0.56246544
43
Properties=species:S:1:pos:R:3 energy:=T -59.203319823605=T gnorm:=T 0.000024897949=T xtb:=T 6.7.1=T (edcfbbe)=T pbc="F F F"
O        0.72011805      -1.87880800      -2.24314115
C        0.35576976       0.12495748      -0.30733527
N       -0.28076490      -0.50931859       0.64926304
C       -1.61694270      -0.67979207       0.84772229
C       -2.52577452      -0.56826682      -0.18041214
C       -3.86315172      -0.70341789       0.08047427
C       -4.31298315      -0.95169334       1.35889021
C       -3.38151927      -1.06794199       2.36910846
C       -2.03831166      -0.94910500       2.13661086
C        1.80009845       0.23921010      -0.33086461
C        2.68918588      -0.71699453       0.12171376
C        4.04307270      -0.56433326      -0.01816336
C        4.48425845       0.60255485      -0.59143314
C        3.61121154       1.56919209      -1.03349104
C        2.25588430       1.40042209      -0.91976780
H        1.61333850      -1.89339747      -1.91949896
H       -0.24195845       0.96477568      -0.67189492
H        0.31533876      -1.84007506       0.99539692
H       -2.17236171      -0.39919634      -1.18354707
H       -4.58042076      -0.61796874      -0.72020990
H       -5.36854288      -1.05417553       1.55255964
H       -3.72415478      -1.26287390       3.37265815
H       -1.30270684      -1.03151528       2.92168042
H        2.42800416      -1.64414649       0.59781305
H        4.71961755      -1.32908125       0.33011231
H        5.54837175       0.74363726      -0.68435970
H        3.96745662       2.48359212      -1.47927707
H        1.57302207       2.15894118      -1.27155816
C        0.55758401      -5.50518828      -0.88547892
C       -0.21979500      -4.52765105      -0.00886503
C       -1.51733016      -4.11006179      -0.68518920
C       -0.48450155      -5.12191336       1.36533914
O        0.70781116      -3.48357510       0.33237423
H       -0.04299630      -6.39500595      -1.02491958
H        1.51107882      -5.73499269      -0.41789461
H        0.74697228      -5.06205929      -1.86118867
H       -2.05762758      -3.41209883      -0.05297318
H       -1.31847163      -3.62812919      -1.63859010
H       -2.14320501      -4.97736127      -0.86266209
H       -1.02837681      -4.39939772       1.97185420
H        0.46049226      -5.35924617       1.85033796
H       -1.09061423      -6.00981567       1.24078085
H        0.68612028      -2.74094486      -0.86552033
43
Properties=species:S:1:pos:R:3 energy:=T -59.203319823605=T gnorm:=T 0.000024897949=T xtb:=T 6.7.1=T (edcfbbe)=T pbc="F F F"
O        0.86250394      -1.98095637      -2.32351281
C        0.34463394       0.19186680      -0.15415839
N       -0.26340986      -0.57304864       0.69022811
C       -1.61172795      -0.70029918       0.87582418
C       -2.52770317      -0.52997018      -0.14411710
C       -3.86883644      -0.68208845       0.10575639
C       -4.31799390      -1.00449137       1.36951922
C       -3.38902131      -1.17943191       2.37568478
C       -2.04361530      -1.04665777       2.14579863
C        1.78008701       0.27715933      -0.26984649
C        2.66319534      -0.69191929       0.17561268
C        4.01497976      -0.57073589      -0.02385131
C        4.47244906       0.56527665      -0.65319024
C        3.60503027       1.54346033      -1.08878715
C        2.25034981       1.41032009      -0.90943108
H        1.76140402      -1.79372364      -2.03184365
H       -0.24901389       1.04406938      -0.49537087
H        0.27234212      -2.06740388       0.78491721
H       -2.17376445      -0.30564408      -1.13749778
H       -4.58558059      -0.55159602      -0.68996211
H       -5.37367568      -1.11981628       1.55748075
H       -3.73246868      -1.43294919       3.36625558
H       -1.31035338      -1.17535434       2.92724772
H        2.35910150      -1.58352473       0.69125396
H        4.68890664      -1.34069468       0.31821346
H        5.53508285       0.67654721      -0.79667999
H        3.96986124       2.43279434      -1.57746654
H        1.57240962       2.17630379      -1.25562831
C        0.55539298      -5.52426777      -0.79981763
C       -0.21825076      -4.47861472      -0.00282834
C       -1.49221099      -4.08203667      -0.73545525
C       -0.53865783      -4.99925133       1.39223152
O        0.69686449      -3.41870237       0.23360671
H       -0.05431092      -6.41297064      -0.90891679
H        1.49048377      -5.74991433      -0.29439444
H        0.78263170      -5.14004191      -1.79175897
H       -2.04530759      -3.34777247      -0.15695538
H       -1.25391231      -3.64752292      -1.70243654
H       -2.12703307      -4.94809342      -0.89061414
H       -1.08744067      -4.24069088       1.94795233
H        0.38576859      -5.22672103       1.91854600
H       -1.15693753      -5.88478048       1.30471153
H        0.84004336      -2.72837101      -1.10986566
43
Properties=species:S:1:pos:R:3 energy:=T -59.203319823605=T gnorm:=T 0.000024897949=T xtb:=T 6.7.1=T (edcfbbe)=T pbc="F F F"
O        1.03963823      -2.07726196      -2.38016990
C        0.33077531       0.25044312      -0.00113264
N       -0.24747040      -0.64221523       0.70661039
C       -1.60548721      -0.72686314       0.90345570
C       -2.52957760      -0.49227488      -0.10645021
C       -3.87500026      -0.66124924       0.13318232
C       -4.32164097      -1.05871642       1.37899731
C       -3.39734536      -1.29442291       2.38054677
C       -2.04886195      -1.14664866       2.15263672
C        1.75737138       0.31420349      -0.21031527
C        2.63612153      -0.67137860       0.22631098
C        3.98439914      -0.57638035      -0.03011322
C        4.45921755       0.52589936      -0.71498212
C        3.59667451       1.51651440      -1.14385680
C        2.24552767       1.41874651      -0.89759401
H        1.88204052      -1.72043077      -2.15122831
H       -0.25287790       1.12137903      -0.31788270
H        0.25752361      -2.27649510       0.59327008
H       -2.17590479      -0.21083768      -1.08687790
H       -4.58957977      -0.48436583      -0.65648268
H       -5.37745218      -1.18723121       1.56102015
H       -3.74059452      -1.60696657       3.35496332
H       -1.31957465      -1.32223973       2.92927262
H        2.28721511      -1.52884900       0.77296633
H        4.65600180      -1.35150411       0.30606182
H        5.51737143       0.60663897      -0.90943218
H        3.97008293       2.37832573      -1.67518642
H        1.57254357       2.19274635      -1.23710072
C        0.55230208      -5.53837489      -0.71401192
C       -0.21505063      -4.43062144       0.00394589
C       -1.46498222      -4.05219385      -0.78677193
C       -0.59382797      -4.87290438       1.41513464
O        0.70086554      -3.35745811       0.13200371
H       -0.06605984      -6.42606333      -0.79071962
H        1.46659767      -5.76120048      -0.17035013
H        0.81836087      -5.21046486      -1.71597040
H       -2.02656560      -3.28251762      -0.26300279
H       -1.18725664      -3.66879101      -1.76534584
H       -2.10835340      -4.91668198      -0.91931130
H       -1.14420342      -4.07876022       1.91690143
H        0.30637093      -5.09207256       1.98494123
H       -1.22438735      -5.75437976       1.36601226
H        0.95734900      -2.68834100      -1.33749082
43
Properties=species:S:1:pos:R:3:forces:R:3 energy:=T -59.179405858755=T gnorm:=T 0.000165444664=T xtb:=T 6.7.1=T (edcfbbe)=T energy=-1610.35365751365 pbc="F F F"
O        1.21233980      -2.16681828      -2.42424765       0.00346678      -0.00159254       0.00011485
C        0.31492155       0.30756874       0.14400958      -0.00023034      -0.00004913      -0.00014711
N       -0.23800386      -0.68354253       0.71397759      -0.00008861       0.00001499       0.00007013
C       -1.60420168      -0.75565352       0.93060134       0.00002749      -0.00005451       0.00029602
C       -2.53181624      -0.45568025      -0.06892999      -0.00020306      -0.00016602       0.00049372
C       -3.88178621      -0.64158992       0.16212073      -0.00007467      -0.00019685       0.00077775
C       -4.32390694      -1.11349492       1.38740325       0.00017178      -0.00009838       0.00088118
C       -3.40647996      -1.41119357       2.38397135       0.00040678       0.00005119       0.00069726
C       -2.05420604      -1.24730911       2.15784678       0.00028049       0.00007897       0.00039064
C        1.73448260       0.35241667      -0.15020596      -0.00030695       0.00011078      -0.00025495
C        2.60975387      -0.65092727       0.27660688      -0.00012145       0.00034915      -0.00006460
C        3.95315458      -0.58084744      -0.03756243      -0.00012823       0.00053399      -0.00006386
C        4.44515367       0.48544230      -0.77638022      -0.00029577       0.00045122      -0.00021223
C        3.58672545       1.48917996      -1.19819293      -0.00049334       0.00022484      -0.00040059
C        2.24222472       1.42648270      -0.88541133      -0.00047346       0.00002570      -0.00040003
H        2.01391039      -1.65976225      -2.27939900       0.00396488      -0.00215132       0.00058522
H       -0.25612594       1.19993430      -0.14405255      -0.00040027      -0.00016277      -0.00025117
H        0.25936534      -2.51179691       0.43000198      -0.00000401      -0.00003090      -0.00001646
H       -2.17883392      -0.11695014      -1.03292554      -0.00040239      -0.00024493       0.00043127
H       -4.59247347      -0.41784560      -0.62045097      -0.00023837      -0.00029533       0.00094651
H       -5.37980653      -1.25536256       1.56346330       0.00026515      -0.00010985       0.00110445
H       -3.74815124      -1.78185837       3.33953762       0.00059818       0.00013454       0.00076705
H       -1.33011561      -1.46993901       2.92806877       0.00045746       0.00017965       0.00025609
H        2.22530168      -1.47866833       0.84969584       0.00002127       0.00040395       0.00006498
H        4.62222721      -1.36143061       0.29348620       0.00001044       0.00070633       0.00007872
H        5.49607246       0.53571779      -1.02084304      -0.00031047       0.00058926      -0.00022383
H        3.96845632       2.32172203      -1.77093228      -0.00062335       0.00015828      -0.00052817
H        1.57391157       2.20890653      -1.21699928      -0.00061328      -0.00014176      -0.00053981
C        0.54858370      -5.54981569      -0.62953737      -0.00039469      -0.00007570       0.00013479
C       -0.21256633      -4.38662501       0.01057799      -0.00042714       0.00011262      -0.00024817
C       -1.43563767      -4.02052350      -0.83779150       0.00005778       0.00057311      -0.00097749
C       -0.64919845      -4.74559912       1.43555316      -0.00127652       0.00005994      -0.00040932
O        0.70318720      -3.29575757       0.05240346       0.00005776      -0.00012694       0.00038442
H       -0.07823328      -6.43559410      -0.67280648      -0.00067932       0.00005857      -0.00021027
H        1.44017711      -5.77053782      -0.04786141      -0.00062812      -0.00038642       0.00056751
H        0.85269573      -5.27849346      -1.63762730       0.00015052      -0.00009565       0.00024655
H       -2.00041483      -3.21725961      -0.36777525       0.00003596       0.00064217      -0.00115205
H       -1.11900061      -3.69042757      -1.82505328       0.00075980       0.00064153      -0.00080630
H       -2.08733732      -4.88307194      -0.94813922      -0.00016671       0.00071017      -0.00143458
H       -1.19743269      -3.91662254       1.88017655      -0.00123362       0.00017458      -0.00063792
H        0.22419071      -4.95719474       2.04887415      -0.00158769      -0.00029325       0.00011822
H       -1.29189220      -5.62157992       1.42447763      -0.00166574       0.00025697      -0.00077942
H        1.05308109      -2.63985776      -1.58327537       0.00233505      -0.00097026       0.00035102
