57
 energy: -80.989979432365 gnorm: 0.000602540939 xtb: 6.7.1 (edcfbbe)
Fe           0.27270095032833       -0.18381510144559        0.23549218264094
C            2.37331573694997       -2.36909929224281       -0.31607359835898
P            2.35328994719122       -0.62097010878118        0.28780754690421
C            3.81395315799936        0.17979014984318       -0.41495018124530
C            3.64049901922045        1.08151521460506       -1.45846881039465
C            4.74639613936532        1.70149035173205       -2.01257746384769
C            6.01263427362351        1.42392348389748       -1.51995613986001
C            6.18001448316252        0.53228823165544       -0.47030463528333
C            5.08064188117086       -0.09276136751645        0.08911839874269
C            2.50873191079792       -0.63058721174041        2.07835915331318
C            1.96667238615541       -1.68022080624661        2.80557225738740
C            1.32381103121041       -1.42057590987550        3.99868819702061
C            1.20354114856600       -0.12127978851390        4.45775340388500
C            1.80240252142391        0.92075642966927        3.76857022255822
C            2.44299778419139        0.66955064035242        2.57816450102237
C            1.04785721949280       -2.91520660340374        0.09936489707877
C            0.77581360240100       -4.25627563107218        0.28296986319125
C           -0.44472458895972       -4.63832014818619        0.81777399528179
C           -1.34287140862799       -3.66247312219916        1.22110756425770
C           -1.02780486745541       -2.33698471642956        1.00778437268307
C           -1.80044500027115       -1.17445804085748        1.50910244319906
N           -1.58374588472658       -0.03981431642800        0.59659658037949
C           -1.48462184846928        1.26582036562487        1.27929343681590
C           -0.26878865180940        1.98031743543557        0.68877106957718
C           -2.59990002975545       -0.07433903326872       -0.47585806995480
C           -2.41220630361269        1.02254806476540       -1.50404298083866
N            0.11417508440636       -1.98573635725819        0.39275768599603
H            3.20434422635440       -2.95818990308985        0.08868232976846
H            2.47282269711934       -2.33108447602340       -1.40825809935177
H            2.63934212437688        1.28537133808910       -1.81649446727456
H            4.62664069805024        2.40412798874878       -2.82439332592186
H            6.87579065131659        1.91068223154493       -1.95181034031334
H            7.17071956009525        0.32937310336494       -0.08907951942547
H            5.19152885047090       -0.78165222718239        0.91510474444476
H            2.00682536873019       -2.69148931704809        2.42715511651382
H            0.85956512784560       -2.23207549292168        4.54125301089912
H            0.62383727615702        0.08469516050886        5.34719964140284
H            1.70973157387855        1.93510822936754        4.13107150701086
H            2.83634202004624        1.47866828624291        1.97310353694117
H            1.52456505313824       -4.98939386934724        0.02583558363134
H           -0.67403563134093       -5.68352393615599        0.95604318030506
H           -2.26973132781606       -3.92265655239104        1.70655612414274
H           -2.86379562560832       -1.39258061301074        1.63373365715245
H           -1.36032738772303       -0.91958747885763        2.47835389923036
H           -1.31137166973982        1.08636117274801        2.33850401564395
H           -2.40676798305444        1.83720508094746        1.15963998325432
H            0.37638102503366        2.36697126827417        1.47296462284170
H            0.39651622548878        1.30393757140060        0.04721566069498
H           -0.54945130543982        2.78778421105229        0.01475332912861
H           -3.59097685996645        0.00675891618695       -0.01856868472781
H           -2.50155820382369       -1.05156423363095       -0.95245497464942
H           -3.06209553849483        0.82303110099599       -2.35310777270789
H           -2.66776261664698        2.00172277659539       -1.11042464148248
H           -1.38331254234484        1.04315061308676       -1.85955500631365
C            0.26336213325749       -0.44336110688798       -1.48085789152255
O            0.39902081061888       -0.85357690840579       -2.53898732489301
H            0.39495546240674       -0.12139187904810        1.60822249149335
