51
Properties=species:S:1:pos:R:3:forces:R:3 energy:=T -81.962521261691=T gnorm:=T 0.000126814870=T xtb:=T 6.7.1=T (edcfbbe)=T energy=-2230.313805569492 pbc="F F F"
Ru       0.01221019      -0.06442306      -0.21493278       0.00197594       0.00244621       0.00047883
C        2.27658443      -2.15410657       0.41310913      -0.00059336       0.00016874      -0.00004085
P        2.12493008      -0.30428749       0.58424308       0.00136117      -0.00151257       0.00060698
C        3.66228980       0.24296851      -0.22809544       0.00070818       0.00018289      -0.00020699
C        4.90045957      -0.28678795       0.12704114      -0.00064946      -0.00016485      -0.00027114
C        6.04375552       0.14285146      -0.52047917      -0.00019423      -0.00014150      -0.00012234
C        5.96026910       1.10453841      -1.51672884       0.00005976       0.00018747       0.00006788
C        4.73181706       1.64284763      -1.86331936      -0.00016444      -0.00007777       0.00012948
C        3.58366684       1.21354070      -1.21929610       0.00029105       0.00011156       0.00012107
C        2.54347818      -0.04493823       2.33820887      -0.00078970       0.00062305       0.00072778
C        3.27890482       1.07306029       2.72067462      -0.00005354      -0.00007292       0.00051345
C        3.54891779       1.30088472       4.05817861       0.00057677      -0.00032293      -0.00047524
C        3.07989515       0.42265965       5.02196343       0.00007957      -0.00018111       0.00003477
C        2.32607064      -0.67850172       4.64762799       0.00022170       0.00004744       0.00000802
C        2.05198705      -0.90956563       3.31197025      -0.00023648       0.00045024      -0.00020562
C        0.91313404      -2.77098596       0.51120594       0.00007326      -0.00065663      -0.00048010
C        0.75455442      -4.08509566       0.91061972      -0.00030871      -0.00009716      -0.00039532
C       -0.51721776      -4.65202210       0.92436339       0.00013457       0.00069347       0.00032419
C       -1.58317809      -3.88520684       0.50433709       0.00013382      -0.00004008       0.00032913
C       -1.36861421      -2.56040907       0.11552887      -0.00030462      -0.00003464       0.00010327
C       -2.41447141      -1.67377621      -0.37424138       0.00036937      -0.00022845      -0.00015021
C       -3.73519283      -2.07125817      -0.57807725      -0.00011588      -0.00015362      -0.00042191
C       -4.64986276      -1.16635584      -1.08556509       0.00004488      -0.00001127      -0.00013406
C       -4.23121418       0.11849597      -1.37393786      -0.00034952      -0.00009932      -0.00007407
C       -2.89871596       0.46301749      -1.13951366      -0.00034200       0.00003756       0.00008682
O       -2.50606402       1.70285894      -1.41398902       0.00002615      -0.00025099       0.00026171
N       -2.00451331      -0.41031894      -0.65854287       0.00031345      -0.00020947       0.00057210
N       -0.13412505      -2.00443136       0.15375315      -0.00070708      -0.00009657       0.00024825
H        2.97777868      -2.59742648       1.12558592       0.00003708       0.00036375      -0.00038292
H        2.66225791      -2.32009272      -0.60358137      -0.00037515       0.00013783      -0.00024173
H        4.96434526      -1.02545407       0.91464113       0.00031546       0.00014697      -0.00006463
H        7.00435203      -0.26994596      -0.24781969      -0.00012792       0.00002621       0.00016741
H        6.85643677       1.43734853      -2.01983085      -0.00019121      -0.00006101      -0.00011685
H        4.66797400       2.39737905      -2.63392831       0.00001753      -0.00023309      -0.00023507
H        2.61169766       1.62520754      -1.46799839       0.00000312      -0.00010062       0.00003075
H        3.63368329       1.76097206       1.96450185       0.00030776      -0.00034101      -0.00002960
H        4.12391227       2.16778632       4.35015402      -0.00009083      -0.00010535       0.00018093
H        3.29302595       0.60085279       6.06589140      -0.00043606       0.00038373       0.00003651
H        1.94739459      -1.35596981       5.39979439      -0.00034298       0.00028720      -0.00002250
H        1.44319048      -1.75743622       3.02357100       0.00021494       0.00001950       0.00018996
H        1.61746518      -4.66268455       1.20502583      -0.00005212       0.00010448       0.00023798
H       -0.66034055      -5.67177629       1.24484067       0.00013017       0.00001844       0.00003194
H       -2.57611879      -4.30247374       0.48599513       0.00001160       0.00014220      -0.00003821
H       -4.04274890      -3.07703503      -0.34748049       0.00001169      -0.00008557      -0.00053299
H       -5.67501158      -1.45725116      -1.25247067      -0.00000419      -0.00041662      -0.00020148
H       -4.89321630       0.87054612      -1.76862842      -0.00007519      -0.00011899       0.00018592
H       -1.56997061       1.80455686      -1.11175843      -0.00022528       0.00037619      -0.00014985
C        0.56069045      -0.26860813      -1.96938550       0.00090692      -0.00001526      -0.00252629
O        0.90075081      -0.43836453      -3.06275703      -0.00012482       0.00016345       0.00274937
H       -0.46684552       0.23091277       1.26439587      -0.00076067      -0.00117714      -0.00025060
H        0.05672614       1.51093869      -0.35732545      -0.00071046      -0.00011207      -0.00065395
