51
Properties=species:S:1:pos:R:3 energy:=T -81.962521261691=T gnorm:=T 0.000126814870=T xtb:=T 6.7.1=T (edcfbbe)=T pbc="F F F"
Ru       0.01221019      -0.06442306      -0.21493278
C        2.27658443      -2.15410657       0.41310913
P        2.12493008      -0.30428749       0.58424308
C        3.66228980       0.24296851      -0.22809544
C        4.90045957      -0.28678795       0.12704114
C        6.04375552       0.14285146      -0.52047917
C        5.96026910       1.10453841      -1.51672884
C        4.73181706       1.64284763      -1.86331936
C        3.58366684       1.21354070      -1.21929610
C        2.54347818      -0.04493823       2.33820887
C        3.27890482       1.07306029       2.72067462
C        3.54891779       1.30088472       4.05817861
C        3.07989515       0.42265965       5.02196343
C        2.32607064      -0.67850172       4.64762799
C        2.05198705      -0.90956563       3.31197025
C        0.91313404      -2.77098596       0.51120594
C        0.75455442      -4.08509566       0.91061972
C       -0.51721776      -4.65202210       0.92436339
C       -1.58317809      -3.88520684       0.50433709
C       -1.36861421      -2.56040907       0.11552887
C       -2.41447141      -1.67377621      -0.37424138
C       -3.73519283      -2.07125817      -0.57807725
C       -4.64986276      -1.16635584      -1.08556509
C       -4.23121418       0.11849597      -1.37393786
C       -2.89871596       0.46301749      -1.13951366
O       -2.50606402       1.70285894      -1.41398902
N       -2.00451331      -0.41031894      -0.65854287
N       -0.13412505      -2.00443136       0.15375315
H        2.97777868      -2.59742648       1.12558592
H        2.66225791      -2.32009272      -0.60358137
H        4.96434526      -1.02545407       0.91464113
H        7.00435203      -0.26994596      -0.24781969
H        6.85643677       1.43734853      -2.01983085
H        4.66797400       2.39737905      -2.63392831
H        2.61169766       1.62520754      -1.46799839
H        3.63368329       1.76097206       1.96450185
H        4.12391227       2.16778632       4.35015402
H        3.29302595       0.60085279       6.06589140
H        1.94739459      -1.35596981       5.39979439
H        1.44319048      -1.75743622       3.02357100
H        1.61746518      -4.66268455       1.20502583
H       -0.66034055      -5.67177629       1.24484067
H       -2.57611879      -4.30247374       0.48599513
H       -4.04274890      -3.07703503      -0.34748049
H       -5.67501158      -1.45725116      -1.25247067
H       -4.89321630       0.87054612      -1.76862842
H       -1.56997061       1.80455686      -1.11175843
C        0.56069045      -0.26860813      -1.96938550
O        0.90075081      -0.43836453      -3.06275703
H       -0.46684552       0.23091277       1.26439587
H        0.05672614       1.51093869      -0.35732545
