73
Properties=species:S:1:pos:R:3:forces:R:3 energy:=T -94.714290099274=T gnorm:=T 0.000028825448=T xtb:=T 6.7.1=T (edcfbbe)=T energy=-2577.307109909535 pbc="F F F"
O       -0.16151752      -1.71603949      -0.77990946      -0.00004294      -0.00006273       0.00003032
C        0.09596348      -0.50637058      -0.10410324       0.00005498       0.00004667       0.00015322
N       -0.32508081      -0.55984535       1.27131392       0.00001193       0.00005998       0.00001879
C       -1.59741909      -0.31731958       1.71537982       0.00001462      -0.00003815       0.00009337
C       -2.70231193      -0.26767712       0.86017969      -0.00000582       0.00000132       0.00008160
C       -3.96888266      -0.04663754       1.36702490       0.00005227      -0.00000602       0.00011540
C       -4.17195193       0.11965995       2.72686537       0.00006274      -0.00000090       0.00009890
C       -3.08303436       0.06092071       3.58419682       0.00001503      -0.00002017       0.00007846
C       -1.81370698      -0.15164792       3.08950243       0.00004382      -0.00000597       0.00012458
C        1.56124885      -0.12616573      -0.14816250       0.00009670      -0.00004257       0.00007800
C        2.51823237      -0.97201153       0.40155058       0.00008805      -0.00007058       0.00003562
C        3.85693060      -0.62402831       0.36630023       0.00002256      -0.00009960       0.00001936
C        4.25351825       0.57322754      -0.20729506       0.00003456      -0.00017010       0.00009194
C        3.30383030       1.42149613      -0.75083423       0.00009768      -0.00011878       0.00010914
C        1.96403090       1.07157093      -0.72347512       0.00012298      -0.00002013       0.00014075
H        0.36127320      -2.43058180      -0.35443202      -0.00000137       0.00000987       0.00006628
H       -0.49458647       0.24449364      -0.65130441       0.00003224       0.00003477       0.00007592
H        0.40409407      -0.52954352       1.97087211       0.00012508      -0.00002578       0.00014820
H       -2.57085175      -0.42480210      -0.19929619       0.00005371      -0.00000053       0.00008676
H       -4.81092675      -0.01156581       0.68912047       0.00003450      -0.00000875       0.00009058
H       -5.16571623       0.28853157       3.11547599       0.00003397      -0.00000028       0.00009476
H       -3.22882390       0.18495055       4.64898141       0.00004090      -0.00000480       0.00008509
H       -0.96496576      -0.20052824       3.75631910       0.00004431      -0.00003249       0.00009793
H        2.21683790      -1.90589168       0.85059561      -0.00000818      -0.00008688       0.00005791
H        4.59531325      -1.28898791       0.79172214       0.00002464      -0.00016479       0.00004440
H        5.29924238       0.84482900      -0.23028718       0.00008656      -0.00017953       0.00005195
H        3.60570915       2.35780365      -1.19770414       0.00012528      -0.00008766       0.00011821
H        1.22492204       1.73555796      -1.14983908       0.00009579       0.00000028       0.00012941
C        2.54656547      -3.88670138      -1.61208489      -0.00002868       0.00000428      -0.00006835
C        1.51512909      -4.71555530      -0.84254524      -0.00001648       0.00000049      -0.00010721
C        0.30055961      -5.00219355      -1.73378186      -0.00005467       0.00001688      -0.00005703
C        2.13721398      -6.02959441      -0.35595627      -0.00001836      -0.00003487      -0.00015854
O        1.11583938      -3.93804761       0.28320621      -0.00001881      -0.00001342       0.00003094
H        2.91467199      -4.44679455      -2.46688647      -0.00006316       0.00002771      -0.00008897
H        3.38306977      -3.63794563      -0.96391665      -0.00003970      -0.00000568      -0.00006367
H        2.09571080      -2.96113780      -1.96202262      -0.00005797       0.00004226      -0.00001261
H       -0.42149884      -5.61924005      -1.20276753      -0.00007817       0.00004922      -0.00006215
H       -0.18005610      -4.06790057      -2.01619659      -0.00002687       0.00003035      -0.00002914
H        0.60910514      -5.52598478      -2.63442943      -0.00009906       0.00003627      -0.00006541
H        1.41690501      -6.58535973       0.24189781      -0.00003484      -0.00003946      -0.00012812
H        3.00805614      -5.82158135       0.26182698      -0.00005164      -0.00007304      -0.00015649
H        2.44272991      -6.64150205      -1.20024004      -0.00006560       0.00000716      -0.00012989
H        0.46214035      -4.45978870       0.78906214      -0.00002755      -0.00010077      -0.00008742
C        1.47766140       2.01483662       3.00893996      -0.00013837       0.00014838      -0.00016874
C        2.17889978       0.98031559       3.89048689      -0.00001163       0.00016310       0.00020260
C        3.69856199       1.08289125       3.72344231       0.00004714       0.00020506      -0.00030063
C        1.79100553       1.17769990       5.36138648      -0.00012757       0.00045367      -0.00017376
O        1.72951463      -0.29798207       3.44395249      -0.00005113       0.00025365      -0.00019161
H        1.76532327       3.01829906       3.30901384      -0.00007021      -0.00010866       0.00005009
H        0.39879394       1.91325452       3.09787011       0.00003481       0.00008964       0.00002462
H        1.75410853       1.86105020       1.96867226      -0.00001717       0.00002977       0.00003464
H        4.20363194       0.34724891       4.34849207      -0.00016912       0.00032276      -0.00016006
H        3.96695465       0.90231627       2.68465705       0.00009669       0.00029609       0.00011998
H        4.04275625       2.07310158       4.00861419      -0.00008920       0.00004863       0.00000762
H        2.27572893       0.43067803       5.98876095      -0.00017262       0.00027133      -0.00022739
H        0.71359520       1.08193903       5.47831813       0.00021278       0.00014648       0.00009654
H        2.09239359       2.16440503       5.70163979      -0.00022681      -0.00007411       0.00007757
H        2.20145914      -0.98215942       3.93260149       0.00019815      -0.00004673       0.00001664
C       -0.82541195      -3.60576218       3.12386417       0.00002511      -0.00013214      -0.00000123
C       -1.72583283      -4.52213002       2.29799254      -0.00006400      -0.00006927      -0.00006193
C       -2.67243005      -5.30703094       3.21228886      -0.00004997      -0.00005301      -0.00004796
C       -2.52551575      -3.71634441       1.27137727       0.00000908       0.00001073       0.00002192
O       -0.85586947      -5.43925819       1.61889896      -0.00003267      -0.00003477      -0.00007586
H       -1.43313165      -2.91866999       3.70446256       0.00006935      -0.00018113       0.00003383
H       -0.17697786      -3.02712151       2.47259741       0.00002179      -0.00007301      -0.00003082
H       -0.21077293      -4.20123269       3.79487450       0.00006150      -0.00020461      -0.00010276
H       -3.31175353      -5.96803886       2.62799354      -0.00008463      -0.00000462      -0.00009791
H       -2.09988027      -5.90938539       3.91471628      -0.00004732      -0.00015015      -0.00011972
H       -3.30408583      -4.62146493       3.76983522       0.00002750      -0.00008024      -0.00003142
H       -3.16446148      -4.37285869       0.68101449      -0.00005020       0.00005097      -0.00003817
H       -1.85672661      -3.18503434       0.59839917      -0.00000085      -0.00001621      -0.00002138
H       -3.15136190      -2.98541835       1.77520241       0.00006118      -0.00001163       0.00001733
H       -1.40456900      -6.04623294       1.10779171      -0.00013664      -0.00010306      -0.00008485
