73
Properties=species:S:1:pos:R:3 energy:=T -94.714278922568=T gnorm:=T 0.000031013445=T xtb:=T 6.7.1=T (edcfbbe)=T pbc="F F F"
O       -0.16233823      -1.71690201      -0.78781299
C        0.08900488      -0.50109335      -0.12063579
N       -0.33440421      -0.54421804       1.25406543
C       -1.60807539      -0.30709089       1.69620663
C       -2.71213171      -0.26087128       0.83963053
C       -3.97992629      -0.04322531       1.34480757
C       -4.18524402       0.12306942       2.70432481
C       -3.09719488       0.06795379       3.56300085
C       -1.82666896      -0.14121344       3.06998693
C        1.55262694      -0.11417187      -0.16356377
C        2.51372693      -0.95707014       0.38343517
C        3.85062164      -0.60184295       0.35041611
C        4.24118120       0.60005189      -0.21750004
C        3.28728000       1.44557651      -0.75795879
C        1.94940032       1.08822987      -0.73334541
H        0.36312444      -2.42625861      -0.35722204
H       -0.50352620       0.24313395      -0.67443679
H        0.39324861      -0.52383910       1.95547522
H       -2.57905450      -0.41813924      -0.21962207
H       -4.82121941      -0.01096144       0.66583410
H       -5.17999404       0.28916433       3.09160442
H       -3.24465796       0.19211442       4.62754848
H       -0.97863977      -0.18717877       3.73787564
H        2.21730391      -1.89424070       0.82884736
H        4.59226492      -1.26500584       0.77303455
H        5.28544166       0.87735170      -0.23857063
H        3.58443907       2.38548041      -1.20041583
H        1.20705738       1.75006834      -1.15735188
C        2.54576872      -3.88766397      -1.61228731
C        1.51945823      -4.71366848      -0.83288225
C        0.30215666      -5.00957802      -1.71732737
C        2.14674021      -6.02266589      -0.33942436
O        1.12246746      -3.92926089       0.28893977
H        2.91198424      -4.45295316      -2.46447488
H        3.38420624      -3.63216177      -0.96924660
H        2.09111421      -2.96583885      -1.96713161
H       -0.41594980      -5.62535982      -1.17951592
H       -0.18232160      -4.07850096      -2.00374724
H        0.60861751      -5.53816425      -2.61588379
H        1.43023395      -6.57586554       0.26534596
H        3.01961682      -5.80814659       0.27324294
H        2.45026645      -6.63988086      -1.18055214
H        0.47221259      -4.44926208       0.80101058
C        1.51091272       1.98747537       3.02180345
C        2.18258380       0.93093862       3.90024670
C        3.70568587       1.00612819       3.75087019
C        1.78226762       1.12069911       5.36882210
O        1.71406242      -0.33390467       3.43549082
H        1.81452967       2.98217785       3.33501818
H        0.42940190       1.90588079       3.09830620
H        1.79539157       1.83874289       1.98298274
H        4.18951752       0.25353881       4.37252300
H        3.98187838       0.83266772       2.71293877
H        4.06569849       1.98607341       4.05152479
H        2.24527934       0.35785524       5.99354778
H        0.70196765       1.04489745       5.47307944
H        2.09896449       2.09773825       5.72277249
H        2.16526615      -1.03208311       3.92395351
C       -0.80319152      -3.58458685       3.13853817
C       -1.70684238      -4.50616100       2.32199941
C       -2.64806544      -5.28706495       3.24522623
C       -2.51248998      -3.70674558       1.29506994
O       -0.83934195      -5.42608187       1.64352763
H       -1.40879389      -2.89518329       3.71857399
H       -0.15850235      -3.00876539       2.48107135
H       -0.18469678      -4.17608581       3.80954788
H       -3.28940240      -5.95204436       2.66769576
H       -2.07144854      -5.88486756       3.94821760
H       -3.27787882      -4.59914268       3.80195042
H       -3.15418448      -4.36703312       0.71195510
H       -1.84773015      -3.17901107       0.61532026
H       -3.13615429      -2.97326075       1.79787039
H       -1.38992427      -6.03579096       1.13773188
