58
Properties=species:S:1:pos:R:3:forces:R:3 energy:=T -70.512145740463=T gnorm:=T 0.000188165102=T xtb:=T 6.7.1=T (edcfbbe)=T energy=-1918.733217149011 pbc="F F F"
Co       0.12748484      -0.30595969      -0.13197047      -0.00440462      -0.00130168      -0.00194944
N        0.18115816      -2.06138931       0.38861824       0.00064646       0.00010066      -0.00020496
C        1.30562232      -2.96997219       0.26013511      -0.00007061      -0.00040626       0.00040662
C        2.48864605      -2.36022855      -0.49315537      -0.00028327       0.00017751      -0.00003239
P        2.24247420      -0.54146005      -0.46708857      -0.00016523       0.00120959       0.00036689
C        3.11498138       0.06547926      -1.99920391      -0.00016921       0.00035980       0.00010148
C        4.56328009      -0.39773256      -2.12657606      -0.00024523      -0.00022769      -0.00038946
C        2.28843591      -0.33534286      -3.21989417      -0.00036984      -0.00030645       0.00012225
C        3.32823098       0.04193776       0.93058148       0.00061296      -0.00002450      -0.00011207
C        2.65565828      -0.39339348       2.22978571       0.00054211      -0.00016287       0.00011287
C        3.47497196       1.56063557       0.89344958       0.00048580      -0.00011131      -0.00006258
C       -0.90849173      -2.80768049       0.99218811       0.00005539       0.00039253       0.00043056
C       -2.04058707      -1.90698671       1.48324364      -0.00032771      -0.00014509      -0.00007290
P       -1.93735731      -0.36142687       0.49746456       0.00082789      -0.00016184       0.00069959
C       -2.70766177       0.89509584       1.64328788      -0.00059607      -0.00010554      -0.00008043
C       -3.16789158       2.14158868       0.89285053      -0.00024894       0.00000620      -0.00000323
C       -1.64992904       1.27478426       2.67856917      -0.00055687       0.00006906       0.00008789
C       -3.17576592      -0.55428649      -0.88277442       0.00023745      -0.00007918      -0.00000677
C       -4.59004149      -0.93882782      -0.45795747       0.00001646      -0.00009411      -0.00060473
C       -2.59885521      -1.55280749      -1.88395071       0.00067925       0.00015985      -0.00006293
H        1.63782736      -3.29881982       1.26579256       0.00011001      -0.00004989       0.00010325
H        0.97976123      -3.89287582      -0.25980510      -0.00032647       0.00021345       0.00013684
H        3.44678950      -2.65632334      -0.05923508      -0.00017029       0.00005274       0.00014040
H        2.46214151      -2.67487984      -1.53885272      -0.00000586      -0.00009399       0.00020461
H        3.08616131       1.15989425      -1.92443010      -0.00013247      -0.00001194       0.00010117
H        4.99099585      -0.01424462      -3.05248392      -0.00046966      -0.00018994      -0.00035466
H        4.62229700      -1.48409407      -2.15243170      -0.00023695       0.00001905      -0.00017720
H        5.17074591      -0.03578507      -1.30036237      -0.00019521      -0.00007614      -0.00057284
H        2.62769542       0.20018567      -4.10537466      -0.00064460       0.00002826       0.00006522
H        2.37031075      -1.40258665      -3.41794059      -0.00057920      -0.00006903       0.00000384
H        1.23659687      -0.09634208      -3.04978723      -0.00035859       0.00006496       0.00044240
H        4.31352572      -0.43399540       0.84673118       0.00024950      -0.00033570      -0.00032084
H        3.16291579       0.03384526       3.09401312       0.00035122       0.00015330      -0.00009252
H        2.66075318      -1.47651552       2.32776404       0.00076105       0.00002531       0.00024842
H        1.61454246      -0.05658212       2.22493513       0.00031965      -0.00025856       0.00011913
H        2.49102106       2.02590677       0.83333764       0.00062935       0.00006668       0.00005439
H        3.96647543       1.91491790       1.79891421       0.00072955      -0.00016270      -0.00006867
H        4.06493042       1.88717355       0.03980034       0.00041168      -0.00022435      -0.00014515
H       -0.52655912      -3.39981920       1.84724388      -0.00015480       0.00008300       0.00031412
H       -1.30538847      -3.54792000       0.26944272       0.00022585       0.00012484       0.00010607
H       -1.86889498      -1.63456334       2.52733625      -0.00029424      -0.00000291       0.00004850
H       -3.01416609      -2.39464282       1.41108235      -0.00015636      -0.00000510      -0.00009994
H       -3.56099524       0.42396711       2.14902756      -0.00049420      -0.00009115      -0.00013337
H       -4.01934289       1.93675809       0.24849637      -0.00026336      -0.00010920      -0.00012551
H       -3.45969641       2.91653528       1.60108291      -0.00035319       0.00001048      -0.00014820
H       -2.35589712       2.53127859       0.28073971      -0.00021413       0.00005393      -0.00002694
H       -2.04845505       1.99551418       3.39139474      -0.00079293      -0.00008207       0.00016532
H       -1.30138511       0.40395150       3.23140816      -0.00052278       0.00010325       0.00011662
H       -0.79195697       1.72097541       2.17382672      -0.00043002       0.00022799       0.00042635
H       -3.19760857       0.43236386      -1.36435171       0.00027026      -0.00001558      -0.00016221
H       -4.61735629      -1.95058503      -0.05838937       0.00023509      -0.00014498      -0.00063727
H       -4.98389736      -0.25958721       0.29477613       0.00004376      -0.00023970      -0.00029472
H       -5.25121093      -0.90710677      -1.32353853       0.00028568       0.00002205      -0.00047519
H       -1.54503044      -1.31825718      -2.06761752       0.00037496       0.00015502       0.00011450
H       -2.65787700      -2.56651316      -1.49244214       0.00051582       0.00014037      -0.00011003
H       -3.13983116      -1.51602272      -2.82851545       0.00056118       0.00005343      -0.00013535
C        0.08055588       1.31192678      -0.70326146       0.00597866       0.00259325       0.00197266
O        0.06623927       2.40515106      -1.11511446      -0.00192410      -0.00137712       0.00045052
