58
Properties=species:S:1:pos:R:3 energy:=T -70.512145740463=T gnorm:=T 0.000188165102=T xtb:=T 6.7.1=T (edcfbbe)=T pbc="F F F"
Co       0.12748484      -0.30595969      -0.13197047
N        0.18115816      -2.06138931       0.38861824
C        1.30562232      -2.96997219       0.26013511
C        2.48864605      -2.36022855      -0.49315537
P        2.24247420      -0.54146005      -0.46708857
C        3.11498138       0.06547926      -1.99920391
C        4.56328009      -0.39773256      -2.12657606
C        2.28843591      -0.33534286      -3.21989417
C        3.32823098       0.04193776       0.93058148
C        2.65565828      -0.39339348       2.22978571
C        3.47497196       1.56063557       0.89344958
C       -0.90849173      -2.80768049       0.99218811
C       -2.04058707      -1.90698671       1.48324364
P       -1.93735731      -0.36142687       0.49746456
C       -2.70766177       0.89509584       1.64328788
C       -3.16789158       2.14158868       0.89285053
C       -1.64992904       1.27478426       2.67856917
C       -3.17576592      -0.55428649      -0.88277442
C       -4.59004149      -0.93882782      -0.45795747
C       -2.59885521      -1.55280749      -1.88395071
H        1.63782736      -3.29881982       1.26579256
H        0.97976123      -3.89287582      -0.25980510
H        3.44678950      -2.65632334      -0.05923508
H        2.46214151      -2.67487984      -1.53885272
H        3.08616131       1.15989425      -1.92443010
H        4.99099585      -0.01424462      -3.05248392
H        4.62229700      -1.48409407      -2.15243170
H        5.17074591      -0.03578507      -1.30036237
H        2.62769542       0.20018567      -4.10537466
H        2.37031075      -1.40258665      -3.41794059
H        1.23659687      -0.09634208      -3.04978723
H        4.31352572      -0.43399540       0.84673118
H        3.16291579       0.03384526       3.09401312
H        2.66075318      -1.47651552       2.32776404
H        1.61454246      -0.05658212       2.22493513
H        2.49102106       2.02590677       0.83333764
H        3.96647543       1.91491790       1.79891421
H        4.06493042       1.88717355       0.03980034
H       -0.52655912      -3.39981920       1.84724388
H       -1.30538847      -3.54792000       0.26944272
H       -1.86889498      -1.63456334       2.52733625
H       -3.01416609      -2.39464282       1.41108235
H       -3.56099524       0.42396711       2.14902756
H       -4.01934289       1.93675809       0.24849637
H       -3.45969641       2.91653528       1.60108291
H       -2.35589712       2.53127859       0.28073971
H       -2.04845505       1.99551418       3.39139474
H       -1.30138511       0.40395150       3.23140816
H       -0.79195697       1.72097541       2.17382672
H       -3.19760857       0.43236386      -1.36435171
H       -4.61735629      -1.95058503      -0.05838937
H       -4.98389736      -0.25958721       0.29477613
H       -5.25121093      -0.90710677      -1.32353853
H       -1.54503044      -1.31825718      -2.06761752
H       -2.65787700      -2.56651316      -1.49244214
H       -3.13983116      -1.51602272      -2.82851545
C        0.08055588       1.31192678      -0.70326146
O        0.06623927       2.40515106      -1.11511446
