48
 energy: -75.422584135712 gnorm: 0.000268678654 xtb: 6.7.1 (edcfbbe)
Mn           0.00885669888123       -0.29689646336052        0.09236819688962
C            2.32480590422567       -2.41817566791682       -0.23784896453503
P            2.16462548881068       -0.56227185619252       -0.44797437383105
C            3.51381676087895        0.04195439074313        0.69126197193607
C            4.94073156844953       -0.28858107590418        0.26687680761658
C            3.31525018735140        1.53323640626841        0.95992256443977
C            2.83365642382226       -0.38003241331667       -2.17837702690651
C            1.97730275692846       -1.18749973929579       -3.15164957156276
C            2.86385807693929        1.09353529799686       -2.57309302984120
C            0.98021118908949       -3.05935875215246       -0.44682106770297
C            0.83459374109492       -4.40267558783454       -0.75474812497221
C           -0.43940607190221       -4.95762540930852       -0.82386660728975
C           -1.53398381088630       -4.16161116715778       -0.54258633297839
C           -1.33681507495833       -2.81640330647842       -0.24968247027239
C           -2.36159059392046       -1.84196690876872        0.11730986332618
C           -3.74246283973829       -1.93298936508345        0.28146739699627
C           -4.41695655159129       -0.77648450042451        0.67195272811715
C           -3.77198455419426        0.43097933071133        0.88540464864785
C           -2.37439398790409        0.47103385828590        0.69711698280829
O           -1.52112221096899        1.42520361710623        0.78785717674897
N           -1.77164290884787       -0.67192018248237        0.34190080969035
N           -0.08564298256879       -2.26667852259025       -0.24949032659380
H            2.61223418212142       -2.58284586118356        0.80898255259010
H            3.09308480796079       -2.85390523719689       -0.88092941895611
H            3.28474100891755       -0.49486127175615        1.62534974923924
H            5.04992246467640       -1.34797490100105        0.04412286765473
H            5.23420086959732        0.28934602769194       -0.60588189950269
H            5.62384968359018       -0.03925376462096        1.07728958516332
H            3.82297580028605        1.82810537893776        1.87638359859455
H            2.24623853801857        1.74921224479422        1.06735358184391
H            3.70450538533443        2.14010896164573        0.14648930939080
H            3.85182447038102       -0.78888989703456       -2.17768660489497
H            2.01919449171514       -2.25370641481981       -2.93934243572291
H            0.93657046160587       -0.87060499354197       -3.09824324729998
H            2.32734708392602       -1.02961497290548       -4.17065235992252
H            3.09543473726686        1.19945848674247       -3.63190310251361
H            3.61318016435929        1.63959276699779       -2.00578125336673
H            1.89270105768892        1.55185378446168       -2.38499751832101
H            1.70809559977222       -5.01254955475483       -0.92578898536532
H           -0.56753123064344       -6.00012134687334       -1.07046348922962
H           -2.53506273834422       -4.56259778696861       -0.54591482014787
H           -4.27399271144787       -2.85591932538053        0.11683493630013
H           -5.48852293980635       -0.82272349744773        0.80960000684296
H           -4.31335694463240        1.31681262383226        1.17820684978626
C           -0.48125564445597        0.40616420639179       -1.47921605894373
O           -0.96390162642377        0.97876403399744       -2.35323078746300
C            0.41342903142959       -0.36632744960316        1.82810559676783
O            0.60345174600022       -0.27046481918305        2.96116393560599
