57
 energy: -86.157895010167 gnorm: 0.000189236903 xtb: 6.7.1 (edcfbbe)
Mn          -0.01492580279606       -0.23699827517687        0.35530583978292
C            2.00729084378932       -2.26006302125340        1.48810586563494
P            2.07703835471539       -0.54680302836771        1.08278686058708
C            2.67983077678701        0.38961892302803        2.53303587439631
C            3.56755059054446       -0.15682343059481        3.45039697099315
C            4.00772814171770        0.60106919133934        4.52140414784063
C            3.56981453091364        1.90647465556085        4.67935430906539
C            2.68765746970892        2.45919286170837        3.76416901695833
C            2.24506336896213        1.70091669684303        2.69632251285656
C            3.54309404641523       -0.33050053218766       -0.00167439368145
C            3.82610634267150       -1.34495230667224       -0.91173544323875
C            4.89214030277189       -1.22675992411368       -1.78324372700408
C            5.68549599095193       -0.09049733328368       -1.75586166662019
C            5.40488661410480        0.92672331647475       -0.85777875956137
C            4.33634149702953        0.81244347235556        0.01369158672610
C            0.89266285592270       -2.94609844836634        1.02282291841788
C            0.70031854189099       -4.35549172840738        1.14050552499906
C           -0.41743287904539       -4.94323163975685        0.62701749265080
C           -1.38514777890380       -4.16576729209964       -0.03368720433563
C           -1.16994943334836       -2.80776877659516       -0.12092173775882
C           -2.09358761052550       -1.85570498236616       -0.85429302596923
N           -2.10584039553378       -0.56014232833755       -0.14644556366484
C           -2.37382242047454        0.61108516896561       -0.99432815699165
C           -1.73386784165823        1.85373168135162       -0.36084749499241
C           -3.03338381624154       -0.63792164743269        1.00242505204257
C           -4.53073144270182       -0.69127657037059        0.68166722201991
N           -0.09261134465295       -2.21936717774715        0.40592737950307
H            2.85850552938001       -2.78091368292295        1.90271725470552
H            3.90663510285563       -1.17495459269964        3.32373167221448
H            4.69538917729330        0.17360632476662        5.23779098277467
H            3.91499570724630        2.49403299604648        5.51824883467382
H            2.34593740796229        3.47759211334604        3.88835001944023
H            1.54911739901122        2.11321814465205        1.96773333302027
H            3.19583125612521       -2.22613334197060       -0.92201080477726
H            5.10618022022729       -2.01924116311576       -2.48693908337175
H            6.52067533099769        0.00340103038813       -2.43549762300613
H            6.02121260115540        1.81502734019740       -0.83847490503023
H            4.11870570510330        1.61169417623555        0.70954986454916
H            1.46151101431132       -4.93631853027041        1.63907088330239
H           -0.56514792569874       -6.01021869140003        0.71667230480076
H           -2.26440371872553       -4.61774564539413       -0.46323046724498
H           -3.09530241442713       -2.28719902617037       -0.95787126422418
H           -1.68417214426646       -1.70656081782406       -1.86088138618080
H           -1.91835669075060        0.44133673663946       -1.97567823005187
H           -3.44656098434544        0.77781609929790       -1.14886546647559
H           -2.28385207359293        2.17664419513954        0.52307731344622
H           -0.66017884912412        1.66197814346626       -0.07105539797550
H           -1.72507058615068        2.67544522808871       -1.07532215054941
H           -2.76088134463344       -1.53549157660792        1.56552465674718
H           -2.85711909296058        0.22411535084156        1.65173394820433
H           -4.90403820100158        0.26096660992423        0.31162007359064
H           -4.77042933499728       -1.46539293633631       -0.04305998937568
H           -5.06511294414552       -0.91935957818574        1.60086579572273
C            0.65973586835492       -0.26588065575220       -1.29186169230000
O            1.22531183813285       -0.29250078671396       -2.30064409678359
C           -0.27034367914520       -0.16109932374806        2.11416255897200
O           -0.31099892542331       -0.14320912728321        3.26809222718366
