79

Ru      0.062182008098520     -0.384892053683290     -0.357582307555620
N       0.714063276389710     -2.482440356852250     -0.145612971528650
C       0.987535350056630     -1.887976120397870      0.991561829731280
C       2.383803623749820     -1.297474097459470      1.129327925220120
P       2.320411085703980      0.016993832070210     -0.173906433294030
C       3.163791654173260      1.426124062469860      0.605042322848580
C       2.481517209455220      2.630467324635860      0.722472864395570
C       3.096995962011590      3.714796675181480      1.324904439070770
C       4.389057706076770      3.594394787348810      1.810455922370360
C       5.069832989569260      2.390543744415750      1.696933659380410
C       4.462023417772650      1.305148118424270      1.094356052285000
C       3.514136071469510     -0.513289725159620     -1.442514567270410
C       4.341795632435920      0.408014534164900     -2.077455442760300
C       5.186050904375940     -0.005210432137210     -3.092814849669710
C       5.200960596635270     -1.332559912264810     -3.489638896193620
C       4.359234202711970     -2.248011729393290     -2.877045833144030
C       3.513102708684750     -1.841411161937590     -1.862276161434190
C      -0.364329454472840     -3.445401183590050     -0.209312600911590
C      -1.691329673831010     -3.017019903387880      0.438335913857490
P      -2.030300673718340     -1.281017366408590     -0.120018752753780
C      -3.277288966492610     -0.681181198062620      1.068767623824480
C      -4.130794919177580     -1.504369980374720      1.795187438342490
C      -5.081301045117810     -0.943629361760200      2.631178495285010
C      -5.191477932866710      0.432799599278230      2.741205886624280
C      -4.344030301811530      1.256241913565990      2.016193266043800
C      -3.390485723387820      0.701364986088730      1.183181951533270
C      -3.128631642640250     -1.471434437436750     -1.572678090698690
C      -2.956525827830110     -0.580900327585890     -2.627307009360960
C      -3.777427044606340     -0.645662914555040     -3.739106825078300
C      -4.781439981948070     -1.597977757275420     -3.803022489856900
C      -4.974341495401540     -2.471042689756410     -2.744082711764000
C      -4.159184416455610     -2.404684531523690     -1.628615984588020
H       0.504791476391260     -2.197344786190070      1.931944401599850
H      -0.058593191811870      0.236677030239290      1.081087845112710
H       3.165098553084730     -2.051789073273420      0.982439286994480
H       2.509230679386080     -0.819341696986740      2.105562838505910
H       1.468305988362310      2.690386613702660      0.342511728967710
H       2.569742951649180      4.653348628105250      1.416918806945380
H       4.869895633635140      4.439962607154120      2.280969634351810
H       6.076808958469140      2.301419952532500      2.079138968328450
H       4.987599107406640      0.364010948533090      0.994309283092210
H       4.321750966381310      1.446686681343770     -1.774728311336520
H       5.831170533597040      0.712229961936550     -3.579758436827050
H       5.860765703217780     -1.652132883069060     -4.283399415998640
H       4.358882084994810     -3.280528792842690     -3.197113521077580
H       2.833487555730690     -2.546551748977770     -1.399592580008670
H      -0.540785452708960     -3.654376909329380     -1.273064574656120
H      -0.007732468991230     -4.376808329042000      0.256663472862790
H      -2.477488019540790     -3.720132719230580      0.155834596626880
H      -1.608383327744800     -2.997522847698670      1.531031083091970
H      -4.056923916460080     -2.580243589858690      1.721866040841440
H      -5.740162678181660     -1.585280991408510      3.199282800938550
H      -5.936251780001830      0.862909736145500      3.395305898552270
H      -4.426224844181170      2.329963735120430      2.104478826517460
H      -2.702563877768670      1.321679541052820      0.620764223104050
H      -2.169412601462660      0.162801165626130     -2.559758590868370
H      -3.632983489332140      0.046227055476770     -4.556474531459980
H      -5.419057493327250     -1.655840602965960     -4.673292863091980
H      -5.766630621283410     -3.204985024889660     -2.786591442083300
H      -4.337154348870170     -3.077864412346440     -0.801861098014210
C       0.227186781545280     -0.885725262410980     -2.129975223303080
O       0.407642410565450     -1.254942307694450     -3.206123953873030
H      -0.403981561627680      1.028727451609660     -0.798042406346290
O      -1.416099372900573     -1.940868085689516      1.422539627766311
C      -1.436836756011439     -0.602713777493559      1.837295668442262
C      -0.674576510237387     -0.449278944953519      3.124396292072896
C      -1.302831446191610     -0.708128739407584      4.353755041332459
C      -0.584125582246460     -0.597930558145658      5.548461055927076
C       0.766788234565655     -0.240217333566481      5.522906170241603
C       1.402443106630865      0.003564954504721      4.302206408164171
C       0.687263447453800     -0.105496326238755      3.105276817722602
H      -0.513120809072666     -2.106484673320052      1.043999123746578
H      -2.492744203660887     -0.291407368936134      1.986339759684876
H      -1.013752289793226      0.056685991754650      1.045211023271443
H      -2.346793399234663     -0.994618894705878      4.386347634318723
H      -1.073618838020653     -0.793264690087943      6.493838545095132
H       1.321975771662621     -0.156623099563802      6.448240994275089
H       2.450385805961988      0.273659098989198      4.283131206210690
H       1.193921072616428      0.077200398151528      2.165672377667771
