55
Properties=species:S:1:pos:R:3 energy:=T -71.022219730548=T gnorm:=T 0.000242155200=T xtb:=T 6.7.1=T (edcfbbe)=T pbc="F F F"
Co       0.34498789      -0.55072205      -1.30193843
C        2.61834682      -2.16093843      -0.24492917
P        2.17855312      -0.35867846      -0.02682369
C        3.64169931       0.50370728      -0.81768236
C        5.01254103       0.18612906      -0.22131039
C        3.64848408       0.22732150      -2.32054780
C        2.57864383      -0.12874441       1.79767083
C        1.61940080      -0.92816964       2.67501026
C        2.49275998       1.35411213       2.15032007
C        1.33567798      -2.90672650      -0.09158031
C        1.26008481      -4.14669078       0.52192509
C        0.01907536      -4.73643088       0.71432455
C       -1.10880688      -4.03622529       0.31577644
C       -0.96195566      -2.80607889      -0.30480282
C       -2.14147767      -1.98858542      -0.74115474
N       -1.94220425      -0.57688645      -0.39164852
C       -1.86601245      -0.38817167       1.06246262
C       -3.15420820      -0.59139544       1.87025337
C       -3.00328633       0.25993795      -0.95885897
C       -2.94529650       0.40132844      -2.47452103
N        0.24306675      -2.26290637      -0.53223736
H        2.97309413      -2.25932247      -1.27559323
H        3.38804910      -2.52320071       0.44072507
H        3.42470367       1.57096247      -0.68162167
H        5.78125586       0.66308321      -0.82851768
H        5.11750991       0.55884350       0.79414560
H        5.20221662      -0.88553609      -0.22589204
H        2.63450200       0.28461344      -2.71767659
H        4.05258229      -0.75991153      -2.53782930
H        4.26538093       0.96125149      -2.83630014
H        3.59456839      -0.50074628       1.97110758
H        1.60066376      -1.98131000       2.39752248
H        1.92428780      -0.85963686       3.71927303
H        0.61174076      -0.52648966       2.59347210
H        2.59530661       1.49643725       3.22576635
H        3.27185234       1.92918444       1.65509949
H        1.52679135       1.75381696       1.84104102
H        2.16318343      -4.63872363       0.85079858
H       -0.06664574      -5.70379756       1.18472586
H       -2.09611768      -4.43913221       0.48275839
H       -2.20531392      -2.04876895      -1.83270519
H       -3.07196849      -2.39888906      -0.31807453
H       -1.11767685      -1.08734504       1.44196183
H       -1.49972805       0.62839446       1.23390737
H       -2.91700600      -0.50350063       2.92828713
H       -3.57970507      -1.57862487       1.70441578
H       -3.90243582       0.15927852       1.62962820
H       -2.88800197       1.25479055      -0.52162758
H       -3.99409491      -0.13192279      -0.67827695
H       -1.93706501       0.67425921      -2.77505696
H       -3.63329762       1.18326676      -2.78793834
H       -3.22654989      -0.51779793      -2.98295247
C        0.18430596      -1.05447470      -2.95740292
O        0.25910639      -1.33474397      -4.08290281
H        0.35274352       0.82696985      -1.76605648
