60
 energy: -70.709653720917 gnorm: 0.000156398113 xtb: 6.7.1 (edcfbbe)
Fe           0.11946278414592       -0.49769850610149       -0.48831533375962
N           -0.10496640314387       -2.49123982729634        0.15269619674079
C            0.45552531004223       -2.58835949308312        1.51836344434122
C            1.91754842850105       -2.15643123971510        1.50589741700623
P            2.07945671529772       -0.67691362873547        0.39896794472649
C            2.58968333833387        0.72385528421667        1.50348125397461
C            2.78442013665257        1.94571856619760        0.60391405868215
C            1.54574208388051        1.00877409950914        2.57748892524910
C            3.61782476730081       -1.04629942130896       -0.59664218315444
C            4.88918407709402       -1.15159993956479        0.24222750310937
C            3.40365879039847       -2.31306413822669       -1.42466759970570
C           -1.50459799365905       -2.97051978974726        0.09498737761142
C           -2.46924622753021       -1.85558675142847        0.49678677822547
P           -2.02081844772601       -0.45914008007447       -0.62234919929741
C           -3.02149710959597       -0.78082481306493       -2.16245987651261
C           -4.50874918313929       -0.99347926473781       -1.88862707989544
C           -2.79391160981439        0.35720036103391       -3.15541890452739
C           -2.61745409212940        1.16635925073253        0.04845896467872
C           -1.56066892246251        2.17340249137216       -0.43139018458280
C           -2.73094236623813        1.14951052730206        1.56838845998859
H            0.45155361016968       -3.12567738449151       -0.42828126009527
H            0.36785131373814       -3.61835161109607        1.88391072738709
H           -0.12570988662462       -1.93457750385423        2.16779643561928
H            2.26579493094126       -1.92418406942468        2.51511786792941
H            2.54066708391615       -2.96155454296247        1.10643357803630
H            3.53249899564671        0.44782684892324        1.99243028401416
H            3.64994302189801        1.83364376660955       -0.04732975882630
H            2.92859254368276        2.84304700569588        1.20371505569298
H            1.89725181634703        2.08885974371764       -0.02243829994397
H            0.63889112661277        1.40909857035298        2.13374012417862
H            1.29061541618407        0.11266326216871        3.13890640819839
H            1.93617385113391        1.74742324379031        3.27656311546650
H            3.70729886320424       -0.20230507548753       -1.29357641454344
H            4.76048430564114       -1.84697242000303        1.06975892558368
H            5.70287673351484       -1.51936042519654       -0.38158555516244
H            5.19249779090601       -0.18626856762865        0.63955953069440
H            3.51750752825411       -3.20974898425938       -0.81893609346600
H            4.14322405312281       -2.36268933684419       -2.22191624749284
H            2.41542721158950       -2.31769031209127       -1.88379248437459
H           -1.71069066099376       -3.27495508047432       -0.93501901897305
H           -1.62803650057718       -3.84227677793649        0.74705687515158
H           -3.50741925608744       -2.17626346863347        0.39787830995835
H           -2.29129754393676       -1.54342490654754        1.52683175338392
H           -2.59321586421072       -1.69732874030461       -2.59182956601321
H           -4.90725818977661       -0.22256845091641       -1.23151557564055
H           -5.05835182420811       -0.94746504487319       -2.82769110479888
H           -4.70316764259859       -1.96589271381973       -1.44319144297735
H           -3.31692087974653        1.25887407013874       -2.84248183623182
H           -1.73130417664523        0.58030177974490       -3.25464967609043
H           -3.17246237576916        0.07824617839778       -4.13767370944369
H           -3.59221714457894        1.42556497313105       -0.38285545402217
H           -0.54233535606529        1.75506209036488       -0.29413333740063
H           -1.62218499286639        3.09987144152212        0.13764639227668
H           -1.68538530674054        2.41303019179221       -1.48588343780214
H           -1.79544185490799        0.82665207919323        2.01843218218135
H           -2.95493456619087        2.15148691922764        1.93196072686605
H           -3.53219126271328        0.48780923296862        1.89193784842879
C            0.46588290608583       -0.80362097426111       -2.17726925673239
O            0.63696331471394       -0.88335980014121       -3.30950621282885
H           -0.21028184050724       -0.15948524133248        0.83440926243556
