14
Properties=species:S:1:pos:R:3:forces:R:3 energy:=T -22.082508021817=T gnorm:=T 0.000027398456=T xtb:=T 6.7.1=T (edcfbbe)=T energy=-600.8956501670051 pbc="F F F"
O        3.17281204      -0.22230395      -0.32385729       0.00014419      -0.00028008       0.00015316
C        2.27107508       0.54470398      -0.07948223       0.00003833      -0.00013359      -0.00014653
C        0.84796771       0.20330972      -0.02969838      -0.00018510      -0.00033671       0.00000826
C        0.43185611      -1.10748102      -0.27616738       0.00006102       0.00034544       0.00033923
C       -0.91005641      -1.42998863      -0.22917127      -0.00000382       0.00021519       0.00025106
C       -1.84765550      -0.44976145       0.06326508       0.00007441       0.00016517       0.00004728
C       -1.44344755       0.85457499       0.30929430       0.00015101       0.00012131      -0.00025878
C       -0.10202786       1.18315162       0.26377945      -0.00017783      -0.00009440      -0.00029448
H        2.48341579       1.61243566       0.13300496       0.00001992      -0.00024566      -0.00003329
H        1.18099700      -1.85237952      -0.50187026      -0.00020367      -0.00028910       0.00041901
H       -1.22935804      -2.44386673      -0.41994183      -0.00012951       0.00004228       0.00041068
H       -2.89713084      -0.70281202       0.09974632      -0.00002177       0.00019667      -0.00003870
H       -2.17792689       1.61305651       0.53658864       0.00012836       0.00025302      -0.00044690
H        0.21947937       2.19736082       0.45450988       0.00010447       0.00004044      -0.00041003
