47
 energy: -70.007518288279 gnorm: 0.000323237491 xtb: 6.7.1 (edcfbbe)
Fe           0.05753537128964       -0.31191685257567       -0.23804409353188
C            2.40985844470916       -2.25765869281720       -0.25498699408364
P            2.21933690091347       -0.41489137364236        0.02283724236937
C            2.96265786945965       -0.18530907066799        1.72060690069199
C            2.36606450789734       -1.16782300023804        2.72244780256140
C            2.67744394516246        1.25096297985076        2.15298810940972
C            3.59341435953032        0.28472035544133       -1.04720954573154
C            3.03993041962910        0.59598106573793       -2.43460747896577
C            4.84948258678333       -0.57959985415056       -1.13795835293155
C            1.14272065216638       -2.94870915836329        0.15492697480729
C            1.09175521832756       -4.28466367722347        0.51768971640088
C           -0.13576859717864       -4.86877652445463        0.81165576920090
C           -1.28414122513794       -4.10291624590511        0.72739441206927
C           -1.18075098846044       -2.76319636214933        0.37218905611714
C           -2.26016458326275       -1.79005894005697        0.25783931920398
C           -3.63881241898777       -1.86437836319267        0.43301757646568
C           -4.36671584998628       -0.68371397102007        0.27261499261207
C           -3.77400579534168        0.52840902991164       -0.03397986620332
C           -2.37076679264256        0.56195471678051       -0.20194588174365
O           -1.55014498285576        1.49806715131223       -0.45828415478057
N           -1.72680939311397       -0.61504520145855       -0.06571196321552
N            0.03242584079636       -2.19919483965093        0.10010706599698
H            3.29110809837450       -2.68290325678390        0.23073217719360
H            2.51675348629897       -2.37890780169366       -1.34068874064625
H            4.04723472853744       -0.34287816091369        1.65049949970035
H            2.70621822855748       -0.92499086423639        3.72817038843571
H            1.28000538339726       -1.09589731961238        2.70253392645008
H            2.65134755282039       -2.19528980061981        2.50627862954682
H            1.60124319889671        1.42022498902182        2.14525910485709
H            3.05373887458929        1.43295529000601        3.15870113566563
H            3.13968177904993        1.97187345741621        1.47949793529121
H            3.85588013665318        1.23655562891934       -0.56511305447078
H            2.75805799055378       -0.31824074785729       -2.95522620426384
H            3.78551298211338        1.11309795824461       -3.03735906209896
H            2.15616589588294        1.22963174194953       -2.35535331194935
H            5.19922753355247       -0.88959186452718       -0.15597709799151
H            4.67214409272670       -1.46648071014729       -1.74153118757940
H            5.64648823005944       -0.00841494616507       -1.61243672089434
H            2.00072915317724       -4.86476262432975        0.56305759311978
H           -0.18903522957724       -5.90830504508824        1.09643021971308
H           -2.25489075903331       -4.52215731847356        0.93883782802051
H           -4.12979493887838       -2.78951018763738        0.68671590163382
H           -5.43983090663134       -0.71784451373151        0.40418358344707
H           -4.35928522724317        1.42921242407237       -0.13356022803191
C            0.03589312462515       -0.49548309019846       -1.98014965771829
O           -0.10446639733428       -0.65553902456139       -3.11122212235080
H            0.00197620068310       -0.06742240652286        1.20029257938830
