43
Properties=species:S:1:pos:R:3 energy:=T -59.203319823604=T gnorm:=T 0.000024898825=T xtb:=T 6.7.1=T (edcfbbe)=T pbc="F F F"
O        0.27015216      -1.52585804      -1.64851193
C        0.40902308      -0.38582695      -0.84353357
N       -0.16880358      -0.60645933       0.46882494
C       -1.52942722      -0.59451488       0.71295301
C       -2.46548953      -0.75784203      -0.30942911
C       -3.81513397      -0.80532594      -0.01523149
C       -4.26028914      -0.69931428       1.29192758
C       -3.33576350      -0.54111046       2.31230389
C       -1.98558356      -0.48702836       2.02978530
C        1.85883585       0.01598865      -0.65623189
C        2.77942158      -0.90813179      -0.17336629
C        4.10166846      -0.54234541       0.00801006
C        4.51549860       0.74657188      -0.28573370
C        3.60179674       1.67020434      -0.76451667
C        2.27886684       1.30604378      -0.94980751
H        0.53991999      -2.29633374      -1.10787435
H       -0.12891490       0.41226258      -1.38210635
H        0.40986325      -0.31370908       1.24239791
H       -2.13260766      -0.85862922      -1.33031016
H       -4.52692116      -0.93102462      -0.81884197
H       -5.31616315      -0.74001979       1.51470719
H       -3.66957939      -0.45561321       3.33692723
H       -1.26795609      -0.35844567       2.82942331
H        2.46131291      -1.91445918       0.05713697
H        4.81147061      -1.26657911       0.38066320
H        5.54823886       1.03016107      -0.14374973
H        3.91928008       2.67646107      -0.99673488
H        1.56753783       2.02761476      -1.32675878
C        0.52970638      -5.32449212      -1.24464943
C       -0.16674556      -4.66595103      -0.05344114
C       -1.58544773      -4.23095803      -0.43174203
C       -0.20484402      -5.61811991       1.14716108
O        0.62110210      -3.51936696       0.27760785
H        0.00235825      -6.22750833      -1.53732191
H        1.55283304      -5.57937560      -0.97932912
H        0.55214061      -4.63691562      -2.08696353
H       -2.07418412      -3.73647985       0.40742017
H       -1.55408546      -3.53469817      -1.26660244
H       -2.17902160      -5.09472655      -0.71823672
H       -0.69726411      -5.14191305       1.99389331
H        0.80749540      -5.88767108       1.44058730
H       -0.74982154      -6.52300792       0.89371167
H        0.15782010      -3.01781273       0.96203653
