56
 energy: -71.032658724704 gnorm: 0.000191887301 xtb: 6.7.1 (edcfbbe)
Fe           0.23405615073354       -0.10418256822953       -0.66901112065839
C            2.29429071966070       -2.12124678559075        0.39122899295054
P            2.33729879499301       -0.45744528266523       -0.44520624263425
C            3.34877292717141        0.51063177708438        0.79266321163160
C            3.21466673701652        2.00736405926356        0.53304807605979
C            4.80365168929581        0.07756991836109        0.94753174560956
C            3.51846775465034       -0.84189264606837       -1.85275541999124
C            3.77593688125109        0.42489305512701       -2.66168989911987
C            2.91023878786676       -1.92554154711104       -2.73905173331173
C            1.02841103751119       -2.78613461524139       -0.04583251035609
C            0.84684443408374       -4.15358768536685        0.03207090569187
C           -0.37782339181468       -4.71240813308481       -0.31036798278115
C           -1.39587304619072       -3.85315947225606       -0.70135563237408
C           -1.14708532634658       -2.49750469655374       -0.77547367288981
C           -2.18020709894381       -1.50431130868177       -1.22435035348710
N           -1.97408773431840       -0.21774025471585       -0.53785923949381
C           -2.47623742394098       -0.34181849288324        0.84425133683583
C           -2.32310255001248        0.93309860270843        1.66034730757935
C           -2.63861302212400        0.87977429634707       -1.26387206513264
C           -4.16382309672650        0.80257265921831       -1.36628090545298
N            0.05458592705028       -1.95473346728924       -0.48287824463077
H            3.17457141671977       -2.74665070401850        0.21930900479692
H            2.21291208948493       -1.90829418397470        1.46430021371772
H            2.80751483388045        0.29858519811206        1.72589487942741
H            3.81463011518789        2.32400896894041       -0.31709182554247
H            2.16995749447534        2.23005927782667        0.32205951384477
H            3.53362367685754        2.57606822191526        1.40595700049197
H            5.23978150888010        0.57448441666560        1.81404796521634
H            5.39111844759584        0.35539006704666        0.07489662064783
H            4.88426288355390       -0.99777883073559        1.09794802471185
H            4.45822555911761       -1.21582817433934       -1.42821500154015
H            4.37568486833535        1.13751365735970       -2.10031890056391
H            2.82770631844476        0.90025612883952       -2.91119529577937
H            4.30252517851011        0.19221859871700       -3.58765246761053
H            2.76200309283098       -2.85774922668412       -2.19611083202913
H            3.56256106213881       -2.12796844182178       -3.58894547966252
H            1.94572208038215       -1.59920086799857       -3.12280103661216
H            1.65982761277156       -4.77914647667214        0.37055981088649
H           -0.53705621955200       -5.77790552913388       -0.25889009538177
H           -2.37439383127544       -4.23310204615612       -0.95442171702888
H           -3.19107065355137       -1.90259227919956       -1.05356358455620
H           -2.04884557720003       -1.33808648991193       -2.30099656331534
H           -3.53001012701638       -0.65948355766814        0.83249165211516
H           -1.89420190751088       -1.13413667411017        1.32209234216538
H           -2.44832089379162        0.70394504894514        2.71618526567352
H           -3.05731174077775        1.68590962504855        1.38518179993561
H           -1.32278742785900        1.32890309345225        1.50065039395661
H           -2.21922013080856        0.90290035815268       -2.27230234845497
H           -2.34558096535337        1.81084168123968       -0.77861370255560
H           -4.48849544994734       -0.11223601911820       -1.85730263544012
H           -4.51028428229079        1.64257516482639       -1.96425894797900
H           -4.64112302592802        0.86864346356269       -0.39208278764317
C            0.18824475681578        0.06705860255699       -2.39797959994033
O            0.14745852565846        0.29273047486231       -3.53815622949837
H            0.34721969079613        0.04046778777264        0.78994791634293
H            0.29315627461435        1.35738828687913       -0.69924647261520
