20
 energy: -33.289389145391 gnorm: 0.000070437059 xtb: 6.7.1 (edcfbbe)
C           -3.25617238215698        0.21397210600894        0.21029652727989
N           -1.84770881434654       -0.11129006261684        0.14994053718316
C           -1.45350324805551       -1.40597449261421        0.03292980090702
N           -0.25002793527247       -1.82732846347030       -0.03120108568306
C            0.75459272602226       -0.89286630388366        0.02191680780377
C            2.08674248765347       -1.31374218026694       -0.04583891059715
C            3.10277148089573       -0.38739009900649        0.00632988903851
C            2.82040552523135        0.97323280520190        0.12663209814616
C            1.51556860311894        1.40477046534170        0.19458494410208
C            0.47055871138318        0.47947945309851        0.14312335423489
C           -0.91521942019693        0.93020607336423        0.21433917266650
O           -1.27708699114800        2.08475392689743        0.31920927886521
H           -3.33777298384100        1.29651300425470        0.30378031308663
H           -3.76140198229505       -0.11257416271059       -0.69933399541067
H           -3.72008219393870       -0.26275542312552        1.07446126503890
H           -2.25098388748077       -2.13803617568626       -0.00850754263729
H            2.28611793329693       -2.36944214597399       -0.13872932061578
H            4.13079361160235       -0.71480138184498       -0.04634462254311
H            3.62940592188522        1.68697427019271        0.16626974889228
H            1.26754199374252        2.45134679453965        0.28795993084207
