59
 energy: -87.243601001904 gnorm: 0.000148062857 xtb: 6.7.1 (edcfbbe)
Mn           0.17836351951194       -0.12275245228341        0.19966445064282
C            2.35985936310849       -2.27462885094016       -0.27241007380950
P            2.28283393316405       -0.62444479920994        0.57521659515766
C            3.77354854029826        0.17411175121018       -0.10574116186462
C            5.02108799018353       -0.43995241218369       -0.02717314476000
C            6.12955772599349        0.18519130712127       -0.56680354515491
C            6.00097543096786        1.42310363488148       -1.17937491211073
C            4.76319272660468        2.04160069547810       -1.24699946140415
C            3.64928185920018        1.41960709815976       -0.70905247038858
C            2.86799705108969       -1.02031104660303        2.25541308921693
C            2.57312111754131       -2.23011142306380        2.87630220000326
C            2.95763277655642       -2.44868779254230        4.18742461444934
C            3.62299490182605       -1.45910368724909        4.89222640658504
C            3.89479701542741       -0.24145047630827        4.28750999592324
C            3.51316210428104       -0.01898810082177        2.97814624496361
C            0.99859835903588       -2.88511776122517       -0.14047317183194
C            0.81957073760993       -4.25585558031581       -0.23045818402267
C           -0.45511808759953       -4.79228239501635       -0.12255526024778
C           -1.50994535288495       -3.91732063714746        0.08664966455387
C           -1.25649945003791       -2.55974858668650        0.18703006731297
C           -2.35513643140475       -1.58063051368253        0.49082178496626
N           -2.11643234724282       -0.29341786202028       -0.18272475000446
C           -2.90907172081205        0.77497982349177        0.46735168379704
C           -4.43035693654706        0.60312753676549        0.45122321835490
C           -2.49472311083500       -0.45073404175098       -1.60400929047078
C           -2.37868151621144        0.82813672866543       -2.42460789402235
N           -0.02468001744252       -2.03518320574525        0.07243032548757
H            3.14944116684516       -2.93155892714947        0.10336971420432
H            2.56665040199706       -2.05057982641256       -1.32805572694159
H            5.12093958205672       -1.39917699284794        0.46414652231090
H            7.09808075889342       -0.29122292593239       -0.50925877512422
H            6.87094164332775        1.90737459357519       -1.59924630576146
H            4.66632588080039        3.00939909207246       -1.71752421783399
H            2.66946029599260        1.88316261905439       -0.73955308971548
H            2.03649051957562       -3.00377593757460        2.34086051780654
H            2.73116224819431       -3.39290776273212        4.66327957022460
H            3.91936846197305       -1.63299068560748        5.91663743192426
H            4.39936957009361        0.53696060443539        4.84194278445162
H            3.70562451149293        0.93301888224645        2.49932525837724
H            1.67642253276603       -4.89340588994726       -0.39065373540284
H           -0.61932441803461       -5.85566907866044       -0.19839195061569
H           -2.52190622319045       -4.28105240101208        0.18243468001039
H           -2.36138818729978       -1.40644072784643        1.57611804137325
H           -3.32709741536804       -2.01372427795359        0.20905203710776
H           -2.57471681572833        0.84208693135545        1.50706712957837
H           -2.64373525488154        1.71769910390516       -0.01278914262473
H           -4.87028798741747        1.44487666766207        0.98088572957329
H           -4.74249145737333       -0.30730934253695        0.95816764784464
H           -4.83219941081257        0.60032765906210       -0.55862280825710
H           -1.83560387488902       -1.21104645736832       -2.03825376825414
H           -3.52388880295760       -0.83562799705202       -1.67395385744415
H           -1.44336975217670        1.33623013353485       -2.19330495793828
H           -3.20463751300802        1.50770318205605       -2.23132153079289
H           -2.38505618154774        0.57761237921188       -3.48309876566002
C            0.67174869158251        0.01333138957131       -1.49823683104710
O            1.11807069142793        0.06681961553886       -2.56953223280477
C           -0.05344178019167       -0.06868633547961        1.96445035024456
O           -0.09076047917327       -0.04406014775452        3.12258400813591
H            0.11032409687275        1.43648691064255        0.24383804792355
