      -----------------------------------------------------------      
     |                   =====================                   |     
     |                           x T B                           |     
     |                   =====================                   |     
     |                         S. Grimme                         |     
     |          Mulliken Center for Theoretical Chemistry        |     
     |                    University of Bonn                     |     
      -----------------------------------------------------------      

   * xtb version 6.7.1 (edcfbbe) compiled by 'VssAdministrator@runnervm171ch' on 2026-06-10

   xtb is free software: you can redistribute it and/or modify it under
   the terms of the GNU Lesser General Public License as published by
   the Free Software Foundation, either version 3 of the License, or
   (at your option) any later version.
   
   xtb is distributed in the hope that it will be useful,
   but WITHOUT ANY WARRANTY; without even the implied warranty of
   MERCHANTABILITY or FITNESS FOR A PARTICULAR PURPOSE.  See the
   GNU Lesser General Public License for more details.
   
   Cite this work as:
   * C. Bannwarth, E. Caldeweyher, S. Ehlert, A. Hansen, P. Pracht,
     J. Seibert, S. Spicher, S. Grimme, WIREs Comput. Mol. Sci., 2020, 11,
     e01493. DOI: 10.1002/wcms.1493
   
   for GFN2-xTB:
   * C. Bannwarth, S. Ehlert and S. Grimme., J. Chem. Theory Comput., 2019,
     15, 1652-1671. DOI: 10.1021/acs.jctc.8b01176
   for GFN1-xTB:
   * S. Grimme, C. Bannwarth, P. Shushkov, J. Chem. Theory Comput., 2017,
     13, 1989-2009. DOI: 10.1021/acs.jctc.7b00118
   for GFN0-xTB:
   * P. Pracht, E. Caldeweyher, S. Ehlert, S. Grimme, ChemRxiv, 2019, preprint.
     DOI: 10.26434/chemrxiv.8326202.v1
   for GFN-FF:
   * S. Spicher and S. Grimme, Angew. Chem. Int. Ed., 2020, 59, 15665-15673.
     DOI: 10.1002/anie.202004239
   
   for ALPB and GBSA implicit solvation:
   * S. Ehlert, M. Stahn, S. Spicher, S. Grimme, J. Chem. Theory Comput.,
     2021, 17, 4250-4261. DOI: 10.1021/acs.jctc.1c00471
   
   for ddCOSMO and CPCM-X implicit solvation:
   * M. Stahn, S. Ehlert, S. Grimme, J. Phys. Chem. A,
     2023, XX, XXXX-XXXX. DOI: 10.1021/acs.jpca.3c04382
   
   for DFT-D4:
   * E. Caldeweyher, C. Bannwarth and S. Grimme, J. Chem. Phys., 2017,
     147, 034112. DOI: 10.1063/1.4993215
   * E. Caldeweyher, S. Ehlert, A. Hansen, H. Neugebauer, S. Spicher,
     C. Bannwarth and S. Grimme, J. Chem. Phys., 2019, 150, 154122.
     DOI: 10.1063/1.5090222
   * E. Caldeweyher, J.-M. Mewes, S. Ehlert and S. Grimme, Phys. Chem. Chem. Phys.
     2020, 22, 8499-8512. DOI: 10.1039/D0CP00502A
   
   for sTDA-xTB:
   * S. Grimme and C. Bannwarth, J. Chem. Phys., 2016, 145, 054103.
     DOI: 10.1063/1.4959605
   
   in the mass-spec context:
   * V. Asgeirsson, C. Bauer and S. Grimme, Chem. Sci., 2017, 8, 4879.
     DOI: 10.1039/c7sc00601b
   * J. Koopman and S. Grimme, ACS Omega 2019, 4, 12, 15120-15133.
     DOI: 10.1021/acsomega.9b02011
   
   for metadynamics refer to:
   * S. Grimme, J. Chem. Theory Comput., 2019, 155, 2847-2862
     DOI: 10.1021/acs.jctc.9b00143
   
   for SPH calculations refer to:
   * S. Spicher and S. Grimme, J. Chem. Theory Comput., 2021, 17, 1701-1714
     DOI: 10.1021/acs.jctc.0c01306
   
   for ONIOM refer to:
   * C. Plett, A. Katbashev, S. Ehlert, S. Grimme, M. Bursch,
     Phys. Chem. Chem. Phys., 2023, 25, 17860-17868. DOI: 10.1039/D3CP02178E
   
   for DIPRO refer to:
   * J. Kohn, N. Gildemeister, S. Grimme, D. Fazzi, A. Hansen,
     J. Chem. Phys., 2023, just accepted.
   
   for PTB refer to:
   * S. Grimme, M. Mueller, A. Hansen, J. Chem. Phys., 2023, 158, 124111.
     DOI: 10.1063/5.0137838
   
   with help from (in alphabetical order)
   P. Atkinson, C. Bannwarth, F. Bohle, G. Brandenburg, E. Caldeweyher
   M. Checinski, S. Dohm, S. Ehlert, S. Ehrlich, I. Gerasimov, C. Hölzer
   A. Katbashev, J. Kohn, J. Koopman, C. Lavigne, S. Lehtola, F. März, M. Müller,
   F. Musil, H. Neugebauer, J. Pisarek, C. Plett, P. Pracht, F. Pultar,
   J. Seibert, P. Shushkov, S. Spicher, M. Stahn, M. Steiner, T. Strunk,
   J. Stückrath, T. Rose, and J. Unsleber
   
 * started run on 2026/09/13 at 01:18:02.656     
   ID    Z sym.   atoms
    1   44 Ru     1
    2    7 N      2
    3    6 C      3, 4, 6-13, 15-20, 57, 61-67
    4   15 P      5, 14
    5    1 H      21-56, 59, 68-75
    6    8 O      58, 60

           -------------------------------------------------
          |                Calculation Setup                |
           -------------------------------------------------

          program call               : C:\Users\HUIWEI\miniconda3\envs\phase2ff\Library\bin\xtb.exe input.xyz --gfn 2 --chrg 0 --uhf 0 --etemp 300.0 --iterations 500 --acc 0.5 --opt tight --cycles 250 --grad --alpb toluene gsolv
          coordinate file            : input.xyz
          omp threads                :                     2


molecular fragmentation (1/2 indicates fragments):
111111111111111111111111111111111111111111111111111111111112222222211222
222
# atoms in fragment 1/2:    61    14
 fragment masses (1/2) :      436.51      106.12
CMA distance (Bohr)    :   8.769
constraining FC (au)   :  0.0500
########################################################################
[WARNING] Please study the warnings concerning your input carefully
-1- prog_main_parseArguments: Unknown reference state 'gsolv'
########################################################################

           -------------------------------------------------
          |                 G F N 2 - x T B                 |
           -------------------------------------------------

        Reference                      10.1021/acs.jctc.8b01176
      * Hamiltonian:
        H0-scaling (s, p, d)           1.850000    2.230000    2.230000
        zeta-weighting                 0.500000
      * Dispersion:
        s8                             2.700000
        a1                             0.520000
        a2                             5.000000
        s9                             5.000000
      * Repulsion:
        kExp                           1.500000    1.000000
        rExp                           1.000000
      * Coulomb:
        alpha                          2.000000
        third order                    shell-resolved
        anisotropic                    true
        a3                             3.000000
        a5                             4.000000
        cn-shift                       1.200000
        cn-exp                         4.000000
        max-rad                        5.000000

      * Solvation model:               ALPB
        Solvent                        toluene
        Parameter file                 internal GFN2-xTB/ALPB
        Dielectric constant                7.0000E+00
        Reference state                gsolv [1 M gas/solution]
        Free energy shift                  2.2081E-03 Eh       1.3856E+00 kcal/mol
        Temperature                        2.9815E+02 K
        Density                            8.6700E-01 kg/L
        Solvent mass                       7.8110E+01 g/mol
        Interaction kernel             P16
        Born radius scaling (c1)           1.7172E+00
        Born radii integrator          GBOBC
        Born offset                        0.0000E+00 a0       0.0000E+00 AA
        H-bond correction              false
        Ion screening                  false
        Surface tension                    1.0000E-05 Eh       1.5569E+01 dyn/cm
        Grid points                               230 per atom

          ...................................................
          :                      SETUP                      :
          :.................................................:
          :  # basis functions                 183          :
          :  # atomic orbitals                 180          :
          :  # shells                          108          :
          :  # electrons                       176          :
          :  max. iterations                   500          :
          :  Hamiltonian                  GFN2-xTB          :
          :  restarted?                      false          :
          :  GBSA solvation                   true          :
          :  PC potential                    false          :
          :  electronic temp.          300.0000000     K    :
          :  accuracy                    0.5000000          :
          :  -> integral cutoff          0.2801030E+02      :
          :  -> integral neglect         0.5000000E-08      :
          :  -> SCF convergence          0.5000000E-06 Eh   :
          :  -> wf. convergence          0.5000000E-04 e    :
          :  Broyden damping             0.4000000          :
          :  net charge                          0          :
          :  unpaired electrons                  0          :
          ...................................................

 iter      E             dE          RMSdq      gap      omega  full diag
   1    -92.4365424 -0.924365E+02  0.584E+00    0.19       0.0  T
   2    -87.5524929  0.488405E+01  0.947E+00    0.91       1.0  T
   3    -93.6825619 -0.613007E+01  0.385E+00    0.32       1.0  T
   4    -94.4111216 -0.728560E+00  0.265E+00    1.17       1.0  T
   5    -94.5621271 -0.151005E+00  0.191E+00    0.36       1.0  T
   6    -94.2799262  0.282201E+00  0.193E+00    0.50       1.0  T
   7    -94.5278321 -0.247906E+00  0.118E+00    1.12       1.0  T
   8    -94.6157203 -0.878882E-01  0.471E-01    0.23       1.0  T
   9    -94.6199983 -0.427797E-02  0.223E-01    0.20       1.0  T
  10    -94.6174550  0.254328E-02  0.214E-01    0.22       1.0  T
  11    -94.6125341  0.492088E-02  0.310E-01    0.17       1.0  T
  12    -94.6200860 -0.755189E-02  0.950E-02    0.21       1.0  T
  13    -94.6202236 -0.137523E-03  0.882E-02    0.18       1.0  T
  14    -94.6209531 -0.729542E-03  0.205E-02    0.19       1.0  T
  15    -94.6209865 -0.333977E-04  0.633E-03    0.19       1.8  T
  16    -94.6209823  0.422782E-05  0.717E-03    0.19       1.6  T
  17    -94.6209874 -0.512756E-05  0.130E-03    0.19       8.9  T
  18    -94.6209874  0.848958E-08  0.119E-03    0.19       9.7  T
  19    -94.6209875 -0.902151E-07  0.406E-04    0.19      28.5  T
  20    -94.6209874  0.233871E-07  0.550E-04    0.19      21.0  T
  21    -94.6209875 -0.148331E-07  0.405E-04    0.19      28.5  T

   *** convergence criteria satisfied after 21 iterations ***

         #    Occupation            Energy/Eh            Energy/eV
      -------------------------------------------------------------
         1        2.0000           -0.7373210             -20.0635
       ...           ...                  ...                  ...
        82        2.0000           -0.3988704             -10.8538
        83        2.0000           -0.3978263             -10.8254
        84        2.0000           -0.3752225             -10.2103
        85        2.0000           -0.3632792              -9.8853
        86        2.0000           -0.3556941              -9.6789
        87        2.0000           -0.3525342              -9.5929
        88        1.9543           -0.2912421              -7.9251 (HOMO)
        89        0.0457           -0.2841054              -7.7309 (LUMO)
        90                         -0.2390135              -6.5039
        91                         -0.2303625              -6.2685
        92                         -0.2179524              -5.9308
        93                         -0.2088289              -5.6825
       ...                                ...                  ...
       180                          3.8591482             105.0128
      -------------------------------------------------------------
                  HL-Gap            0.0071367 Eh            0.1942 eV
             Fermi-level           -0.2876737 Eh           -7.8280 eV

 SCC (total)                   0 d,  0 h,  0 min,  0.327 sec
 SCC setup                      ...        0 min,  0.003 sec (  0.798%)
 Dispersion                     ...        0 min,  0.001 sec (  0.420%)
 classical contributions        ...        0 min,  0.000 sec (  0.118%)
 integral evaluation            ...        0 min,  0.013 sec (  4.067%)
 iterations                     ...        0 min,  0.244 sec ( 74.632%)
 molecular gradient             ...        0 min,  0.065 sec ( 19.737%)
 printout                       ...        0 min,  0.001 sec (  0.221%)

         :::::::::::::::::::::::::::::::::::::::::::::::::::::
         ::                     SUMMARY                     ::
         :::::::::::::::::::::::::::::::::::::::::::::::::::::
         :: total energy             -93.288372604177 Eh    ::
         :: total w/o Gsasa/hb       -93.252959276575 Eh    ::
         :: gradient norm              0.385331308740 Eh/a0 ::
         :: HOMO-LUMO gap              0.194200438122 eV    ::
         ::.................................................::
         :: SCC energy               -94.616698841344 Eh    ::
         :: -> isotropic ES            0.079380813352 Eh    ::
         :: -> anisotropic ES          0.025523192079 Eh    ::
         :: -> anisotropic XC          0.044291443304 Eh    ::
         :: -> dispersion             -0.109310369695 Eh    ::
         :: -> Gsolv                  -0.048839948344 Eh    ::
         ::    -> Gelec               -0.013426620742 Eh    ::
         ::    -> Gsasa               -0.037621470741 Eh    ::
         ::    -> Ghb                  0.000000000000 Eh    ::
         ::    -> Gshift               0.002208143139 Eh    ::
         :: repulsion energy           1.328326237166 Eh    ::
         :: add. restraining           0.000000000000 Eh    ::
         :: total charge              -0.000000000000 e     ::
         :::::::::::::::::::::::::::::::::::::::::::::::::::::

      ----------------------------------------------------------- 
     |                   =====================                   |
     |                        A N C O P T                        |
     |                   =====================                   |
     |               Approximate Normal Coordinate               |
     |                Rational Function Optimizer                |
      ----------------------------------------------------------- 
      ----------------------------------------------------------- 
     |                   =====================                   |
     |                        A N C O P T                        |
     |                   =====================                   |
     |               Approximate Normal Coordinate               |
     |                Rational Function Optimizer                |
      ----------------------------------------------------------- 

          ...................................................
          :                      SETUP                      :
          :.................................................:
          :   optimization level             tight          :
          :   max. optcycles                   250          :
          :   ANC micro-cycles                  20          :
          :   degrees of freedom               219          :
          :.................................................:
          :   RF solver                   davidson          :
          :   write xtbopt.log                true          :
          :   linear?                        false          :
          :   energy convergence         0.1000000E-05 Eh   :
          :   grad. convergence          0.8000000E-03 Eh/α :
          :   maxmium RF displ.          1.0000000          :
          :   Hlow (freq-cutoff)         0.1000000E-01      :
          :   Hmax (freq-cutoff)         5.0000000          :
          :   S6 in model hess.         20.0000000          :
          ...................................................

generating ANC from exact Hessian ...
Using Lindh-Hessian (1995)
 Shifting diagonal of input Hessian by    1.1102323448037724E-002
 Lowest  eigenvalues of input Hessian
    0.010000    0.000000    0.010992    0.000000    0.000000    0.000000
    0.000000    0.000000    0.011253    0.011701    0.011710    0.011928
    0.012022    0.012294    0.012520    0.012705    0.013157    0.013528
 Highest eigenvalues
    1.828610    1.901239    1.953291    2.049526    2.087392    2.503483


........................................................................
.............................. CYCLE    1 ..............................
........................................................................

 iter      E             dE          RMSdq      gap      omega  full diag
   1    -94.6209875 -0.946210E+02  0.148E-04    0.19       0.0  T
   2    -94.6209873  0.163933E-06  0.123E-03    0.19       9.4  T
   3    -94.6209875 -0.165454E-06  0.709E-05    0.19     162.8  T
   4    -94.6209875 -0.496854E-09  0.259E-05    0.19     446.1  T
     SCC iter.                  ...        0 min,  0.050 sec
     gradient                   ...        0 min,  0.059 sec
 * total energy  :   -93.2883726 Eh     change       -0.1598082E-07 Eh
   gradient norm :     0.3853241 Eh/α   predicted     0.0000000E+00 (-100.00%)
   displ. norm   :     0.6602226 α      lambda       -0.2226545E+00
   maximum displ.:     0.2236973 α      in ANC's #149, #148, #138, ...

........................................................................
.............................. CYCLE    2 ..............................
........................................................................

 iter      E             dE          RMSdq      gap      omega  full diag
   1    -94.7674414 -0.947674E+02  0.667E-01    0.57       0.0  T
   2    -94.3625237  0.404918E+00  0.204E+00    0.58       1.0  T
   3    -94.7667028 -0.404179E+00  0.539E-01    0.56       1.0  T
   4    -94.7803790 -0.136762E-01  0.430E-01    0.37       1.0  T
   5    -94.7859622 -0.558316E-02  0.257E-01    0.33       1.0  T
   6    -94.7907943 -0.483210E-02  0.109E-01    0.24       1.0  T
   7    -94.7911247 -0.330399E-03  0.454E-02    0.24       1.0  T
   8    -94.7910630  0.616671E-04  0.406E-02    0.25       1.0  T
   9    -94.7911557 -0.926541E-04  0.237E-02    0.25       1.0  T
  10    -94.7911729 -0.172103E-04  0.945E-03    0.24       1.2  T
  11    -94.7911802 -0.734275E-05  0.396E-03    0.24       2.9  T
  12    -94.7911805 -0.276271E-06  0.186E-03    0.24       6.2  T
  13    -94.7911805  0.402115E-07  0.192E-03    0.24       6.0  T
  14    -94.7911808 -0.327018E-06  0.489E-04    0.24      23.6  T
  15    -94.7911808 -0.657131E-08  0.325E-04    0.24      35.5  T
     SCC iter.                  ...        0 min,  0.178 sec
     gradient                   ...        0 min,  0.061 sec
 * total energy  :   -93.4571496 Eh     change       -0.1687769E+00 Eh
   gradient norm :     0.1975374 Eh/α   predicted    -0.1598842E+00 (  -5.27%)
   displ. norm   :     0.6450036 α      lambda       -0.1100563E+00
   maximum displ.:     0.1969940 α      in ANC's #55, #149, #148, ...

........................................................................
.............................. CYCLE    3 ..............................
........................................................................

 iter      E             dE          RMSdq      gap      omega  full diag
   1    -94.8650519 -0.948651E+02  0.468E-01    0.68       0.0  T
   2    -94.4548518  0.410200E+00  0.190E+00    0.30       1.0  T
   3    -94.8664053 -0.411553E+00  0.439E-01    0.57       1.0  T
   4    -94.8726294 -0.622412E-02  0.292E-01    0.48       1.0  T
   5    -94.8724417  0.187757E-03  0.249E-01    0.40       1.0  T
   6    -94.8772108 -0.476911E-02  0.159E-01    0.32       1.0  T
   7    -94.8784331 -0.122235E-02  0.758E-02    0.28       1.0  T
   8    -94.8786683 -0.235119E-03  0.503E-02    0.26       1.0  T
   9    -94.8787483 -0.800786E-04  0.292E-02    0.26       1.0  T
  10    -94.8788104 -0.620354E-04  0.103E-02    0.25       1.1  T
  11    -94.8788206 -0.101795E-04  0.322E-03    0.25       3.6  T
  12    -94.8788208 -0.196576E-06  0.194E-03    0.25       6.0  T
  13    -94.8788210 -0.213747E-06  0.120E-03    0.25       9.6  T
  14    -94.8788211 -0.126474E-06  0.225E-04    0.25      51.3  T
  15    -94.8788211 -0.408107E-09  0.143E-04    0.25      80.6  T
     SCC iter.                  ...        0 min,  0.184 sec
     gradient                   ...        0 min,  0.066 sec
 * total energy  :   -93.5429102 Eh     change       -0.8576065E-01 Eh
   gradient norm :     0.1040223 Eh/α   predicted    -0.7792283E-01 (  -9.14%)
   displ. norm   :     0.7082346 α      lambda       -0.6546015E-01
   maximum displ.:     0.2673803 α      in ANC's #55, #57, #58, ...

........................................................................
.............................. CYCLE    4 ..............................
........................................................................

 iter      E             dE          RMSdq      gap      omega  full diag
   1    -94.9093007 -0.949093E+02  0.381E-01    0.61       0.0  T
   2    -94.6430923  0.266208E+00  0.145E+00    0.10       1.0  T
   3    -94.9108694 -0.267777E+00  0.375E-01    0.59       1.0  T
   4    -94.9140945 -0.322506E-02  0.220E-01    0.51       1.0  T
   5    -94.9134650  0.629470E-03  0.203E-01    0.45       1.0  T
   6    -94.9154943 -0.202926E-02  0.172E-01    0.39       1.0  T
   7    -94.9161670 -0.672718E-03  0.121E-01    0.33       1.0  T
   8    -94.9167618 -0.594850E-03  0.906E-02    0.29       1.0  T
   9    -94.9171339 -0.372094E-03  0.600E-02    0.26       1.0  T
  10    -94.9174634 -0.329504E-03  0.167E-02    0.22       1.0  T
  11    -94.9174845 -0.210286E-04  0.465E-03    0.21       2.5  T
  12    -94.9174864 -0.193635E-05  0.141E-03    0.21       8.2  T
  13    -94.9174865 -0.104090E-06  0.495E-04    0.21      23.3  T
  14    -94.9174865  0.433421E-07  0.744E-04    0.21      15.5  T
  15    -94.9174865 -0.508885E-07  0.133E-04    0.21      86.6  T
     SCC iter.                  ...        0 min,  0.187 sec
     gradient                   ...        0 min,  0.056 sec
 * total energy  :   -93.5962200 Eh     change       -0.5330980E-01 Eh
   gradient norm :     0.0673359 Eh/α   predicted    -0.4914740E-01 (  -7.81%)
   displ. norm   :     0.7549541 α      lambda       -0.4488549E-01
   maximum displ.:     0.3017593 α      in ANC's #55, #52, #37, ...

........................................................................
.............................. CYCLE    5 ..............................
........................................................................

 iter      E             dE          RMSdq      gap      omega  full diag
   1    -94.9332259 -0.949332E+02  0.354E-01    0.49       0.0  T
   2    -94.8656400  0.675860E-01  0.727E-01    0.05       1.0  T
   3    -94.9329896 -0.673497E-01  0.292E-01    0.59       1.0  T
   4    -94.9367796 -0.378993E-02  0.163E-01    0.47       1.0  T
   5    -94.9361239  0.655699E-03  0.158E-01    0.39       1.0  T
   6    -94.9375812 -0.145737E-02  0.103E-01    0.34       1.0  T
   7    -94.9380178 -0.436511E-03  0.545E-02    0.26       1.0  T
   8    -94.9382507 -0.232982E-03  0.165E-02    0.21       1.0  T
   9    -94.9382603 -0.954455E-05  0.101E-02    0.21       1.1  T
  10    -94.9382639 -0.362980E-05  0.388E-03    0.20       3.0  T
  11    -94.9382641 -0.187592E-06  0.193E-03    0.20       6.0  T
  12    -94.9382644 -0.259604E-06  0.620E-04    0.20      18.6  T
  13    -94.9382644 -0.554350E-08  0.367E-04    0.20      31.5  T
  14    -94.9382644 -0.289651E-08  0.199E-04    0.20      58.1  T
     SCC iter.                  ...        0 min,  0.167 sec
     gradient                   ...        0 min,  0.056 sec
 * total energy  :   -93.6338000 Eh     change       -0.3758002E-01 Eh
   gradient norm :     0.0526624 Eh/α   predicted    -0.3523418E-01 (  -6.24%)
   displ. norm   :     0.7693569 α      lambda       -0.3218777E-01
   maximum displ.:     0.3143162 α      in ANC's #55, #52, #37, ...

........................................................................
.............................. CYCLE    6 ..............................
........................................................................

 iter      E             dE          RMSdq      gap      omega  full diag
   1    -94.9486166 -0.949486E+02  0.369E-01    0.41       0.0  T
   2    -94.9377499  0.108666E-01  0.402E-01    0.13       1.0  T
   3    -94.9449136 -0.716368E-02  0.300E-01    0.44       1.0  T
   4    -94.9513749 -0.646123E-02  0.106E-01    0.35       1.0  T
   5    -94.9516743 -0.299494E-03  0.781E-02    0.26       1.0  T
   6    -94.9517485 -0.741661E-04  0.502E-02    0.21       1.0  T
   7    -94.9518474 -0.989323E-04  0.147E-02    0.24       1.0  T
   8    -94.9518459  0.155297E-05  0.103E-02    0.23       1.1  T
   9    -94.9518496 -0.374055E-05  0.521E-03    0.24       2.2  T
  10    -94.9518506 -0.100931E-05  0.227E-03    0.24       5.1  T
  11    -94.9518508 -0.152205E-06  0.125E-03    0.24       9.2  T
  12    -94.9518509 -0.948949E-07  0.445E-04    0.24      25.9  T
  13    -94.9518509 -0.518095E-08  0.230E-04    0.24      50.3  T
     SCC iter.                  ...        0 min,  0.167 sec
     gradient                   ...        0 min,  0.076 sec
 * total energy  :   -93.6607493 Eh     change       -0.2694929E-01 Eh
   gradient norm :     0.0438832 Eh/α   predicted    -0.2562004E-01 (  -4.93%)
   displ. norm   :     0.7609055 α      lambda       -0.2292039E-01
   maximum displ.:     0.3103761 α      in ANC's #55, #52, #37, ...

........................................................................
.............................. CYCLE    7 ..............................
........................................................................

 iter      E             dE          RMSdq      gap      omega  full diag
   1    -94.9601814 -0.949602E+02  0.360E-01    0.37       0.0  T
   2    -94.9547454  0.543600E-02  0.335E-01    0.21       1.0  T
   3    -94.9563244 -0.157896E-02  0.286E-01    0.37       1.0  T
   4    -94.9620626 -0.573824E-02  0.847E-02    0.31       1.0  T
   5    -94.9620566  0.602757E-05  0.716E-02    0.29       1.0  T
   6    -94.9622090 -0.152424E-03  0.173E-02    0.28       1.0  T
   7    -94.9622163 -0.724174E-05  0.650E-03    0.29       1.8  T
   8    -94.9622163 -0.286668E-07  0.305E-03    0.29       3.8  T
   9    -94.9622165 -0.213231E-06  0.208E-03    0.29       5.6  T
  10    -94.9622166 -0.708691E-07  0.859E-04    0.29      13.4  T
  11    -94.9622166 -0.136491E-07  0.430E-04    0.29      26.9  T
  12    -94.9622166 -0.444915E-08  0.187E-04    0.29      61.8  T
     SCC iter.                  ...        0 min,  0.149 sec
     gradient                   ...        0 min,  0.067 sec
 * total energy  :   -93.6797073 Eh     change       -0.1895800E-01 Eh
   gradient norm :     0.0359665 Eh/α   predicted    -0.1809539E-01 (  -4.55%)
   displ. norm   :     0.7539714 α      lambda       -0.1655873E-01
   maximum displ.:     0.2997640 α      in ANC's #55, #52, #37, ...

........................................................................
.............................. CYCLE    8 ..............................
........................................................................

 iter      E             dE          RMSdq      gap      omega  full diag
   1    -94.9687637 -0.949688E+02  0.343E-01    0.40       0.0  T
   2    -94.9650760  0.368775E-02  0.300E-01    0.31       1.0  T
   3    -94.9658109 -0.734877E-03  0.251E-01    0.39       1.0  T
   4    -94.9700805 -0.426959E-02  0.805E-02    0.36       1.0  T
   5    -94.9700771  0.339154E-05  0.627E-02    0.36       1.0  T
   6    -94.9702118 -0.134695E-03  0.994E-03    0.36       1.2  T
   7    -94.9702120 -0.225148E-06  0.716E-03    0.36       1.6  T
   8    -94.9702122 -0.175056E-06  0.264E-03    0.36       4.4  T
   9    -94.9702122  0.646624E-08  0.137E-03    0.36       8.5  T
  10    -94.9702122 -0.184910E-07  0.684E-04    0.36      16.9  T
  11    -94.9702122 -0.107417E-07  0.267E-04    0.36      43.2  T
  12    -94.9702122 -0.192557E-10  0.145E-04    0.36      79.4  T
     SCC iter.                  ...        0 min,  0.151 sec
     gradient                   ...        0 min,  0.066 sec
 * total energy  :   -93.6926705 Eh     change       -0.1296322E-01 Eh
   gradient norm :     0.0295474 Eh/α   predicted    -0.1298597E-01 (   0.18%)
   displ. norm   :     0.7491444 α      lambda       -0.1247937E-01
   maximum displ.:     0.2693966 α      in ANC's #55, #52, #12, ...

........................................................................
.............................. CYCLE    9 ..............................
........................................................................

 iter      E             dE          RMSdq      gap      omega  full diag
   1    -94.9754839 -0.949755E+02  0.291E-01    0.45       0.0  T
   2    -94.9730038  0.248012E-02  0.240E-01    0.39       1.0  T
   3    -94.9724537  0.550140E-03  0.234E-01    0.47       1.0  T
   4    -94.9762387 -0.378500E-02  0.774E-02    0.43       1.0  T
   5    -94.9762744 -0.357348E-04  0.461E-02    0.44       1.0  T
   6    -94.9763245 -0.500427E-04  0.977E-03    0.44       1.2  T
   7    -94.9763250 -0.512747E-06  0.549E-03    0.44       2.1  T
   8    -94.9763251 -0.151276E-06  0.264E-03    0.44       4.4  T
   9    -94.9763251  0.237674E-07  0.143E-03    0.44       8.1  T
  10    -94.9763251 -0.418316E-07  0.701E-04    0.44      16.5  T
  11    -94.9763252 -0.145096E-08  0.241E-04    0.44      47.9  T
  12    -94.9763252 -0.121020E-09  0.926E-05    0.44     124.6  T
     SCC iter.                  ...        0 min,  0.147 sec
     gradient                   ...        0 min,  0.068 sec
 * total energy  :   -93.7014744 Eh     change       -0.8803858E-02 Eh
   gradient norm :     0.0298631 Eh/α   predicted    -0.9741499E-02 (  10.65%)
   displ. norm   :     0.6640992 α      lambda       -0.7759983E-02
   maximum displ.:     0.2233574 α      in ANC's #12, #55, #52, ...

........................................................................
.............................. CYCLE   10 ..............................
........................................................................

 iter      E             dE          RMSdq      gap      omega  full diag
   1    -94.9812223 -0.949812E+02  0.222E-01    0.51       0.0  T
   2    -94.9807552  0.467065E-03  0.162E-01    0.49       1.0  T
   3    -94.9805472  0.208067E-03  0.127E-01    0.53       1.0  T
   4    -94.9813272 -0.780059E-03  0.690E-02    0.51       1.0  T
   5    -94.9814951 -0.167857E-03  0.333E-02    0.52       1.0  T
   6    -94.9815379 -0.427844E-04  0.703E-03    0.52       1.6  T
   7    -94.9815381 -0.280956E-06  0.372E-03    0.52       3.1  T
   8    -94.9815382 -0.106081E-06  0.180E-03    0.52       6.4  T
   9    -94.9815382  0.625199E-08  0.950E-04    0.52      12.2  T
  10    -94.9815383 -0.161760E-07  0.478E-04    0.52      24.2  T
  11    -94.9815383 -0.355334E-08  0.187E-04    0.52      61.7  T
     SCC iter.                  ...        0 min,  0.133 sec
     gradient                   ...        0 min,  0.059 sec
 * total energy  :   -93.7075519 Eh     change       -0.6077553E-02 Eh
   gradient norm :     0.0239864 Eh/α   predicted    -0.5591181E-02 (  -8.00%)
   displ. norm   :     0.6694936 α      lambda       -0.5397362E-02
   maximum displ.:     0.2634951 α      in ANC's #12, #5, #55, ...

........................................................................
.............................. CYCLE   11 ..............................
........................................................................

 iter      E             dE          RMSdq      gap      omega  full diag
   1    -94.9870852 -0.949871E+02  0.168E-01    0.58       0.0  T
   2    -94.9870477  0.374486E-04  0.111E-01    0.57       1.0  T
   3    -94.9869711  0.766546E-04  0.771E-02    0.59       1.0  T
   4    -94.9867948  0.176301E-03  0.763E-02    0.58       1.0  T
   5    -94.9871792 -0.384413E-03  0.236E-02    0.59       1.0  T
   6    -94.9872089 -0.297122E-04  0.441E-03    0.59       2.6  T
   7    -94.9872090 -0.488777E-07  0.248E-03    0.59       4.6  T
   8    -94.9872090 -0.746765E-07  0.111E-03    0.59      10.4  T
   9    -94.9872090 -0.369027E-09  0.608E-04    0.59      19.0  T
  10    -94.9872090 -0.704657E-08  0.273E-04    0.59      42.2  T
  11    -94.9872090 -0.108972E-08  0.993E-05    0.59     116.3  T
     SCC iter.                  ...        0 min,  0.133 sec
     gradient                   ...        0 min,  0.064 sec
 * total energy  :   -93.7120327 Eh     change       -0.4480782E-02 Eh
   gradient norm :     0.0226847 Eh/α   predicted    -0.3908289E-02 ( -12.78%)
   displ. norm   :     0.6965029 α      lambda       -0.4596003E-02
   maximum displ.:     0.2844124 α      in ANC's #12, #5, #18, ...

........................................................................
.............................. CYCLE   12 ..............................
........................................................................

 iter      E             dE          RMSdq      gap      omega  full diag
   1    -94.9922743 -0.949923E+02  0.158E-01    0.65       0.0  T
   2    -94.9922803 -0.601095E-05  0.101E-01    0.64       1.0  T
   3    -94.9922301  0.502219E-04  0.692E-02    0.65       1.0  T
   4    -94.9918772  0.352870E-03  0.792E-02    0.64       1.0  T
   5    -94.9923369 -0.459729E-03  0.202E-02    0.65       1.0  T
   6    -94.9923620 -0.250808E-04  0.467E-03    0.65       2.5  T
   7    -94.9923621 -0.109666E-06  0.215E-03    0.65       5.4  T
   8    -94.9923622 -0.383384E-07  0.955E-04    0.65      12.1  T
   9    -94.9923622 -0.130804E-08  0.429E-04    0.65      26.9  T
  10    -94.9923622 -0.274169E-08  0.209E-04    0.65      55.4  T
     SCC iter.                  ...        0 min,  0.118 sec
     gradient                   ...        0 min,  0.051 sec
 * total energy  :   -93.7158844 Eh     change       -0.3851678E-02 Eh
   gradient norm :     0.0211930 Eh/α   predicted    -0.3412800E-02 ( -11.39%)
   displ. norm   :     0.7004631 α      lambda       -0.3973256E-02
   maximum displ.:     0.2717186 α      in ANC's #12, #5, #18, ...

........................................................................
.............................. CYCLE   13 ..............................
........................................................................

 iter      E             dE          RMSdq      gap      omega  full diag
   1    -94.9967195 -0.949967E+02  0.139E-01    0.73       0.0  T
   2    -94.9967105  0.901253E-05  0.938E-02    0.72       1.0  T
   3    -94.9966492  0.613111E-04  0.704E-02    0.73       1.0  T
   4    -94.9963783  0.270840E-03  0.715E-02    0.74       1.0  T
   5    -94.9967800 -0.401709E-03  0.149E-02    0.74       1.0  T
   6    -94.9967884 -0.837061E-05  0.399E-03    0.74       2.9  T
   7    -94.9967884 -0.210454E-08  0.207E-03    0.74       5.6  T
   8    -94.9967885 -0.887677E-07  0.773E-04    0.74      14.9  T
   9    -94.9967885 -0.236300E-08  0.369E-04    0.74      31.3  T
  10    -94.9967885 -0.170763E-08  0.152E-04    0.74      76.2  T
     SCC iter.                  ...        0 min,  0.118 sec
     gradient                   ...        0 min,  0.058 sec
 * total energy  :   -93.7191704 Eh     change       -0.3285969E-02 Eh
   gradient norm :     0.0157002 Eh/α   predicted    -0.2961364E-02 (  -9.88%)
   displ. norm   :     0.6870217 α      lambda       -0.3209736E-02
   maximum displ.:     0.2714127 α      in ANC's #5, #12, #18, ...

........................................................................
.............................. CYCLE   14 ..............................
........................................................................

 iter      E             dE          RMSdq      gap      omega  full diag
   1    -94.9990894 -0.949991E+02  0.135E-01    0.75       0.0  T
   2    -94.9990855  0.395967E-05  0.868E-02    0.77       1.0  T
   3    -94.9988763  0.209214E-03  0.819E-02    0.73       1.0  T
   4    -94.9988797 -0.349110E-05  0.600E-02    0.80       1.0  T
   5    -94.9991323 -0.252552E-03  0.156E-02    0.76       1.0  T
   6    -94.9991435 -0.111895E-04  0.363E-03    0.77       3.2  T
   7    -94.9991436 -0.129210E-06  0.153E-03    0.77       7.5  T
   8    -94.9991436 -0.761425E-08  0.677E-04    0.77      17.0  T
   9    -94.9991436 -0.279528E-10  0.290E-04    0.77      39.9  T
  10    -94.9991436 -0.100754E-08  0.142E-04    0.77      81.4  T
     SCC iter.                  ...        0 min,  0.118 sec
     gradient                   ...        0 min,  0.063 sec
 * total energy  :   -93.7216777 Eh     change       -0.2507296E-02 Eh
   gradient norm :     0.0113448 Eh/α   predicted    -0.2362365E-02 (  -5.78%)
   displ. norm   :     0.6138741 α      lambda       -0.2238741E-02
   maximum displ.:     0.2601698 α      in ANC's #5, #3, #1, ...

........................................................................
.............................. CYCLE   15 ..............................
........................................................................

 iter      E             dE          RMSdq      gap      omega  full diag
   1    -95.0020710 -0.950021E+02  0.117E-01    0.75       0.0  T
   2    -95.0020120  0.590156E-04  0.802E-02    0.80       1.0  T
   3    -95.0016787  0.333283E-03  0.857E-02    0.72       1.0  T
   4    -95.0019353 -0.256535E-03  0.555E-02    0.80       1.0  T
   5    -95.0021141 -0.178813E-03  0.115E-02    0.77       1.0  T
   6    -95.0021199 -0.577520E-05  0.282E-03    0.78       4.1  T
   7    -95.0021200 -0.953926E-07  0.141E-03    0.78       8.2  T
   8    -95.0021200 -0.121366E-07  0.574E-04    0.78      20.1  T
   9    -95.0021200 -0.929248E-09  0.279E-04    0.78      41.4  T
  10    -95.0021200 -0.285894E-09  0.101E-04    0.78     114.2  T
     SCC iter.                  ...        0 min,  0.113 sec
     gradient                   ...        0 min,  0.062 sec
 * total energy  :   -93.7231710 Eh     change       -0.1493282E-02 Eh
   gradient norm :     0.0133055 Eh/α   predicted    -0.1541205E-02 (   3.21%)
   displ. norm   :     0.5903788 α      lambda       -0.1663196E-02
   maximum displ.:     0.2382355 α      in ANC's #5, #1, #3, ...

........................................................................
.............................. CYCLE   16 ..............................
........................................................................

 iter      E             dE          RMSdq      gap      omega  full diag
   1    -94.9946957 -0.949947E+02  0.112E-01    0.78       0.0  T
   2    -94.9946671  0.285480E-04  0.701E-02    0.81       1.0  T
   3    -94.9941400  0.527167E-03  0.896E-02    0.74       1.0  T
   4    -94.9946440 -0.504067E-03  0.346E-02    0.82       1.0  T
   5    -94.9947235 -0.795133E-04  0.104E-02    0.80       1.1  T
   6    -94.9947252 -0.161691E-05  0.298E-03    0.80       3.9  T
   7    -94.9947254 -0.252195E-06  0.120E-03    0.80       9.7  T
   8    -94.9947254 -0.125446E-07  0.507E-04    0.80      22.8  T
   9    -94.9947254 -0.428841E-09  0.185E-04    0.80      62.3  T
  10    -94.9947254 -0.114156E-09  0.895E-05    0.80     129.0  T
     SCC iter.                  ...        0 min,  0.123 sec
     gradient                   ...        0 min,  0.058 sec
 * total energy  :   -93.7235602 Eh     change       -0.3892130E-03 Eh
   gradient norm :     0.0264590 Eh/α   predicted    -0.1121450E-02 ( 188.13%)
   displ. norm   :     0.2072954 α      lambda       -0.1305168E-02
   maximum displ.:     0.0723285 α      in ANC's #1, #3, #5, ...

........................................................................
.............................. CYCLE   17 ..............................
........................................................................

 iter      E             dE          RMSdq      gap      omega  full diag
   1    -94.9997142 -0.949997E+02  0.560E-02    0.80       0.0  T
   2    -94.9997222 -0.793999E-05  0.325E-02    0.79       1.0  T
   3    -94.9997220  0.200891E-06  0.189E-02    0.79       1.0  T
   4    -94.9997193  0.267953E-05  0.131E-02    0.78       1.0  T
   5    -94.9997208 -0.154178E-05  0.770E-03    0.79       1.5  T
   6    -94.9997252 -0.434833E-05  0.195E-03    0.79       5.9  T
   7    -94.9997252 -0.954356E-08  0.126E-03    0.79       9.2  T
   8    -94.9997252 -0.379222E-07  0.459E-04    0.79      25.2  T
   9    -94.9997252 -0.368817E-08  0.158E-04    0.79      73.1  T
     SCC iter.                  ...        0 min,  0.106 sec
     gradient                   ...        0 min,  0.066 sec
 * total energy  :   -93.7243629 Eh     change       -0.8026988E-03 Eh
   gradient norm :     0.0118110 Eh/α   predicted    -0.6806270E-03 ( -15.21%)
   displ. norm   :     0.2507430 α      lambda       -0.6726626E-03
   maximum displ.:     0.1077965 α      in ANC's #1, #3, #5, ...

........................................................................
.............................. CYCLE   18 ..............................
........................................................................

 iter      E             dE          RMSdq      gap      omega  full diag
   1    -95.0027918 -0.950028E+02  0.521E-02    0.79       0.0  T
   2    -95.0027515  0.403337E-04  0.429E-02    0.77       1.0  T
   3    -95.0027458  0.568173E-05  0.316E-02    0.80       1.0  T
   4    -95.0027782 -0.323446E-04  0.234E-02    0.76       1.0  T
   5    -95.0028094 -0.312151E-04  0.646E-03    0.78       1.8  T
   6    -95.0028097 -0.301554E-06  0.187E-03    0.78       6.2  T
   7    -95.0028097 -0.112007E-08  0.940E-04    0.77      12.3  T
   8    -95.0028097 -0.966428E-08  0.456E-04    0.77      25.3  T
   9    -95.0028097 -0.372840E-08  0.149E-04    0.78      77.5  T
     SCC iter.                  ...        0 min,  0.140 sec
     gradient                   ...        0 min,  0.066 sec
 * total energy  :   -93.7248016 Eh     change       -0.4387188E-03 Eh
   gradient norm :     0.0124084 Eh/α   predicted    -0.3574946E-03 ( -18.51%)
   displ. norm   :     0.3966850 α      lambda       -0.6837878E-03
   maximum displ.:     0.1752082 α      in ANC's #1, #3, #5, ...

........................................................................
.............................. CYCLE   19 ..............................
........................................................................

 iter      E             dE          RMSdq      gap      omega  full diag
   1    -95.0023025 -0.950023E+02  0.622E-02    0.78       0.0  T
   2    -95.0023064 -0.387433E-05  0.427E-02    0.78       1.0  T
   3    -95.0023093 -0.291525E-05  0.265E-02    0.78       1.0  T
   4    -95.0023042  0.509031E-05  0.120E-02    0.77       1.0  T
   5    -95.0023056 -0.136495E-05  0.898E-03    0.79       1.3  T
   6    -95.0023123 -0.677764E-05  0.191E-03    0.78       6.0  T
   7    -95.0023125 -0.129564E-06  0.694E-04    0.78      16.6  T
   8    -95.0023125 -0.913602E-09  0.328E-04    0.78      35.2  T
   9    -95.0023125 -0.114076E-08  0.179E-04    0.78      64.5  T
     SCC iter.                  ...        0 min,  0.115 sec
     gradient                   ...        0 min,  0.068 sec
 * total energy  :   -93.7253138 Eh     change       -0.5122343E-03 Eh
   gradient norm :     0.0112378 Eh/α   predicted    -0.3956976E-03 ( -22.75%)
   displ. norm   :     0.4165720 α      lambda       -0.6325865E-03
   maximum displ.:     0.2075479 α      in ANC's #1, #3, #18, ...

........................................................................
.............................. CYCLE   20 ..............................
........................................................................

 iter      E             dE          RMSdq      gap      omega  full diag
   1    -95.0024479 -0.950024E+02  0.534E-02    0.78       0.0  T
   2    -95.0024259  0.220701E-04  0.383E-02    0.76       1.0  T
   3    -95.0023701  0.557914E-04  0.375E-02    0.80       1.0  T
   4    -95.0024214 -0.512806E-04  0.253E-02    0.76       1.0  T
   5    -95.0024575 -0.361124E-04  0.424E-03    0.78       2.7  T
   6    -95.0024581 -0.631720E-06  0.167E-03    0.78       6.9  T
   7    -95.0024581 -0.508334E-08  0.756E-04    0.78      15.3  T
   8    -95.0024581 -0.111349E-07  0.330E-04    0.78      35.0  T
   9    -95.0024581 -0.713953E-10  0.125E-04    0.78      92.2  T
     SCC iter.                  ...        0 min,  0.129 sec
     gradient                   ...        0 min,  0.071 sec
 * total energy  :   -93.7257489 Eh     change       -0.4350337E-03 Eh
   gradient norm :     0.0068821 Eh/α   predicted    -0.3711801E-03 ( -14.68%)
   displ. norm   :     0.3277858 α      lambda       -0.3445752E-03
   maximum displ.:     0.1760762 α      in ANC's #1, #3, #18, ...
 * RMSD in coord.:     1.0906244 α      energy gain  -0.4373763E+00 Eh

generating ANC from exact Hessian ...
Using Lindh-Hessian (1995)
 Shifting diagonal of input Hessian by    1.0123213519301172E-002
 Lowest  eigenvalues of input Hessian
    0.010000    0.010023    0.000000    0.010093    0.000000    0.000000
    0.000000    0.000000    0.000000    0.010239    0.010367    0.010451
    0.010590    0.010660    0.010782    0.010915    0.010963    0.011013
 Highest eigenvalues
    1.631161    1.897346    1.986524    2.023542    2.243782    2.311228


........................................................................
.............................. CYCLE   21 ..............................
........................................................................

 iter      E             dE          RMSdq      gap      omega  full diag
   1    -95.0029958 -0.950030E+02  0.400E-02    0.77       0.0  T
   2    -95.0029954  0.374848E-06  0.259E-02    0.77       1.0  T
   3    -95.0029894  0.601041E-05  0.198E-02    0.78       1.0  T
   4    -95.0029693  0.200616E-04  0.188E-02    0.76       1.0  T
   5    -95.0029982 -0.289218E-04  0.255E-03    0.78       4.5  T
   6    -95.0029985 -0.272087E-06  0.113E-03    0.78      10.2  T
   7    -95.0029985 -0.774395E-08  0.442E-04    0.78      26.1  T
   8    -95.0029985 -0.242973E-08  0.173E-04    0.78      66.7  T
     SCC iter.                  ...        0 min,  0.101 sec
     gradient                   ...        0 min,  0.064 sec
 * total energy  :   -93.7260112 Eh     change       -0.2623573E-03 Eh
   gradient norm :     0.0065130 Eh/α   predicted     0.0000000E+00 (-100.00%)
   displ. norm   :     0.1304274 α      lambda       -0.3387177E-03
   maximum displ.:     0.0470918 α      in ANC's #8, #22, #24, ...

........................................................................
.............................. CYCLE   22 ..............................
........................................................................

 iter      E             dE          RMSdq      gap      omega  full diag
   1    -95.0035647 -0.950036E+02  0.376E-02    0.78       0.0  T
   2    -95.0035659 -0.117456E-05  0.243E-02    0.78       1.0  T
   3    -95.0035612  0.475302E-05  0.177E-02    0.77       1.0  T
   4    -95.0035507  0.104194E-04  0.160E-02    0.79       1.0  T
   5    -95.0035661 -0.153939E-04  0.654E-03    0.77       1.8  T
   6    -95.0035692 -0.304774E-05  0.136E-03    0.78       8.5  T
   7    -95.0035692 -0.182650E-07  0.698E-04    0.78      16.5  T
   8    -95.0035692 -0.964076E-08  0.239E-04    0.78      48.3  T
   9    -95.0035692 -0.394678E-09  0.133E-04    0.78      87.1  T
     SCC iter.                  ...        0 min,  0.126 sec
     gradient                   ...        0 min,  0.069 sec
 * total energy  :   -93.7262613 Eh     change       -0.2500402E-03 Eh
   gradient norm :     0.0039724 Eh/α   predicted    -0.1727979E-03 ( -30.89%)
   displ. norm   :     0.2818691 α      lambda       -0.4696012E-03
   maximum displ.:     0.1198226 α      in ANC's #8, #10, #14, ...

........................................................................
.............................. CYCLE   23 ..............................
........................................................................

 iter      E             dE          RMSdq      gap      omega  full diag
   1    -95.0037613 -0.950038E+02  0.860E-02    0.78       0.0  T
   2    -95.0037593  0.204692E-05  0.585E-02    0.79       1.0  T
   3    -95.0037261  0.331599E-04  0.411E-02    0.77       1.0  T
   4    -95.0035999  0.126214E-03  0.483E-02    0.81       1.0  T
   5    -95.0037786 -0.178734E-03  0.818E-03    0.78       1.4  T
   6    -95.0037823 -0.362127E-05  0.277E-03    0.78       4.2  T
   7    -95.0037823 -0.812932E-07  0.135E-03    0.78       8.5  T
   8    -95.0037824 -0.239101E-07  0.632E-04    0.78      18.3  T
   9    -95.0037824 -0.104086E-08  0.223E-04    0.78      51.7  T
  10    -95.0037824 -0.603237E-09  0.994E-05    0.78     116.2  T
     SCC iter.                  ...        0 min,  0.132 sec
     gradient                   ...        0 min,  0.060 sec
 * total energy  :   -93.7264576 Eh     change       -0.1963120E-03 Eh
   gradient norm :     0.0083145 Eh/α   predicted    -0.2534557E-03 (  29.11%)
   displ. norm   :     0.2643029 α      lambda       -0.4406772E-03
   maximum displ.:     0.1008151 α      in ANC's #10, #17, #8, ...

........................................................................
.............................. CYCLE   24 ..............................
........................................................................

 iter      E             dE          RMSdq      gap      omega  full diag
   1    -95.0034661 -0.950035E+02  0.665E-02    0.78       0.0  T
   2    -95.0034676 -0.153956E-05  0.452E-02    0.78       1.0  T
   3    -95.0034357  0.319817E-04  0.380E-02    0.80       1.0  T
   4    -95.0034260  0.967668E-05  0.276E-02    0.77       1.0  T
   5    -95.0034725 -0.464931E-04  0.143E-02    0.79       1.0  T
   6    -95.0034835 -0.110725E-04  0.292E-03    0.78       4.0  T
   7    -95.0034836 -0.263208E-07  0.134E-03    0.78       8.6  T
   8    -95.0034836 -0.464337E-08  0.717E-04    0.78      16.1  T
   9    -95.0034836 -0.161415E-08  0.250E-04    0.78      46.2  T
  10    -95.0034836 -0.159162E-09  0.164E-04    0.78      70.5  T
     SCC iter.                  ...        0 min,  0.138 sec
     gradient                   ...        0 min,  0.063 sec
 * total energy  :   -93.7265957 Eh     change       -0.1381631E-03 Eh
   gradient norm :     0.0084110 Eh/α   predicted    -0.2357355E-03 (  70.62%)
   displ. norm   :     0.1079665 α      lambda       -0.2681019E-03
   maximum displ.:     0.0485747 α      in ANC's #10, #14, #4, ...

........................................................................
.............................. CYCLE   25 ..............................
........................................................................

 iter      E             dE          RMSdq      gap      omega  full diag
   1    -95.0045415 -0.950045E+02  0.347E-02    0.79       0.0  T
   2    -95.0045004  0.410300E-04  0.332E-02    0.76       1.0  T
   3    -95.0045241 -0.236707E-04  0.242E-02    0.79       1.0  T
   4    -95.0045557 -0.316586E-04  0.113E-02    0.78       1.0  T
   5    -95.0045577 -0.197765E-05  0.696E-03    0.78       1.7  T
   6    -95.0045595 -0.179726E-05  0.119E-03    0.78       9.7  T
   7    -95.0045595 -0.216951E-07  0.640E-04    0.78      18.0  T
   8    -95.0045595 -0.236672E-08  0.302E-04    0.78      38.3  T
   9    -95.0045595  0.308845E-09  0.129E-04    0.78      89.5  T
     SCC iter.                  ...        0 min,  0.117 sec
     gradient                   ...        0 min,  0.076 sec
 * total energy  :   -93.7267832 Eh     change       -0.1874674E-03 Eh
   gradient norm :     0.0046639 Eh/α   predicted    -0.1356140E-03 ( -27.66%)
   displ. norm   :     0.2699936 α      lambda       -0.3802337E-03
   maximum displ.:     0.1281652 α      in ANC's #10, #14, #4, ...

........................................................................
.............................. CYCLE   26 ..............................
........................................................................

 iter      E             dE          RMSdq      gap      omega  full diag
   1    -95.0052666 -0.950053E+02  0.529E-02    0.78       0.0  T
   2    -95.0051614  0.105161E-03  0.521E-02    0.75       1.0  T
   3    -95.0052293 -0.678746E-04  0.368E-02    0.80       1.0  T
   4    -95.0052997 -0.704467E-04  0.203E-02    0.77       1.0  T
   5    -95.0053067 -0.702022E-05  0.814E-03    0.78       1.4  T
   6    -95.0053100 -0.325505E-05  0.160E-03    0.78       7.2  T
   7    -95.0053100 -0.372272E-08  0.810E-04    0.78      14.3  T
   8    -95.0053100 -0.149516E-07  0.461E-04    0.78      25.0  T
   9    -95.0053100 -0.119138E-08  0.219E-04    0.78      52.8  T
     SCC iter.                  ...        0 min,  0.121 sec
     gradient                   ...        0 min,  0.063 sec
 * total energy  :   -93.7270095 Eh     change       -0.2262789E-03 Eh
   gradient norm :     0.0061188 Eh/α   predicted    -0.2039767E-03 (  -9.86%)
   displ. norm   :     0.3859130 α      lambda       -0.3033773E-03
   maximum displ.:     0.1869963 α      in ANC's #10, #14, #4, ...

........................................................................
.............................. CYCLE   27 ..............................
........................................................................

 iter      E             dE          RMSdq      gap      omega  full diag
   1    -95.0037993 -0.950038E+02  0.681E-02    0.78       0.0  T
   2    -95.0037946  0.470735E-05  0.452E-02    0.77       1.0  T
   3    -95.0037800  0.146501E-04  0.318E-02    0.79       1.0  T
   4    -95.0037171  0.628171E-04  0.355E-02    0.76       1.0  T
   5    -95.0038087 -0.915212E-04  0.784E-03    0.79       1.5  T
   6    -95.0038120 -0.332818E-05  0.214E-03    0.78       5.4  T
   7    -95.0038120 -0.166092E-07  0.102E-03    0.78      11.3  T
   8    -95.0038120 -0.656848E-08  0.482E-04    0.78      24.0  T
   9    -95.0038120 -0.144396E-09  0.225E-04    0.78      51.2  T
     SCC iter.                  ...        0 min,  0.124 sec
     gradient                   ...        0 min,  0.058 sec
 * total energy  :   -93.7272361 Eh     change       -0.2265964E-03 Eh
   gradient norm :     0.0074181 Eh/α   predicted    -0.1742830E-03 ( -23.09%)
   displ. norm   :     0.4596992 α      lambda       -0.3434432E-03
   maximum displ.:     0.2293341 α      in ANC's #10, #4, #14, ...

........................................................................
.............................. CYCLE   28 ..............................
........................................................................

 iter      E             dE          RMSdq      gap      omega  full diag
   1    -95.0018723 -0.950019E+02  0.702E-02    0.79       0.0  T
   2    -95.0018667  0.562603E-05  0.464E-02    0.78       1.0  T
   3    -95.0018377  0.289549E-04  0.365E-02    0.80       1.0  T
   4    -95.0017752  0.625071E-04  0.368E-02    0.77       1.0  T
   5    -95.0018792 -0.103964E-03  0.575E-03    0.79       2.0  T
   6    -95.0018804 -0.125847E-05  0.195E-03    0.79       5.9  T
   7    -95.0018804 -0.119236E-07  0.836E-04    0.79      13.8  T
   8    -95.0018804 -0.217710E-09  0.496E-04    0.79      23.3  T
   9    -95.0018804 -0.184264E-08  0.167E-04    0.79      69.0  T
     SCC iter.                  ...        0 min,  0.107 sec
     gradient                   ...        0 min,  0.056 sec
 * total energy  :   -93.7274990 Eh     change       -0.2629615E-03 Eh
   gradient norm :     0.0068782 Eh/α   predicted    -0.2080138E-03 ( -20.90%)
   displ. norm   :     0.4544114 α      lambda       -0.4093052E-03
   maximum displ.:     0.2369358 α      in ANC's #10, #4, #12, ...

........................................................................
.............................. CYCLE   29 ..............................
........................................................................

 iter      E             dE          RMSdq      gap      omega  full diag
   1    -95.0033055 -0.950033E+02  0.737E-02    0.79       0.0  T
   2    -95.0033115 -0.598630E-05  0.467E-02    0.79       1.0  T
   3    -95.0033053  0.616019E-05  0.292E-02    0.80       1.0  T
   4    -95.0032238  0.815689E-04  0.346E-02    0.77       1.0  T
   5    -95.0033178 -0.940266E-04  0.747E-03    0.80       1.5  T
   6    -95.0033202 -0.242516E-05  0.295E-03    0.79       3.9  T
   7    -95.0033202 -0.296334E-07  0.142E-03    0.80       8.1  T
   8    -95.0033203 -0.282962E-07  0.654E-04    0.79      17.7  T
   9    -95.0033203 -0.264284E-08  0.251E-04    0.79      45.9  T
  10    -95.0033203 -0.115621E-08  0.119E-04    0.79      97.1  T
     SCC iter.                  ...        0 min,  0.117 sec
     gradient                   ...        0 min,  0.053 sec
 * total energy  :   -93.7277752 Eh     change       -0.2761198E-03 Eh
   gradient norm :     0.0053507 Eh/α   predicted    -0.2469133E-03 ( -10.58%)
   displ. norm   :     0.4662417 α      lambda       -0.3117569E-03
   maximum displ.:     0.2473058 α      in ANC's #10, #4, #7, ...

........................................................................
.............................. CYCLE   30 ..............................
........................................................................

 iter      E             dE          RMSdq      gap      omega  full diag
   1    -95.0032172 -0.950032E+02  0.698E-02    0.80       0.0  T
   2    -95.0032081  0.909088E-05  0.473E-02    0.79       1.0  T
   3    -95.0031783  0.297725E-04  0.366E-02    0.82       1.0  T
   4    -95.0031135  0.647777E-04  0.393E-02    0.78       1.0  T
   5    -95.0032287 -0.115151E-03  0.547E-03    0.80       2.1  T
   6    -95.0032296 -0.880745E-06  0.215E-03    0.80       5.4  T
   7    -95.0032296 -0.146487E-07  0.962E-04    0.80      12.0  T
   8    -95.0032296 -0.262058E-08  0.461E-04    0.80      25.0  T
   9    -95.0032296  0.184073E-09  0.216E-04    0.80      53.4  T
     SCC iter.                  ...        0 min,  0.107 sec
     gradient                   ...        0 min,  0.057 sec
 * total energy  :   -93.7279985 Eh     change       -0.2233771E-03 Eh
   gradient norm :     0.0053574 Eh/α   predicted    -0.1897645E-03 ( -15.05%)
   displ. norm   :     0.4291484 α      lambda       -0.2753135E-03
   maximum displ.:     0.2293281 α      in ANC's #10, #4, #7, ...

........................................................................
.............................. CYCLE   31 ..............................
........................................................................

 iter      E             dE          RMSdq      gap      omega  full diag
   1    -95.0047369 -0.950047E+02  0.637E-02    0.80       0.0  T
   2    -95.0047147  0.222619E-04  0.448E-02    0.78       1.0  T
   3    -95.0046795  0.351766E-04  0.372E-02    0.82       1.0  T
   4    -95.0046980 -0.185295E-04  0.301E-02    0.78       1.0  T
   5    -95.0047524 -0.543904E-04  0.693E-03    0.80       1.7  T
   6    -95.0047543 -0.189604E-05  0.199E-03    0.80       5.8  T
   7    -95.0047544 -0.298626E-07  0.123E-03    0.80       9.4  T
   8    -95.0047544 -0.661780E-08  0.550E-04    0.80      21.0  T
   9    -95.0047544  0.141326E-08  0.247E-04    0.80      46.7  T
  10    -95.0047544 -0.188885E-08  0.107E-04    0.80     107.8  T
     SCC iter.                  ...        0 min,  0.125 sec
     gradient                   ...        0 min,  0.061 sec
 * total energy  :   -93.7282088 Eh     change       -0.2103109E-03 Eh
   gradient norm :     0.0045122 Eh/α   predicted    -0.1630107E-03 ( -22.49%)
   displ. norm   :     0.4673732 α      lambda       -0.2897779E-03
   maximum displ.:     0.2415015 α      in ANC's #10, #4, #7, ...

........................................................................
.............................. CYCLE   32 ..............................
........................................................................

 iter      E             dE          RMSdq      gap      omega  full diag
   1    -95.0082823 -0.950083E+02  0.720E-02    0.79       0.0  T
   2    -95.0082668  0.155541E-04  0.495E-02    0.78       1.0  T
   3    -95.0082262  0.405494E-04  0.402E-02    0.81       1.0  T
   4    -95.0082156  0.106390E-04  0.361E-02    0.77       1.0  T
   5    -95.0083013 -0.856633E-04  0.804E-03    0.80       1.4  T
   6    -95.0083040 -0.273736E-05  0.263E-03    0.80       4.4  T
   7    -95.0083040 -0.325907E-07  0.134E-03    0.80       8.6  T
   8    -95.0083040 -0.415163E-08  0.692E-04    0.80      16.7  T
   9    -95.0083040  0.714167E-09  0.313E-04    0.79      36.9  T
  10    -95.0083040 -0.301787E-08  0.121E-04    0.79      95.4  T
     SCC iter.                  ...        0 min,  0.130 sec
     gradient                   ...        0 min,  0.054 sec
 * total energy  :   -93.7284112 Eh     change       -0.2023675E-03 Eh
   gradient norm :     0.0044918 Eh/α   predicted    -0.1765396E-03 ( -12.76%)
   displ. norm   :     0.6239191 α      lambda       -0.2990154E-03
   maximum displ.:     0.3317663 α      in ANC's #10, #4, #7, ...

........................................................................
.............................. CYCLE   33 ..............................
........................................................................

 iter      E             dE          RMSdq      gap      omega  full diag
   1    -95.0020043 -0.950020E+02  0.950E-02    0.79       0.0  T
   2    -95.0019871  0.172090E-04  0.642E-02    0.77       1.0  T
   3    -95.0019468  0.403018E-04  0.476E-02    0.81       1.0  T
   4    -95.0018737  0.731323E-04  0.485E-02    0.76       1.0  T
   5    -95.0020320 -0.158376E-03  0.113E-02    0.80       1.0  T
   6    -95.0020381 -0.603864E-05  0.308E-03    0.79       3.7  T
   7    -95.0020381 -0.498413E-07  0.176E-03    0.79       6.6  T
   8    -95.0020381 -0.127142E-07  0.747E-04    0.79      15.5  T
   9    -95.0020381  0.241593E-08  0.350E-04    0.79      33.0  T
  10    -95.0020381 -0.307439E-08  0.160E-04    0.79      72.3  T
     SCC iter.                  ...        0 min,  0.119 sec
     gradient                   ...        0 min,  0.052 sec
 * total energy  :   -93.7285025 Eh     change       -0.9128423E-04 Eh
   gradient norm :     0.0092325 Eh/α   predicted    -0.2077090E-03 ( 127.54%)
   displ. norm   :     0.2050857 α      lambda       -0.3437427E-03
   maximum displ.:     0.0802955 α      in ANC's #5, #13, #4, ...

........................................................................
.............................. CYCLE   34 ..............................
........................................................................

 iter      E             dE          RMSdq      gap      omega  full diag
   1    -95.0075580 -0.950076E+02  0.441E-02    0.79       0.0  T
   2    -95.0075569  0.113877E-05  0.262E-02    0.80       1.0  T
   3    -95.0074949  0.619600E-04  0.309E-02    0.77       1.0  T
   4    -95.0075485 -0.535739E-04  0.147E-02    0.80       1.0  T
   5    -95.0075629 -0.143741E-04  0.251E-03    0.79       4.6  T
   6    -95.0075629 -0.451877E-07  0.120E-03    0.79       9.6  T
   7    -95.0075629 -0.593201E-08  0.594E-04    0.79      19.4  T
   8    -95.0075629 -0.994049E-09  0.231E-04    0.79      49.9  T
   9    -95.0075629 -0.370036E-09  0.928E-05    0.79     124.4  T
     SCC iter.                  ...        0 min,  0.099 sec
     gradient                   ...        0 min,  0.058 sec
 * total energy  :   -93.7286917 Eh     change       -0.1892084E-03 Eh
   gradient norm :     0.0053258 Eh/α   predicted    -0.1791028E-03 (  -5.34%)
   displ. norm   :     0.2771155 α      lambda       -0.1606106E-03
   maximum displ.:     0.1305138 α      in ANC's #10, #5, #4, ...

........................................................................
.............................. CYCLE   35 ..............................
........................................................................

 iter      E             dE          RMSdq      gap      omega  full diag
   1    -95.0078540 -0.950079E+02  0.456E-02    0.79       0.0  T
   2    -95.0078494  0.457020E-05  0.281E-02    0.78       1.0  T
   3    -95.0078079  0.414646E-04  0.288E-02    0.80       1.0  T
   4    -95.0078333 -0.253539E-04  0.196E-02    0.77       1.0  T
   5    -95.0078593 -0.260441E-04  0.433E-03    0.79       2.7  T
   6    -95.0078596 -0.230002E-06  0.185E-03    0.79       6.2  T
   7    -95.0078596 -0.188684E-07  0.488E-04    0.79      23.7  T
   8    -95.0078596  0.208473E-10  0.311E-04    0.79      37.2  T
     SCC iter.                  ...        0 min,  0.098 sec
     gradient                   ...        0 min,  0.059 sec
 * total energy  :   -93.7288075 Eh     change       -0.1157556E-03 Eh
   gradient norm :     0.0040549 Eh/α   predicted    -0.8647404E-04 ( -25.30%)
   displ. norm   :     0.4044401 α      lambda       -0.1708114E-03
   maximum displ.:     0.1865468 α      in ANC's #10, #5, #4, ...

........................................................................
.............................. CYCLE   36 ..............................
........................................................................

 iter      E             dE          RMSdq      gap      omega  full diag
   1    -95.0070329 -0.950070E+02  0.642E-02    0.79       0.0  T
   2    -95.0070251  0.771384E-05  0.419E-02    0.78       1.0  T
   3    -95.0069980  0.271777E-04  0.333E-02    0.80       1.0  T
   4    -95.0069634  0.346128E-04  0.339E-02    0.77       1.0  T
   5    -95.0070432 -0.798334E-04  0.608E-03    0.79       1.9  T
   6    -95.0070447 -0.148226E-05  0.200E-03    0.79       5.8  T
   7    -95.0070447 -0.188595E-07  0.907E-04    0.79      12.7  T
   8    -95.0070447 -0.380594E-08  0.428E-04    0.79      27.0  T
   9    -95.0070447  0.111780E-08  0.222E-04    0.79      52.0  T
     SCC iter.                  ...        0 min,  0.107 sec
     gradient                   ...        0 min,  0.053 sec
 * total energy  :   -93.7289310 Eh     change       -0.1235261E-03 Eh
   gradient norm :     0.0033510 Eh/α   predicted    -0.9938106E-04 ( -19.55%)
   displ. norm   :     0.3346786 α      lambda       -0.1179429E-03
   maximum displ.:     0.1677360 α      in ANC's #5, #10, #4, ...

........................................................................
.............................. CYCLE   37 ..............................
........................................................................

 iter      E             dE          RMSdq      gap      omega  full diag
   1    -95.0069328 -0.950069E+02  0.548E-02    0.79       0.0  T
   2    -95.0069212  0.116150E-04  0.353E-02    0.78       1.0  T
   3    -95.0068785  0.426585E-04  0.330E-02    0.81       1.0  T
   4    -95.0069016 -0.230238E-04  0.256E-02    0.77       1.0  T
   5    -95.0069416 -0.400318E-04  0.430E-03    0.79       2.7  T
   6    -95.0069421 -0.468449E-06  0.163E-03    0.79       7.1  T
   7    -95.0069421 -0.141641E-07  0.647E-04    0.79      17.8  T
   8    -95.0069421 -0.224837E-08  0.323E-04    0.79      35.7  T
   9    -95.0069421  0.362675E-09  0.170E-04    0.79      67.8  T
     SCC iter.                  ...        0 min,  0.111 sec
     gradient                   ...        0 min,  0.063 sec
 * total energy  :   -93.7290209 Eh     change       -0.8988709E-04 Eh
   gradient norm :     0.0036106 Eh/α   predicted    -0.6558042E-04 ( -27.04%)
   displ. norm   :     0.2968043 α      lambda       -0.1120803E-03
   maximum displ.:     0.1673169 α      in ANC's #5, #4, #2, ...

........................................................................
.............................. CYCLE   38 ..............................
........................................................................

 iter      E             dE          RMSdq      gap      omega  full diag
   1    -95.0082552 -0.950083E+02  0.498E-02    0.79       0.0  T
   2    -95.0082459  0.930585E-05  0.319E-02    0.78       1.0  T
   3    -95.0082136  0.322405E-04  0.293E-02    0.81       1.0  T
   4    -95.0082312 -0.175480E-04  0.231E-02    0.78       1.0  T
   5    -95.0082630 -0.318278E-04  0.413E-03    0.79       2.8  T
   6    -95.0082635 -0.495797E-06  0.138E-03    0.79       8.4  T
   7    -95.0082635 -0.134272E-07  0.591E-04    0.79      19.5  T
   8    -95.0082635 -0.158812E-08  0.291E-04    0.79      39.7  T
   9    -95.0082635  0.986660E-10  0.155E-04    0.79      74.3  T
     SCC iter.                  ...        0 min,  0.116 sec
     gradient                   ...        0 min,  0.057 sec
 * total energy  :   -93.7291101 Eh     change       -0.8923769E-04 Eh
   gradient norm :     0.0032026 Eh/α   predicted    -0.6097889E-04 ( -31.67%)
   displ. norm   :     0.3717489 α      lambda       -0.1228821E-03
   maximum displ.:     0.2060030 α      in ANC's #5, #4, #2, ...

........................................................................
.............................. CYCLE   39 ..............................
........................................................................

 iter      E             dE          RMSdq      gap      omega  full diag
   1    -95.0072429 -0.950072E+02  0.601E-02    0.79       0.0  T
   2    -95.0072234  0.195548E-04  0.401E-02    0.77       1.0  T
   3    -95.0071786  0.447176E-04  0.367E-02    0.81       1.0  T
   4    -95.0072205 -0.418246E-04  0.262E-02    0.78       1.0  T
   5    -95.0072573 -0.367987E-04  0.547E-03    0.79       2.1  T
   6    -95.0072583 -0.101792E-05  0.186E-03    0.79       6.2  T
   7    -95.0072583 -0.297556E-07  0.928E-04    0.79      12.4  T
   8    -95.0072583 -0.409830E-08  0.438E-04    0.79      26.4  T
   9    -95.0072583  0.984784E-09  0.232E-04    0.79      49.8  T
     SCC iter.                  ...        0 min,  0.131 sec
     gradient                   ...        0 min,  0.053 sec
 * total energy  :   -93.7292074 Eh     change       -0.9729533E-04 Eh
   gradient norm :     0.0028040 Eh/α   predicted    -0.6993505E-04 ( -28.12%)
   displ. norm   :     0.3351309 α      lambda       -0.1297618E-03
   maximum displ.:     0.2078169 α      in ANC's #5, #2, #3, ...

........................................................................
.............................. CYCLE   40 ..............................
........................................................................

 iter      E             dE          RMSdq      gap      omega  full diag
   1    -95.0109307 -0.950109E+02  0.543E-02    0.79       0.0  T
   2    -95.0109159  0.148751E-04  0.356E-02    0.78       1.0  T
   3    -95.0108756  0.402512E-04  0.333E-02    0.81       1.0  T
   4    -95.0109145 -0.389315E-04  0.232E-02    0.78       1.0  T
   5    -95.0109428 -0.282837E-04  0.476E-03    0.80       2.4  T
   6    -95.0109436 -0.770244E-06  0.175E-03    0.79       6.6  T
   7    -95.0109436 -0.279317E-07  0.810E-04    0.79      14.3  T
   8    -95.0109436 -0.273698E-08  0.399E-04    0.79      28.9  T
   9    -95.0109436  0.313364E-09  0.205E-04    0.79      56.3  T
     SCC iter.                  ...        0 min,  0.119 sec
     gradient                   ...        0 min,  0.051 sec
 * total energy  :   -93.7292985 Eh     change       -0.9107762E-04 Eh
   gradient norm :     0.0036863 Eh/α   predicted    -0.7216915E-04 ( -20.76%)
   displ. norm   :     0.4209190 α      lambda       -0.1192069E-03
   maximum displ.:     0.2408844 α      in ANC's #5, #4, #2, ...

........................................................................
.............................. CYCLE   41 ..............................
........................................................................

 iter      E             dE          RMSdq      gap      omega  full diag
   1    -95.0079150 -0.950079E+02  0.640E-02    0.79       0.0  T
   2    -95.0079003  0.146484E-04  0.420E-02    0.77       1.0  T
   3    -95.0078626  0.377643E-04  0.356E-02    0.81       1.0  T
   4    -95.0078776 -0.150653E-04  0.299E-02    0.77       1.0  T
   5    -95.0079303 -0.526518E-04  0.589E-03    0.80       2.0  T
   6    -95.0079314 -0.117112E-05  0.216E-03    0.79       5.3  T
   7    -95.0079315 -0.329384E-07  0.104E-03    0.79      11.1  T
   8    -95.0079315 -0.565791E-08  0.495E-04    0.79      23.3  T
   9    -95.0079315  0.126974E-08  0.257E-04    0.79      45.0  T
     SCC iter.                  ...        0 min,  0.107 sec
     gradient                   ...        0 min,  0.052 sec
 * total energy  :   -93.7293896 Eh     change       -0.9116864E-04 Eh
   gradient norm :     0.0041355 Eh/α   predicted    -0.7016693E-04 ( -23.04%)
   displ. norm   :     0.3086537 α      lambda       -0.1091829E-03
   maximum displ.:     0.1920851 α      in ANC's #5, #2, #3, ...

........................................................................
.............................. CYCLE   42 ..............................
........................................................................

 iter      E             dE          RMSdq      gap      omega  full diag
   1    -95.0085862 -0.950086E+02  0.456E-02    0.79       0.0  T
   2    -95.0085772  0.900187E-05  0.305E-02    0.78       1.0  T
   3    -95.0085547  0.225080E-04  0.268E-02    0.81       1.0  T
   4    -95.0085709 -0.161434E-04  0.208E-02    0.78       1.0  T
   5    -95.0085944 -0.235774E-04  0.503E-03    0.80       2.3  T
   6    -95.0085954 -0.947638E-06  0.176E-03    0.79       6.6  T
   7    -95.0085954 -0.193659E-07  0.874E-04    0.79      13.2  T
   8    -95.0085954 -0.306925E-08  0.391E-04    0.79      29.5  T
   9    -95.0085954  0.696488E-09  0.188E-04    0.79      61.5  T
     SCC iter.                  ...        0 min,  0.104 sec
     gradient                   ...        0 min,  0.061 sec
 * total energy  :   -93.7294825 Eh     change       -0.9285356E-04 Eh
   gradient norm :     0.0036703 Eh/α   predicted    -0.5979406E-04 ( -35.60%)
   displ. norm   :     0.4250503 α      lambda       -0.1646802E-03
   maximum displ.:     0.2745556 α      in ANC's #5, #3, #2, ...
 * RMSD in coord.:     0.7327619 α      energy gain  -0.3733647E-02 Eh

generating ANC from exact Hessian ...
Using Lindh-Hessian (1995)
 Shifting diagonal of input Hessian by    1.0122176274870016E-002
 Lowest  eigenvalues of input Hessian
    0.010000    0.010021    0.000000    0.000000    0.000000    0.000000
    0.000000    0.000000    0.010209    0.010290    0.010425    0.010512
    0.010539    0.010674    0.010804    0.010937    0.010978    0.011052
 Highest eigenvalues
    1.627925    1.893312    1.981917    2.019507    2.236036    2.323632


........................................................................
.............................. CYCLE   43 ..............................
........................................................................

 iter      E             dE          RMSdq      gap      omega  full diag
   1    -95.0098069 -0.950098E+02  0.633E-02    0.79       0.0  T
   2    -95.0098046  0.235510E-05  0.395E-02    0.79       1.0  T
   3    -95.0097811  0.234364E-04  0.296E-02    0.81       1.0  T
   4    -95.0097327  0.483789E-04  0.346E-02    0.78       1.0  T
   5    -95.0098174 -0.846538E-04  0.496E-03    0.80       2.3  T
   6    -95.0098181 -0.720041E-06  0.218E-03    0.80       5.3  T
   7    -95.0098181 -0.249080E-07  0.874E-04    0.80      13.2  T
   8    -95.0098181 -0.409754E-08  0.442E-04    0.80      26.1  T
   9    -95.0098181 -0.250935E-09  0.192E-04    0.80      60.3  T
     SCC iter.                  ...        0 min,  0.097 sec
     gradient                   ...        0 min,  0.050 sec
 * total energy  :   -93.7296133 Eh     change       -0.1307514E-03 Eh
   gradient norm :     0.0032067 Eh/α   predicted     0.0000000E+00 (-100.00%)
   displ. norm   :     0.0604890 α      lambda       -0.6706689E-04
   maximum displ.:     0.0210967 α      in ANC's #9, #3, #5, ...

........................................................................
.............................. CYCLE   44 ..............................
........................................................................

 iter      E             dE          RMSdq      gap      omega  full diag
   1    -95.0102875 -0.950103E+02  0.144E-02    0.80       0.0  T
   2    -95.0102876 -0.130832E-06  0.867E-03    0.80       1.3  T
   3    -95.0102872  0.431168E-06  0.607E-03    0.80       1.9  T
   4    -95.0102860  0.120153E-05  0.479E-03    0.80       2.4  T
   5    -95.0102876 -0.162501E-05  0.170E-03    0.80       6.8  T
   6    -95.0102878 -0.150582E-06  0.496E-04    0.80      23.3  T
   7    -95.0102878 -0.541775E-09  0.130E-04    0.80      88.6  T
     SCC iter.                  ...        0 min,  0.081 sec
     gradient                   ...        0 min,  0.051 sec
 * total energy  :   -93.7296706 Eh     change       -0.5729918E-04 Eh
   gradient norm :     0.0016381 Eh/α   predicted    -0.3368311E-04 ( -41.22%)
   displ. norm   :     0.4438112 α      lambda       -0.2474140E-03
   maximum displ.:     0.1572586 α      in ANC's #9, #3, #5, ...

........................................................................
.............................. CYCLE   45 ..............................
........................................................................

 iter      E             dE          RMSdq      gap      omega  full diag
   1    -95.0104902 -0.950105E+02  0.104E-01    0.80       0.0  T
   2    -95.0104915 -0.126064E-05  0.645E-02    0.78       1.0  T
   3    -95.0104534  0.381096E-04  0.439E-02    0.81       1.0  T
   4    -95.0102476  0.205784E-03  0.576E-02    0.75       1.0  T
   5    -95.0105087 -0.261142E-03  0.497E-03    0.79       2.3  T
   6    -95.0105090 -0.294372E-06  0.256E-03    0.79       4.5  T
   7    -95.0105090 -0.285463E-07  0.104E-03    0.79      11.1  T
   8    -95.0105090 -0.365939E-08  0.563E-04    0.79      20.5  T
   9    -95.0105090 -0.881556E-09  0.183E-04    0.79      63.2  T
  10    -95.0105090 -0.215579E-10  0.112E-04    0.79     102.8  T
     SCC iter.                  ...        0 min,  0.121 sec
     gradient                   ...        0 min,  0.054 sec
 * total energy  :   -93.7296552 Eh     change        0.1530791E-04 Eh
   gradient norm :     0.0114075 Eh/α   predicted    -0.1345665E-03 (-979.06%)
   displ. norm   :     0.1663859 α      lambda       -0.3867456E-03
   maximum displ.:     0.0559428 α      in ANC's #9, #7, #5, ...

........................................................................
.............................. CYCLE   46 ..............................
........................................................................

 iter      E             dE          RMSdq      gap      omega  full diag
   1    -95.0102075 -0.950102E+02  0.544E-02    0.79       0.0  T
   2    -95.0102068  0.660130E-06  0.376E-02    0.78       1.0  T
   3    -95.0101907  0.161391E-04  0.289E-02    0.80       1.0  T
   4    -95.0101715  0.191559E-04  0.260E-02    0.77       1.0  T
   5    -95.0102167 -0.451739E-04  0.958E-03    0.80       1.2  T
   6    -95.0102204 -0.364642E-05  0.347E-03    0.79       3.3  T
   7    -95.0102204 -0.376650E-07  0.121E-03    0.79       9.6  T
   8    -95.0102204 -0.147119E-07  0.560E-04    0.79      20.6  T
   9    -95.0102204 -0.186535E-08  0.217E-04    0.79      53.3  T
  10    -95.0102204 -0.163055E-09  0.931E-05    0.79     124.1  T
     SCC iter.                  ...        0 min,  0.114 sec
     gradient                   ...        0 min,  0.049 sec
 * total energy  :   -93.7298123 Eh     change       -0.1571042E-03 Eh
   gradient norm :     0.0090503 Eh/α   predicted    -0.1987270E-03 (  26.49%)
   displ. norm   :     0.1059886 α      lambda       -0.2356704E-03
   maximum displ.:     0.0377358 α      in ANC's #18, #35, #20, ...

........................................................................
.............................. CYCLE   47 ..............................
........................................................................

 iter      E             dE          RMSdq      gap      omega  full diag
   1    -95.0117384 -0.950117E+02  0.349E-02    0.79       0.0  T
   2    -95.0117405 -0.211364E-05  0.221E-02    0.80       1.0  T
   3    -95.0117375  0.300126E-05  0.165E-02    0.79       1.0  T
   4    -95.0117335  0.398132E-05  0.115E-02    0.80       1.0  T
   5    -95.0117392 -0.567711E-05  0.688E-03    0.79       1.7  T
   6    -95.0117424 -0.318116E-05  0.149E-03    0.80       7.8  T
   7    -95.0117424 -0.156282E-07  0.690E-04    0.80      16.7  T
   8    -95.0117424 -0.332008E-09  0.375E-04    0.80      30.8  T
   9    -95.0117424 -0.676536E-09  0.137E-04    0.80      84.6  T
     SCC iter.                  ...        0 min,  0.101 sec
     gradient                   ...        0 min,  0.056 sec
 * total energy  :   -93.7299156 Eh     change       -0.1032405E-03 Eh
   gradient norm :     0.0031401 Eh/α   predicted    -0.1191616E-03 (  15.42%)
   displ. norm   :     0.0882630 α      lambda       -0.1253481E-03
   maximum displ.:     0.0329448 α      in ANC's #4, #5, #9, ...

........................................................................
.............................. CYCLE   48 ..............................
........................................................................

 iter      E             dE          RMSdq      gap      omega  full diag
   1    -95.0118921 -0.950119E+02  0.303E-02    0.79       0.0  T
   2    -95.0118918  0.276234E-06  0.187E-02    0.79       1.0  T
   3    -95.0118866  0.520272E-05  0.138E-02    0.80       1.0  T
   4    -95.0118743  0.123822E-04  0.165E-02    0.78       1.0  T
   5    -95.0118938 -0.195339E-04  0.204E-03    0.79       5.7  T
   6    -95.0118940 -0.211182E-06  0.101E-03    0.79      11.5  T
   7    -95.0118940 -0.406629E-08  0.295E-04    0.79      39.1  T
   8    -95.0118940  0.613767E-10  0.162E-04    0.79      71.2  T
     SCC iter.                  ...        0 min,  0.104 sec
     gradient                   ...        0 min,  0.062 sec
 * total energy  :   -93.7299873 Eh     change       -0.7167711E-04 Eh
   gradient norm :     0.0021337 Eh/α   predicted    -0.6316430E-04 ( -11.88%)
   displ. norm   :     0.2450159 α      lambda       -0.1256854E-03
   maximum displ.:     0.0938456 α      in ANC's #5, #4, #9, ...

........................................................................
.............................. CYCLE   49 ..............................
........................................................................

 iter      E             dE          RMSdq      gap      omega  full diag
   1    -95.0105603 -0.950106E+02  0.508E-02    0.79       0.0  T
   2    -95.0105568  0.345937E-05  0.320E-02    0.78       1.0  T
   3    -95.0105350  0.218800E-04  0.255E-02    0.80       1.0  T
   4    -95.0105096  0.253232E-04  0.279E-02    0.77       1.0  T
   5    -95.0105650 -0.553520E-04  0.328E-03    0.79       3.5  T
   6    -95.0105652 -0.251569E-06  0.142E-03    0.79       8.1  T
   7    -95.0105653 -0.157075E-07  0.560E-04    0.79      20.6  T
   8    -95.0105653 -0.272733E-08  0.324E-04    0.79      35.6  T
   9    -95.0105653 -0.339540E-09  0.112E-04    0.79     103.2  T
     SCC iter.                  ...        0 min,  0.104 sec
     gradient                   ...        0 min,  0.053 sec
 * total energy  :   -93.7300902 Eh     change       -0.1029519E-03 Eh
   gradient norm :     0.0021874 Eh/α   predicted    -0.6661645E-04 ( -35.29%)
   displ. norm   :     0.5241364 α      lambda       -0.2201161E-03
   maximum displ.:     0.2060506 α      in ANC's #5, #4, #9, ...

........................................................................
.............................. CYCLE   50 ..............................
........................................................................

 iter      E             dE          RMSdq      gap      omega  full diag
   1    -95.0072406 -0.950072E+02  0.113E-01    0.78       0.0  T
   2    -95.0072415 -0.873972E-06  0.701E-02    0.76       1.0  T
   3    -95.0071887  0.528299E-04  0.494E-02    0.80       1.0  T
   4    -95.0069944  0.194279E-03  0.619E-02    0.75       1.0  T
   5    -95.0072711 -0.276735E-03  0.898E-03    0.79       1.3  T
   6    -95.0072744 -0.331040E-05  0.437E-03    0.79       2.6  T
   7    -95.0072745 -0.819673E-07  0.174E-03    0.78       6.6  T
   8    -95.0072745 -0.910151E-08  0.749E-04    0.78      15.4  T
   9    -95.0072745  0.558813E-09  0.316E-04    0.78      36.5  T
  10    -95.0072745 -0.189706E-08  0.131E-04    0.78      88.0  T
     SCC iter.                  ...        0 min,  0.104 sec
     gradient                   ...        0 min,  0.051 sec
 * total energy  :   -93.7302221 Eh     change       -0.1318473E-03 Eh
   gradient norm :     0.0060799 Eh/α   predicted    -0.1402966E-03 (   6.41%)
   displ. norm   :     0.3038397 α      lambda       -0.1536567E-03
   maximum displ.:     0.1298151 α      in ANC's #5, #4, #9, ...

........................................................................
.............................. CYCLE   51 ..............................
........................................................................

 iter      E             dE          RMSdq      gap      omega  full diag
   1    -95.0079961 -0.950080E+02  0.601E-02    0.79       0.0  T
   2    -95.0079881  0.800551E-05  0.385E-02    0.78       1.0  T
   3    -95.0079384  0.497250E-04  0.347E-02    0.80       1.0  T
   4    -95.0079470 -0.866372E-05  0.301E-02    0.77       1.0  T
   5    -95.0080039 -0.568457E-04  0.527E-03    0.79       2.2  T
   6    -95.0080047 -0.826786E-06  0.188E-03    0.79       6.1  T
   7    -95.0080047 -0.339737E-08  0.766E-04    0.79      15.1  T
   8    -95.0080047 -0.952959E-08  0.427E-04    0.79      27.0  T
   9    -95.0080047 -0.623544E-09  0.171E-04    0.79      67.6  T
     SCC iter.                  ...        0 min,  0.109 sec
     gradient                   ...        0 min,  0.052 sec
 * total energy  :   -93.7303354 Eh     change       -0.1133053E-03 Eh
   gradient norm :     0.0049764 Eh/α   predicted    -0.8392125E-04 ( -25.93%)
   displ. norm   :     0.3405742 α      lambda       -0.1850209E-03
   maximum displ.:     0.1568963 α      in ANC's #5, #4, #3, ...

........................................................................
.............................. CYCLE   52 ..............................
........................................................................

 iter      E             dE          RMSdq      gap      omega  full diag
   1    -95.0121862 -0.950122E+02  0.736E-02    0.80       0.0  T
   2    -95.0121855  0.688231E-06  0.448E-02    0.78       1.0  T
   3    -95.0121533  0.321305E-04  0.333E-02    0.81       1.0  T
   4    -95.0120889  0.644249E-04  0.399E-02    0.77       1.0  T
   5    -95.0122000 -0.111117E-03  0.534E-03    0.80       2.2  T
   6    -95.0122010 -0.991560E-06  0.238E-03    0.79       4.8  T
   7    -95.0122010 -0.263112E-07  0.119E-03    0.79       9.7  T
   8    -95.0122011 -0.734950E-08  0.510E-04    0.79      22.6  T
   9    -95.0122011 -0.585359E-09  0.228E-04    0.79      50.7  T
  10    -95.0122011 -0.886757E-09  0.845E-05    0.79     136.6  T
     SCC iter.                  ...        0 min,  0.118 sec
     gradient                   ...        0 min,  0.054 sec
 * total energy  :   -93.7304657 Eh     change       -0.1303398E-03 Eh
   gradient norm :     0.0032792 Eh/α   predicted    -0.1032458E-03 ( -20.79%)
   displ. norm   :     0.5305489 α      lambda       -0.1676795E-03
   maximum displ.:     0.2432430 α      in ANC's #5, #4, #9, ...

........................................................................
.............................. CYCLE   53 ..............................
........................................................................

 iter      E             dE          RMSdq      gap      omega  full diag
   1    -95.0116473 -0.950116E+02  0.109E-01    0.80       0.0  T
   2    -95.0116456  0.174785E-05  0.663E-02    0.78       1.0  T
   3    -95.0115613  0.842766E-04  0.503E-02    0.82       1.0  T
   4    -95.0114188  0.142487E-03  0.590E-02    0.76       1.0  T
   5    -95.0116698 -0.251050E-03  0.713E-03    0.80       1.6  T
   6    -95.0116715 -0.163425E-05  0.341E-03    0.80       3.4  T
   7    -95.0116715 -0.336797E-07  0.117E-03    0.80       9.9  T
   8    -95.0116715 -0.127104E-07  0.761E-04    0.80      15.2  T
   9    -95.0116715 -0.250300E-08  0.276E-04    0.80      41.8  T
  10    -95.0116715 -0.127751E-08  0.119E-04    0.80      96.8  T
     SCC iter.                  ...        0 min,  0.106 sec
     gradient                   ...        0 min,  0.065 sec
 * total energy  :   -93.7305979 Eh     change       -0.1322317E-03 Eh
   gradient norm :     0.0031716 Eh/α   predicted    -0.1074444E-03 ( -18.75%)
   displ. norm   :     0.4364503 α      lambda       -0.1456458E-03
   maximum displ.:     0.2146456 α      in ANC's #5, #4, #1, ...

........................................................................
.............................. CYCLE   54 ..............................
........................................................................

 iter      E             dE          RMSdq      gap      omega  full diag
   1    -95.0129898 -0.950130E+02  0.875E-02    0.80       0.0  T
   2    -95.0129896  0.189054E-06  0.526E-02    0.79       1.0  T
   3    -95.0129462  0.433509E-04  0.378E-02    0.82       1.0  T
   4    -95.0128400  0.106273E-03  0.463E-02    0.77       1.0  T
   5    -95.0129997 -0.159716E-03  0.496E-03    0.80       2.3  T
   6    -95.0130005 -0.852374E-06  0.237E-03    0.80       4.9  T
   7    -95.0130005 -0.192236E-07  0.903E-04    0.80      12.8  T
   8    -95.0130006 -0.744234E-08  0.498E-04    0.80      23.2  T
   9    -95.0130006 -0.965557E-09  0.192E-04    0.80      60.1  T
     SCC iter.                  ...        0 min,  0.115 sec
     gradient                   ...        0 min,  0.057 sec
 * total energy  :   -93.7307201 Eh     change       -0.1221664E-03 Eh
   gradient norm :     0.0030147 Eh/α   predicted    -0.8669776E-04 ( -29.03%)
   displ. norm   :     0.4603072 α      lambda       -0.1717607E-03
   maximum displ.:     0.2412472 α      in ANC's #5, #4, #1, ...

........................................................................
.............................. CYCLE   55 ..............................
........................................................................

 iter      E             dE          RMSdq      gap      omega  full diag
   1    -95.0147635 -0.950148E+02  0.895E-02    0.80       0.0  T
   2    -95.0147626  0.908165E-06  0.534E-02    0.79       1.0  T
   3    -95.0147062  0.564520E-04  0.394E-02    0.82       1.0  T
   4    -95.0146501  0.560768E-04  0.403E-02    0.78       1.0  T
   5    -95.0147698 -0.119713E-03  0.471E-03    0.80       2.4  T
   6    -95.0147708 -0.982747E-06  0.225E-03    0.80       5.1  T
   7    -95.0147708 -0.526294E-07  0.709E-04    0.80      16.3  T
   8    -95.0147708 -0.911342E-09  0.423E-04    0.80      27.3  T
   9    -95.0147708 -0.126424E-08  0.208E-04    0.80      55.4  T
     SCC iter.                  ...        0 min,  0.101 sec
     gradient                   ...        0 min,  0.057 sec
 * total energy  :   -93.7308611 Eh     change       -0.1410083E-03 Eh
   gradient norm :     0.0036724 Eh/α   predicted    -0.1040798E-03 ( -26.19%)
   displ. norm   :     0.5210900 α      lambda       -0.1953299E-03
   maximum displ.:     0.2816429 α      in ANC's #5, #4, #1, ...

........................................................................
.............................. CYCLE   56 ..............................
........................................................................

 iter      E             dE          RMSdq      gap      omega  full diag
   1    -95.0137428 -0.950137E+02  0.100E-01    0.81       0.0  T
   2    -95.0137437 -0.830384E-06  0.592E-02    0.80       1.0  T
   3    -95.0137130  0.306469E-04  0.362E-02    0.82       1.0  T
   4    -95.0136445  0.684734E-04  0.361E-02    0.78       1.0  T
   5    -95.0137472 -0.102677E-03  0.283E-03    0.80       4.1  T
   6    -95.0137475 -0.243334E-06  0.129E-03    0.80       8.9  T
   7    -95.0137475 -0.533562E-08  0.622E-04    0.80      18.6  T
   8    -95.0137475 -0.103378E-08  0.264E-04    0.80      43.8  T
   9    -95.0137475 -0.892513E-09  0.118E-04    0.80      98.2  T
     SCC iter.                  ...        0 min,  0.112 sec
     gradient                   ...        0 min,  0.067 sec
 * total energy  :   -93.7310158 Eh     change       -0.1547135E-03 Eh
   gradient norm :     0.0039667 Eh/α   predicted    -0.1241863E-03 ( -19.73%)
   displ. norm   :     0.5023301 α      lambda       -0.2290416E-03
   maximum displ.:     0.2793431 α      in ANC's #5, #4, #2, ...

........................................................................
.............................. CYCLE   57 ..............................
........................................................................

 iter      E             dE          RMSdq      gap      omega  full diag
   1    -95.0153672 -0.950154E+02  0.966E-02    0.81       0.0  T
   2    -95.0153693 -0.213145E-05  0.575E-02    0.81       1.0  T
   3    -95.0153418  0.274797E-04  0.373E-02    0.80       1.0  T
   4    -95.0152925  0.493456E-04  0.319E-02    0.83       1.0  T
   5    -95.0153732 -0.807465E-04  0.314E-03    0.81       3.7  T
   6    -95.0153735 -0.286329E-06  0.166E-03    0.81       6.9  T
   7    -95.0153735 -0.229264E-07  0.634E-04    0.81      18.2  T
   8    -95.0153735 -0.108110E-08  0.349E-04    0.81      33.1  T
   9    -95.0153735 -0.340366E-08  0.130E-04    0.81      88.8  T
     SCC iter.                  ...        0 min,  0.105 sec
     gradient                   ...        0 min,  0.057 sec
 * total energy  :   -93.7311851 Eh     change       -0.1692526E-03 Eh
   gradient norm :     0.0043104 Eh/α   predicted    -0.1434199E-03 ( -15.26%)
   displ. norm   :     0.6126520 α      lambda       -0.2141175E-03
   maximum displ.:     0.3590152 α      in ANC's #5, #4, #2, ...

........................................................................
.............................. CYCLE   58 ..............................
........................................................................

 iter      E             dE          RMSdq      gap      omega  full diag
   1    -95.0111706 -0.950112E+02  0.122E-01    0.81       0.0  T
   2    -95.0111726 -0.196129E-05  0.726E-02    0.81       1.0  T
   3    -95.0111058  0.667891E-04  0.496E-02    0.79       1.0  T
   4    -95.0110699  0.358379E-04  0.374E-02    0.83       1.0  T
   5    -95.0111794 -0.109476E-03  0.431E-03    0.81       2.7  T
   6    -95.0111800 -0.593649E-06  0.215E-03    0.81       5.4  T
   7    -95.0111801 -0.562478E-07  0.875E-04    0.81      13.2  T
   8    -95.0111801  0.437169E-09  0.492E-04    0.81      23.5  T
   9    -95.0111801 -0.447537E-08  0.179E-04    0.81      64.7  T
     SCC iter.                  ...        0 min,  0.108 sec
     gradient                   ...        0 min,  0.054 sec
 * total energy  :   -93.7313297 Eh     change       -0.1446118E-03 Eh
   gradient norm :     0.0055255 Eh/α   predicted    -0.1472476E-03 (   1.82%)
   displ. norm   :     0.3824856 α      lambda       -0.2307262E-03
   maximum displ.:     0.2294905 α      in ANC's #5, #4, #2, ...

........................................................................
.............................. CYCLE   59 ..............................
........................................................................

 iter      E             dE          RMSdq      gap      omega  full diag
   1    -95.0144732 -0.950145E+02  0.939E-02    0.83       0.0  T
   2    -95.0144670  0.615613E-05  0.596E-02    0.84       1.0  T
   3    -95.0143977  0.693250E-04  0.471E-02    0.80       1.0  T
   4    -95.0143260  0.716841E-04  0.511E-02    0.85       1.0  T
   5    -95.0145007 -0.174625E-03  0.635E-03    0.82       1.8  T
   6    -95.0145018 -0.110720E-05  0.357E-03    0.82       3.2  T
   7    -95.0145019 -0.107965E-06  0.164E-03    0.82       7.0  T
   8    -95.0145019 -0.517359E-08  0.753E-04    0.82      15.3  T
   9    -95.0145019 -0.133326E-09  0.318E-04    0.82      36.3  T
  10    -95.0145019 -0.226245E-08  0.122E-04    0.82      94.4  T
     SCC iter.                  ...        0 min,  0.135 sec
     gradient                   ...        0 min,  0.063 sec
 * total energy  :   -93.7314650 Eh     change       -0.1353020E-03 Eh
   gradient norm :     0.0055859 Eh/α   predicted    -0.1322423E-03 (  -2.26%)
   displ. norm   :     0.5052439 α      lambda       -0.3022573E-03
   maximum displ.:     0.3254958 α      in ANC's #5, #4, #2, ...

........................................................................
.............................. CYCLE   60 ..............................
........................................................................

 iter      E             dE          RMSdq      gap      omega  full diag
   1    -95.0099884 -0.950100E+02  0.114E-01    0.82       0.0  T
   2    -95.0099646  0.238206E-04  0.709E-02    0.84       1.0  T
   3    -95.0096132  0.351368E-03  0.769E-02    0.78       1.0  T
   4    -95.0098947 -0.281425E-03  0.455E-02    0.85       1.0  T
   5    -95.0100160 -0.121380E-03  0.520E-03    0.83       2.2  T
   6    -95.0100166 -0.571607E-06  0.313E-03    0.83       3.7  T
   7    -95.0100167 -0.105655E-06  0.130E-03    0.83       8.9  T
   8    -95.0100167 -0.443154E-08  0.685E-04    0.83      16.9  T
   9    -95.0100167 -0.160659E-08  0.227E-04    0.83      50.9  T
  10    -95.0100167 -0.113955E-08  0.103E-04    0.83     112.0  T
     SCC iter.                  ...        0 min,  0.117 sec
     gradient                   ...        0 min,  0.065 sec
 * total energy  :   -93.7316273 Eh     change       -0.1622930E-03 Eh
   gradient norm :     0.0072749 Eh/α   predicted    -0.1897079E-03 (  16.89%)
   displ. norm   :     0.2589383 α      lambda       -0.2469742E-03
   maximum displ.:     0.1649625 α      in ANC's #5, #2, #10, ...

........................................................................
.............................. CYCLE   61 ..............................
........................................................................

 iter      E             dE          RMSdq      gap      omega  full diag
   1    -95.0126635 -0.950127E+02  0.691E-02    0.83       0.0  T
   2    -95.0126610  0.254203E-05  0.427E-02    0.84       1.0  T
   3    -95.0126296  0.313844E-04  0.329E-02    0.82       1.0  T
   4    -95.0125760  0.535441E-04  0.379E-02    0.86       1.0  T
   5    -95.0126754 -0.993830E-04  0.450E-03    0.83       2.6  T
   6    -95.0126761 -0.670930E-06  0.242E-03    0.83       4.8  T
   7    -95.0126761 -0.320019E-07  0.117E-03    0.83       9.9  T
   8    -95.0126761 -0.158724E-08  0.530E-04    0.83      21.8  T
   9    -95.0126761 -0.265130E-08  0.175E-04    0.83      66.1  T
  10    -95.0126761 -0.274113E-09  0.893E-05    0.83     129.3  T
     SCC iter.                  ...        0 min,  0.124 sec
     gradient                   ...        0 min,  0.059 sec
 * total energy  :   -93.7318184 Eh     change       -0.1911505E-03 Eh
   gradient norm :     0.0056418 Eh/α   predicted    -0.1317708E-03 ( -31.06%)
   displ. norm   :     0.4524808 α      lambda       -0.3381720E-03
   maximum displ.:     0.2942981 α      in ANC's #5, #2, #10, ...

........................................................................
.............................. CYCLE   62 ..............................
........................................................................

 iter      E             dE          RMSdq      gap      omega  full diag
   1    -95.0135879 -0.950136E+02  0.123E-01    0.84       0.0  T
   2    -95.0135942 -0.635506E-05  0.786E-02    0.85       1.0  T
   3    -95.0135559  0.383764E-04  0.540E-02    0.81       1.0  T
   4    -95.0133269  0.228990E-03  0.656E-02    0.87       1.0  T
   5    -95.0136257 -0.298809E-03  0.128E-02    0.82       1.0  T
   6    -95.0136333 -0.765263E-05  0.458E-03    0.83       2.5  T
   7    -95.0136334 -0.117741E-06  0.218E-03    0.83       5.3  T
   8    -95.0136334 -0.551138E-08  0.108E-03    0.83      10.7  T
   9    -95.0136334 -0.145586E-08  0.412E-04    0.83      28.1  T
  10    -95.0136335 -0.332238E-08  0.192E-04    0.83      60.0  T
     SCC iter.                  ...        0 min,  0.123 sec
     gradient                   ...        0 min,  0.054 sec
 * total energy  :   -93.7320522 Eh     change       -0.2337874E-03 Eh
   gradient norm :     0.0054555 Eh/α   predicted    -0.2037062E-03 ( -12.87%)
   displ. norm   :     0.4056151 α      lambda       -0.2240447E-03
   maximum displ.:     0.2616964 α      in ANC's #5, #2, #10, ...

........................................................................
.............................. CYCLE   63 ..............................
........................................................................

 iter      E             dE          RMSdq      gap      omega  full diag
   1    -95.0134340 -0.950134E+02  0.109E-01    0.83       0.0  T
   2    -95.0133929  0.411553E-04  0.740E-02    0.86       1.0  T
   3    -95.0132986  0.942237E-04  0.610E-02    0.80       1.0  T
   4    -95.0133240 -0.253271E-04  0.522E-02    0.86       1.0  T
   5    -95.0134796 -0.155665E-03  0.121E-02    0.83       1.0  T
   6    -95.0134853 -0.567392E-05  0.373E-03    0.83       3.1  T
   7    -95.0134854 -0.566745E-07  0.194E-03    0.83       6.0  T
   8    -95.0134854 -0.158721E-08  0.104E-03    0.83      11.1  T
   9    -95.0134854 -0.562980E-08  0.386E-04    0.83      29.9  T
  10    -95.0134854 -0.244098E-08  0.179E-04    0.83      64.6  T
     SCC iter.                  ...        0 min,  0.120 sec
     gradient                   ...        0 min,  0.054 sec
 * total energy  :   -93.7322061 Eh     change       -0.1538638E-03 Eh
   gradient norm :     0.0045197 Eh/α   predicted    -0.1304581E-03 ( -15.21%)
   displ. norm   :     0.5129536 α      lambda       -0.1988868E-03
   maximum displ.:     0.3531750 α      in ANC's #5, #2, #1, ...

........................................................................
.............................. CYCLE   64 ..............................
........................................................................

 iter      E             dE          RMSdq      gap      omega  full diag
   1    -95.0093899 -0.950094E+02  0.124E-01    0.84       0.0  T
   2    -95.0093792  0.107417E-04  0.807E-02    0.85       1.0  T
   3    -95.0092921  0.870749E-04  0.624E-02    0.81       1.0  T
   4    -95.0091300  0.162105E-03  0.657E-02    0.88       1.0  T
   5    -95.0094281 -0.298096E-03  0.126E-02    0.83       1.0  T
   6    -95.0094353 -0.714201E-05  0.368E-03    0.84       3.1  T
   7    -95.0094353 -0.504172E-07  0.171E-03    0.84       6.7  T
   8    -95.0094353 -0.536566E-08  0.981E-04    0.84      11.8  T
   9    -95.0094353 -0.329445E-08  0.380E-04    0.84      30.4  T
  10    -95.0094353 -0.214646E-08  0.184E-04    0.84      62.8  T
     SCC iter.                  ...        0 min,  0.118 sec
     gradient                   ...        0 min,  0.056 sec
 * total energy  :   -93.7323001 Eh     change       -0.9404539E-04 Eh
   gradient norm :     0.0068568 Eh/α   predicted    -0.1256109E-03 (  33.56%)
   displ. norm   :     0.2938730 α      lambda       -0.3078995E-03
   maximum displ.:     0.1279026 α      in ANC's #10, #5, #2, ...

........................................................................
.............................. CYCLE   65 ..............................
........................................................................

 iter      E             dE          RMSdq      gap      omega  full diag
   1    -95.0174866 -0.950175E+02  0.628E-02    0.85       0.0  T
   2    -95.0174742  0.123592E-04  0.452E-02    0.82       1.0  T
   3    -95.0174564  0.178471E-04  0.323E-02    0.85       1.0  T
   4    -95.0174315  0.248458E-04  0.330E-02    0.81       1.0  T
   5    -95.0175063 -0.747974E-04  0.626E-03    0.83       1.8  T
   6    -95.0175069 -0.610782E-06  0.279E-03    0.83       4.1  T
   7    -95.0175070 -0.299435E-07  0.892E-04    0.83      12.9  T
   8    -95.0175070 -0.243897E-08  0.597E-04    0.83      19.4  T
   9    -95.0175070 -0.624944E-08  0.204E-04    0.83      56.6  T
  10    -95.0175070 -0.420329E-09  0.120E-04    0.83      96.5  T
     SCC iter.                  ...        0 min,  0.119 sec
     gradient                   ...        0 min,  0.060 sec
 * total energy  :   -93.7323788 Eh     change       -0.7866810E-04 Eh
   gradient norm :     0.0078633 Eh/α   predicted    -0.1672499E-03 ( 112.60%)
   displ. norm   :     0.1955828 α      lambda       -0.2273551E-03
   maximum displ.:     0.1228226 α      in ANC's #5, #2, #1, ...

........................................................................
.............................. CYCLE   66 ..............................
........................................................................

 iter      E             dE          RMSdq      gap      omega  full diag
   1    -95.0140132 -0.950140E+02  0.530E-02    0.81       0.0  T
   2    -95.0140149 -0.172792E-05  0.316E-02    0.82       1.0  T
   3    -95.0139883  0.266067E-04  0.252E-02    0.81       1.0  T
   4    -95.0139914 -0.313776E-05  0.177E-02    0.83       1.0  T
   5    -95.0140172 -0.258061E-04  0.273E-03    0.82       4.2  T
   6    -95.0140174 -0.202287E-06  0.977E-04    0.82      11.8  T
   7    -95.0140175 -0.802669E-08  0.411E-04    0.82      28.1  T
   8    -95.0140175 -0.262092E-08  0.174E-04    0.82      66.3  T
     SCC iter.                  ...        0 min,  0.109 sec
     gradient                   ...        0 min,  0.062 sec
 * total energy  :   -93.7324618 Eh     change       -0.8303789E-04 Eh
   gradient norm :     0.0087694 Eh/α   predicted    -0.1180266E-03 (  42.14%)
   displ. norm   :     0.1333164 α      lambda       -0.2015693E-03
   maximum displ.:     0.0455750 α      in ANC's #5, #2, #4, ...
 * RMSD in coord.:     0.7831199 α      energy gain  -0.2979341E-02 Eh

generating ANC from exact Hessian ...
Using Lindh-Hessian (1995)
 Shifting diagonal of input Hessian by    1.0116149085898153E-002
 Lowest  eigenvalues of input Hessian
    0.010000    0.000000    0.000000    0.000000    0.000000    0.000000
    0.000000    0.010233    0.010252    0.010258    0.010519    0.010557
    0.010687    0.010852    0.010899    0.010983    0.011006    0.011095
 Highest eigenvalues
    1.621775    1.887366    1.978449    2.013627    2.233273    2.325001


........................................................................
.............................. CYCLE   67 ..............................
........................................................................

 iter      E             dE          RMSdq      gap      omega  full diag
   1    -95.0123942 -0.950124E+02  0.426E-02    0.83       0.0  T
   2    -95.0123954 -0.116410E-05  0.281E-02    0.83       1.0  T
   3    -95.0123892  0.620454E-05  0.199E-02    0.82       1.0  T
   4    -95.0123677  0.214335E-04  0.210E-02    0.84       1.0  T
   5    -95.0124007 -0.329554E-04  0.544E-03    0.83       2.1  T
   6    -95.0124015 -0.787314E-06  0.200E-03    0.83       5.8  T
   7    -95.0124015 -0.109366E-07  0.680E-04    0.83      17.0  T
   8    -95.0124015 -0.263968E-08  0.354E-04    0.83      32.7  T
   9    -95.0124015 -0.808598E-11  0.140E-04    0.83      82.3  T
     SCC iter.                  ...        0 min,  0.097 sec
     gradient                   ...        0 min,  0.051 sec
 * total energy  :   -93.7325431 Eh     change       -0.8127699E-04 Eh
   gradient norm :     0.0054112 Eh/α   predicted     0.0000000E+00 (-100.00%)
   displ. norm   :     0.0624690 α      lambda       -0.1140288E-03
   maximum displ.:     0.0219138 α      in ANC's #16, #7, #42, ...

........................................................................
.............................. CYCLE   68 ..............................
........................................................................

 iter      E             dE          RMSdq      gap      omega  full diag
   1    -95.0141684 -0.950142E+02  0.268E-02    0.83       0.0  T
   2    -95.0141648  0.364542E-05  0.176E-02    0.83       1.0  T
   3    -95.0141407  0.241491E-04  0.213E-02    0.84       1.0  T
   4    -95.0141694 -0.287442E-04  0.927E-03    0.83       1.2  T
   5    -95.0141727 -0.328228E-05  0.283E-03    0.83       4.1  T
   6    -95.0141729 -0.178440E-06  0.105E-03    0.83      11.0  T
   7    -95.0141729 -0.378569E-07  0.392E-04    0.83      29.5  T
   8    -95.0141729 -0.150027E-08  0.236E-04    0.83      49.0  T
     SCC iter.                  ...        0 min,  0.084 sec
     gradient                   ...        0 min,  0.051 sec
 * total energy  :   -93.7326002 Eh     change       -0.5705211E-04 Eh
   gradient norm :     0.0024123 Eh/α   predicted    -0.5724003E-04 (   0.33%)
   displ. norm   :     0.0852598 α      lambda       -0.8820424E-04
   maximum displ.:     0.0327095 α      in ANC's #7, #6, #12, ...

........................................................................
.............................. CYCLE   69 ..............................
........................................................................

 iter      E             dE          RMSdq      gap      omega  full diag
   1    -95.0160042 -0.950160E+02  0.311E-02    0.83       0.0  T
   2    -95.0160057 -0.151796E-05  0.186E-02    0.83       1.0  T
   3    -95.0160019  0.383708E-05  0.143E-02    0.84       1.0  T
   4    -95.0159965  0.536668E-05  0.117E-02    0.83       1.0  T
   5    -95.0160062 -0.969264E-05  0.413E-03    0.84       2.8  T
   6    -95.0160071 -0.886990E-06  0.122E-03    0.83       9.4  T
   7    -95.0160071 -0.144732E-07  0.454E-04    0.83      25.4  T
   8    -95.0160071 -0.332508E-08  0.226E-04    0.83      51.0  T
     SCC iter.                  ...        0 min,  0.095 sec
     gradient                   ...        0 min,  0.049 sec
 * total energy  :   -93.7326291 Eh     change       -0.2896625E-04 Eh
   gradient norm :     0.0039571 Eh/α   predicted    -0.4444833E-04 (  53.45%)
   displ. norm   :     0.1230022 α      lambda       -0.1147738E-03
   maximum displ.:     0.0483020 α      in ANC's #7, #12, #6, ...

........................................................................
.............................. CYCLE   70 ..............................
........................................................................

 iter      E             dE          RMSdq      gap      omega  full diag
   1    -95.0168911 -0.950169E+02  0.498E-02    0.83       0.0  T
   2    -95.0168969 -0.586008E-05  0.330E-02    0.83       1.0  T
   3    -95.0168996 -0.266547E-05  0.190E-02    0.83       1.0  T
   4    -95.0168999 -0.324924E-06  0.959E-03    0.83       1.2  T
   5    -95.0169000 -0.125557E-06  0.350E-03    0.83       3.3  T
   6    -95.0168992  0.880182E-06  0.382E-03    0.83       3.0  T
   7    -95.0169003 -0.113436E-05  0.956E-04    0.83      12.1  T
   8    -95.0169003 -0.243245E-07  0.461E-04    0.83      25.0  T
   9    -95.0169003 -0.851955E-09  0.162E-04    0.83      71.3  T
     SCC iter.                  ...        0 min,  0.097 sec
     gradient                   ...        0 min,  0.049 sec
 * total energy  :   -93.7326643 Eh     change       -0.3517414E-04 Eh
   gradient norm :     0.0052785 Eh/α   predicted    -0.5825605E-04 (  65.62%)
   displ. norm   :     0.0887615 α      lambda       -0.9988774E-04
   maximum displ.:     0.0392509 α      in ANC's #7, #12, #6, ...

........................................................................
.............................. CYCLE   71 ..............................
........................................................................

 iter      E             dE          RMSdq      gap      omega  full diag
   1    -95.0154717 -0.950155E+02  0.293E-02    0.83       0.0  T
   2    -95.0154711  0.652532E-06  0.178E-02    0.82       1.0  T
   3    -95.0154634  0.769256E-05  0.147E-02    0.83       1.0  T
   4    -95.0154588  0.453627E-05  0.145E-02    0.81       1.0  T
   5    -95.0154733 -0.144245E-04  0.262E-03    0.82       4.4  T
   6    -95.0154736 -0.328870E-06  0.816E-04    0.82      14.2  T
   7    -95.0154736 -0.630875E-08  0.252E-04    0.82      45.9  T
   8    -95.0154736  0.279741E-09  0.189E-04    0.82      61.0  T
     SCC iter.                  ...        0 min,  0.089 sec
     gradient                   ...        0 min,  0.058 sec
 * total energy  :   -93.7327314 Eh     change       -0.6710250E-04 Eh
   gradient norm :     0.0028610 Eh/α   predicted    -0.5033790E-04 ( -24.98%)
   displ. norm   :     0.1973057 α      lambda       -0.1152404E-03
   maximum displ.:     0.0831390 α      in ANC's #7, #12, #6, ...

........................................................................
.............................. CYCLE   72 ..............................
........................................................................

 iter      E             dE          RMSdq      gap      omega  full diag
   1    -95.0132170 -0.950132E+02  0.557E-02    0.82       0.0  T
   2    -95.0132149  0.212182E-05  0.336E-02    0.81       1.0  T
   3    -95.0131601  0.548221E-04  0.316E-02    0.83       1.0  T
   4    -95.0131828 -0.227183E-04  0.239E-02    0.80       1.0  T
   5    -95.0132205 -0.376867E-04  0.455E-03    0.82       2.5  T
   6    -95.0132211 -0.624951E-06  0.110E-03    0.81      10.5  T
   7    -95.0132211 -0.884764E-08  0.536E-04    0.81      21.6  T
   8    -95.0132211 -0.161371E-08  0.272E-04    0.81      42.4  T
   9    -95.0132211 -0.138840E-09  0.107E-04    0.81     108.1  T
     SCC iter.                  ...        0 min,  0.099 sec
     gradient                   ...        0 min,  0.059 sec
 * total energy  :   -93.7327952 Eh     change       -0.6380558E-04 Eh
   gradient norm :     0.0033793 Eh/α   predicted    -0.5986464E-04 (  -6.18%)
   displ. norm   :     0.2115366 α      lambda       -0.7412705E-04
   maximum displ.:     0.0915065 α      in ANC's #7, #12, #6, ...

........................................................................
.............................. CYCLE   73 ..............................
........................................................................

 iter      E             dE          RMSdq      gap      omega  full diag
   1    -95.0127047 -0.950127E+02  0.635E-02    0.81       0.0  T
   2    -95.0127087 -0.391344E-05  0.383E-02    0.81       1.0  T
   3    -95.0127055  0.317512E-05  0.239E-02    0.82       1.0  T
   4    -95.0126673  0.382096E-04  0.238E-02    0.80       1.0  T
   5    -95.0127105 -0.432029E-04  0.479E-03    0.81       2.4  T
   6    -95.0127117 -0.125186E-05  0.187E-03    0.81       6.2  T
   7    -95.0127117 -0.261359E-07  0.873E-04    0.81      13.2  T
   8    -95.0127118 -0.428766E-08  0.378E-04    0.81      30.6  T
   9    -95.0127118  0.913758E-10  0.138E-04    0.81      83.9  T
     SCC iter.                  ...        0 min,  0.087 sec
     gradient                   ...        0 min,  0.048 sec
 * total energy  :   -93.7328399 Eh     change       -0.4469225E-04 Eh
   gradient norm :     0.0036049 Eh/α   predicted    -0.3872388E-04 ( -13.35%)
   displ. norm   :     0.1845338 α      lambda       -0.6403338E-04
   maximum displ.:     0.0829528 α      in ANC's #7, #12, #6, ...

........................................................................
.............................. CYCLE   74 ..............................
........................................................................

 iter      E             dE          RMSdq      gap      omega  full diag
   1    -95.0139751 -0.950140E+02  0.472E-02    0.81       0.0  T
   2    -95.0139717  0.343114E-05  0.292E-02    0.80       1.0  T
   3    -95.0139254  0.463227E-04  0.290E-02    0.83       1.0  T
   4    -95.0139491 -0.236976E-04  0.218E-02    0.80       1.0  T
   5    -95.0139788 -0.297028E-04  0.246E-03    0.81       4.7  T
   6    -95.0139789 -0.131653E-06  0.115E-03    0.81      10.0  T
   7    -95.0139789 -0.575767E-09  0.474E-04    0.81      24.4  T
   8    -95.0139789 -0.307834E-08  0.297E-04    0.81      38.9  T
     SCC iter.                  ...        0 min,  0.075 sec
     gradient                   ...        0 min,  0.050 sec
 * total energy  :   -93.7328838 Eh     change       -0.4393243E-04 Eh
   gradient norm :     0.0020042 Eh/α   predicted    -0.3310800E-04 ( -24.64%)
   displ. norm   :     0.1978109 α      lambda       -0.6447600E-04
   maximum displ.:     0.0917016 α      in ANC's #12, #7, #6, ...

........................................................................
.............................. CYCLE   75 ..............................
........................................................................

 iter      E             dE          RMSdq      gap      omega  full diag
   1    -95.0163747 -0.950164E+02  0.479E-02    0.82       0.0  T
   2    -95.0163738  0.943341E-06  0.297E-02    0.81       1.0  T
   3    -95.0163572  0.165480E-04  0.235E-02    0.82       1.0  T
   4    -95.0163340  0.232675E-04  0.255E-02    0.80       1.0  T
   5    -95.0163793 -0.453264E-04  0.380E-03    0.81       3.0  T
   6    -95.0163799 -0.632044E-06  0.154E-03    0.81       7.5  T
   7    -95.0163799 -0.981642E-08  0.687E-04    0.81      16.8  T
   8    -95.0163799 -0.134197E-08  0.297E-04    0.81      38.8  T
   9    -95.0163799  0.999592E-10  0.122E-04    0.81      94.7  T
     SCC iter.                  ...        0 min,  0.095 sec
     gradient                   ...        0 min,  0.057 sec
 * total energy  :   -93.7329192 Eh     change       -0.3533418E-04 Eh
   gradient norm :     0.0024286 Eh/α   predicted    -0.3349993E-04 (  -5.19%)
   displ. norm   :     0.1762290 α      lambda       -0.4078614E-04
   maximum displ.:     0.0805377 α      in ANC's #12, #7, #6, ...

........................................................................
.............................. CYCLE   76 ..............................
........................................................................

 iter      E             dE          RMSdq      gap      omega  full diag
   1    -95.0165530 -0.950166E+02  0.390E-02    0.81       0.0  T
   2    -95.0165521  0.878227E-06  0.243E-02    0.80       1.0  T
   3    -95.0165350  0.171238E-04  0.213E-02    0.82       1.0  T
   4    -95.0165325  0.248469E-05  0.174E-02    0.80       1.0  T
   5    -95.0165544 -0.219226E-04  0.283E-03    0.81       4.1  T
   6    -95.0165547 -0.269169E-06  0.725E-04    0.81      15.9  T
   7    -95.0165547 -0.964320E-09  0.358E-04    0.81      32.3  T
   8    -95.0165547 -0.532509E-09  0.163E-04    0.81      70.6  T
     SCC iter.                  ...        0 min,  0.079 sec
     gradient                   ...        0 min,  0.047 sec
 * total energy  :   -93.7329486 Eh     change       -0.2940752E-04 Eh
   gradient norm :     0.0020801 Eh/α   predicted    -0.2103070E-04 ( -28.49%)
   displ. norm   :     0.2179520 α      lambda       -0.4620447E-04
   maximum displ.:     0.1024253 α      in ANC's #12, #7, #6, ...

........................................................................
.............................. CYCLE   77 ..............................
........................................................................

 iter      E             dE          RMSdq      gap      omega  full diag
   1    -95.0159651 -0.950160E+02  0.428E-02    0.80       0.0  T
   2    -95.0159653 -0.172039E-06  0.257E-02    0.80       1.0  T
   3    -95.0159544  0.109359E-04  0.183E-02    0.81       1.0  T
   4    -95.0159444  0.991806E-05  0.167E-02    0.79       1.0  T
   5    -95.0159665 -0.220301E-04  0.162E-03    0.80       7.1  T
   6    -95.0159665 -0.719417E-07  0.579E-04    0.80      19.9  T
   7    -95.0159666 -0.187414E-08  0.289E-04    0.80      39.9  T
   8    -95.0159666 -0.624837E-09  0.134E-04    0.80      86.1  T
     SCC iter.                  ...        0 min,  0.085 sec
     gradient                   ...        0 min,  0.049 sec
 * total energy  :   -93.7329839 Eh     change       -0.3535109E-04 Eh
   gradient norm :     0.0017978 Eh/α   predicted    -0.2420368E-04 ( -31.53%)
   displ. norm   :     0.4170033 α      lambda       -0.6103453E-04
   maximum displ.:     0.1881768 α      in ANC's #12, #7, #6, ...

........................................................................
.............................. CYCLE   78 ..............................
........................................................................

 iter      E             dE          RMSdq      gap      omega  full diag
   1    -95.0155180 -0.950155E+02  0.702E-02    0.80       0.0  T
   2    -95.0155199 -0.190429E-05  0.410E-02    0.80       1.0  T
   3    -95.0155184  0.150307E-05  0.215E-02    0.80       1.0  T
   4    -95.0155140  0.435150E-05  0.913E-03    0.79       1.3  T
   5    -95.0155201 -0.610566E-05  0.316E-03    0.80       3.7  T
   6    -95.0155207 -0.579042E-06  0.102E-03    0.80      11.3  T
   7    -95.0155207 -0.105774E-08  0.391E-04    0.80      29.5  T
   8    -95.0155207 -0.100253E-08  0.186E-04    0.80      62.0  T
     SCC iter.                  ...        0 min,  0.097 sec
     gradient                   ...        0 min,  0.058 sec
 * total energy  :   -93.7330308 Eh     change       -0.4687025E-04 Eh
   gradient norm :     0.0024812 Eh/α   predicted    -0.3288107E-04 ( -29.85%)
   displ. norm   :     0.1017904 α      lambda       -0.3051820E-04
   maximum displ.:     0.0394512 α      in ANC's #12, #7, #13, ...

........................................................................
.............................. CYCLE   79 ..............................
........................................................................

 iter      E             dE          RMSdq      gap      omega  full diag
   1    -95.0154060 -0.950154E+02  0.179E-02    0.80       0.0  T
   2    -95.0154056  0.359158E-06  0.129E-02    0.80       1.0  T
   3    -95.0154051  0.503883E-06  0.926E-03    0.79       1.2  T
   4    -95.0154021  0.302759E-05  0.820E-03    0.80       1.4  T
   5    -95.0154070 -0.492809E-05  0.173E-03    0.80       6.7  T
   6    -95.0154072 -0.140212E-06  0.461E-04    0.80      25.1  T
   7    -95.0154072  0.594085E-09  0.242E-04    0.80      47.8  T
     SCC iter.                  ...        0 min,  0.081 sec
     gradient                   ...        0 min,  0.054 sec
 * total energy  :   -93.7330508 Eh     change       -0.1996030E-04 Eh
   gradient norm :     0.0022236 Eh/α   predicted    -0.1541963E-04 ( -22.75%)
   displ. norm   :     0.1033849 α      lambda       -0.3165724E-04
   maximum displ.:     0.0340630 α      in ANC's #7, #3, #2, ...

........................................................................
.............................. CYCLE   80 ..............................
........................................................................

 iter      E             dE          RMSdq      gap      omega  full diag
   1    -95.0158419 -0.950158E+02  0.179E-02    0.80       0.0  T
   2    -95.0158413  0.614840E-06  0.135E-02    0.81       1.0  T
   3    -95.0158409  0.434745E-06  0.925E-03    0.80       1.2  T
   4    -95.0158377  0.316632E-05  0.910E-03    0.81       1.3  T
   5    -95.0158429 -0.518715E-05  0.230E-03    0.80       5.0  T
   6    -95.0158433 -0.368800E-06  0.442E-04    0.80      26.1  T
   7    -95.0158433  0.195897E-09  0.263E-04    0.80      44.0  T
     SCC iter.                  ...        0 min,  0.077 sec
     gradient                   ...        0 min,  0.065 sec
 * total energy  :   -93.7330683 Eh     change       -0.1751536E-04 Eh
   gradient norm :     0.0014713 Eh/α   predicted    -0.1599909E-04 (  -8.66%)
   displ. norm   :     0.1471068 α      lambda       -0.2222286E-04
   maximum displ.:     0.0501578 α      in ANC's #2, #7, #13, ...

........................................................................
.............................. CYCLE   81 ..............................
........................................................................

 iter      E             dE          RMSdq      gap      omega  full diag
   1    -95.0161690 -0.950162E+02  0.253E-02    0.80       0.0  T
   2    -95.0161686  0.462247E-06  0.154E-02    0.81       1.0  T
   3    -95.0161644  0.417852E-05  0.120E-02    0.80       1.0  T
   4    -95.0161588  0.557754E-05  0.130E-02    0.81       1.0  T
   5    -95.0161700 -0.112226E-04  0.297E-03    0.80       3.9  T
   6    -95.0161704 -0.334862E-06  0.515E-04    0.80      22.4  T
   7    -95.0161704 -0.659327E-09  0.268E-04    0.80      43.2  T
   8    -95.0161704 -0.393570E-09  0.147E-04    0.80      78.5  T
     SCC iter.                  ...        0 min,  0.119 sec
     gradient                   ...        0 min,  0.091 sec
 * total energy  :   -93.7330797 Eh     change       -0.1144476E-04 Eh
   gradient norm :     0.0019670 Eh/α   predicted    -0.1121990E-04 (  -1.96%)
   displ. norm   :     0.0755996 α      lambda       -0.1491268E-04
   maximum displ.:     0.0347429 α      in ANC's #7, #13, #2, ...

........................................................................
.............................. CYCLE   82 ..............................
........................................................................

 iter      E             dE          RMSdq      gap      omega  full diag
   1    -95.0156740 -0.950157E+02  0.149E-02    0.80       0.0  T
   2    -95.0156742 -0.190145E-06  0.892E-03    0.80       1.3  T
   3    -95.0156738  0.396312E-06  0.613E-03    0.80       1.9  T
   4    -95.0156736  0.155512E-06  0.314E-03    0.80       3.7  T
   5    -95.0156742 -0.541784E-06  0.139E-03    0.80       8.3  T
   6    -95.0156743 -0.136970E-06  0.432E-04    0.80      26.7  T
   7    -95.0156743 -0.625143E-08  0.127E-04    0.80      90.8  T
     SCC iter.                  ...        0 min,  0.086 sec
     gradient                   ...        0 min,  0.057 sec
 * total energy  :   -93.7330934 Eh     change       -0.1364948E-04 Eh
   gradient norm :     0.0015322 Eh/α   predicted    -0.7477157E-05 ( -45.22%)
   displ. norm   :     0.0626762 α      lambda       -0.1234498E-04
   maximum displ.:     0.0210567 α      in ANC's #2, #5, #6, ...

........................................................................
.............................. CYCLE   83 ..............................
........................................................................

 iter      E             dE          RMSdq      gap      omega  full diag
   1    -95.0166871 -0.950167E+02  0.114E-02    0.80       0.0  T
   2    -95.0166869  0.265613E-06  0.747E-03    0.80       1.5  T
   3    -95.0166846  0.225938E-05  0.748E-03    0.80       1.5  T
   4    -95.0166861 -0.147705E-05  0.505E-03    0.80       2.3  T
   5    -95.0166877 -0.156105E-05  0.109E-03    0.80      10.6  T
   6    -95.0166877 -0.333906E-07  0.455E-04    0.80      25.4  T
   7    -95.0166877 -0.491681E-09  0.158E-04    0.80      73.2  T
     SCC iter.                  ...        0 min,  0.079 sec
     gradient                   ...        0 min,  0.056 sec
 * total energy  :   -93.7331015 Eh     change       -0.8130107E-05 Eh
   gradient norm :     0.0012852 Eh/α   predicted    -0.6185111E-05 ( -23.92%)
   displ. norm   :     0.1457549 α      lambda       -0.1216962E-04
   maximum displ.:     0.0661474 α      in ANC's #7, #13, #2, ...

........................................................................
.............................. CYCLE   84 ..............................
........................................................................

 iter      E             dE          RMSdq      gap      omega  full diag
   1    -95.0147899 -0.950148E+02  0.298E-02    0.79       0.0  T
   2    -95.0147888  0.117572E-05  0.183E-02    0.79       1.0  T
   3    -95.0147720  0.167326E-04  0.177E-02    0.80       1.0  T
   4    -95.0147787 -0.667690E-05  0.141E-02    0.79       1.0  T
   5    -95.0147915 -0.127603E-04  0.134E-03    0.79       8.6  T
   6    -95.0147915 -0.426250E-07  0.683E-04    0.79      16.9  T
   7    -95.0147915 -0.248828E-08  0.301E-04    0.79      38.4  T
   8    -95.0147915 -0.415881E-09  0.160E-04    0.79      72.2  T
     SCC iter.                  ...        0 min,  0.104 sec
     gradient                   ...        0 min,  0.059 sec
 * total energy  :   -93.7331076 Eh     change       -0.6102254E-05 Eh
   gradient norm :     0.0021267 Eh/α   predicted    -0.6144901E-05 (   0.70%)
   displ. norm   :     0.0609447 α      lambda       -0.1216886E-04
   maximum displ.:     0.0251914 α      in ANC's #2, #13, #3, ...

........................................................................
.............................. CYCLE   85 ..............................
........................................................................

 iter      E             dE          RMSdq      gap      omega  full diag
   1    -95.0155974 -0.950156E+02  0.886E-03    0.80       0.0  T
   2    -95.0155974  0.559668E-07  0.591E-03    0.80       2.0  T
   3    -95.0155968  0.583122E-06  0.487E-03    0.80       2.4  T
   4    -95.0155963  0.506330E-06  0.431E-03    0.80       2.7  T
   5    -95.0155977 -0.137353E-05  0.756E-04    0.80      15.3  T
   6    -95.0155977 -0.254066E-07  0.309E-04    0.80      37.4  T
   7    -95.0155977 -0.475254E-09  0.122E-04    0.80      94.9  T
     SCC iter.                  ...        0 min,  0.085 sec
     gradient                   ...        0 min,  0.063 sec
 * total energy  :   -93.7331156 Eh     change       -0.8024364E-05 Eh
   gradient norm :     0.0011109 Eh/α   predicted    -0.6110691E-05 ( -23.85%)
   displ. norm   :     0.1005610 α      lambda       -0.8533924E-05
   maximum displ.:     0.0441649 α      in ANC's #2, #13, #3, ...

........................................................................
.............................. CYCLE   86 ..............................
........................................................................

 iter      E             dE          RMSdq      gap      omega  full diag
   1    -95.0164886 -0.950165E+02  0.117E-02    0.80       0.0  T
   2    -95.0164884  0.156982E-06  0.771E-03    0.80       1.5  T
   3    -95.0164874  0.101471E-05  0.625E-03    0.80       1.8  T
   4    -95.0164862  0.115649E-05  0.601E-03    0.80       1.9  T
   5    -95.0164889 -0.261161E-05  0.105E-03    0.80      11.0  T
   6    -95.0164889 -0.416416E-07  0.320E-04    0.80      36.1  T
   7    -95.0164889  0.358028E-09  0.192E-04    0.80      60.2  T
     SCC iter.                  ...        0 min,  0.087 sec
     gradient                   ...        0 min,  0.057 sec
 * total energy  :   -93.7331234 Eh     change       -0.7807212E-05 Eh
   gradient norm :     0.0010302 Eh/α   predicted    -0.4288151E-05 ( -45.07%)
   displ. norm   :     0.1116723 α      lambda       -0.6118166E-05
   maximum displ.:     0.0531676 α      in ANC's #2, #13, #1, ...

........................................................................
.............................. CYCLE   87 ..............................
........................................................................

 iter      E             dE          RMSdq      gap      omega  full diag
   1    -95.0165292 -0.950165E+02  0.129E-02    0.80       0.0  T
   2    -95.0165291  0.959629E-07  0.792E-03    0.80       1.5  T
   3    -95.0165271  0.200397E-05  0.680E-03    0.80       1.7  T
   4    -95.0165264  0.691998E-06  0.649E-03    0.79       1.8  T
   5    -95.0165294 -0.303693E-05  0.623E-04    0.80      18.5  T
   6    -95.0165295 -0.664319E-08  0.302E-04    0.80      38.3  T
   7    -95.0165295 -0.394564E-09  0.195E-04    0.80      59.1  T
     SCC iter.                  ...        0 min,  0.089 sec
     gradient                   ...        0 min,  0.058 sec
 * total energy  :   -93.7331307 Eh     change       -0.7308268E-05 Eh
   gradient norm :     0.0007773 Eh/α   predicted    -0.3077722E-05 ( -57.89%)
   displ. norm   :     0.1934178 α      lambda       -0.9628992E-05
   maximum displ.:     0.0946208 α      in ANC's #2, #13, #1, ...

........................................................................
.............................. CYCLE   88 ..............................
........................................................................

 iter      E             dE          RMSdq      gap      omega  full diag
   1    -95.0159554 -0.950160E+02  0.235E-02    0.79       0.0  T
   2    -95.0159548  0.553705E-06  0.146E-02    0.79       1.0  T
   3    -95.0159488  0.602716E-05  0.124E-02    0.80       1.0  T
   4    -95.0159453  0.348544E-05  0.126E-02    0.78       1.0  T
   5    -95.0159564 -0.110821E-04  0.134E-03    0.79       8.6  T
   6    -95.0159564 -0.445368E-07  0.592E-04    0.79      19.5  T
   7    -95.0159564 -0.344797E-08  0.276E-04    0.79      41.9  T
   8    -95.0159564 -0.325983E-09  0.142E-04    0.79      81.4  T
     SCC iter.                  ...        0 min,  0.087 sec
     gradient                   ...        0 min,  0.060 sec
 * total energy  :   -93.7331404 Eh     change       -0.9661355E-05 Eh
   gradient norm :     0.0007736 Eh/α   predicted    -0.4899128E-05 ( -49.29%)
   displ. norm   :     0.1425599 α      lambda       -0.6285041E-05
   maximum displ.:     0.0728390 α      in ANC's #2, #13, #1, ...

........................................................................
.............................. CYCLE   89 ..............................
........................................................................

 iter      E             dE          RMSdq      gap      omega  full diag
   1    -95.0159459 -0.950159E+02  0.149E-02    0.79       0.0  T
   2    -95.0159459 -0.435794E-07  0.936E-03    0.79       1.2  T
   3    -95.0159451  0.772330E-06  0.654E-03    0.79       1.8  T
   4    -95.0159413  0.379218E-05  0.807E-03    0.79       1.4  T
   5    -95.0159463 -0.491436E-05  0.117E-03    0.79       9.9  T
   6    -95.0159463 -0.484589E-07  0.412E-04    0.79      28.0  T
   7    -95.0159463 -0.681098E-09  0.190E-04    0.79      60.7  T
     SCC iter.                  ...        0 min,  0.082 sec
     gradient                   ...        0 min,  0.056 sec
 * total energy  :   -93.7331468 Eh     change       -0.6370809E-05 Eh
   gradient norm :     0.0006590 Eh/α   predicted    -0.3171832E-05 ( -50.21%)
   displ. norm   :     0.1231787 α      lambda       -0.5393044E-05
   maximum displ.:     0.0638079 α      in ANC's #2, #13, #1, ...

........................................................................
.............................. CYCLE   90 ..............................
........................................................................

 iter      E             dE          RMSdq      gap      omega  full diag
   1    -95.0161021 -0.950161E+02  0.117E-02    0.79       0.0  T
   2    -95.0161020  0.157497E-06  0.730E-03    0.79       1.6  T
   3    -95.0161005  0.150682E-05  0.623E-03    0.79       1.9  T
   4    -95.0160996  0.813895E-06  0.625E-03    0.79       1.8  T
   5    -95.0161023 -0.271180E-05  0.693E-04    0.79      16.7  T
   6    -95.0161024 -0.140531E-07  0.278E-04    0.79      41.6  T
   7    -95.0161024 -0.514177E-09  0.130E-04    0.79      88.7  T
     SCC iter.                  ...        0 min,  0.090 sec
     gradient                   ...        0 min,  0.062 sec
 * total energy  :   -93.7331529 Eh     change       -0.6134848E-05 Eh
   gradient norm :     0.0006579 Eh/α   predicted    -0.2716857E-05 ( -55.71%)
   displ. norm   :     0.1565605 α      lambda       -0.7151264E-05
   maximum displ.:     0.0837004 α      in ANC's #2, #13, #1, ...

........................................................................
.............................. CYCLE   91 ..............................
........................................................................

 iter      E             dE          RMSdq      gap      omega  full diag
   1    -95.0161390 -0.950161E+02  0.146E-02    0.79       0.0  T
   2    -95.0161391 -0.125435E-06  0.896E-03    0.79       1.3  T
   3    -95.0161391 -0.114484E-08  0.576E-03    0.79       2.0  T
   4    -95.0161391  0.553752E-08  0.143E-03    0.79       8.0  T
   5    -95.0161392 -0.168273E-07  0.877E-04    0.79      13.2  T
   6    -95.0161392 -0.375391E-07  0.535E-04    0.79      21.6  T
   7    -95.0161392 -0.164849E-07  0.129E-04    0.79      89.3  T
   8    -95.0161392 -0.286917E-10  0.763E-05    0.79     151.3  T
     SCC iter.                  ...        0 min,  0.100 sec
     gradient                   ...        0 min,  0.069 sec
 * total energy  :   -93.7331606 Eh     change       -0.7637153E-05 Eh
   gradient norm :     0.0005338 Eh/α   predicted    -0.3617498E-05 ( -52.63%)
   displ. norm   :     0.1556389 α      lambda       -0.6911658E-05
   maximum displ.:     0.0857580 α      in ANC's #2, #13, #1, ...

........................................................................
.............................. CYCLE   92 ..............................
........................................................................

 iter      E             dE          RMSdq      gap      omega  full diag
   1    -95.0159798 -0.950160E+02  0.148E-02    0.79       0.0  T
   2    -95.0159799 -0.125910E-06  0.872E-03    0.79       1.3  T
   3    -95.0159799  0.843059E-08  0.490E-03    0.79       2.4  T
   4    -95.0159800 -0.518748E-07  0.512E-04    0.79      22.6  T
   5    -95.0159800  0.756111E-08  0.461E-04    0.79      25.0  T
   6    -95.0159800 -0.502608E-08  0.336E-04    0.79      34.4  T
     SCC iter.                  ...        0 min,  0.071 sec
     gradient                   ...        0 min,  0.054 sec
 * total energy  :   -93.7331678 Eh     change       -0.7220883E-05 Eh
   gradient norm :     0.0009387 Eh/α   predicted    -0.3496681E-05 ( -51.58%)
   displ. norm   :     0.1480395 α      lambda       -0.8347159E-05
   maximum displ.:     0.0820533 α      in ANC's #2, #13, #1, ...
 * RMSD in coord.:     0.3326309 α      energy gain  -0.7059324E-03 Eh

generating ANC from exact Hessian ...
Using Lindh-Hessian (1995)
 Shifting diagonal of input Hessian by    1.0113127772380036E-002
 Lowest  eigenvalues of input Hessian
    0.010000    0.000000    0.000000    0.000000    0.000000    0.000000
    0.000000    0.010201    0.010236    0.010272    0.010409    0.010514
    0.010701    0.010792    0.010879    0.010929    0.010987    0.011014
 Highest eigenvalues
    1.627593    1.892252    1.983469    2.020164    2.242261    2.329497


........................................................................
.............................. CYCLE   93 ..............................
........................................................................

 iter      E             dE          RMSdq      gap      omega  full diag
   1    -95.0164403 -0.950164E+02  0.168E-02    0.79       0.0  T
   2    -95.0164405 -0.240836E-06  0.100E-02    0.79       1.1  T
   3    -95.0164404  0.112823E-06  0.627E-03    0.79       1.8  T
   4    -95.0164393  0.106062E-05  0.419E-03    0.79       2.8  T
   5    -95.0164406 -0.129024E-05  0.906E-04    0.79      12.8  T
   6    -95.0164407 -0.413106E-07  0.396E-04    0.79      29.2  T
   7    -95.0164407 -0.258652E-08  0.187E-04    0.79      61.6  T
     SCC iter.                  ...        0 min,  0.081 sec
     gradient                   ...        0 min,  0.061 sec
 * total energy  :   -93.7331772 Eh     change       -0.9424854E-05 Eh
   gradient norm :     0.0007894 Eh/α   predicted     0.0000000E+00 (-100.00%)
   displ. norm   :     0.0449412 α      lambda       -0.6333589E-06
   maximum displ.:     0.0344622 α      in ANC's #2, #3, #10, ...

........................................................................
.............................. CYCLE   94 ..............................
........................................................................

 iter      E             dE          RMSdq      gap      omega  full diag
   1    -95.0162411 -0.950162E+02  0.619E-03    0.79       0.0  T
   2    -95.0162411  0.231721E-07  0.364E-03    0.79       3.2  T
   3    -95.0162406  0.473796E-06  0.341E-03    0.79       3.4  T
   4    -95.0162407 -0.112224E-06  0.280E-03    0.79       4.1  T
   5    -95.0162412 -0.480283E-06  0.572E-04    0.79      20.2  T
   6    -95.0162412 -0.142098E-07  0.244E-04    0.79      47.4  T
   7    -95.0162412 -0.693603E-09  0.749E-05    0.79     154.1  T
     SCC iter.                  ...        0 min,  0.092 sec
     gradient                   ...        0 min,  0.055 sec
 * total energy  :   -93.7331906 Eh     change       -0.1342898E-04 Eh
   gradient norm :     0.0005438 Eh/α   predicted    -0.5434750E-05 ( -59.53%)
   displ. norm   :     0.1072466 α      lambda       -0.2164331E-04
   maximum displ.:     0.0710988 α      in ANC's #2, #3, #10, ...

........................................................................
.............................. CYCLE   95 ..............................
........................................................................

 iter      E             dE          RMSdq      gap      omega  full diag
   1    -95.0159210 -0.950159E+02  0.150E-02    0.79       0.0  T
   2    -95.0159207  0.315852E-06  0.102E-02    0.79       1.1  T
   3    -95.0159192  0.149686E-05  0.811E-03    0.78       1.4  T
   4    -95.0159172  0.197590E-05  0.771E-03    0.79       1.5  T
   5    -95.0159215 -0.431064E-05  0.161E-03    0.79       7.2  T
   6    -95.0159216 -0.783880E-07  0.407E-04    0.79      28.4  T
   7    -95.0159216 -0.385398E-09  0.191E-04    0.79      60.5  T
     SCC iter.                  ...        0 min,  0.103 sec
     gradient                   ...        0 min,  0.060 sec
 * total energy  :   -93.7332141 Eh     change       -0.2351765E-04 Eh
   gradient norm :     0.0013103 Eh/α   predicted    -0.1087708E-04 ( -53.75%)
   displ. norm   :     0.1803985 α      lambda       -0.3270216E-04
   maximum displ.:     0.1177285 α      in ANC's #2, #3, #10, ...

........................................................................
.............................. CYCLE   96 ..............................
........................................................................

 iter      E             dE          RMSdq      gap      omega  full diag
   1    -95.0156645 -0.950157E+02  0.221E-02    0.79       0.0  T
   2    -95.0156656 -0.112336E-05  0.140E-02    0.79       1.0  T
   3    -95.0156659 -0.297640E-06  0.851E-03    0.79       1.4  T
   4    -95.0156656  0.328048E-06  0.357E-03    0.79       3.2  T
   5    -95.0156652  0.378468E-06  0.342E-03    0.79       3.4  T
   6    -95.0156660 -0.816330E-06  0.143E-03    0.79       8.1  T
   7    -95.0156661 -0.855023E-07  0.407E-04    0.79      28.4  T
   8    -95.0156661 -0.379217E-09  0.202E-04    0.79      57.2  T
     SCC iter.                  ...        0 min,  0.110 sec
     gradient                   ...        0 min,  0.062 sec
 * total energy  :   -93.7332304 Eh     change       -0.1625602E-04 Eh
   gradient norm :     0.0026633 Eh/α   predicted    -0.1658916E-04 (   2.05%)
   displ. norm   :     0.0999537 α      lambda       -0.4203731E-04
   maximum displ.:     0.0660778 α      in ANC's #2, #3, #10, ...

........................................................................
.............................. CYCLE   97 ..............................
........................................................................

 iter      E             dE          RMSdq      gap      omega  full diag
   1    -95.0158385 -0.950158E+02  0.178E-02    0.79       0.0  T
   2    -95.0158391 -0.523204E-06  0.111E-02    0.79       1.0  T
   3    -95.0158381  0.909792E-06  0.824E-03    0.79       1.4  T
   4    -95.0158357  0.245430E-05  0.738E-03    0.78       1.6  T
   5    -95.0158391 -0.344582E-05  0.274E-03    0.79       4.2  T
   6    -95.0158395 -0.374237E-06  0.101E-03    0.79      11.4  T
   7    -95.0158395 -0.127638E-07  0.351E-04    0.79      32.9  T
   8    -95.0158395 -0.196661E-08  0.187E-04    0.79      61.8  T
     SCC iter.                  ...        0 min,  0.129 sec
     gradient                   ...        0 min,  0.076 sec
 * total energy  :   -93.7332471 Eh     change       -0.1673096E-04 Eh
   gradient norm :     0.0018795 Eh/α   predicted    -0.2122967E-04 (  26.89%)
   displ. norm   :     0.1145592 α      lambda       -0.4032964E-04
   maximum displ.:     0.0717936 α      in ANC's #2, #3, #12, ...

........................................................................
.............................. CYCLE   98 ..............................
........................................................................

 iter      E             dE          RMSdq      gap      omega  full diag
   1    -95.0163272 -0.950163E+02  0.237E-02    0.79       0.0  T
   2    -95.0163228  0.441719E-05  0.161E-02    0.80       1.0  T
   3    -95.0162968  0.259820E-04  0.209E-02    0.79       1.0  T
   4    -95.0163278 -0.309654E-04  0.722E-03    0.80       1.6  T
   5    -95.0163290 -0.119325E-05  0.164E-03    0.80       7.0  T
   6    -95.0163290 -0.380205E-07  0.666E-04    0.80      17.3  T
   7    -95.0163290 -0.388539E-09  0.277E-04    0.80      41.6  T
   8    -95.0163290 -0.163620E-08  0.119E-04    0.80      96.8  T
     SCC iter.                  ...        0 min,  0.097 sec
     gradient                   ...        0 min,  0.070 sec
 * total energy  :   -93.7332702 Eh     change       -0.2307877E-04 Eh
   gradient norm :     0.0017571 Eh/α   predicted    -0.2028414E-04 ( -12.11%)
   displ. norm   :     0.1014294 α      lambda       -0.2682011E-04
   maximum displ.:     0.0650992 α      in ANC's #2, #12, #3, ...

........................................................................
.............................. CYCLE   99 ..............................
........................................................................

 iter      E             dE          RMSdq      gap      omega  full diag
   1    -95.0162397 -0.950162E+02  0.173E-02    0.80       0.0  T
   2    -95.0162403 -0.570101E-06  0.999E-03    0.80       1.2  T
   3    -95.0162401  0.239396E-06  0.708E-03    0.80       1.6  T
   4    -95.0162393  0.783833E-06  0.578E-03    0.79       2.0  T
   5    -95.0162401 -0.801443E-06  0.336E-03    0.80       3.4  T
   6    -95.0162409 -0.801225E-06  0.795E-04    0.80      14.5  T
   7    -95.0162409 -0.221738E-07  0.267E-04    0.80      43.2  T
   8    -95.0162409 -0.422617E-09  0.118E-04    0.80      98.1  T
     SCC iter.                  ...        0 min,  0.088 sec
     gradient                   ...        0 min,  0.057 sec
 * total energy  :   -93.7332946 Eh     change       -0.2437881E-04 Eh
   gradient norm :     0.0014234 Eh/α   predicted    -0.1347557E-04 ( -44.72%)
   displ. norm   :     0.1984325 α      lambda       -0.4478503E-04
   maximum displ.:     0.1266975 α      in ANC's #2, #12, #3, ...

........................................................................
.............................. CYCLE  100 ..............................
........................................................................

 iter      E             dE          RMSdq      gap      omega  full diag
   1    -95.0157046 -0.950157E+02  0.271E-02    0.79       0.0  T
   2    -95.0157029  0.162239E-05  0.178E-02    0.79       1.0  T
   3    -95.0156984  0.452067E-05  0.136E-02    0.80       1.0  T
   4    -95.0156910  0.741206E-05  0.144E-02    0.78       1.0  T
   5    -95.0157067 -0.156727E-04  0.213E-03    0.79       5.4  T
   6    -95.0157067 -0.117995E-07  0.851E-04    0.79      13.6  T
   7    -95.0157067 -0.252915E-08  0.289E-04    0.79      40.0  T
   8    -95.0157067  0.172520E-10  0.141E-04    0.79      81.7  T
     SCC iter.                  ...        0 min,  0.089 sec
     gradient                   ...        0 min,  0.053 sec
 * total energy  :   -93.7333290 Eh     change       -0.3441838E-04 Eh
   gradient norm :     0.0026343 Eh/α   predicted    -0.2278825E-04 ( -33.79%)
   displ. norm   :     0.1481883 α      lambda       -0.4116305E-04
   maximum displ.:     0.0951842 α      in ANC's #2, #12, #3, ...

........................................................................
.............................. CYCLE  101 ..............................
........................................................................

 iter      E             dE          RMSdq      gap      omega  full diag
   1    -95.0156636 -0.950157E+02  0.172E-02    0.79       0.0  T
   2    -95.0156641 -0.449349E-06  0.106E-02    0.79       1.1  T
   3    -95.0156639  0.122631E-06  0.807E-03    0.79       1.4  T
   4    -95.0156638  0.187709E-06  0.379E-03    0.79       3.0  T
   5    -95.0156640 -0.200071E-06  0.264E-03    0.79       4.4  T
   6    -95.0156645 -0.501529E-06  0.545E-04    0.79      21.2  T
   7    -95.0156645 -0.826348E-08  0.233E-04    0.79      49.6  T
   8    -95.0156645 -0.167515E-08  0.949E-05    0.79     121.7  T
     SCC iter.                  ...        0 min,  0.096 sec
     gradient                   ...        0 min,  0.055 sec
 * total energy  :   -93.7333610 Eh     change       -0.3201165E-04 Eh
   gradient norm :     0.0020555 Eh/α   predicted    -0.2103538E-04 ( -34.29%)
   displ. norm   :     0.2743821 α      lambda       -0.6473340E-04
   maximum displ.:     0.1746042 α      in ANC's #2, #12, #3, ...

........................................................................
.............................. CYCLE  102 ..............................
........................................................................

 iter      E             dE          RMSdq      gap      omega  full diag
   1    -95.0156892 -0.950157E+02  0.265E-02    0.80       0.0  T
   2    -95.0156897 -0.525764E-06  0.158E-02    0.79       1.0  T
   3    -95.0156896  0.453221E-07  0.101E-02    0.80       1.1  T
   4    -95.0156899 -0.272871E-06  0.278E-03    0.80       4.1  T
   5    -95.0156899 -0.282604E-07  0.865E-04    0.80      13.4  T
   6    -95.0156899  0.561374E-07  0.949E-04    0.79      12.2  T
   7    -95.0156900 -0.650967E-07  0.397E-04    0.80      29.1  T
   8    -95.0156900 -0.793042E-08  0.118E-04    0.80      97.6  T
     SCC iter.                  ...        0 min,  0.094 sec
     gradient                   ...        0 min,  0.052 sec
 * total energy  :   -93.7334116 Eh     change       -0.5062067E-04 Eh
   gradient norm :     0.0017234 Eh/α   predicted    -0.3480662E-04 ( -31.24%)
   displ. norm   :     0.5274580 α      lambda       -0.6883594E-04
   maximum displ.:     0.3361983 α      in ANC's #2, #12, #7, ...

........................................................................
.............................. CYCLE  103 ..............................
........................................................................

 iter      E             dE          RMSdq      gap      omega  full diag
   1    -95.0151877 -0.950152E+02  0.510E-02    0.80       0.0  T
   2    -95.0151891 -0.139427E-05  0.303E-02    0.80       1.0  T
   3    -95.0151781  0.110435E-04  0.218E-02    0.80       1.0  T
   4    -95.0151653  0.127431E-04  0.182E-02    0.82       1.0  T
   5    -95.0151906 -0.252629E-04  0.422E-03    0.80       2.7  T
   6    -95.0151912 -0.590831E-06  0.172E-03    0.81       6.7  T
   7    -95.0151912 -0.771283E-08  0.613E-04    0.81      18.8  T
   8    -95.0151912 -0.827880E-08  0.262E-04    0.81      44.1  T
   9    -95.0151912 -0.987995E-09  0.797E-05    0.80     144.9  T
     SCC iter.                  ...        0 min,  0.105 sec
     gradient                   ...        0 min,  0.056 sec
 * total energy  :   -93.7334880 Eh     change       -0.7634368E-04 Eh
   gradient norm :     0.0036896 Eh/α   predicted    -0.3867666E-04 ( -49.34%)
   displ. norm   :     0.3409851 α      lambda       -0.7357643E-04
   maximum displ.:     0.2189540 α      in ANC's #2, #12, #3, ...

........................................................................
.............................. CYCLE  104 ..............................
........................................................................

 iter      E             dE          RMSdq      gap      omega  full diag
   1    -95.0149858 -0.950150E+02  0.316E-02    0.80       0.0  T
   2    -95.0149851  0.784767E-06  0.189E-02    0.80       1.0  T
   3    -95.0149651  0.199327E-04  0.190E-02    0.82       1.0  T
   4    -95.0149775 -0.123274E-04  0.119E-02    0.80       1.0  T
   5    -95.0149868 -0.938960E-05  0.169E-03    0.81       6.8  T
   6    -95.0149869 -0.948981E-07  0.921E-04    0.80      12.5  T
   7    -95.0149869 -0.528939E-08  0.276E-04    0.80      41.9  T
   8    -95.0149869  0.182467E-10  0.127E-04    0.80      90.7  T
     SCC iter.                  ...        0 min,  0.102 sec
     gradient                   ...        0 min,  0.059 sec
 * total energy  :   -93.7335534 Eh     change       -0.6542476E-04 Eh
   gradient norm :     0.0037225 Eh/α   predicted    -0.4106980E-04 ( -37.23%)
   displ. norm   :     0.5577424 α      lambda       -0.1484414E-03
   maximum displ.:     0.3593252 α      in ANC's #2, #12, #3, ...

........................................................................
.............................. CYCLE  105 ..............................
........................................................................

 iter      E             dE          RMSdq      gap      omega  full diag
   1    -95.0148959 -0.950149E+02  0.554E-02    0.80       0.0  T
   2    -95.0148966 -0.699365E-06  0.331E-02    0.79       1.0  T
   3    -95.0148814  0.151221E-04  0.243E-02    0.81       1.0  T
   4    -95.0148484  0.329832E-04  0.268E-02    0.78       1.0  T
   5    -95.0148998 -0.513726E-04  0.428E-03    0.80       2.7  T
   6    -95.0149006 -0.772603E-06  0.164E-03    0.80       7.0  T
   7    -95.0149006 -0.117888E-07  0.691E-04    0.80      16.7  T
   8    -95.0149006 -0.130591E-08  0.275E-04    0.80      42.0  T
   9    -95.0149006  0.392191E-09  0.135E-04    0.80      85.4  T
     SCC iter.                  ...        0 min,  0.103 sec
     gradient                   ...        0 min,  0.059 sec
 * total energy  :   -93.7336838 Eh     change       -0.1304245E-03 Eh
   gradient norm :     0.0031233 Eh/α   predicted    -0.9731472E-04 ( -25.39%)
   displ. norm   :     0.6972013 α      lambda       -0.2020604E-03
   maximum displ.:     0.4473307 α      in ANC's #2, #12, #7, ...

........................................................................
.............................. CYCLE  106 ..............................
........................................................................

 iter      E             dE          RMSdq      gap      omega  full diag
   1    -95.0140236 -0.950140E+02  0.739E-02    0.79       0.0  T
   2    -95.0140214  0.220518E-05  0.444E-02    0.78       1.0  T
   3    -95.0139679  0.534920E-04  0.367E-02    0.81       1.0  T
   4    -95.0139341  0.337379E-04  0.375E-02    0.77       1.0  T
   5    -95.0140319 -0.977696E-04  0.499E-03    0.79       2.3  T
   6    -95.0140327 -0.807509E-06  0.220E-03    0.79       5.2  T
   7    -95.0140327 -0.258252E-07  0.950E-04    0.79      12.1  T
   8    -95.0140327 -0.396514E-08  0.407E-04    0.79      28.3  T
   9    -95.0140327  0.802459E-09  0.198E-04    0.79      58.4  T
     SCC iter.                  ...        0 min,  0.106 sec
     gradient                   ...        0 min,  0.053 sec
 * total energy  :   -93.7338514 Eh     change       -0.1675775E-03 Eh
   gradient norm :     0.0047343 Eh/α   predicted    -0.1501421E-03 ( -10.40%)
   displ. norm   :     0.5587900 α      lambda       -0.2290552E-03
   maximum displ.:     0.3482855 α      in ANC's #2, #12, #8, ...

........................................................................
.............................. CYCLE  107 ..............................
........................................................................

 iter      E             dE          RMSdq      gap      omega  full diag
   1    -95.0169243 -0.950169E+02  0.695E-02    0.77       0.0  T
   2    -95.0169186  0.568063E-05  0.420E-02    0.76       1.0  T
   3    -95.0168501  0.684796E-04  0.376E-02    0.79       1.0  T
   4    -95.0168553 -0.515913E-05  0.347E-02    0.75       1.0  T
   5    -95.0169325 -0.772910E-04  0.425E-03    0.78       2.7  T
   6    -95.0169331 -0.553972E-06  0.182E-03    0.77       6.3  T
   7    -95.0169331 -0.321340E-07  0.775E-04    0.77      14.9  T
   8    -95.0169331 -0.407452E-08  0.335E-04    0.77      34.4  T
   9    -95.0169331 -0.604715E-09  0.154E-04    0.77      75.0  T
     SCC iter.                  ...        0 min,  0.102 sec
     gradient                   ...        0 min,  0.056 sec
 * total energy  :   -93.7340134 Eh     change       -0.1619556E-03 Eh
   gradient norm :     0.0063610 Eh/α   predicted    -0.1502907E-03 (  -7.20%)
   displ. norm   :     0.7365201 α      lambda       -0.2247897E-03
   maximum displ.:     0.4659823 α      in ANC's #2, #12, #7, ...

........................................................................
.............................. CYCLE  108 ..............................
........................................................................

 iter      E             dE          RMSdq      gap      omega  full diag
   1    -95.0103720 -0.950104E+02  0.794E-02    0.76       0.0  T
   2    -95.0103735 -0.151694E-05  0.470E-02    0.75       1.0  T
   3    -95.0103478  0.257083E-04  0.331E-02    0.78       1.0  T
   4    -95.0102616  0.862200E-04  0.397E-02    0.74       1.0  T
   5    -95.0103797 -0.118048E-03  0.371E-03    0.76       3.1  T
   6    -95.0103801 -0.470040E-06  0.205E-03    0.76       5.6  T
   7    -95.0103801 -0.204484E-07  0.853E-04    0.76      13.5  T
   8    -95.0103801 -0.246256E-08  0.288E-04    0.76      40.1  T
   9    -95.0103801 -0.358128E-09  0.117E-04    0.76      98.6  T
     SCC iter.                  ...        0 min,  0.091 sec
     gradient                   ...        0 min,  0.057 sec
 * total energy  :   -93.7341355 Eh     change       -0.1221707E-03 Eh
   gradient norm :     0.0103663 Eh/α   predicted    -0.1733668E-03 (  41.91%)
   displ. norm   :     0.2914614 α      lambda       -0.3998221E-03
   maximum displ.:     0.1397817 α      in ANC's #9, #2, #12, ...

........................................................................
.............................. CYCLE  109 ..............................
........................................................................

 iter      E             dE          RMSdq      gap      omega  full diag
   1    -95.0161723 -0.950162E+02  0.543E-02    0.77       0.0  T
   2    -95.0161747 -0.237939E-05  0.324E-02    0.77       1.0  T
   3    -95.0161522  0.224566E-04  0.262E-02    0.76       1.0  T
   4    -95.0161365  0.157546E-04  0.231E-02    0.78       1.0  T
   5    -95.0161782 -0.416991E-04  0.276E-03    0.76       4.2  T
   6    -95.0161783 -0.111595E-06  0.149E-03    0.77       7.8  T
   7    -95.0161783 -0.261971E-07  0.681E-04    0.77      17.0  T
   8    -95.0161783 -0.359549E-09  0.353E-04    0.77      32.7  T
   9    -95.0161783 -0.988663E-09  0.178E-04    0.77      65.0  T
     SCC iter.                  ...        0 min,  0.104 sec
     gradient                   ...        0 min,  0.056 sec
 * total energy  :   -93.7343635 Eh     change       -0.2279890E-03 Eh
   gradient norm :     0.0058399 Eh/α   predicted    -0.2168984E-03 (  -4.86%)
   displ. norm   :     0.3974832 α      lambda       -0.3065356E-03
   maximum displ.:     0.2180788 α      in ANC's #12, #2, #8, ...

........................................................................
.............................. CYCLE  110 ..............................
........................................................................

 iter      E             dE          RMSdq      gap      omega  full diag
   1    -95.0172415 -0.950172E+02  0.494E-02    0.77       0.0  T
   2    -95.0172433 -0.177866E-05  0.294E-02    0.76       1.0  T
   3    -95.0172363  0.699570E-05  0.214E-02    0.77       1.0  T
   4    -95.0172258  0.104689E-04  0.158E-02    0.75       1.0  T
   5    -95.0172442 -0.183397E-04  0.411E-03    0.76       2.8  T
   6    -95.0172452 -0.997779E-06  0.149E-03    0.76       7.8  T
   7    -95.0172452 -0.125943E-07  0.603E-04    0.76      19.1  T
   8    -95.0172452 -0.524132E-08  0.272E-04    0.76      42.5  T
   9    -95.0172452 -0.632667E-09  0.105E-04    0.76     110.4  T
     SCC iter.                  ...        0 min,  0.095 sec
     gradient                   ...        0 min,  0.050 sec
 * total energy  :   -93.7345776 Eh     change       -0.2141185E-03 Eh
   gradient norm :     0.0052459 Eh/α   predicted    -0.1774860E-03 ( -17.11%)
   displ. norm   :     0.5455958 α      lambda       -0.2717513E-03
   maximum displ.:     0.2976490 α      in ANC's #12, #2, #8, ...

........................................................................
.............................. CYCLE  111 ..............................
........................................................................

 iter      E             dE          RMSdq      gap      omega  full diag
   1    -95.0151054 -0.950151E+02  0.610E-02    0.75       0.0  T
   2    -95.0151049  0.504913E-06  0.369E-02    0.76       1.0  T
   3    -95.0150694  0.354705E-04  0.298E-02    0.74       1.0  T
   4    -95.0150456  0.237423E-04  0.290E-02    0.77       1.0  T
   5    -95.0151097 -0.640224E-04  0.216E-03    0.75       5.3  T
   6    -95.0151097 -0.260551E-07  0.128E-03    0.75       9.0  T
   7    -95.0151097 -0.147617E-07  0.785E-04    0.75      14.7  T
   8    -95.0151097 -0.684227E-08  0.275E-04    0.75      42.0  T
   9    -95.0151097 -0.770939E-10  0.146E-04    0.75      79.1  T
     SCC iter.                  ...        0 min,  0.096 sec
     gradient                   ...        0 min,  0.057 sec
 * total energy  :   -93.7347792 Eh     change       -0.2015977E-03 Eh
   gradient norm :     0.0059946 Eh/α   predicted    -0.1763250E-03 ( -12.54%)
   displ. norm   :     0.3890613 α      lambda       -0.4054956E-03
   maximum displ.:     0.1643179 α      in ANC's #12, #9, #8, ...

........................................................................
.............................. CYCLE  112 ..............................
........................................................................

 iter      E             dE          RMSdq      gap      omega  full diag
   1    -95.0227773 -0.950228E+02  0.876E-02    0.75       0.0  T
   2    -95.0227326  0.447371E-04  0.590E-02    0.78       1.0  T
   3    -95.0226368  0.957659E-04  0.538E-02    0.72       1.0  T
   4    -95.0227457 -0.108849E-03  0.376E-02    0.77       1.0  T
   5    -95.0228137 -0.680352E-04  0.583E-03    0.75       2.0  T
   6    -95.0228144 -0.714959E-06  0.328E-03    0.75       3.5  T
   7    -95.0228145 -0.915280E-07  0.167E-03    0.75       6.9  T
   8    -95.0228145 -0.747359E-08  0.716E-04    0.75      16.1  T
   9    -95.0228145 -0.196458E-08  0.313E-04    0.75      36.9  T
  10    -95.0228145 -0.142226E-08  0.114E-04    0.75     100.9  T
     SCC iter.                  ...        0 min,  0.123 sec
     gradient                   ...        0 min,  0.063 sec
 * total energy  :   -93.7348344 Eh     change       -0.5513788E-04 Eh
   gradient norm :     0.0092563 Eh/α   predicted    -0.2334411E-03 ( 323.38%)
   displ. norm   :     0.4280654 α      lambda       -0.4163928E-03
   maximum displ.:     0.2332604 α      in ANC's #2, #12, #8, ...

........................................................................
.............................. CYCLE  113 ..............................
........................................................................

 iter      E             dE          RMSdq      gap      omega  full diag
   1    -95.0161557 -0.950162E+02  0.560E-02    0.75       0.0  T
   2    -95.0161609 -0.517033E-05  0.332E-02    0.75       1.0  T
   3    -95.0161549  0.598127E-05  0.214E-02    0.75       1.0  T
   4    -95.0161388  0.160983E-04  0.177E-02    0.74       1.0  T
   5    -95.0161619 -0.230933E-04  0.356E-03    0.75       3.2  T
   6    -95.0161626 -0.667297E-06  0.164E-03    0.75       7.0  T
   7    -95.0161626 -0.491886E-07  0.714E-04    0.75      16.2  T
   8    -95.0161626 -0.113172E-08  0.393E-04    0.75      29.4  T
   9    -95.0161626 -0.343479E-08  0.138E-04    0.75      83.8  T
     SCC iter.                  ...        0 min,  0.105 sec
     gradient                   ...        0 min,  0.054 sec
 * total energy  :   -93.7350382 Eh     change       -0.2038124E-03 Eh
   gradient norm :     0.0067423 Eh/α   predicted    -0.2463474E-03 (  20.87%)
   displ. norm   :     0.0817209 α      lambda       -0.1645234E-03
   maximum displ.:     0.0258546 α      in ANC's #17, #37, #10, ...

........................................................................
.............................. CYCLE  114 ..............................
........................................................................

 iter      E             dE          RMSdq      gap      omega  full diag
   1    -95.0160761 -0.950161E+02  0.265E-02    0.75       0.0  T
   2    -95.0160722  0.398255E-05  0.182E-02    0.74       1.0  T
   3    -95.0160505  0.216360E-04  0.218E-02    0.75       1.0  T
   4    -95.0160790 -0.284643E-04  0.747E-03    0.74       1.5  T
   5    -95.0160818 -0.285382E-05  0.250E-03    0.74       4.6  T
   6    -95.0160820 -0.112131E-06  0.125E-03    0.74       9.3  T
   7    -95.0160820 -0.125873E-07  0.496E-04    0.74      23.3  T
   8    -95.0160820 -0.827271E-09  0.201E-04    0.74      57.4  T
     SCC iter.                  ...        0 min,  0.095 sec
     gradient                   ...        0 min,  0.056 sec
 * total energy  :   -93.7350932 Eh     change       -0.5500373E-04 Eh
   gradient norm :     0.0051727 Eh/α   predicted    -0.8281290E-04 (  50.56%)
   displ. norm   :     0.1249038 α      lambda       -0.1264975E-03
   maximum displ.:     0.0516324 α      in ANC's #12, #9, #6, ...

........................................................................
.............................. CYCLE  115 ..............................
........................................................................

 iter      E             dE          RMSdq      gap      omega  full diag
   1    -95.0171972 -0.950172E+02  0.294E-02    0.74       0.0  T
   2    -95.0171946  0.259876E-05  0.193E-02    0.75       1.0  T
   3    -95.0171886  0.600649E-05  0.158E-02    0.73       1.0  T
   4    -95.0171937 -0.511859E-05  0.126E-02    0.75       1.0  T
   5    -95.0172020 -0.833588E-05  0.259E-03    0.74       4.5  T
   6    -95.0172021 -0.113755E-06  0.125E-03    0.74       9.3  T
   7    -95.0172022 -0.163859E-07  0.608E-04    0.74      19.0  T
   8    -95.0172022 -0.348071E-08  0.255E-04    0.74      45.2  T
   9    -95.0172022 -0.152127E-09  0.131E-04    0.74      88.0  T
     SCC iter.                  ...        0 min,  0.114 sec
     gradient                   ...        0 min,  0.067 sec
 * total energy  :   -93.7351806 Eh     change       -0.8741560E-04 Eh
   gradient norm :     0.0026877 Eh/α   predicted    -0.6423705E-04 ( -26.52%)
   displ. norm   :     0.4010555 α      lambda       -0.1365319E-03
   maximum displ.:     0.1932473 α      in ANC's #12, #2, #9, ...

........................................................................
.............................. CYCLE  116 ..............................
........................................................................

 iter      E             dE          RMSdq      gap      omega  full diag
   1    -95.0157627 -0.950158E+02  0.744E-02    0.74       0.0  T
   2    -95.0157413  0.213888E-04  0.502E-02    0.76       1.0  T
   3    -95.0157040  0.373278E-04  0.404E-02    0.72       1.0  T
   4    -95.0157342 -0.302136E-04  0.326E-02    0.75       1.0  T
   5    -95.0157911 -0.568893E-04  0.643E-03    0.73       1.8  T
   6    -95.0157921 -0.997797E-06  0.309E-03    0.74       3.7  T
   7    -95.0157921 -0.841323E-07  0.147E-03    0.74       7.9  T
   8    -95.0157922 -0.126211E-07  0.659E-04    0.74      17.5  T
   9    -95.0157922  0.106600E-08  0.335E-04    0.74      34.4  T
  10    -95.0157922 -0.242996E-08  0.125E-04    0.74      92.1  T
     SCC iter.                  ...        0 min,  0.121 sec
     gradient                   ...        0 min,  0.060 sec
 * total energy  :   -93.7352510 Eh     change       -0.7035639E-04 Eh
   gradient norm :     0.0044689 Eh/α   predicted    -0.7925023E-04 (  12.64%)
   displ. norm   :     0.1084721 α      lambda       -0.7394313E-04
   maximum displ.:     0.0429505 α      in ANC's #11, #14, #17, ...

........................................................................
.............................. CYCLE  117 ..............................
........................................................................

 iter      E             dE          RMSdq      gap      omega  full diag
   1    -95.0184236 -0.950184E+02  0.377E-02    0.74       0.0  T
   2    -95.0184222  0.147228E-05  0.243E-02    0.75       1.0  T
   3    -95.0184170  0.515785E-05  0.170E-02    0.73       1.0  T
   4    -95.0184102  0.685146E-05  0.177E-02    0.75       1.0  T
   5    -95.0184299 -0.197644E-04  0.312E-03    0.74       3.7  T
   6    -95.0184302 -0.245389E-06  0.143E-03    0.74       8.1  T
   7    -95.0184302 -0.164020E-07  0.659E-04    0.74      17.5  T
   8    -95.0184302 -0.175791E-08  0.330E-04    0.74      34.9  T
   9    -95.0184302 -0.406715E-09  0.143E-04    0.74      80.6  T
     SCC iter.                  ...        0 min,  0.123 sec
     gradient                   ...        0 min,  0.054 sec
 * total energy  :   -93.7352940 Eh     change       -0.4299858E-04 Eh
   gradient norm :     0.0028080 Eh/α   predicted    -0.3740792E-04 ( -13.00%)
   displ. norm   :     0.1754620 α      lambda       -0.4398173E-04
   maximum displ.:     0.0771628 α      in ANC's #2, #12, #11, ...

........................................................................
.............................. CYCLE  118 ..............................
........................................................................

 iter      E             dE          RMSdq      gap      omega  full diag
   1    -95.0174250 -0.950174E+02  0.373E-02    0.74       0.0  T
   2    -95.0174228  0.227168E-05  0.244E-02    0.75       1.0  T
   3    -95.0174171  0.570454E-05  0.173E-02    0.73       1.0  T
   4    -95.0174113  0.578739E-05  0.178E-02    0.75       1.0  T
   5    -95.0174310 -0.197427E-04  0.319E-03    0.74       3.6  T
   6    -95.0174313 -0.274530E-06  0.143E-03    0.74       8.1  T
   7    -95.0174313 -0.165571E-07  0.684E-04    0.74      16.9  T
   8    -95.0174313 -0.200198E-08  0.311E-04    0.74      37.2  T
   9    -95.0174313 -0.599201E-09  0.143E-04    0.74      80.9  T
     SCC iter.                  ...        0 min,  0.108 sec
     gradient                   ...        0 min,  0.054 sec
 * total energy  :   -93.7353202 Eh     change       -0.2623371E-04 Eh
   gradient norm :     0.0020431 Eh/α   predicted    -0.2267057E-04 ( -13.58%)
   displ. norm   :     0.0963295 α      lambda       -0.3099303E-04
   maximum displ.:     0.0440374 α      in ANC's #11, #14, #39, ...

........................................................................
.............................. CYCLE  119 ..............................
........................................................................

 iter      E             dE          RMSdq      gap      omega  full diag
   1    -95.0181758 -0.950182E+02  0.309E-02    0.74       0.0  T
   2    -95.0181749  0.889946E-06  0.201E-02    0.74       1.0  T
   3    -95.0181719  0.295922E-05  0.136E-02    0.73       1.0  T
   4    -95.0181641  0.783453E-05  0.152E-02    0.75       1.0  T
   5    -95.0181795 -0.153857E-04  0.265E-03    0.74       4.4  T
   6    -95.0181797 -0.207996E-06  0.118E-03    0.74       9.8  T
   7    -95.0181797 -0.942249E-08  0.549E-04    0.74      21.0  T
   8    -95.0181797 -0.107926E-08  0.250E-04    0.74      46.3  T
   9    -95.0181797 -0.460474E-09  0.111E-04    0.74     103.6  T
     SCC iter.                  ...        0 min,  0.101 sec
     gradient                   ...        0 min,  0.052 sec
 * total energy  :   -93.7353390 Eh     change       -0.1880381E-04 Eh
   gradient norm :     0.0015299 Eh/α   predicted    -0.1564454E-04 ( -16.80%)
   displ. norm   :     0.1505600 α      lambda       -0.2250601E-04
   maximum displ.:     0.0711225 α      in ANC's #2, #14, #11, ...

........................................................................
.............................. CYCLE  120 ..............................
........................................................................

 iter      E             dE          RMSdq      gap      omega  full diag
   1    -95.0173717 -0.950174E+02  0.321E-02    0.74       0.0  T
   2    -95.0173704  0.126668E-05  0.203E-02    0.74       1.0  T
   3    -95.0173649  0.556090E-05  0.152E-02    0.73       1.0  T
   4    -95.0173569  0.800499E-05  0.165E-02    0.75       1.0  T
   5    -95.0173751 -0.181830E-04  0.253E-03    0.74       4.6  T
   6    -95.0173753 -0.219220E-06  0.112E-03    0.74      10.3  T
   7    -95.0173753 -0.879558E-08  0.516E-04    0.74      22.4  T
   8    -95.0173753 -0.386422E-09  0.241E-04    0.74      47.8  T
   9    -95.0173753 -0.567184E-09  0.885E-05    0.74     130.5  T
     SCC iter.                  ...        0 min,  0.110 sec
     gradient                   ...        0 min,  0.060 sec
 * total energy  :   -93.7353558 Eh     change       -0.1678117E-04 Eh
   gradient norm :     0.0018459 Eh/α   predicted    -0.1136762E-04 ( -32.26%)
   displ. norm   :     0.1384501 α      lambda       -0.2056064E-04
   maximum displ.:     0.0799393 α      in ANC's #9, #12, #8, ...
 * RMSD in coord.:     0.7718583 α      energy gain  -0.2188012E-02 Eh

generating ANC from exact Hessian ...
Using Lindh-Hessian (1995)
 Shifting diagonal of input Hessian by    1.0151907164433174E-002
 Lowest  eigenvalues of input Hessian
    0.010000    0.000000    0.000000    0.000000    0.000000    0.000000
    0.000000    0.010225    0.010258    0.010315    0.010377    0.010512
    0.010735    0.010861    0.010906    0.010944    0.011037    0.011106
 Highest eigenvalues
    1.628880    1.892940    1.983268    2.020809    2.237107    2.331207


........................................................................
.............................. CYCLE  121 ..............................
........................................................................

 iter      E             dE          RMSdq      gap      omega  full diag
   1    -95.0184633 -0.950185E+02  0.221E-02    0.74       0.0  T
   2    -95.0184639 -0.612613E-06  0.131E-02    0.74       1.0  T
   3    -95.0184633  0.532696E-06  0.772E-03    0.74       1.5  T
   4    -95.0184622  0.112708E-05  0.483E-03    0.74       2.4  T
   5    -95.0184640 -0.175804E-05  0.145E-03    0.74       8.0  T
   6    -95.0184641 -0.968661E-07  0.524E-04    0.74      22.0  T
   7    -95.0184641  0.199027E-08  0.440E-04    0.74      26.2  T
   8    -95.0184641 -0.447604E-08  0.138E-04    0.74      83.6  T
     SCC iter.                  ...        0 min,  0.093 sec
     gradient                   ...        0 min,  0.054 sec
 * total energy  :   -93.7353541 Eh     change        0.1655931E-05 Eh
   gradient norm :     0.0035686 Eh/α   predicted     0.0000000E+00 (-100.00%)
   displ. norm   :     0.0516382 α      lambda       -0.5298767E-04
   maximum displ.:     0.0376311 α      in ANC's #1, #4, #2, ...

........................................................................
.............................. CYCLE  122 ..............................
........................................................................

 iter      E             dE          RMSdq      gap      omega  full diag
   1    -95.0179715 -0.950180E+02  0.843E-03    0.74       0.0  T
   2    -95.0179714  0.686756E-07  0.516E-03    0.74       2.2  T
   3    -95.0179682  0.318466E-05  0.718E-03    0.74       1.6  T
   4    -95.0179715 -0.331037E-05  0.190E-03    0.74       6.1  T
   5    -95.0179717 -0.182554E-06  0.745E-04    0.74      15.5  T
   6    -95.0179717 -0.156769E-07  0.221E-04    0.74      52.3  T
   7    -95.0179717 -0.858620E-10  0.112E-04    0.74     103.3  T
     SCC iter.                  ...        0 min,  0.081 sec
     gradient                   ...        0 min,  0.058 sec
 * total energy  :   -93.7353956 Eh     change       -0.4150454E-04 Eh
   gradient norm :     0.0012878 Eh/α   predicted    -0.2675780E-04 ( -35.53%)
   displ. norm   :     0.1772762 α      lambda       -0.7046091E-04
   maximum displ.:     0.1187408 α      in ANC's #1, #4, #2, ...

........................................................................
.............................. CYCLE  123 ..............................
........................................................................

 iter      E             dE          RMSdq      gap      omega  full diag
   1    -95.0169837 -0.950170E+02  0.247E-02    0.74       0.0  T
   2    -95.0169844 -0.702354E-06  0.145E-02    0.74       1.0  T
   3    -95.0169837  0.767427E-06  0.939E-03    0.74       1.2  T
   4    -95.0169834  0.313965E-06  0.479E-03    0.74       2.4  T
   5    -95.0169844 -0.100550E-05  0.225E-03    0.74       5.1  T
   6    -95.0169847 -0.312440E-06  0.858E-04    0.74      13.5  T
   7    -95.0169847 -0.332237E-07  0.350E-04    0.74      33.0  T
   8    -95.0169847 -0.218353E-08  0.142E-04    0.74      81.1  T
     SCC iter.                  ...        0 min,  0.098 sec
     gradient                   ...        0 min,  0.059 sec
 * total energy  :   -93.7354518 Eh     change       -0.5616259E-04 Eh
   gradient norm :     0.0044128 Eh/α   predicted    -0.3572899E-04 ( -36.38%)
   displ. norm   :     0.1520477 α      lambda       -0.9036007E-04
   maximum displ.:     0.0963938 α      in ANC's #1, #4, #3, ...

........................................................................
.............................. CYCLE  124 ..............................
........................................................................

 iter      E             dE          RMSdq      gap      omega  full diag
   1    -95.0167064 -0.950167E+02  0.249E-02    0.74       0.0  T
   2    -95.0167078 -0.136149E-05  0.165E-02    0.74       1.0  T
   3    -95.0167082 -0.461691E-06  0.104E-02    0.74       1.1  T
   4    -95.0167082  0.226062E-07  0.462E-03    0.74       2.5  T
   5    -95.0167079  0.314497E-06  0.307E-03    0.73       3.8  T
   6    -95.0167080 -0.103212E-06  0.268E-03    0.74       4.3  T
   7    -95.0167085 -0.490346E-06  0.510E-04    0.74      22.7  T
   8    -95.0167085 -0.488214E-09  0.227E-04    0.74      50.8  T
   9    -95.0167085 -0.346290E-09  0.102E-04    0.74     113.6  T
     SCC iter.                  ...        0 min,  0.121 sec
     gradient                   ...        0 min,  0.060 sec
 * total energy  :   -93.7354960 Eh     change       -0.4423607E-04 Eh
   gradient norm :     0.0059060 Eh/α   predicted    -0.4622953E-04 (   4.51%)
   displ. norm   :     0.1592352 α      lambda       -0.1141679E-03
   maximum displ.:     0.1001221 α      in ANC's #1, #4, #3, ...

........................................................................
.............................. CYCLE  125 ..............................
........................................................................

 iter      E             dE          RMSdq      gap      omega  full diag
   1    -95.0169897 -0.950170E+02  0.221E-02    0.73       0.0  T
   2    -95.0169902 -0.543976E-06  0.142E-02    0.73       1.0  T
   3    -95.0169901  0.867326E-07  0.997E-03    0.73       1.2  T
   4    -95.0169905 -0.406793E-06  0.282E-03    0.73       4.1  T
   5    -95.0169905  0.249479E-07  0.159E-03    0.73       7.2  T
   6    -95.0169905  0.263822E-07  0.139E-03    0.73       8.3  T
   7    -95.0169906 -0.153203E-06  0.297E-04    0.73      38.9  T
   8    -95.0169906 -0.142644E-08  0.139E-04    0.73      83.1  T
     SCC iter.                  ...        0 min,  0.107 sec
     gradient                   ...        0 min,  0.064 sec
 * total energy  :   -93.7355752 Eh     change       -0.7913901E-04 Eh
   gradient norm :     0.0048793 Eh/α   predicted    -0.5853343E-04 ( -26.04%)
   displ. norm   :     0.2595799 α      lambda       -0.1717907E-03
   maximum displ.:     0.1632147 α      in ANC's #1, #4, #3, ...

........................................................................
.............................. CYCLE  126 ..............................
........................................................................

 iter      E             dE          RMSdq      gap      omega  full diag
   1    -95.0178268 -0.950178E+02  0.291E-02    0.73       0.0  T
   2    -95.0178266  0.224734E-06  0.185E-02    0.73       1.0  T
   3    -95.0178195  0.712748E-05  0.156E-02    0.72       1.0  T
   4    -95.0178152  0.425770E-05  0.139E-02    0.74       1.0  T
   5    -95.0178282 -0.130064E-04  0.288E-03    0.73       4.0  T
   6    -95.0178287 -0.439049E-06  0.715E-04    0.73      16.1  T
   7    -95.0178287 -0.207535E-08  0.332E-04    0.73      34.8  T
   8    -95.0178287 -0.300275E-09  0.179E-04    0.73      64.4  T
     SCC iter.                  ...        0 min,  0.106 sec
     gradient                   ...        0 min,  0.057 sec
 * total energy  :   -93.7357096 Eh     change       -0.1344688E-03 Eh
   gradient norm :     0.0025301 Eh/α   predicted    -0.9168739E-04 ( -31.82%)
   displ. norm   :     0.3826206 α      lambda       -0.1664414E-03
   maximum displ.:     0.2412797 α      in ANC's #1, #4, #3, ...

........................................................................
.............................. CYCLE  127 ..............................
........................................................................

 iter      E             dE          RMSdq      gap      omega  full diag
   1    -95.0181639 -0.950182E+02  0.396E-02    0.73       0.0  T
   2    -95.0181542  0.976555E-05  0.267E-02    0.74       1.0  T
   3    -95.0180900  0.641239E-04  0.330E-02    0.71       1.0  T
   4    -95.0181599 -0.698617E-04  0.132E-02    0.74       1.0  T
   5    -95.0181680 -0.813365E-05  0.188E-03    0.73       6.1  T
   6    -95.0181681 -0.107582E-06  0.832E-04    0.73      13.9  T
   7    -95.0181681 -0.745982E-08  0.384E-04    0.73      30.0  T
   8    -95.0181681 -0.217909E-09  0.214E-04    0.73      53.9  T
     SCC iter.                  ...        0 min,  0.092 sec
     gradient                   ...        0 min,  0.059 sec
 * total energy  :   -93.7358476 Eh     change       -0.1379551E-03 Eh
   gradient norm :     0.0038612 Eh/α   predicted    -0.9540872E-04 ( -30.84%)
   displ. norm   :     0.4397741 α      lambda       -0.1741637E-03
   maximum displ.:     0.2778131 α      in ANC's #1, #4, #3, ...

........................................................................
.............................. CYCLE  128 ..............................
........................................................................

 iter      E             dE          RMSdq      gap      omega  full diag
   1    -95.0178586 -0.950179E+02  0.497E-02    0.73       0.0  T
   2    -95.0178570  0.156450E-05  0.316E-02    0.74       1.0  T
   3    -95.0178441  0.129276E-04  0.236E-02    0.72       1.0  T
   4    -95.0178171  0.269776E-04  0.263E-02    0.75       1.0  T
   5    -95.0178640 -0.468306E-04  0.536E-03    0.73       2.2  T
   6    -95.0178654 -0.140725E-05  0.155E-03    0.73       7.5  T
   7    -95.0178654 -0.771688E-08  0.686E-04    0.73      16.8  T
   8    -95.0178654 -0.166058E-08  0.360E-04    0.73      32.1  T
   9    -95.0178654 -0.255085E-10  0.146E-04    0.73      79.0  T
     SCC iter.                  ...        0 min,  0.115 sec
     gradient                   ...        0 min,  0.066 sec
 * total energy  :   -93.7359972 Eh     change       -0.1495911E-03 Eh
   gradient norm :     0.0044986 Eh/α   predicted    -0.1039247E-03 ( -30.53%)
   displ. norm   :     0.4876134 α      lambda       -0.2055575E-03
   maximum displ.:     0.3101606 α      in ANC's #1, #4, #3, ...

........................................................................
.............................. CYCLE  129 ..............................
........................................................................

 iter      E             dE          RMSdq      gap      omega  full diag
   1    -95.0174471 -0.950174E+02  0.525E-02    0.73       0.0  T
   2    -95.0174427  0.433763E-05  0.330E-02    0.74       1.0  T
   3    -95.0174032  0.394855E-04  0.301E-02    0.71       1.0  T
   4    -95.0174050 -0.173874E-05  0.266E-02    0.74       1.0  T
   5    -95.0174531 -0.480930E-04  0.384E-03    0.73       3.0  T
   6    -95.0174534 -0.357316E-06  0.132E-03    0.73       8.8  T
   7    -95.0174534 -0.776748E-08  0.536E-04    0.73      21.5  T
   8    -95.0174534 -0.742006E-09  0.266E-04    0.73      43.4  T
   9    -95.0174534 -0.138357E-09  0.120E-04    0.73      95.9  T
     SCC iter.                  ...        0 min,  0.110 sec
     gradient                   ...        0 min,  0.068 sec
 * total energy  :   -93.7361799 Eh     change       -0.1826667E-03 Eh
   gradient norm :     0.0036288 Eh/α   predicted    -0.1272162E-03 ( -30.36%)
   displ. norm   :     0.5375942 α      lambda       -0.2280297E-03
   maximum displ.:     0.3464684 α      in ANC's #1, #4, #3, ...

........................................................................
.............................. CYCLE  130 ..............................
........................................................................

 iter      E             dE          RMSdq      gap      omega  full diag
   1    -95.0170429 -0.950170E+02  0.685E-02    0.73       0.0  T
   2    -95.0170212  0.216466E-04  0.460E-02    0.74       1.0  T
   3    -95.0169669  0.543457E-04  0.403E-02    0.71       1.0  T
   4    -95.0169960 -0.291236E-04  0.329E-02    0.75       1.0  T
   5    -95.0170596 -0.636539E-04  0.581E-03    0.73       2.0  T
   6    -95.0170606 -0.983033E-06  0.201E-03    0.73       5.7  T
   7    -95.0170607 -0.350806E-07  0.961E-04    0.73      12.0  T
   8    -95.0170607 -0.231300E-08  0.471E-04    0.73      24.5  T
   9    -95.0170607 -0.662013E-09  0.216E-04    0.73      53.6  T
     SCC iter.                  ...        0 min,  0.101 sec
     gradient                   ...        0 min,  0.055 sec
 * total energy  :   -93.7363823 Eh     change       -0.2024458E-03 Eh
   gradient norm :     0.0025021 Eh/α   predicted    -0.1469682E-03 ( -27.40%)
   displ. norm   :     0.5861412 α      lambda       -0.2364793E-03
   maximum displ.:     0.3816416 α      in ANC's #1, #4, #3, ...

........................................................................
.............................. CYCLE  131 ..............................
........................................................................

 iter      E             dE          RMSdq      gap      omega  full diag
   1    -95.0167938 -0.950168E+02  0.849E-02    0.73       0.0  T
   2    -95.0167988 -0.498901E-05  0.549E-02    0.73       1.0  T
   3    -95.0167937  0.507387E-05  0.326E-02    0.71       1.0  T
   4    -95.0166691  0.124626E-03  0.439E-02    0.75       1.0  T
   5    -95.0168131 -0.144022E-03  0.867E-03    0.72       1.3  T
   6    -95.0168163 -0.317065E-05  0.281E-03    0.72       4.1  T
   7    -95.0168164 -0.347659E-07  0.138E-03    0.72       8.4  T
   8    -95.0168164 -0.138414E-07  0.585E-04    0.72      19.8  T
   9    -95.0168164  0.662311E-09  0.298E-04    0.72      38.7  T
  10    -95.0168164 -0.158188E-08  0.133E-04    0.72      86.9  T
     SCC iter.                  ...        0 min,  0.122 sec
     gradient                   ...        0 min,  0.051 sec
 * total energy  :   -93.7365869 Eh     change       -0.2045539E-03 Eh
   gradient norm :     0.0037421 Eh/α   predicted    -0.1588666E-03 ( -22.34%)
   displ. norm   :     0.6182011 α      lambda       -0.2395434E-03
   maximum displ.:     0.4063328 α      in ANC's #1, #4, #3, ...

........................................................................
.............................. CYCLE  132 ..............................
........................................................................

 iter      E             dE          RMSdq      gap      omega  full diag
   1    -95.0158280 -0.950158E+02  0.106E-01    0.72       0.0  T
   2    -95.0157313  0.967050E-04  0.772E-02    0.75       1.0  T
   3    -95.0156627  0.686421E-04  0.615E-02    0.69       1.0  T
   4    -95.0157927 -0.130023E-03  0.434E-02    0.75       1.0  T
   5    -95.0158880 -0.952903E-04  0.108E-02    0.72       1.1  T
   6    -95.0158912 -0.319873E-05  0.351E-03    0.72       3.3  T
   7    -95.0158913 -0.113872E-06  0.165E-03    0.72       7.0  T
   8    -95.0158913 -0.820432E-08  0.796E-04    0.72      14.5  T
   9    -95.0158913 -0.415994E-09  0.394E-04    0.72      29.3  T
  10    -95.0158913 -0.335632E-08  0.150E-04    0.72      76.9  T
     SCC iter.                  ...        0 min,  0.119 sec
     gradient                   ...        0 min,  0.053 sec
 * total energy  :   -93.7367930 Eh     change       -0.2061671E-03 Eh
   gradient norm :     0.0039491 Eh/α   predicted    -0.1655513E-03 ( -19.70%)
   displ. norm   :     0.6336124 α      lambda       -0.2449972E-03
   maximum displ.:     0.4243116 α      in ANC's #1, #4, #3, ...

........................................................................
.............................. CYCLE  133 ..............................
........................................................................

 iter      E             dE          RMSdq      gap      omega  full diag
   1    -95.0157363 -0.950157E+02  0.129E-01    0.72       0.0  T
   2    -95.0156676  0.687148E-04  0.906E-02    0.75       1.0  T
   3    -95.0156213  0.462334E-04  0.614E-02    0.69       1.0  T
   4    -95.0156388 -0.174200E-04  0.539E-02    0.75       1.0  T
   5    -95.0158124 -0.173646E-03  0.139E-02    0.71       1.0  T
   6    -95.0158179 -0.549894E-05  0.468E-03    0.72       2.5  T
   7    -95.0158181 -0.167538E-06  0.215E-03    0.72       5.4  T
   8    -95.0158181 -0.291033E-07  0.936E-04    0.72      12.3  T
   9    -95.0158181  0.111164E-08  0.486E-04    0.72      23.8  T
  10    -95.0158181 -0.490375E-08  0.198E-04    0.72      58.3  T
     SCC iter.                  ...        0 min,  0.120 sec
     gradient                   ...        0 min,  0.063 sec
 * total energy  :   -93.7370006 Eh     change       -0.2076114E-03 Eh
   gradient norm :     0.0038616 Eh/α   predicted    -0.1716807E-03 ( -17.31%)
   displ. norm   :     0.6339295 α      lambda       -0.2387259E-03
   maximum displ.:     0.4324089 α      in ANC's #1, #4, #3, ...

........................................................................
.............................. CYCLE  134 ..............................
........................................................................

 iter      E             dE          RMSdq      gap      omega  full diag
   1    -95.0160443 -0.950160E+02  0.160E-01    0.72       0.0  T
   2    -95.0158622  0.182004E-03  0.118E-01    0.76       1.0  T
   3    -95.0158179  0.443043E-04  0.793E-02    0.68       1.0  T
   4    -95.0160189 -0.200980E-03  0.560E-02    0.75       1.0  T
   5    -95.0161800 -0.161093E-03  0.184E-02    0.71       1.0  T
   6    -95.0161899 -0.988318E-05  0.556E-03    0.72       2.1  T
   7    -95.0161902 -0.267614E-06  0.253E-03    0.72       4.6  T
   8    -95.0161902 -0.305524E-07  0.111E-03    0.72      10.4  T
   9    -95.0161902  0.219991E-08  0.600E-04    0.72      19.3  T
  10    -95.0161902 -0.765927E-08  0.227E-04    0.72      50.8  T
  11    -95.0161902 -0.573223E-09  0.122E-04    0.72      94.5  T
     SCC iter.                  ...        0 min,  0.124 sec
     gradient                   ...        0 min,  0.057 sec
 * total energy  :   -93.7371759 Eh     change       -0.1752282E-03 Eh
   gradient norm :     0.0027078 Eh/α   predicted    -0.1673309E-03 (  -4.51%)
   displ. norm   :     0.4211099 α      lambda       -0.1223159E-03
   maximum displ.:     0.2923030 α      in ANC's #1, #4, #13, ...

........................................................................
.............................. CYCLE  135 ..............................
........................................................................

 iter      E             dE          RMSdq      gap      omega  full diag
   1    -95.0161892 -0.950162E+02  0.108E-01    0.72       0.0  T
   2    -95.0160856  0.103543E-03  0.808E-02    0.75       1.0  T
   3    -95.0160615  0.241450E-04  0.567E-02    0.69       1.0  T
   4    -95.0161919 -0.130434E-03  0.364E-02    0.74       1.0  T
   5    -95.0162562 -0.642463E-04  0.123E-02    0.71       1.0  T
   6    -95.0162603 -0.415566E-05  0.402E-03    0.71       2.9  T
   7    -95.0162605 -0.141845E-06  0.179E-03    0.71       6.4  T
   8    -95.0162605 -0.183658E-07  0.769E-04    0.71      15.0  T
   9    -95.0162605  0.226450E-08  0.428E-04    0.71      27.0  T
  10    -95.0162605 -0.410060E-08  0.154E-04    0.71      75.0  T
     SCC iter.                  ...        0 min,  0.122 sec
     gradient                   ...        0 min,  0.062 sec
 * total energy  :   -93.7372544 Eh     change       -0.7850032E-04 Eh
   gradient norm :     0.0021141 Eh/α   predicted    -0.7200758E-04 (  -8.27%)
   displ. norm   :     0.1865425 α      lambda       -0.6394391E-04
   maximum displ.:     0.1268198 α      in ANC's #1, #4, #13, ...

........................................................................
.............................. CYCLE  136 ..............................
........................................................................

 iter      E             dE          RMSdq      gap      omega  full diag
   1    -95.0171257 -0.950171E+02  0.417E-02    0.71       0.0  T
   2    -95.0170992  0.265113E-04  0.332E-02    0.73       1.0  T
   3    -95.0170967  0.247895E-05  0.254E-02    0.70       1.0  T
   4    -95.0171307 -0.340243E-04  0.134E-02    0.72       1.0  T
   5    -95.0171378 -0.711390E-05  0.505E-03    0.71       2.3  T
   6    -95.0171387 -0.824469E-06  0.152E-03    0.71       7.6  T
   7    -95.0171387 -0.230511E-07  0.710E-04    0.71      16.3  T
   8    -95.0171387 -0.152632E-08  0.352E-04    0.71      32.8  T
   9    -95.0171387  0.587690E-09  0.192E-04    0.71      60.1  T
     SCC iter.                  ...        0 min,  0.118 sec
     gradient                   ...        0 min,  0.066 sec
 * total energy  :   -93.7373070 Eh     change       -0.5258946E-04 Eh
   gradient norm :     0.0022519 Eh/α   predicted    -0.3308526E-04 ( -37.09%)
   displ. norm   :     0.2895430 α      lambda       -0.1061342E-03
   maximum displ.:     0.1783011 α      in ANC's #1, #4, #14, ...

........................................................................
.............................. CYCLE  137 ..............................
........................................................................

 iter      E             dE          RMSdq      gap      omega  full diag
   1    -95.0166552 -0.950167E+02  0.479E-02    0.71       0.0  T
   2    -95.0166403  0.149303E-04  0.331E-02    0.72       1.0  T
   3    -95.0166110  0.292681E-04  0.299E-02    0.69       1.0  T
   4    -95.0166340 -0.230107E-04  0.218E-02    0.72       1.0  T
   5    -95.0166633 -0.293347E-04  0.429E-03    0.71       2.7  T
   6    -95.0166640 -0.615516E-06  0.145E-03    0.71       8.0  T
   7    -95.0166640 -0.173107E-07  0.679E-04    0.71      17.0  T
   8    -95.0166640 -0.439911E-09  0.394E-04    0.71      29.3  T
   9    -95.0166640 -0.385896E-09  0.188E-04    0.71      61.5  T
     SCC iter.                  ...        0 min,  0.107 sec
     gradient                   ...        0 min,  0.061 sec
 * total energy  :   -93.7373866 Eh     change       -0.7969216E-04 Eh
   gradient norm :     0.0035020 Eh/α   predicted    -0.5751763E-04 ( -27.83%)
   displ. norm   :     0.2968871 α      lambda       -0.8358584E-04
   maximum displ.:     0.1797192 α      in ANC's #1, #4, #14, ...

........................................................................
.............................. CYCLE  138 ..............................
........................................................................

 iter      E             dE          RMSdq      gap      omega  full diag
   1    -95.0169295 -0.950169E+02  0.463E-02    0.71       0.0  T
   2    -95.0169261  0.339288E-05  0.297E-02    0.71       1.0  T
   3    -95.0169110  0.151466E-04  0.233E-02    0.70       1.0  T
   4    -95.0168845  0.265206E-04  0.255E-02    0.72       1.0  T
   5    -95.0169341 -0.496747E-04  0.387E-03    0.70       3.0  T
   6    -95.0169346 -0.480455E-06  0.132E-03    0.71       8.8  T
   7    -95.0169346 -0.637793E-08  0.558E-04    0.71      20.7  T
   8    -95.0169346 -0.274468E-09  0.358E-04    0.71      32.2  T
   9    -95.0169346 -0.134440E-08  0.157E-04    0.71      73.3  T
     SCC iter.                  ...        0 min,  0.121 sec
     gradient                   ...        0 min,  0.061 sec
 * total energy  :   -93.7374475 Eh     change       -0.6085807E-04 Eh
   gradient norm :     0.0036965 Eh/α   predicted    -0.4547789E-04 ( -25.27%)
   displ. norm   :     0.2539165 α      lambda       -0.6000133E-04
   maximum displ.:     0.1572624 α      in ANC's #1, #4, #2, ...

........................................................................
.............................. CYCLE  139 ..............................
........................................................................

 iter      E             dE          RMSdq      gap      omega  full diag
   1    -95.0163104 -0.950163E+02  0.352E-02    0.71       0.0  T
   2    -95.0163113 -0.822314E-06  0.211E-02    0.71       1.0  T
   3    -95.0163112  0.101271E-06  0.128E-02    0.71       1.0  T
   4    -95.0163079  0.326322E-05  0.733E-03    0.70       1.6  T
   5    -95.0163117 -0.377796E-05  0.202E-03    0.71       5.7  T
   6    -95.0163118 -0.145892E-06  0.890E-04    0.71      13.0  T
   7    -95.0163118 -0.240490E-07  0.356E-04    0.71      32.4  T
   8    -95.0163118 -0.196479E-09  0.179E-04    0.71      64.6  T
     SCC iter.                  ...        0 min,  0.100 sec
     gradient                   ...        0 min,  0.056 sec
 * total energy  :   -93.7374929 Eh     change       -0.4542983E-04 Eh
   gradient norm :     0.0024318 Eh/α   predicted    -0.3194009E-04 ( -29.69%)
   displ. norm   :     0.2446539 α      lambda       -0.6170182E-04
   maximum displ.:     0.1525427 α      in ANC's #1, #4, #2, ...

........................................................................
.............................. CYCLE  140 ..............................
........................................................................

 iter      E             dE          RMSdq      gap      omega  full diag
   1    -95.0163298 -0.950163E+02  0.303E-02    0.71       0.0  T
   2    -95.0163267  0.310433E-05  0.194E-02    0.70       1.0  T
   3    -95.0162976  0.290808E-04  0.224E-02    0.72       1.0  T
   4    -95.0163218 -0.242039E-04  0.126E-02    0.70       1.0  T
   5    -95.0163319 -0.101400E-04  0.245E-03    0.71       4.7  T
   6    -95.0163320 -0.982629E-07  0.723E-04    0.71      16.0  T
   7    -95.0163320  0.800782E-09  0.334E-04    0.71      34.6  T
   8    -95.0163320 -0.222364E-08  0.158E-04    0.71      73.1  T
     SCC iter.                  ...        0 min,  0.096 sec
     gradient                   ...        0 min,  0.053 sec
 * total energy  :   -93.7375372 Eh     change       -0.4429147E-04 Eh
   gradient norm :     0.0018457 Eh/α   predicted    -0.3270274E-04 ( -26.16%)
   displ. norm   :     0.3195218 α      lambda       -0.5092154E-04
   maximum displ.:     0.2037837 α      in ANC's #1, #4, #2, ...

........................................................................
.............................. CYCLE  141 ..............................
........................................................................

 iter      E             dE          RMSdq      gap      omega  full diag
   1    -95.0171545 -0.950172E+02  0.355E-02    0.71       0.0  T
   2    -95.0171494  0.506869E-05  0.225E-02    0.71       1.0  T
   3    -95.0170734  0.760356E-04  0.324E-02    0.73       1.0  T
   4    -95.0171531 -0.796821E-04  0.958E-03    0.71       1.2  T
   5    -95.0171569 -0.386023E-05  0.171E-03    0.71       6.7  T
   6    -95.0171570 -0.777900E-07  0.870E-04    0.71      13.3  T
   7    -95.0171570 -0.588409E-08  0.289E-04    0.71      39.9  T
   8    -95.0171570 -0.179568E-09  0.121E-04    0.71      95.6  T
     SCC iter.                  ...        0 min,  0.104 sec
     gradient                   ...        0 min,  0.055 sec
 * total energy  :   -93.7375822 Eh     change       -0.4497185E-04 Eh
   gradient norm :     0.0032110 Eh/α   predicted    -0.2661913E-04 ( -40.81%)
   displ. norm   :     0.1758453 α      lambda       -0.4088307E-04
   maximum displ.:     0.1128174 α      in ANC's #1, #4, #2, ...

........................................................................
.............................. CYCLE  142 ..............................
........................................................................

 iter      E             dE          RMSdq      gap      omega  full diag
   1    -95.0158348 -0.950158E+02  0.203E-02    0.71       0.0  T
   2    -95.0158335  0.125224E-05  0.131E-02    0.71       1.0  T
   3    -95.0158209  0.126032E-04  0.152E-02    0.72       1.0  T
   4    -95.0158312 -0.102794E-04  0.867E-03    0.71       1.3  T
   5    -95.0158356 -0.435378E-05  0.146E-03    0.71       7.9  T
   6    -95.0158357 -0.117692E-06  0.424E-04    0.71      27.2  T
   7    -95.0158357 -0.854172E-09  0.154E-04    0.71      75.1  T
     SCC iter.                  ...        0 min,  0.084 sec
     gradient                   ...        0 min,  0.057 sec
 * total energy  :   -93.7376144 Eh     change       -0.3216199E-04 Eh
   gradient norm :     0.0028536 Eh/α   predicted    -0.2107751E-04 ( -34.46%)
   displ. norm   :     0.2532325 α      lambda       -0.7268037E-04
   maximum displ.:     0.1578638 α      in ANC's #1, #4, #2, ...

........................................................................
.............................. CYCLE  143 ..............................
........................................................................

 iter      E             dE          RMSdq      gap      omega  full diag
   1    -95.0166403 -0.950166E+02  0.305E-02    0.71       0.0  T
   2    -95.0166385  0.174059E-05  0.199E-02    0.71       1.0  T
   3    -95.0166283  0.102316E-04  0.171E-02    0.72       1.0  T
   4    -95.0166221  0.617978E-05  0.164E-02    0.70       1.0  T
   5    -95.0166416 -0.195141E-04  0.290E-03    0.71       4.0  T
   6    -95.0166420 -0.375529E-06  0.735E-04    0.71      15.7  T
   7    -95.0166420 -0.876798E-08  0.304E-04    0.71      38.0  T
   8    -95.0166420 -0.946727E-10  0.157E-04    0.71      73.8  T
     SCC iter.                  ...        0 min,  0.099 sec
     gradient                   ...        0 min,  0.053 sec
 * total energy  :   -93.7376708 Eh     change       -0.5647634E-04 Eh
   gradient norm :     0.0019564 Eh/α   predicted    -0.3867309E-04 ( -31.52%)
   displ. norm   :     0.5258340 α      lambda       -0.7436744E-04
   maximum displ.:     0.3250208 α      in ANC's #1, #4, #2, ...

........................................................................
.............................. CYCLE  144 ..............................
........................................................................

 iter      E             dE          RMSdq      gap      omega  full diag
   1    -95.0154309 -0.950154E+02  0.606E-02    0.71       0.0  T
   2    -95.0154320 -0.103824E-05  0.377E-02    0.71       1.0  T
   3    -95.0154220  0.997742E-05  0.264E-02    0.72       1.0  T
   4    -95.0153726  0.493939E-04  0.276E-02    0.69       1.0  T
   5    -95.0154345 -0.618477E-04  0.538E-03    0.72       2.1  T
   6    -95.0154358 -0.138501E-05  0.163E-03    0.71       7.1  T
   7    -95.0154359 -0.139705E-07  0.597E-04    0.71      19.3  T
   8    -95.0154359 -0.333156E-08  0.304E-04    0.71      37.9  T
   9    -95.0154359 -0.764558E-09  0.104E-04    0.71     110.9  T
     SCC iter.                  ...        0 min,  0.118 sec
     gradient                   ...        0 min,  0.060 sec
 * total energy  :   -93.7377371 Eh     change       -0.6627858E-04 Eh
   gradient norm :     0.0028442 Eh/α   predicted    -0.4175458E-04 ( -37.00%)
   displ. norm   :     0.1645068 α      lambda       -0.4215307E-04
   maximum displ.:     0.0920699 α      in ANC's #1, #2, #4, ...

........................................................................
.............................. CYCLE  145 ..............................
........................................................................

 iter      E             dE          RMSdq      gap      omega  full diag
   1    -95.0173812 -0.950174E+02  0.194E-02    0.71       0.0  T
   2    -95.0173736  0.764354E-05  0.164E-02    0.71       1.0  T
   3    -95.0173732  0.396822E-06  0.135E-02    0.72       1.0  T
   4    -95.0173819 -0.871178E-05  0.789E-03    0.71       1.5  T
   5    -95.0173843 -0.235994E-05  0.260E-03    0.72       4.4  T
   6    -95.0173845 -0.272977E-06  0.694E-04    0.71      16.6  T
   7    -95.0173845 -0.145756E-08  0.307E-04    0.71      37.6  T
   8    -95.0173845 -0.669829E-09  0.142E-04    0.71      81.2  T
     SCC iter.                  ...        0 min,  0.094 sec
     gradient                   ...        0 min,  0.056 sec
 * total energy  :   -93.7377700 Eh     change       -0.3285237E-04 Eh
   gradient norm :     0.0019585 Eh/α   predicted    -0.2165127E-04 ( -34.10%)
   displ. norm   :     0.4669386 α      lambda       -0.6375240E-04
   maximum displ.:     0.2622581 α      in ANC's #1, #4, #2, ...

........................................................................
.............................. CYCLE  146 ..............................
........................................................................

 iter      E             dE          RMSdq      gap      omega  full diag
   1    -95.0177729 -0.950178E+02  0.458E-02    0.71       0.0  T
   2    -95.0177724  0.564887E-06  0.280E-02    0.71       1.0  T
   3    -95.0177542  0.181294E-04  0.238E-02    0.73       1.0  T
   4    -95.0177352  0.190325E-04  0.222E-02    0.70       1.0  T
   5    -95.0177756 -0.404335E-04  0.274E-03    0.72       4.2  T
   6    -95.0177758 -0.165965E-06  0.135E-03    0.72       8.6  T
   7    -95.0177758 -0.484879E-08  0.397E-04    0.72      29.1  T
   8    -95.0177758 -0.102148E-09  0.170E-04    0.72      67.8  T
     SCC iter.                  ...        0 min,  0.094 sec
     gradient                   ...        0 min,  0.065 sec
 * total energy  :   -93.7378352 Eh     change       -0.6525849E-04 Eh
   gradient norm :     0.0019137 Eh/α   predicted    -0.3497059E-04 ( -46.41%)
   displ. norm   :     0.4029672 α      lambda       -0.3769035E-04
   maximum displ.:     0.2226201 α      in ANC's #1, #4, #2, ...

........................................................................
.............................. CYCLE  147 ..............................
........................................................................

 iter      E             dE          RMSdq      gap      omega  full diag
   1    -95.0167162 -0.950167E+02  0.382E-02    0.71       0.0  T
   2    -95.0167055  0.107389E-04  0.254E-02    0.70       1.0  T
   3    -95.0166316  0.738478E-04  0.347E-02    0.73       1.0  T
   4    -95.0167153 -0.836951E-04  0.116E-02    0.71       1.0  T
   5    -95.0167202 -0.489611E-05  0.334E-03    0.71       3.5  T
   6    -95.0167205 -0.285747E-06  0.843E-04    0.71      13.7  T
   7    -95.0167205  0.389520E-09  0.434E-04    0.71      26.6  T
   8    -95.0167205 -0.173591E-08  0.201E-04    0.71      57.4  T
     SCC iter.                  ...        0 min,  0.099 sec
     gradient                   ...        0 min,  0.056 sec
 * total energy  :   -93.7378745 Eh     change       -0.3927647E-04 Eh
   gradient norm :     0.0023619 Eh/α   predicted    -0.2020630E-04 ( -48.55%)
   displ. norm   :     0.1673222 α      lambda       -0.3519856E-04
   maximum displ.:     0.0985959 α      in ANC's #2, #4, #1, ...

........................................................................
.............................. CYCLE  148 ..............................
........................................................................

 iter      E             dE          RMSdq      gap      omega  full diag
   1    -95.0173026 -0.950173E+02  0.175E-02    0.71       0.0  T
   2    -95.0172993  0.328160E-05  0.128E-02    0.72       1.0  T
   3    -95.0172942  0.509677E-05  0.125E-02    0.71       1.0  T
   4    -95.0173013 -0.703579E-05  0.723E-03    0.72       1.6  T
   5    -95.0173040 -0.270987E-05  0.182E-03    0.71       6.3  T
   6    -95.0173041 -0.112081E-06  0.459E-04    0.72      25.2  T
   7    -95.0173041 -0.567340E-09  0.232E-04    0.72      49.8  T
     SCC iter.                  ...        0 min,  0.084 sec
     gradient                   ...        0 min,  0.056 sec
 * total energy  :   -93.7379022 Eh     change       -0.2772623E-04 Eh
   gradient norm :     0.0014198 Eh/α   predicted    -0.1809551E-04 ( -34.74%)
   displ. norm   :     0.3186482 α      lambda       -0.3884748E-04
   maximum displ.:     0.1942002 α      in ANC's #2, #10, #4, ...

........................................................................
.............................. CYCLE  149 ..............................
........................................................................

 iter      E             dE          RMSdq      gap      omega  full diag
   1    -95.0178874 -0.950179E+02  0.338E-02    0.72       0.0  T
   2    -95.0178841  0.332364E-05  0.218E-02    0.72       1.0  T
   3    -95.0178735  0.105799E-04  0.184E-02    0.71       1.0  T
   4    -95.0178682  0.530826E-05  0.174E-02    0.73       1.0  T
   5    -95.0178903 -0.221593E-04  0.248E-03    0.72       4.7  T
   6    -95.0178905 -0.142642E-06  0.106E-03    0.72      10.9  T
   7    -95.0178905 -0.536106E-08  0.423E-04    0.72      27.3  T
   8    -95.0178905 -0.321180E-09  0.233E-04    0.72      49.6  T
     SCC iter.                  ...        0 min,  0.094 sec
     gradient                   ...        0 min,  0.059 sec
 * total energy  :   -93.7379418 Eh     change       -0.3961332E-04 Eh
   gradient norm :     0.0016620 Eh/α   predicted    -0.2030276E-04 ( -48.75%)
   displ. norm   :     0.2184315 α      lambda       -0.2404409E-04
   maximum displ.:     0.1347761 α      in ANC's #2, #4, #10, ...

........................................................................
.............................. CYCLE  150 ..............................
........................................................................

 iter      E             dE          RMSdq      gap      omega  full diag
   1    -95.0172250 -0.950172E+02  0.229E-02    0.72       0.0  T
   2    -95.0172249  0.172177E-06  0.139E-02    0.72       1.0  T
   3    -95.0172222  0.268995E-05  0.104E-02    0.71       1.1  T
   4    -95.0172117  0.104827E-04  0.131E-02    0.73       1.0  T
   5    -95.0172260 -0.142798E-04  0.104E-03    0.72      11.1  T
   6    -95.0172260 -0.119253E-07  0.694E-04    0.72      16.6  T
   7    -95.0172260 -0.703638E-08  0.290E-04    0.72      39.9  T
   8    -95.0172260 -0.205588E-09  0.116E-04    0.72      99.5  T
     SCC iter.                  ...        0 min,  0.111 sec
     gradient                   ...        0 min,  0.059 sec
 * total energy  :   -93.7379679 Eh     change       -0.2607029E-04 Eh
   gradient norm :     0.0019909 Eh/α   predicted    -0.1227999E-04 ( -52.90%)
   displ. norm   :     0.2243342 α      lambda       -0.3143501E-04
   maximum displ.:     0.1452187 α      in ANC's #2, #10, #13, ...
 * RMSD in coord.:     0.7217838 α      energy gain  -0.2612122E-02 Eh

generating ANC from exact Hessian ...
Using Lindh-Hessian (1995)
 Shifting diagonal of input Hessian by    9.9448228159997095E-003
 Lowest  eigenvalues of input Hessian
    0.000000    0.000000    0.000000    0.000000    0.000000    0.000000
    0.010000    0.010032    0.010069    0.010124    0.010292    0.010369
    0.010545    0.010630    0.010753    0.010814    0.010837    0.010944
 Highest eigenvalues
    1.632787    1.895927    1.984958    2.024486    2.232393    2.319061


........................................................................
.............................. CYCLE  151 ..............................
........................................................................

 iter      E             dE          RMSdq      gap      omega  full diag
   1    -95.0172447 -0.950172E+02  0.240E-02    0.72       0.0  T
   2    -95.0172448 -0.116017E-06  0.146E-02    0.72       1.0  T
   3    -95.0172415  0.328297E-05  0.110E-02    0.71       1.1  T
   4    -95.0172324  0.917385E-05  0.125E-02    0.73       1.0  T
   5    -95.0172456 -0.131797E-04  0.106E-03    0.72      10.9  T
   6    -95.0172456 -0.151339E-07  0.556E-04    0.72      20.8  T
   7    -95.0172456 -0.277652E-08  0.261E-04    0.72      44.2  T
   8    -95.0172456 -0.234053E-09  0.107E-04    0.72     107.7  T
     SCC iter.                  ...        0 min,  0.093 sec
     gradient                   ...        0 min,  0.056 sec
 * total energy  :   -93.7379948 Eh     change       -0.2694021E-04 Eh
   gradient norm :     0.0019623 Eh/α   predicted     0.0000000E+00 (-100.00%)
   displ. norm   :     0.0418393 α      lambda       -0.1650465E-04
   maximum displ.:     0.0140548 α      in ANC's #12, #2, #5, ...

........................................................................
.............................. CYCLE  152 ..............................
........................................................................

 iter      E             dE          RMSdq      gap      omega  full diag
   1    -95.0172936 -0.950173E+02  0.101E-02    0.72       0.0  T
   2    -95.0172936 -0.286381E-07  0.627E-03    0.72       1.8  T
   3    -95.0172922  0.141094E-05  0.585E-03    0.72       2.0  T
   4    -95.0172920  0.221056E-06  0.479E-03    0.71       2.4  T
   5    -95.0172939 -0.185374E-05  0.641E-04    0.72      18.0  T
   6    -95.0172939 -0.101649E-07  0.319E-04    0.72      36.1  T
   7    -95.0172939 -0.467452E-09  0.139E-04    0.72      82.9  T
     SCC iter.                  ...        0 min,  0.086 sec
     gradient                   ...        0 min,  0.053 sec
 * total energy  :   -93.7380107 Eh     change       -0.1588757E-04 Eh
   gradient norm :     0.0008191 Eh/α   predicted    -0.8288908E-05 ( -47.83%)
   displ. norm   :     0.1029875 α      lambda       -0.2395963E-04
   maximum displ.:     0.0376458 α      in ANC's #12, #2, #1, ...

........................................................................
.............................. CYCLE  153 ..............................
........................................................................

 iter      E             dE          RMSdq      gap      omega  full diag
   1    -95.0172524 -0.950173E+02  0.205E-02    0.72       0.0  T
   2    -95.0172528 -0.350677E-06  0.130E-02    0.71       1.0  T
   3    -95.0172522  0.588804E-06  0.882E-03    0.72       1.3  T
   4    -95.0172475  0.468552E-05  0.859E-03    0.71       1.3  T
   5    -95.0172530 -0.548845E-05  0.219E-03    0.72       5.3  T
   6    -95.0172532 -0.265658E-06  0.732E-04    0.72      15.8  T
   7    -95.0172533 -0.704028E-08  0.284E-04    0.72      40.7  T
   8    -95.0172533 -0.568392E-09  0.140E-04    0.72      82.6  T
     SCC iter.                  ...        0 min,  0.095 sec
     gradient                   ...        0 min,  0.063 sec
 * total energy  :   -93.7380200 Eh     change       -0.9269311E-05 Eh
   gradient norm :     0.0029439 Eh/α   predicted    -0.1203657E-04 (  29.85%)
   displ. norm   :     0.0874468 α      lambda       -0.3524347E-04
   maximum displ.:     0.0303988 α      in ANC's #12, #2, #5, ...

........................................................................
.............................. CYCLE  154 ..............................
........................................................................

 iter      E             dE          RMSdq      gap      omega  full diag
   1    -95.0170898 -0.950171E+02  0.188E-02    0.72       0.0  T
   2    -95.0170900 -0.196350E-06  0.125E-02    0.71       1.0  T
   3    -95.0170884  0.161236E-05  0.937E-03    0.72       1.2  T
   4    -95.0170839  0.453834E-05  0.940E-03    0.71       1.2  T
   5    -95.0170905 -0.665604E-05  0.254E-03    0.72       4.5  T
   6    -95.0170909 -0.356777E-06  0.941E-04    0.71      12.3  T
   7    -95.0170909 -0.352929E-08  0.319E-04    0.71      36.2  T
   8    -95.0170909 -0.552959E-09  0.170E-04    0.71      67.9  T
     SCC iter.                  ...        0 min,  0.088 sec
     gradient                   ...        0 min,  0.055 sec
 * total energy  :   -93.7380372 Eh     change       -0.1718433E-04 Eh
   gradient norm :     0.0029100 Eh/α   predicted    -0.1775713E-04 (   3.33%)
   displ. norm   :     0.1103253 α      lambda       -0.4628220E-04
   maximum displ.:     0.0408785 α      in ANC's #2, #12, #5, ...

........................................................................
.............................. CYCLE  155 ..............................
........................................................................

 iter      E             dE          RMSdq      gap      omega  full diag
   1    -95.0169111 -0.950169E+02  0.229E-02    0.71       0.0  T
   2    -95.0169111  0.522419E-07  0.142E-02    0.71       1.0  T
   3    -95.0169034  0.770466E-05  0.134E-02    0.72       1.0  T
   4    -95.0169058 -0.240747E-05  0.860E-03    0.71       1.3  T
   5    -95.0169117 -0.590636E-05  0.148E-03    0.71       7.8  T
   6    -95.0169118 -0.566209E-07  0.478E-04    0.71      24.2  T
   7    -95.0169118 -0.153673E-08  0.204E-04    0.71      56.7  T
     SCC iter.                  ...        0 min,  0.093 sec
     gradient                   ...        0 min,  0.056 sec
 * total energy  :   -93.7380545 Eh     change       -0.1726099E-04 Eh
   gradient norm :     0.0022949 Eh/α   predicted    -0.2343393E-04 (  35.76%)
   displ. norm   :     0.0427482 α      lambda       -0.2117228E-04
   maximum displ.:     0.0164014 α      in ANC's #2, #3, #5, ...

........................................................................
.............................. CYCLE  156 ..............................
........................................................................

 iter      E             dE          RMSdq      gap      omega  full diag
   1    -95.0171528 -0.950172E+02  0.877E-03    0.71       0.0  T
   2    -95.0171524  0.417069E-06  0.593E-03    0.72       1.9  T
   3    -95.0171511  0.132597E-05  0.564E-03    0.71       2.0  T
   4    -95.0171519 -0.807890E-06  0.417E-03    0.72       2.8  T
   5    -95.0171531 -0.122720E-05  0.474E-04    0.71      24.3  T
   6    -95.0171531 -0.511378E-09  0.348E-04    0.71      33.1  T
   7    -95.0171531 -0.637726E-09  0.994E-05    0.71     116.2  T
     SCC iter.                  ...        0 min,  0.083 sec
     gradient                   ...        0 min,  0.065 sec
 * total energy  :   -93.7380708 Eh     change       -0.1635560E-04 Eh
   gradient norm :     0.0013390 Eh/α   predicted    -0.1061390E-04 ( -35.11%)
   displ. norm   :     0.2176703 α      lambda       -0.3713841E-04
   maximum displ.:     0.0868903 α      in ANC's #2, #5, #1, ...

........................................................................
.............................. CYCLE  157 ..............................
........................................................................

 iter      E             dE          RMSdq      gap      omega  full diag
   1    -95.0171693 -0.950172E+02  0.301E-02    0.71       0.0  T
   2    -95.0171698 -0.482670E-06  0.179E-02    0.72       1.0  T
   3    -95.0171684  0.147138E-05  0.117E-02    0.71       1.0  T
   4    -95.0171687 -0.381271E-06  0.425E-03    0.72       2.7  T
   5    -95.0171698 -0.111129E-05  0.204E-03    0.71       5.7  T
   6    -95.0171701 -0.290097E-06  0.548E-04    0.71      21.1  T
   7    -95.0171701 -0.614860E-08  0.193E-04    0.71      59.8  T
   8    -95.0171701 -0.412626E-09  0.832E-05    0.71     138.7  T
     SCC iter.                  ...        0 min,  0.094 sec
     gradient                   ...        0 min,  0.061 sec
 * total energy  :   -93.7380949 Eh     change       -0.2410680E-04 Eh
   gradient norm :     0.0025649 Eh/α   predicted    -0.1896037E-04 ( -21.35%)
   displ. norm   :     0.1236806 α      lambda       -0.2599529E-04
   maximum displ.:     0.0510329 α      in ANC's #2, #5, #1, ...

........................................................................
.............................. CYCLE  158 ..............................
........................................................................

 iter      E             dE          RMSdq      gap      omega  full diag
   1    -95.0169255 -0.950169E+02  0.206E-02    0.71       0.0  T
   2    -95.0169257 -0.203439E-06  0.129E-02    0.71       1.0  T
   3    -95.0169243  0.137640E-05  0.883E-03    0.71       1.3  T
   4    -95.0169161  0.815271E-05  0.111E-02    0.72       1.0  T
   5    -95.0169263 -0.101827E-04  0.105E-03    0.71      11.0  T
   6    -95.0169263 -0.200012E-07  0.663E-04    0.71      17.4  T
   7    -95.0169263 -0.457878E-08  0.238E-04    0.71      48.4  T
   8    -95.0169263 -0.891973E-09  0.117E-04    0.71      99.0  T
     SCC iter.                  ...        0 min,  0.087 sec
     gradient                   ...        0 min,  0.049 sec
 * total energy  :   -93.7381108 Eh     change       -0.1587060E-04 Eh
   gradient norm :     0.0023680 Eh/α   predicted    -0.1319821E-04 ( -16.84%)
   displ. norm   :     0.1240383 α      lambda       -0.2691962E-04
   maximum displ.:     0.0530578 α      in ANC's #2, #3, #5, ...

........................................................................
.............................. CYCLE  159 ..............................
........................................................................

 iter      E             dE          RMSdq      gap      omega  full diag
   1    -95.0170236 -0.950170E+02  0.169E-02    0.71       0.0  T
   2    -95.0170235  0.110735E-06  0.104E-02    0.71       1.1  T
   3    -95.0170189  0.463275E-05  0.103E-02    0.72       1.1  T
   4    -95.0170206 -0.172541E-05  0.643E-03    0.71       1.8  T
   5    -95.0170239 -0.332437E-05  0.718E-04    0.71      16.1  T
   6    -95.0170240 -0.909877E-08  0.308E-04    0.71      37.5  T
   7    -95.0170240 -0.946429E-09  0.113E-04    0.71     102.0  T
     SCC iter.                  ...        0 min,  0.064 sec
     gradient                   ...        0 min,  0.048 sec
 * total energy  :   -93.7381323 Eh     change       -0.2155037E-04 Eh
   gradient norm :     0.0015576 Eh/α   predicted    -0.1367132E-04 ( -36.56%)
   displ. norm   :     0.3826543 α      lambda       -0.4660655E-04
   maximum displ.:     0.1652575 α      in ANC's #2, #3, #5, ...

........................................................................
.............................. CYCLE  160 ..............................
........................................................................

 iter      E             dE          RMSdq      gap      omega  full diag
   1    -95.0170128 -0.950170E+02  0.505E-02    0.71       0.0  T
   2    -95.0170117  0.107310E-05  0.304E-02    0.71       1.0  T
   3    -95.0169627  0.490565E-04  0.297E-02    0.73       1.0  T
   4    -95.0169880 -0.253347E-04  0.193E-02    0.70       1.0  T
   5    -95.0170156 -0.275965E-04  0.313E-03    0.72       3.7  T
   6    -95.0170160 -0.407906E-06  0.780E-04    0.71      14.8  T
   7    -95.0170160 -0.384129E-08  0.364E-04    0.71      31.7  T
   8    -95.0170160 -0.128129E-08  0.177E-04    0.71      65.1  T
     SCC iter.                  ...        0 min,  0.074 sec
     gradient                   ...        0 min,  0.051 sec
 * total energy  :   -93.7381697 Eh     change       -0.3733227E-04 Eh
   gradient norm :     0.0027519 Eh/α   predicted    -0.2482054E-04 ( -33.51%)
   displ. norm   :     0.1906027 α      lambda       -0.3035450E-04
   maximum displ.:     0.0834056 α      in ANC's #2, #3, #5, ...

........................................................................
.............................. CYCLE  161 ..............................
........................................................................

 iter      E             dE          RMSdq      gap      omega  full diag
   1    -95.0167593 -0.950168E+02  0.241E-02    0.71       0.0  T
   2    -95.0167597 -0.467167E-06  0.144E-02    0.71       1.0  T
   3    -95.0167593  0.394621E-06  0.961E-03    0.71       1.2  T
   4    -95.0167598 -0.450221E-06  0.205E-03    0.71       5.6  T
   5    -95.0167597  0.941194E-07  0.174E-03    0.72       6.6  T
   6    -95.0167599 -0.181424E-06  0.914E-04    0.71      12.6  T
   7    -95.0167599 -0.570139E-07  0.185E-04    0.71      62.5  T
   8    -95.0167599 -0.396483E-09  0.984E-05    0.71     117.4  T
     SCC iter.                  ...        0 min,  0.092 sec
     gradient                   ...        0 min,  0.054 sec
 * total energy  :   -93.7381916 Eh     change       -0.2191653E-04 Eh
   gradient norm :     0.0021919 Eh/α   predicted    -0.1573204E-04 ( -28.22%)
   displ. norm   :     0.2133643 α      lambda       -0.4055484E-04
   maximum displ.:     0.0965520 α      in ANC's #2, #3, #1, ...

........................................................................
.............................. CYCLE  162 ..............................
........................................................................

 iter      E             dE          RMSdq      gap      omega  full diag
   1    -95.0179491 -0.950179E+02  0.267E-02    0.71       0.0  T
   2    -95.0179496 -0.448832E-06  0.161E-02    0.72       1.0  T
   3    -95.0179477  0.190002E-05  0.107E-02    0.71       1.1  T
   4    -95.0179423  0.541700E-05  0.957E-03    0.72       1.2  T
   5    -95.0179500 -0.773223E-05  0.169E-03    0.72       6.8  T
   6    -95.0179501 -0.113977E-06  0.541E-04    0.72      21.3  T
   7    -95.0179501 -0.193057E-08  0.241E-04    0.72      47.8  T
   8    -95.0179501 -0.247496E-09  0.127E-04    0.72      90.8  T
     SCC iter.                  ...        0 min,  0.084 sec
     gradient                   ...        0 min,  0.048 sec
 * total energy  :   -93.7382176 Eh     change       -0.2604375E-04 Eh
   gradient norm :     0.0017227 Eh/α   predicted    -0.2120235E-04 ( -18.59%)
   displ. norm   :     0.4334074 α      lambda       -0.3443178E-04
   maximum displ.:     0.1995168 α      in ANC's #2, #3, #1, ...

........................................................................
.............................. CYCLE  163 ..............................
........................................................................

 iter      E             dE          RMSdq      gap      omega  full diag
   1    -95.0158374 -0.950158E+02  0.573E-02    0.71       0.0  T
   2    -95.0158406 -0.327273E-05  0.344E-02    0.72       1.0  T
   3    -95.0158401  0.502141E-06  0.207E-02    0.72       1.0  T
   4    -95.0158303  0.985001E-05  0.125E-02    0.73       1.0  T
   5    -95.0158417 -0.114116E-04  0.360E-03    0.72       3.2  T
   6    -95.0158425 -0.794344E-06  0.113E-03    0.72      10.2  T
   7    -95.0158425 -0.217712E-07  0.525E-04    0.72      22.0  T
   8    -95.0158425 -0.134527E-08  0.221E-04    0.72      52.2  T
   9    -95.0158425 -0.360657E-09  0.950E-05    0.72     121.6  T
     SCC iter.                  ...        0 min,  0.092 sec
     gradient                   ...        0 min,  0.051 sec
 * total energy  :   -93.7382223 Eh     change       -0.4697266E-05 Eh
   gradient norm :     0.0036122 Eh/α   predicted    -0.1865554E-04 ( 297.16%)
   displ. norm   :     0.0571510 α      lambda       -0.3540566E-04
   maximum displ.:     0.0234008 α      in ANC's #12, #9, #33, ...

........................................................................
.............................. CYCLE  164 ..............................
........................................................................

 iter      E             dE          RMSdq      gap      omega  full diag
   1    -95.0174919 -0.950175E+02  0.100E-02    0.72       0.0  T
   2    -95.0174922 -0.287031E-06  0.607E-03    0.72       1.9  T
   3    -95.0174914  0.759660E-06  0.490E-03    0.72       2.4  T
   4    -95.0174909  0.508939E-06  0.413E-03    0.72       2.8  T
   5    -95.0174923 -0.135153E-05  0.101E-03    0.72      11.4  T
   6    -95.0174923 -0.458169E-07  0.314E-04    0.72      36.8  T
   7    -95.0174923 -0.158479E-09  0.163E-04    0.72      70.7  T
     SCC iter.                  ...        0 min,  0.084 sec
     gradient                   ...        0 min,  0.061 sec
 * total energy  :   -93.7382456 Eh     change       -0.2323688E-04 Eh
   gradient norm :     0.0014546 Eh/α   predicted    -0.1776479E-04 ( -23.55%)
   displ. norm   :     0.0673591 α      lambda       -0.1649003E-04
   maximum displ.:     0.0317445 α      in ANC's #3, #2, #12, ...

........................................................................
.............................. CYCLE  165 ..............................
........................................................................

 iter      E             dE          RMSdq      gap      omega  full diag
   1    -95.0184150 -0.950184E+02  0.111E-02    0.72       0.0  T
   2    -95.0184144  0.562465E-06  0.781E-03    0.72       1.5  T
   3    -95.0184133  0.109865E-05  0.654E-03    0.72       1.8  T
   4    -95.0184135 -0.120175E-06  0.553E-03    0.72       2.1  T
   5    -95.0184156 -0.211246E-05  0.107E-03    0.72      10.7  T
   6    -95.0184156 -0.283604E-07  0.380E-04    0.72      30.4  T
   7    -95.0184156 -0.446803E-09  0.180E-04    0.72      64.1  T
     SCC iter.                  ...        0 min,  0.083 sec
     gradient                   ...        0 min,  0.060 sec
 * total energy  :   -93.7382580 Eh     change       -0.1246254E-04 Eh
   gradient norm :     0.0015275 Eh/α   predicted    -0.8262455E-05 ( -33.70%)
   displ. norm   :     0.0792906 α      lambda       -0.1041447E-04
   maximum displ.:     0.0454047 α      in ANC's #3, #2, #1, ...

........................................................................
.............................. CYCLE  166 ..............................
........................................................................

 iter      E             dE          RMSdq      gap      omega  full diag
   1    -95.0186321 -0.950186E+02  0.101E-02    0.72       0.0  T
   2    -95.0186322 -0.675402E-07  0.600E-03    0.72       1.9  T
   3    -95.0186316  0.621379E-06  0.460E-03    0.72       2.5  T
   4    -95.0186309  0.688513E-06  0.420E-03    0.72       2.7  T
   5    -95.0186323 -0.141304E-05  0.794E-04    0.72      14.6  T
   6    -95.0186323 -0.232021E-07  0.376E-04    0.72      30.7  T
   7    -95.0186323 -0.155913E-08  0.120E-04    0.72      96.0  T
     SCC iter.                  ...        0 min,  0.085 sec
     gradient                   ...        0 min,  0.057 sec
 * total energy  :   -93.7382670 Eh     change       -0.8927924E-05 Eh
   gradient norm :     0.0018771 Eh/α   predicted    -0.5226262E-05 ( -41.46%)
   displ. norm   :     0.1073761 α      lambda       -0.1439697E-04
   maximum displ.:     0.0594162 α      in ANC's #3, #2, #1, ...

........................................................................
.............................. CYCLE  167 ..............................
........................................................................

 iter      E             dE          RMSdq      gap      omega  full diag
   1    -95.0182159 -0.950182E+02  0.125E-02    0.72       0.0  T
   2    -95.0182153  0.609969E-06  0.805E-03    0.72       1.4  T
   3    -95.0182104  0.492517E-05  0.925E-03    0.73       1.2  T
   4    -95.0182148 -0.443396E-05  0.509E-03    0.72       2.3  T
   5    -95.0182164 -0.155058E-05  0.949E-04    0.72      12.2  T
   6    -95.0182164 -0.221611E-07  0.357E-04    0.72      32.3  T
   7    -95.0182164 -0.148758E-08  0.125E-04    0.72      92.4  T
     SCC iter.                  ...        0 min,  0.089 sec
     gradient                   ...        0 min,  0.072 sec
 * total energy  :   -93.7382832 Eh     change       -0.1623858E-04 Eh
   gradient norm :     0.0010718 Eh/α   predicted    -0.7238725E-05 ( -55.42%)
   displ. norm   :     0.1715482 α      lambda       -0.1758547E-04
   maximum displ.:     0.0993437 α      in ANC's #3, #2, #1, ...

........................................................................
.............................. CYCLE  168 ..............................
........................................................................

 iter      E             dE          RMSdq      gap      omega  full diag
   1    -95.0173179 -0.950173E+02  0.190E-02    0.72       0.0  T
   2    -95.0173179  0.313927E-07  0.124E-02    0.72       1.0  T
   3    -95.0173162  0.174579E-05  0.998E-03    0.72       1.2  T
   4    -95.0173138  0.232455E-05  0.837E-03    0.72       1.4  T
   5    -95.0173186 -0.478814E-05  0.252E-03    0.72       4.6  T
   6    -95.0173191 -0.456545E-06  0.508E-04    0.72      22.7  T
   7    -95.0173191 -0.173468E-08  0.187E-04    0.72      61.7  T
   8    -95.0173191  0.132545E-09  0.120E-04    0.72      96.4  T
     SCC iter.                  ...        0 min,  0.110 sec
     gradient                   ...        0 min,  0.065 sec
 * total energy  :   -93.7383001 Eh     change       -0.1691551E-04 Eh
   gradient norm :     0.0009998 Eh/α   predicted    -0.8911479E-05 ( -47.32%)
   displ. norm   :     0.1866189 α      lambda       -0.1561751E-04
   maximum displ.:     0.1094327 α      in ANC's #3, #2, #1, ...

........................................................................
.............................. CYCLE  169 ..............................
........................................................................

 iter      E             dE          RMSdq      gap      omega  full diag
   1    -95.0168553 -0.950169E+02  0.188E-02    0.72       0.0  T
   2    -95.0168554 -0.129748E-06  0.115E-02    0.72       1.0  T
   3    -95.0168537  0.175155E-05  0.884E-03    0.73       1.3  T
   4    -95.0168509  0.281917E-05  0.785E-03    0.72       1.5  T
   5    -95.0168558 -0.488545E-05  0.200E-03    0.72       5.8  T
   6    -95.0168560 -0.195827E-06  0.414E-04    0.72      27.9  T
   7    -95.0168560 -0.377312E-09  0.172E-04    0.72      66.9  T
     SCC iter.                  ...        0 min,  0.092 sec
     gradient                   ...        0 min,  0.066 sec
 * total energy  :   -93.7383165 Eh     change       -0.1643374E-04 Eh
   gradient norm :     0.0012262 Eh/α   predicted    -0.7932358E-05 ( -51.73%)
   displ. norm   :     0.2302784 α      lambda       -0.1668533E-04
   maximum displ.:     0.1379235 α      in ANC's #3, #2, #1, ...

........................................................................
.............................. CYCLE  170 ..............................
........................................................................

 iter      E             dE          RMSdq      gap      omega  full diag
   1    -95.0173111 -0.950173E+02  0.223E-02    0.72       0.0  T
   2    -95.0173104  0.707284E-06  0.140E-02    0.72       1.0  T
   3    -95.0172962  0.141468E-04  0.159E-02    0.73       1.0  T
   4    -95.0173068 -0.105567E-04  0.853E-03    0.72       1.4  T
   5    -95.0173118 -0.500312E-05  0.134E-03    0.72       8.6  T
   6    -95.0173119 -0.860686E-07  0.372E-04    0.72      31.1  T
   7    -95.0173119 -0.572129E-09  0.141E-04    0.72      81.8  T
     SCC iter.                  ...        0 min,  0.111 sec
     gradient                   ...        0 min,  0.083 sec
 * total energy  :   -93.7383374 Eh     change       -0.2089301E-04 Eh
   gradient norm :     0.0010728 Eh/α   predicted    -0.8543537E-05 ( -59.11%)
   displ. norm   :     0.3374667 α      lambda       -0.2400772E-04
   maximum displ.:     0.1997399 α      in ANC's #3, #2, #1, ...

........................................................................
.............................. CYCLE  171 ..............................
........................................................................

 iter      E             dE          RMSdq      gap      omega  full diag
   1    -95.0173832 -0.950174E+02  0.351E-02    0.72       0.0  T
   2    -95.0173833 -0.125638E-06  0.212E-02    0.72       1.0  T
   3    -95.0173722  0.111100E-04  0.169E-02    0.73       1.0  T
   4    -95.0173711  0.113322E-05  0.127E-02    0.71       1.0  T
   5    -95.0173843 -0.132096E-04  0.195E-03    0.72       5.9  T
   6    -95.0173844 -0.150457E-06  0.616E-04    0.72      18.7  T
   7    -95.0173844 -0.111137E-08  0.242E-04    0.72      47.6  T
   8    -95.0173844 -0.621867E-10  0.117E-04    0.72      98.7  T
     SCC iter.                  ...        0 min,  0.110 sec
     gradient                   ...        0 min,  0.068 sec
 * total energy  :   -93.7383659 Eh     change       -0.2843262E-04 Eh
   gradient norm :     0.0008467 Eh/α   predicted    -0.1261578E-04 ( -55.63%)
   displ. norm   :     0.4006264 α      lambda       -0.2346597E-04
   maximum displ.:     0.2365050 α      in ANC's #3, #2, #1, ...

........................................................................
.............................. CYCLE  172 ..............................
........................................................................

 iter      E             dE          RMSdq      gap      omega  full diag
   1    -95.0174479 -0.950174E+02  0.420E-02    0.72       0.0  T
   2    -95.0174485 -0.541562E-06  0.251E-02    0.72       1.0  T
   3    -95.0174402  0.830581E-05  0.179E-02    0.73       1.0  T
   4    -95.0174430 -0.283832E-05  0.900E-03    0.72       1.3  T
   5    -95.0174489 -0.590326E-05  0.271E-03    0.72       4.3  T
   6    -95.0174494 -0.488349E-06  0.714E-04    0.72      16.2  T
   7    -95.0174494 -0.389888E-08  0.260E-04    0.72      44.4  T
   8    -95.0174494 -0.182240E-09  0.129E-04    0.72      89.8  T
     SCC iter.                  ...        0 min,  0.119 sec
     gradient                   ...        0 min,  0.075 sec
 * total energy  :   -93.7383926 Eh     change       -0.2676775E-04 Eh
   gradient norm :     0.0010668 Eh/α   predicted    -0.1257289E-04 ( -53.03%)
   displ. norm   :     0.4262479 α      lambda       -0.2102678E-04
   maximum displ.:     0.2547256 α      in ANC's #3, #2, #1, ...

........................................................................
.............................. CYCLE  173 ..............................
........................................................................

 iter      E             dE          RMSdq      gap      omega  full diag
   1    -95.0176763 -0.950177E+02  0.449E-02    0.72       0.0  T
   2    -95.0176764 -0.402376E-07  0.270E-02    0.72       1.0  T
   3    -95.0176577  0.186591E-04  0.211E-02    0.73       1.0  T
   4    -95.0176517  0.603968E-05  0.178E-02    0.71       1.0  T
   5    -95.0176780 -0.263922E-04  0.180E-03    0.72       6.4  T
   6    -95.0176782 -0.112403E-06  0.812E-04    0.72      14.2  T
   7    -95.0176782 -0.326290E-08  0.310E-04    0.72      37.3  T
   8    -95.0176782 -0.136140E-09  0.151E-04    0.72      76.3  T
     SCC iter.                  ...        0 min,  0.110 sec
     gradient                   ...        0 min,  0.069 sec
 * total energy  :   -93.7384158 Eh     change       -0.2318932E-04 Eh
   gradient norm :     0.0010756 Eh/α   predicted    -0.1136767E-04 ( -50.98%)
   displ. norm   :     0.3968395 α      lambda       -0.1687482E-04
   maximum displ.:     0.2383822 α      in ANC's #3, #2, #5, ...

........................................................................
.............................. CYCLE  174 ..............................
........................................................................

 iter      E             dE          RMSdq      gap      omega  full diag
   1    -95.0172199 -0.950172E+02  0.431E-02    0.72       0.0  T
   2    -95.0172199  0.630038E-08  0.256E-02    0.73       1.0  T
   3    -95.0171961  0.238131E-04  0.215E-02    0.71       1.0  T
   4    -95.0172077 -0.115787E-04  0.129E-02    0.73       1.0  T
   5    -95.0172212 -0.134448E-04  0.203E-03    0.72       5.7  T
   6    -95.0172213 -0.139938E-06  0.876E-04    0.72      13.2  T
   7    -95.0172213 -0.207054E-08  0.300E-04    0.72      38.5  T
   8    -95.0172213 -0.115628E-08  0.115E-04    0.72     100.2  T
     SCC iter.                  ...        0 min,  0.104 sec
     gradient                   ...        0 min,  0.076 sec
 * total energy  :   -93.7384341 Eh     change       -0.1829722E-04 Eh
   gradient norm :     0.0011108 Eh/α   predicted    -0.9030854E-05 ( -50.64%)
   displ. norm   :     0.3368260 α      lambda       -0.1598812E-04
   maximum displ.:     0.2079143 α      in ANC's #3, #2, #5, ...

........................................................................
.............................. CYCLE  175 ..............................
........................................................................

 iter      E             dE          RMSdq      gap      omega  full diag
   1    -95.0180643 -0.950181E+02  0.368E-02    0.73       0.0  T
   2    -95.0180648 -0.491755E-06  0.217E-02    0.72       1.0  T
   3    -95.0180618  0.300022E-05  0.134E-02    0.73       1.0  T
   4    -95.0180585  0.332437E-05  0.883E-03    0.72       1.3  T
   5    -95.0180651 -0.664605E-05  0.143E-03    0.72       8.1  T
   6    -95.0180652 -0.882999E-07  0.622E-04    0.72      18.6  T
   7    -95.0180652 -0.610385E-09  0.241E-04    0.72      47.9  T
   8    -95.0180652 -0.368146E-09  0.104E-04    0.72     111.5  T
     SCC iter.                  ...        0 min,  0.114 sec
     gradient                   ...        0 min,  0.073 sec
 * total energy  :   -93.7384506 Eh     change       -0.1650199E-04 Eh
   gradient norm :     0.0006299 Eh/α   predicted    -0.8399178E-05 ( -49.10%)
   displ. norm   :     0.3777774 α      lambda       -0.1335896E-04
   maximum displ.:     0.2298834 α      in ANC's #3, #2, #5, ...

........................................................................
.............................. CYCLE  176 ..............................
........................................................................

 iter      E             dE          RMSdq      gap      omega  full diag
   1    -95.0166150 -0.950166E+02  0.446E-02    0.72       0.0  T
   2    -95.0166146  0.379319E-06  0.265E-02    0.72       1.0  T
   3    -95.0165847  0.299322E-04  0.223E-02    0.71       1.0  T
   4    -95.0165994 -0.147564E-04  0.144E-02    0.73       1.0  T
   5    -95.0166161 -0.167145E-04  0.116E-03    0.72       9.9  T
   6    -95.0166161 -0.194600E-07  0.810E-04    0.72      14.3  T
   7    -95.0166161 -0.213971E-08  0.257E-04    0.72      44.9  T
   8    -95.0166161 -0.626414E-09  0.114E-04    0.72     101.2  T
     SCC iter.                  ...        0 min,  0.108 sec
     gradient                   ...        0 min,  0.071 sec
 * total energy  :   -93.7384629 Eh     change       -0.1229130E-04 Eh
   gradient norm :     0.0014413 Eh/α   predicted    -0.7106536E-05 ( -42.18%)
   displ. norm   :     0.2510700 α      lambda       -0.1686201E-04
   maximum displ.:     0.1565754 α      in ANC's #3, #2, #5, ...

........................................................................
.............................. CYCLE  177 ..............................
........................................................................

 iter      E             dE          RMSdq      gap      omega  full diag
   1    -95.0176497 -0.950176E+02  0.319E-02    0.72       0.0  T
   2    -95.0176453  0.436105E-05  0.203E-02    0.73       1.0  T
   3    -95.0175951  0.501783E-04  0.274E-02    0.71       1.0  T
   4    -95.0176464 -0.512215E-04  0.970E-03    0.73       1.2  T
   5    -95.0176514 -0.499244E-05  0.142E-03    0.72       8.2  T
   6    -95.0176514 -0.688899E-07  0.700E-04    0.73      16.5  T
   7    -95.0176514 -0.367267E-08  0.244E-04    0.73      47.3  T
   8    -95.0176514 -0.958664E-10  0.126E-04    0.73      91.3  T
     SCC iter.                  ...        0 min,  0.095 sec
     gradient                   ...        0 min,  0.063 sec
 * total energy  :   -93.7384799 Eh     change       -0.1694134E-04 Eh
   gradient norm :     0.0011785 Eh/α   predicted    -0.8671320E-05 ( -48.82%)
   displ. norm   :     0.3570506 α      lambda       -0.1920521E-04
   maximum displ.:     0.2225097 α      in ANC's #3, #2, #5, ...

........................................................................
.............................. CYCLE  178 ..............................
........................................................................

 iter      E             dE          RMSdq      gap      omega  full diag
   1    -95.0171238 -0.950171E+02  0.462E-02    0.72       0.0  T
   2    -95.0171244 -0.545714E-06  0.276E-02    0.72       1.0  T
   3    -95.0171181  0.629522E-05  0.212E-02    0.73       1.0  T
   4    -95.0171183 -0.203071E-06  0.908E-03    0.71       1.3  T
   5    -95.0171241 -0.585640E-05  0.368E-03    0.72       3.1  T
   6    -95.0171251 -0.930418E-06  0.730E-04    0.72      15.8  T
   7    -95.0171251 -0.140793E-08  0.292E-04    0.72      39.5  T
   8    -95.0171251  0.614563E-09  0.187E-04    0.72      61.7  T
     SCC iter.                  ...        0 min,  0.096 sec
     gradient                   ...        0 min,  0.053 sec
 * total energy  :   -93.7384997 Eh     change       -0.1985551E-04 Eh
   gradient norm :     0.0012871 Eh/α   predicted    -0.1014913E-04 ( -48.89%)
   displ. norm   :     0.3882408 α      lambda       -0.2475933E-04
   maximum displ.:     0.2444852 α      in ANC's #3, #2, #5, ...

........................................................................
.............................. CYCLE  179 ..............................
........................................................................

 iter      E             dE          RMSdq      gap      omega  full diag
   1    -95.0168993 -0.950169E+02  0.496E-02    0.71       0.0  T
   2    -95.0168970  0.230832E-05  0.297E-02    0.72       1.0  T
   3    -95.0168017  0.952846E-04  0.350E-02    0.69       1.0  T
   4    -95.0168937 -0.920309E-04  0.107E-02    0.72       1.1  T
   5    -95.0169008 -0.705052E-05  0.148E-03    0.72       7.8  T
   6    -95.0169008 -0.549532E-07  0.887E-04    0.72      13.0  T
   7    -95.0169009 -0.939455E-08  0.275E-04    0.72      42.0  T
   8    -95.0169009 -0.152809E-09  0.125E-04    0.72      92.4  T
     SCC iter.                  ...        0 min,  0.089 sec
     gradient                   ...        0 min,  0.053 sec
 * total energy  :   -93.7385267 Eh     change       -0.2699653E-04 Eh
   gradient norm :     0.0015194 Eh/α   predicted    -0.1321159E-04 ( -51.06%)
   displ. norm   :     0.3185591 α      lambda       -0.2912481E-04
   maximum displ.:     0.1930949 α      in ANC's #3, #5, #2, ...

........................................................................
.............................. CYCLE  180 ..............................
........................................................................

 iter      E             dE          RMSdq      gap      omega  full diag
   1    -95.0178839 -0.950179E+02  0.400E-02    0.72       0.0  T
   2    -95.0178841 -0.147285E-06  0.235E-02    0.72       1.0  T
   3    -95.0178674  0.166949E-04  0.158E-02    0.71       1.0  T
   4    -95.0178778 -0.104000E-04  0.945E-03    0.72       1.2  T
   5    -95.0178846 -0.684112E-05  0.117E-03    0.72       9.8  T
   6    -95.0178847 -0.494510E-07  0.693E-04    0.72      16.7  T
   7    -95.0178847 -0.181974E-08  0.265E-04    0.72      43.6  T
   8    -95.0178847  0.322032E-09  0.148E-04    0.72      78.0  T
     SCC iter.                  ...        0 min,  0.093 sec
     gradient                   ...        0 min,  0.055 sec
 * total energy  :   -93.7385570 Eh     change       -0.3024738E-04 Eh
   gradient norm :     0.0012110 Eh/α   predicted    -0.1522084E-04 ( -49.68%)
   displ. norm   :     0.5855385 α      lambda       -0.3014606E-04
   maximum displ.:     0.3858819 α      in ANC's #3, #2, #5, ...

........................................................................
.............................. CYCLE  181 ..............................
........................................................................

 iter      E             dE          RMSdq      gap      omega  full diag
   1    -95.0149066 -0.950149E+02  0.723E-02    0.70       0.0  T
   2    -95.0149053  0.137996E-05  0.429E-02    0.71       1.0  T
   3    -95.0147885  0.116761E-03  0.390E-02    0.68       1.0  T
   4    -95.0149003 -0.111764E-03  0.117E-02    0.71       1.0  T
   5    -95.0149086 -0.834761E-05  0.224E-03    0.71       5.2  T
   6    -95.0149087 -0.142747E-06  0.119E-03    0.71       9.7  T
   7    -95.0149088 -0.393962E-08  0.365E-04    0.71      31.6  T
   8    -95.0149088 -0.120650E-10  0.145E-04    0.71      79.6  T
     SCC iter.                  ...        0 min,  0.089 sec
     gradient                   ...        0 min,  0.056 sec
 * total energy  :   -93.7385713 Eh     change       -0.1433730E-04 Eh
   gradient norm :     0.0038232 Eh/α   predicted    -0.1737470E-04 (  21.19%)
   displ. norm   :     0.1229101 α      lambda       -0.5007899E-04
   maximum displ.:     0.0718765 α      in ANC's #1, #13, #8, ...

........................................................................
.............................. CYCLE  182 ..............................
........................................................................

 iter      E             dE          RMSdq      gap      omega  full diag
   1    -95.0178500 -0.950178E+02  0.188E-02    0.71       0.0  T
   2    -95.0178499  0.123983E-06  0.117E-02    0.71       1.0  T
   3    -95.0178465  0.335604E-05  0.102E-02    0.71       1.1  T
   4    -95.0178444  0.209523E-05  0.870E-03    0.70       1.3  T
   5    -95.0178504 -0.603397E-05  0.138E-03    0.71       8.3  T
   6    -95.0178505 -0.700247E-07  0.418E-04    0.71      27.6  T
   7    -95.0178505 -0.104977E-08  0.178E-04    0.71      65.0  T
     SCC iter.                  ...        0 min,  0.086 sec
     gradient                   ...        0 min,  0.066 sec
 * total energy  :   -93.7386003 Eh     change       -0.2905087E-04 Eh
   gradient norm :     0.0028717 Eh/α   predicted    -0.2541954E-04 ( -12.50%)
   displ. norm   :     0.1350491 α      lambda       -0.3307715E-04
   maximum displ.:     0.0763715 α      in ANC's #3, #1, #5, ...

........................................................................
.............................. CYCLE  183 ..............................
........................................................................

 iter      E             dE          RMSdq      gap      omega  full diag
   1    -95.0186630 -0.950187E+02  0.158E-02    0.72       0.0  T
   2    -95.0186628  0.212006E-06  0.986E-03    0.71       1.2  T
   3    -95.0186553  0.745209E-05  0.111E-02    0.72       1.0  T
   4    -95.0186607 -0.539486E-05  0.599E-03    0.71       1.9  T
   5    -95.0186636 -0.284097E-05  0.829E-04    0.71      13.9  T
   6    -95.0186636 -0.208100E-07  0.355E-04    0.71      32.6  T
   7    -95.0186636 -0.239648E-08  0.135E-04    0.71      85.6  T
     SCC iter.                  ...        0 min,  0.086 sec
     gradient                   ...        0 min,  0.061 sec
 * total energy  :   -93.7386223 Eh     change       -0.2197179E-04 Eh
   gradient norm :     0.0013296 Eh/α   predicted    -0.1684280E-04 ( -23.34%)
   displ. norm   :     0.4259317 α      lambda       -0.3361095E-04
   maximum displ.:     0.2738992 α      in ANC's #3, #2, #5, ...
 * RMSD in coord.:     0.7284551 α      energy gain  -0.6544047E-03 Eh

generating ANC from exact Hessian ...
Using Lindh-Hessian (1995)
 Shifting diagonal of input Hessian by    9.9495905274863336E-003
 Lowest  eigenvalues of input Hessian
    0.000000    0.000000    0.000000    0.000000    0.000000    0.000000
    0.010000    0.010041    0.010071    0.010098    0.010261    0.010410
    0.010581    0.010725    0.010761    0.010800    0.010896    0.011004
 Highest eigenvalues
    1.628827    1.892142    1.981835    2.019146    2.237554    2.321390


........................................................................
.............................. CYCLE  184 ..............................
........................................................................

 iter      E             dE          RMSdq      gap      omega  full diag
   1    -95.0178708 -0.950179E+02  0.500E-02    0.71       0.0  T
   2    -95.0178673  0.349003E-05  0.305E-02    0.70       1.0  T
   3    -95.0177485  0.118835E-03  0.401E-02    0.73       1.0  T
   4    -95.0178663 -0.117852E-03  0.916E-03    0.70       1.3  T
   5    -95.0178726 -0.632680E-05  0.187E-03    0.70       6.2  T
   6    -95.0178728 -0.137689E-06  0.990E-04    0.70      11.7  T
   7    -95.0178728 -0.152747E-07  0.304E-04    0.70      38.0  T
   8    -95.0178728 -0.347882E-10  0.122E-04    0.70      94.3  T
     SCC iter.                  ...        0 min,  0.098 sec
     gradient                   ...        0 min,  0.065 sec
 * total energy  :   -93.7386585 Eh     change       -0.3620166E-04 Eh
   gradient norm :     0.0015094 Eh/α   predicted     0.0000000E+00 (-100.00%)
   displ. norm   :     0.0385276 α      lambda       -0.1471744E-04
   maximum displ.:     0.0136113 α      in ANC's #5, #1, #32, ...

........................................................................
.............................. CYCLE  185 ..............................
........................................................................

 iter      E             dE          RMSdq      gap      omega  full diag
   1    -95.0183365 -0.950183E+02  0.130E-02    0.70       0.0  T
   2    -95.0183350  0.147421E-05  0.910E-03    0.71       1.3  T
   3    -95.0183299  0.514653E-05  0.104E-02    0.70       1.1  T
   4    -95.0183361 -0.617278E-05  0.442E-03    0.71       2.6  T
   5    -95.0183373 -0.124100E-05  0.155E-03    0.71       7.4  T
   6    -95.0183374 -0.496390E-07  0.589E-04    0.71      19.6  T
   7    -95.0183374 -0.924233E-08  0.145E-04    0.71      79.9  T
   8    -95.0183374  0.646736E-10  0.999E-05    0.71     115.6  T
     SCC iter.                  ...        0 min,  0.098 sec
     gradient                   ...        0 min,  0.059 sec
 * total energy  :   -93.7386708 Eh     change       -0.1224244E-04 Eh
   gradient norm :     0.0008848 Eh/α   predicted    -0.7389227E-05 ( -39.64%)
   displ. norm   :     0.0586686 α      lambda       -0.1180968E-04
   maximum displ.:     0.0239102 α      in ANC's #1, #5, #6, ...

........................................................................
.............................. CYCLE  186 ..............................
........................................................................

 iter      E             dE          RMSdq      gap      omega  full diag
   1    -95.0185614 -0.950186E+02  0.117E-02    0.71       0.0  T
   2    -95.0185599  0.153543E-05  0.857E-03    0.70       1.3  T
   3    -95.0185562  0.366715E-05  0.929E-03    0.71       1.2  T
   4    -95.0185607 -0.448676E-05  0.450E-03    0.70       2.6  T
   5    -95.0185619 -0.116918E-05  0.105E-03    0.70      11.0  T
   6    -95.0185619 -0.221155E-07  0.362E-04    0.70      31.9  T
   7    -95.0185619 -0.306505E-08  0.116E-04    0.70      99.8  T
     SCC iter.                  ...        0 min,  0.084 sec
     gradient                   ...        0 min,  0.058 sec
 * total energy  :   -93.7386801 Eh     change       -0.9363507E-05 Eh
   gradient norm :     0.0011758 Eh/α   predicted    -0.5915209E-05 ( -36.83%)
   displ. norm   :     0.0719423 α      lambda       -0.1125140E-04
   maximum displ.:     0.0328840 α      in ANC's #1, #5, #6, ...

........................................................................
.............................. CYCLE  187 ..............................
........................................................................

 iter      E             dE          RMSdq      gap      omega  full diag
   1    -95.0183428 -0.950183E+02  0.185E-02    0.70       0.0  T
   2    -95.0183433 -0.507032E-06  0.129E-02    0.70       1.0  T
   3    -95.0183438 -0.452700E-06  0.723E-03    0.70       1.6  T
   4    -95.0183435  0.287778E-06  0.434E-03    0.70       2.7  T
   5    -95.0183434  0.916450E-07  0.235E-03    0.70       4.9  T
   6    -95.0183438 -0.423757E-06  0.108E-03    0.70      10.7  T
   7    -95.0183439 -0.706273E-07  0.251E-04    0.70      46.0  T
   8    -95.0183439 -0.866720E-09  0.134E-04    0.70      86.3  T
     SCC iter.                  ...        0 min,  0.089 sec
     gradient                   ...        0 min,  0.052 sec
 * total energy  :   -93.7386836 Eh     change       -0.3502260E-05 Eh
   gradient norm :     0.0012239 Eh/α   predicted    -0.5643919E-05 (  61.15%)
   displ. norm   :     0.0258654 α      lambda       -0.8102929E-05
   maximum displ.:     0.0136761 α      in ANC's #1, #5, #6, ...

........................................................................
.............................. CYCLE  188 ..............................
........................................................................

 iter      E             dE          RMSdq      gap      omega  full diag
   1    -95.0180309 -0.950180E+02  0.937E-03    0.70       0.0  T
   2    -95.0180308  0.154026E-06  0.739E-03    0.71       1.6  T
   3    -95.0180309 -0.127645E-06  0.431E-03    0.70       2.7  T
   4    -95.0180303  0.666296E-06  0.414E-03    0.71       2.8  T
   5    -95.0180313 -0.108586E-05  0.184E-03    0.70       6.3  T
   6    -95.0180315 -0.183099E-06  0.502E-04    0.70      23.0  T
   7    -95.0180315 -0.555941E-08  0.148E-04    0.70      77.9  T
   8    -95.0180315 -0.603876E-09  0.736E-05    0.70     156.8  T
     SCC iter.                  ...        0 min,  0.096 sec
     gradient                   ...        0 min,  0.068 sec
 * total energy  :   -93.7386902 Eh     change       -0.6578077E-05 Eh
   gradient norm :     0.0007198 Eh/α   predicted    -0.4052849E-05 ( -38.39%)
   displ. norm   :     0.0390505 α      lambda       -0.6333245E-05
   maximum displ.:     0.0198219 α      in ANC's #1, #5, #7, ...

........................................................................
.............................. CYCLE  189 ..............................
........................................................................

 iter      E             dE          RMSdq      gap      omega  full diag
   1    -95.0180530 -0.950181E+02  0.113E-02    0.70       0.0  T
   2    -95.0180532 -0.264546E-06  0.690E-03    0.70       1.7  T
   3    -95.0180532  0.593124E-07  0.432E-03    0.70       2.7  T
   4    -95.0180526  0.599000E-06  0.308E-03    0.70       3.8  T
   5    -95.0180530 -0.449065E-06  0.199E-03    0.71       5.8  T
   6    -95.0180533 -0.293653E-06  0.450E-04    0.70      25.6  T
   7    -95.0180533 -0.440636E-09  0.170E-04    0.70      67.9  T
     SCC iter.                  ...        0 min,  0.093 sec
     gradient                   ...        0 min,  0.058 sec
 * total energy  :   -93.7386897 Eh     change        0.4902928E-06 Eh
   gradient norm :     0.0016290 Eh/α   predicted    -0.3173170E-05 (-747.20%)
   displ. norm   :     0.0404778 α      lambda       -0.1062160E-04
   maximum displ.:     0.0234080 α      in ANC's #1, #5, #6, ...

........................................................................
.............................. CYCLE  190 ..............................
........................................................................

 iter      E             dE          RMSdq      gap      omega  full diag
   1    -95.0182800 -0.950183E+02  0.110E-02    0.70       0.0  T
   2    -95.0182792  0.798430E-06  0.812E-03    0.70       1.4  T
   3    -95.0182778  0.138879E-05  0.709E-03    0.71       1.6  T
   4    -95.0182791 -0.129261E-05  0.504E-03    0.70       2.3  T
   5    -95.0182807 -0.152971E-05  0.148E-03    0.70       7.8  T
   6    -95.0182807 -0.661504E-07  0.607E-04    0.70      19.0  T
   7    -95.0182807 -0.285705E-08  0.221E-04    0.70      52.2  T
   8    -95.0182807 -0.126107E-09  0.129E-04    0.70      89.6  T
     SCC iter.                  ...        0 min,  0.097 sec
     gradient                   ...        0 min,  0.057 sec
 * total energy  :   -93.7386952 Eh     change       -0.5487963E-05 Eh
   gradient norm :     0.0013118 Eh/α   predicted    -0.5316711E-05 (  -3.12%)
   displ. norm   :     0.0438843 α      lambda       -0.9808253E-05
   maximum displ.:     0.0236153 α      in ANC's #1, #5, #6, ...

........................................................................
.............................. CYCLE  191 ..............................
........................................................................

 iter      E             dE          RMSdq      gap      omega  full diag
   1    -95.0183727 -0.950184E+02  0.138E-02    0.70       0.0  T
   2    -95.0183725  0.208762E-06  0.849E-03    0.70       1.4  T
   3    -95.0183688  0.367306E-05  0.903E-03    0.71       1.3  T
   4    -95.0183715 -0.269688E-05  0.547E-03    0.70       2.1  T
   5    -95.0183732 -0.168984E-05  0.197E-03    0.70       5.9  T
   6    -95.0183734 -0.209698E-06  0.471E-04    0.70      24.5  T
   7    -95.0183734 -0.495410E-08  0.160E-04    0.70      72.3  T
     SCC iter.                  ...        0 min,  0.087 sec
     gradient                   ...        0 min,  0.059 sec
 * total energy  :   -93.7386984 Eh     change       -0.3186357E-05 Eh
   gradient norm :     0.0012813 Eh/α   predicted    -0.4911085E-05 (  54.13%)
   displ. norm   :     0.0349310 α      lambda       -0.6807539E-05
   maximum displ.:     0.0210942 α      in ANC's #1, #5, #6, ...

........................................................................
.............................. CYCLE  192 ..............................
........................................................................

 iter      E             dE          RMSdq      gap      omega  full diag
   1    -95.0182821 -0.950183E+02  0.814E-03    0.70       0.0  T
   2    -95.0182808  0.133545E-05  0.665E-03    0.71       1.7  T
   3    -95.0182797  0.103208E-05  0.637E-03    0.70       1.8  T
   4    -95.0182823 -0.261753E-05  0.261E-03    0.70       4.4  T
   5    -95.0182826 -0.269168E-06  0.757E-04    0.70      15.3  T
   6    -95.0182826 -0.129525E-07  0.336E-04    0.70      34.4  T
   7    -95.0182826 -0.379941E-09  0.996E-05    0.70     116.0  T
     SCC iter.                  ...        0 min,  0.100 sec
     gradient                   ...        0 min,  0.060 sec
 * total energy  :   -93.7387042 Eh     change       -0.5768645E-05 Eh
   gradient norm :     0.0005966 Eh/α   predicted    -0.3406507E-05 ( -40.95%)
   displ. norm   :     0.0575342 α      lambda       -0.5170135E-05
   maximum displ.:     0.0351853 α      in ANC's #1, #5, #7, ...

........................................................................
.............................. CYCLE  193 ..............................
........................................................................

 iter      E             dE          RMSdq      gap      omega  full diag
   1    -95.0182326 -0.950182E+02  0.104E-02    0.70       0.0  T
   2    -95.0182327 -0.112859E-06  0.574E-03    0.70       2.0  T
   3    -95.0182313  0.147594E-05  0.519E-03    0.71       2.2  T
   4    -95.0182320 -0.676905E-06  0.341E-03    0.70       3.4  T
   5    -95.0182329 -0.900787E-06  0.116E-03    0.70      10.0  T
   6    -95.0182329 -0.538348E-07  0.437E-04    0.70      26.4  T
   7    -95.0182329 -0.126195E-08  0.101E-04    0.70     114.2  T
     SCC iter.                  ...        0 min,  0.084 sec
     gradient                   ...        0 min,  0.054 sec
 * total energy  :   -93.7387081 Eh     change       -0.3985899E-05 Eh
   gradient norm :     0.0007385 Eh/α   predicted    -0.2593594E-05 ( -34.93%)
   displ. norm   :     0.0726651 α      lambda       -0.5067434E-05
   maximum displ.:     0.0446660 α      in ANC's #1, #5, #6, ...

........................................................................
.............................. CYCLE  194 ..............................
........................................................................

 iter      E             dE          RMSdq      gap      omega  full diag
   1    -95.0183030 -0.950183E+02  0.978E-03    0.70       0.0  T
   2    -95.0183020  0.918507E-06  0.696E-03    0.70       1.7  T
   3    -95.0182991  0.291180E-05  0.786E-03    0.71       1.5  T
   4    -95.0183026 -0.347927E-05  0.369E-03    0.70       3.1  T
   5    -95.0183032 -0.635326E-06  0.101E-03    0.70      11.4  T
   6    -95.0183033 -0.457662E-07  0.261E-04    0.70      44.3  T
   7    -95.0183033 -0.215704E-08  0.801E-05    0.70     144.2  T
     SCC iter.                  ...        0 min,  0.096 sec
     gradient                   ...        0 min,  0.069 sec
 * total energy  :   -93.7387136 Eh     change       -0.5443626E-05 Eh
   gradient norm :     0.0007358 Eh/α   predicted    -0.2542595E-05 ( -53.29%)
   displ. norm   :     0.1215989 α      lambda       -0.7567726E-05
   maximum displ.:     0.0740647 α      in ANC's #1, #5, #6, ...

........................................................................
.............................. CYCLE  195 ..............................
........................................................................

 iter      E             dE          RMSdq      gap      omega  full diag
   1    -95.0184492 -0.950184E+02  0.155E-02    0.70       0.0  T
   2    -95.0184491  0.103987E-06  0.947E-03    0.70       1.2  T
   3    -95.0184464  0.260667E-05  0.827E-03    0.70       1.4  T
   4    -95.0184455  0.984276E-06  0.714E-03    0.70       1.6  T
   5    -95.0184494 -0.392936E-05  0.108E-03    0.70      10.7  T
   6    -95.0184495 -0.612249E-07  0.279E-04    0.70      41.3  T
   7    -95.0184495 -0.147935E-09  0.128E-04    0.70      90.4  T
     SCC iter.                  ...        0 min,  0.089 sec
     gradient                   ...        0 min,  0.059 sec
 * total energy  :   -93.7387230 Eh     change       -0.9414004E-05 Eh
   gradient norm :     0.0004795 Eh/α   predicted    -0.3809968E-05 ( -59.53%)
   displ. norm   :     0.1985913 α      lambda       -0.9868501E-05
   maximum displ.:     0.1199984 α      in ANC's #1, #5, #2, ...

........................................................................
.............................. CYCLE  196 ..............................
........................................................................

 iter      E             dE          RMSdq      gap      omega  full diag
   1    -95.0183754 -0.950184E+02  0.242E-02    0.70       0.0  T
   2    -95.0183752  0.215274E-06  0.146E-02    0.70       1.0  T
   3    -95.0183664  0.876233E-05  0.132E-02    0.71       1.0  T
   4    -95.0183691 -0.269036E-05  0.918E-03    0.69       1.3  T
   5    -95.0183758 -0.667848E-05  0.109E-03    0.70      10.6  T
   6    -95.0183759 -0.576422E-07  0.387E-04    0.70      29.8  T
   7    -95.0183759 -0.907377E-09  0.173E-04    0.70      66.8  T
     SCC iter.                  ...        0 min,  0.082 sec
     gradient                   ...        0 min,  0.054 sec
 * total energy  :   -93.7387351 Eh     change       -0.1208455E-04 Eh
   gradient norm :     0.0005767 Eh/α   predicted    -0.5021987E-05 ( -58.44%)
   displ. norm   :     0.2672343 α      lambda       -0.1157257E-04
   maximum displ.:     0.1613102 α      in ANC's #1, #5, #2, ...

........................................................................
.............................. CYCLE  197 ..............................
........................................................................

 iter      E             dE          RMSdq      gap      omega  full diag
   1    -95.0181765 -0.950182E+02  0.327E-02    0.70       0.0  T
   2    -95.0181769 -0.331825E-06  0.195E-02    0.70       1.0  T
   3    -95.0181757  0.116913E-05  0.126E-02    0.70       1.0  T
   4    -95.0181749  0.813342E-06  0.553E-03    0.70       2.1  T
   5    -95.0181770 -0.210273E-05  0.167E-03    0.70       6.9  T
   6    -95.0181772 -0.199419E-06  0.590E-04    0.70      19.6  T
   7    -95.0181772 -0.675890E-08  0.197E-04    0.70      58.5  T
   8    -95.0181772 -0.182283E-09  0.110E-04    0.70     104.6  T
     SCC iter.                  ...        0 min,  0.099 sec
     gradient                   ...        0 min,  0.064 sec
 * total energy  :   -93.7387482 Eh     change       -0.1309744E-04 Eh
   gradient norm :     0.0008351 Eh/α   predicted    -0.5972952E-05 ( -54.40%)
   displ. norm   :     0.3731561 α      lambda       -0.1536805E-04
   maximum displ.:     0.2242706 α      in ANC's #1, #5, #2, ...

........................................................................
.............................. CYCLE  198 ..............................
........................................................................

 iter      E             dE          RMSdq      gap      omega  full diag
   1    -95.0177344 -0.950177E+02  0.429E-02    0.70       0.0  T
   2    -95.0177340  0.406325E-06  0.255E-02    0.69       1.0  T
   3    -95.0176986  0.353945E-04  0.228E-02    0.71       1.0  T
   4    -95.0177280 -0.293325E-04  0.971E-03    0.69       1.2  T
   5    -95.0177353 -0.733468E-05  0.116E-03    0.70      10.0  T
   6    -95.0177354 -0.490658E-07  0.570E-04    0.70      20.3  T
   7    -95.0177354 -0.254936E-08  0.256E-04    0.70      45.1  T
   8    -95.0177354 -0.401997E-09  0.106E-04    0.70     108.5  T
     SCC iter.                  ...        0 min,  0.094 sec
     gradient                   ...        0 min,  0.054 sec
 * total energy  :   -93.7387612 Eh     change       -0.1297799E-04 Eh
   gradient norm :     0.0011535 Eh/α   predicted    -0.8162441E-05 ( -37.11%)
   displ. norm   :     0.1811077 α      lambda       -0.1121115E-04
   maximum displ.:     0.1105170 α      in ANC's #1, #5, #2, ...

........................................................................
.............................. CYCLE  199 ..............................
........................................................................

 iter      E             dE          RMSdq      gap      omega  full diag
   1    -95.0185896 -0.950186E+02  0.208E-02    0.70       0.0  T
   2    -95.0185898 -0.170009E-06  0.125E-02    0.70       1.0  T
   3    -95.0185896  0.220844E-06  0.882E-03    0.70       1.3  T
   4    -95.0185899 -0.298986E-06  0.175E-03    0.69       6.6  T
   5    -95.0185899 -0.186965E-08  0.695E-04    0.69      16.6  T
   6    -95.0185899  0.341419E-07  0.846E-04    0.69      13.7  T
   7    -95.0185899 -0.584879E-07  0.177E-04    0.69      65.3  T
   8    -95.0185899 -0.506631E-09  0.908E-05    0.69     127.1  T
     SCC iter.                  ...        0 min,  0.088 sec
     gradient                   ...        0 min,  0.061 sec
 * total energy  :   -93.7387728 Eh     change       -0.1167386E-04 Eh
   gradient norm :     0.0006372 Eh/α   predicted    -0.5689529E-05 ( -51.26%)
   displ. norm   :     0.2172174 α      lambda       -0.1292544E-04
   maximum displ.:     0.1289709 α      in ANC's #1, #5, #4, ...

........................................................................
.............................. CYCLE  200 ..............................
........................................................................

 iter      E             dE          RMSdq      gap      omega  full diag
   1    -95.0194623 -0.950195E+02  0.251E-02    0.69       0.0  T
   2    -95.0194621  0.118371E-06  0.153E-02    0.69       1.0  T
   3    -95.0194549  0.725059E-05  0.131E-02    0.69       1.0  T
   4    -95.0194555 -0.594943E-06  0.954E-03    0.70       1.2  T
   5    -95.0194627 -0.725335E-05  0.133E-03    0.69       8.7  T
   6    -95.0194628 -0.667127E-07  0.520E-04    0.69      22.2  T
   7    -95.0194628 -0.145870E-08  0.201E-04    0.69      57.4  T
   8    -95.0194628 -0.336740E-09  0.115E-04    0.69     100.0  T
     SCC iter.                  ...        0 min,  0.093 sec
     gradient                   ...        0 min,  0.064 sec
 * total energy  :   -93.7387866 Eh     change       -0.1372828E-04 Eh
   gradient norm :     0.0009120 Eh/α   predicted    -0.6601133E-05 ( -51.92%)
   displ. norm   :     0.3022754 α      lambda       -0.1600069E-04
   maximum displ.:     0.1782322 α      in ANC's #1, #5, #4, ...

........................................................................
.............................. CYCLE  201 ..............................
........................................................................

 iter      E             dE          RMSdq      gap      omega  full diag
   1    -95.0189844 -0.950190E+02  0.343E-02    0.69       0.0  T
   2    -95.0189839  0.427552E-06  0.208E-02    0.69       1.0  T
   3    -95.0189681  0.158855E-04  0.190E-02    0.68       1.0  T
   4    -95.0189725 -0.441737E-05  0.130E-02    0.69       1.0  T
   5    -95.0189851 -0.126136E-04  0.224E-03    0.68       5.2  T
   6    -95.0189853 -0.245532E-06  0.620E-04    0.69      18.6  T
   7    -95.0189853 -0.976144E-09  0.224E-04    0.69      51.6  T
   8    -95.0189853 -0.422574E-09  0.114E-04    0.69     101.7  T
     SCC iter.                  ...        0 min,  0.095 sec
     gradient                   ...        0 min,  0.053 sec
 * total energy  :   -93.7388050 Eh     change       -0.1847120E-04 Eh
   gradient norm :     0.0008084 Eh/α   predicted    -0.8327993E-05 ( -54.91%)
   displ. norm   :     0.2922104 α      lambda       -0.1604309E-04
   maximum displ.:     0.1649166 α      in ANC's #1, #5, #4, ...

........................................................................
.............................. CYCLE  202 ..............................
........................................................................

 iter      E             dE          RMSdq      gap      omega  full diag
   1    -95.0184211 -0.950184E+02  0.341E-02    0.68       0.0  T
   2    -95.0184213 -0.264862E-06  0.206E-02    0.68       1.0  T
   3    -95.0184165  0.488455E-05  0.149E-02    0.68       1.0  T
   4    -95.0184083  0.817218E-05  0.130E-02    0.69       1.0  T
   5    -95.0184219 -0.136371E-04  0.210E-03    0.68       5.5  T
   6    -95.0184221 -0.178161E-06  0.775E-04    0.68      14.9  T
   7    -95.0184221 -0.540190E-08  0.254E-04    0.68      45.5  T
   8    -95.0184221 -0.375024E-10  0.155E-04    0.68      74.7  T
     SCC iter.                  ...        0 min,  0.095 sec
     gradient                   ...        0 min,  0.058 sec
 * total energy  :   -93.7388238 Eh     change       -0.1872601E-04 Eh
   gradient norm :     0.0008653 Eh/α   predicted    -0.8329605E-05 ( -55.52%)
   displ. norm   :     0.2818342 α      lambda       -0.1777333E-04
   maximum displ.:     0.1429765 α      in ANC's #1, #4, #2, ...

........................................................................
.............................. CYCLE  203 ..............................
........................................................................

 iter      E             dE          RMSdq      gap      omega  full diag
   1    -95.0186107 -0.950186E+02  0.360E-02    0.68       0.0  T
   2    -95.0186088  0.191831E-05  0.223E-02    0.68       1.0  T
   3    -95.0185916  0.171690E-04  0.203E-02    0.67       1.0  T
   4    -95.0185878  0.374857E-05  0.185E-02    0.69       1.0  T
   5    -95.0186130 -0.251634E-04  0.275E-03    0.67       4.2  T
   6    -95.0186133 -0.256759E-06  0.946E-04    0.68      12.2  T
   7    -95.0186133 -0.334830E-08  0.324E-04    0.68      35.6  T
   8    -95.0186133 -0.619792E-09  0.156E-04    0.68      73.9  T
     SCC iter.                  ...        0 min,  0.096 sec
     gradient                   ...        0 min,  0.056 sec
 * total energy  :   -93.7388428 Eh     change       -0.1900813E-04 Eh
   gradient norm :     0.0008275 Eh/α   predicted    -0.9203102E-05 ( -51.58%)
   displ. norm   :     0.3059937 α      lambda       -0.1543509E-04
   maximum displ.:     0.1671493 α      in ANC's #1, #2, #4, ...

........................................................................
.............................. CYCLE  204 ..............................
........................................................................

 iter      E             dE          RMSdq      gap      omega  full diag
   1    -95.0174890 -0.950175E+02  0.361E-02    0.67       0.0  T
   2    -95.0174875  0.147031E-05  0.219E-02    0.68       1.0  T
   3    -95.0174609  0.266314E-04  0.214E-02    0.66       1.0  T
   4    -95.0174697 -0.879285E-05  0.168E-02    0.68       1.0  T
   5    -95.0174906 -0.209190E-04  0.146E-03    0.67       7.9  T
   6    -95.0174906 -0.400685E-07  0.846E-04    0.67      13.7  T
   7    -95.0174906 -0.203026E-08  0.276E-04    0.67      41.8  T
   8    -95.0174906  0.186802E-09  0.165E-04    0.67      69.9  T
     SCC iter.                  ...        0 min,  0.095 sec
     gradient                   ...        0 min,  0.054 sec
 * total energy  :   -93.7388593 Eh     change       -0.1650915E-04 Eh
   gradient norm :     0.0010908 Eh/α   predicted    -0.8041499E-05 ( -51.29%)
   displ. norm   :     0.1737284 α      lambda       -0.1259690E-04
   maximum displ.:     0.0951975 α      in ANC's #2, #4, #1, ...

........................................................................
.............................. CYCLE  205 ..............................
........................................................................

 iter      E             dE          RMSdq      gap      omega  full diag
   1    -95.0185590 -0.950186E+02  0.220E-02    0.67       0.0  T
   2    -95.0185587  0.310928E-06  0.132E-02    0.68       1.0  T
   3    -95.0185538  0.494874E-05  0.110E-02    0.67       1.1  T
   4    -95.0185486  0.514977E-05  0.119E-02    0.68       1.0  T
   5    -95.0185598 -0.111296E-04  0.920E-04    0.67      12.6  T
   6    -95.0185598 -0.231562E-07  0.518E-04    0.67      22.3  T
   7    -95.0185598 -0.177415E-08  0.220E-04    0.67      52.4  T
   8    -95.0185598 -0.208203E-09  0.103E-04    0.67     112.3  T
     SCC iter.                  ...        0 min,  0.090 sec
     gradient                   ...        0 min,  0.056 sec
 * total energy  :   -93.7388716 Eh     change       -0.1231750E-04 Eh
   gradient norm :     0.0006867 Eh/α   predicted    -0.6384891E-05 ( -48.16%)
   displ. norm   :     0.2069307 α      lambda       -0.1127187E-04
   maximum displ.:     0.1181879 α      in ANC's #1, #2, #4, ...

........................................................................
.............................. CYCLE  206 ..............................
........................................................................

 iter      E             dE          RMSdq      gap      omega  full diag
   1    -95.0180769 -0.950181E+02  0.261E-02    0.67       0.0  T
   2    -95.0180768  0.659219E-07  0.154E-02    0.67       1.0  T
   3    -95.0180693  0.757221E-05  0.116E-02    0.66       1.0  T
   4    -95.0180704 -0.116563E-05  0.922E-03    0.68       1.3  T
   5    -95.0180772 -0.680648E-05  0.857E-04    0.67      13.5  T
   6    -95.0180772 -0.168783E-07  0.458E-04    0.67      25.2  T
   7    -95.0180772 -0.129364E-08  0.166E-04    0.67      69.4  T
     SCC iter.                  ...        0 min,  0.084 sec
     gradient                   ...        0 min,  0.057 sec
 * total energy  :   -93.7388832 Eh     change       -0.1162988E-04 Eh
   gradient norm :     0.0007683 Eh/α   predicted    -0.5746740E-05 ( -50.59%)
   displ. norm   :     0.2067048 α      lambda        0.2685160E-05
   maximum displ.:     0.1180577 α      in ANC's #1, #2, #4, ...

........................................................................
.............................. CYCLE  207 ..............................
........................................................................

 iter      E             dE          RMSdq      gap      omega  full diag
   1    -95.0172830 -0.950173E+02  0.261E-02    0.67       0.0  T
   2    -95.0172829  0.899004E-07  0.154E-02    0.67       1.0  T
   3    -95.0172746  0.828987E-05  0.119E-02    0.66       1.0  T
   4    -95.0172765 -0.190714E-05  0.926E-03    0.67       1.2  T
   5    -95.0172834 -0.681971E-05  0.883E-04    0.67      13.1  T
   6    -95.0172834 -0.178783E-07  0.464E-04    0.67      24.9  T
   7    -95.0172834 -0.120785E-08  0.166E-04    0.67      69.4  T
     SCC iter.                  ...        0 min,  0.081 sec
     gradient                   ...        0 min,  0.062 sec
 * total energy  :   -93.7388829 Eh     change        0.3064033E-06 Eh
   gradient norm :     0.0019310 Eh/α   predicted     0.1368065E-05 ( 346.49%)
   displ. norm   :     0.0330724 α      lambda       -0.1056291E-04
   maximum displ.:     0.0143017 α      in ANC's #6, #5, #4, ...

........................................................................
.............................. CYCLE  208 ..............................
........................................................................

 iter      E             dE          RMSdq      gap      omega  full diag
   1    -95.0181485 -0.950181E+02  0.777E-03    0.67       0.0  T
   2    -95.0181486 -0.888463E-07  0.455E-03    0.67       2.5  T
   3    -95.0181485  0.642075E-07  0.291E-03    0.67       4.0  T
   4    -95.0181479  0.596034E-06  0.295E-03    0.67       3.9  T
   5    -95.0181486 -0.689669E-06  0.665E-04    0.67      17.4  T
   6    -95.0181486 -0.242909E-07  0.272E-04    0.67      42.4  T
   7    -95.0181486 -0.569059E-09  0.823E-05    0.67     140.3  T
     SCC iter.                  ...        0 min,  0.082 sec
     gradient                   ...        0 min,  0.055 sec
 * total energy  :   -93.7388940 Eh     change       -0.1109720E-04 Eh
   gradient norm :     0.0007928 Eh/α   predicted    -0.5288453E-05 ( -52.34%)
   displ. norm   :     0.0890472 α      lambda       -0.1015986E-04
   maximum displ.:     0.0424678 α      in ANC's #2, #1, #6, ...

........................................................................
.............................. CYCLE  209 ..............................
........................................................................

 iter      E             dE          RMSdq      gap      omega  full diag
   1    -95.0188476 -0.950188E+02  0.139E-02    0.67       0.0  T
   2    -95.0188475  0.467721E-07  0.835E-03    0.67       1.4  T
   3    -95.0188449  0.261451E-05  0.731E-03    0.68       1.6  T
   4    -95.0188448  0.141801E-06  0.613E-03    0.67       1.9  T
   5    -95.0188478 -0.300396E-05  0.650E-04    0.67      17.8  T
   6    -95.0188478 -0.173488E-07  0.324E-04    0.67      35.6  T
   7    -95.0188478 -0.109370E-08  0.112E-04    0.67     103.5  T
     SCC iter.                  ...        0 min,  0.096 sec
     gradient                   ...        0 min,  0.057 sec
 * total energy  :   -93.7389041 Eh     change       -0.1010392E-04 Eh
   gradient norm :     0.0006553 Eh/α   predicted    -0.5099433E-05 ( -49.53%)
   displ. norm   :     0.1457053 α      lambda       -0.7192294E-05
   maximum displ.:     0.0787426 α      in ANC's #1, #2, #6, ...

........................................................................
.............................. CYCLE  210 ..............................
........................................................................

 iter      E             dE          RMSdq      gap      omega  full diag
   1    -95.0191164 -0.950191E+02  0.211E-02    0.67       0.0  T
   2    -95.0191164  0.265294E-07  0.125E-02    0.67       1.0  T
   3    -95.0191111  0.528380E-05  0.939E-03    0.68       1.2  T
   4    -95.0191147 -0.363229E-05  0.468E-03    0.67       2.5  T
   5    -95.0191166 -0.182798E-05  0.650E-04    0.67      17.8  T
   6    -95.0191166 -0.170371E-07  0.310E-04    0.67      37.2  T
   7    -95.0191166 -0.479815E-09  0.111E-04    0.67     103.8  T
     SCC iter.                  ...        0 min,  0.086 sec
     gradient                   ...        0 min,  0.053 sec
 * total energy  :   -93.7389121 Eh     change       -0.7994922E-05 Eh
   gradient norm :     0.0006197 Eh/α   predicted    -0.3632897E-05 ( -54.56%)
   displ. norm   :     0.1349374 α      lambda       -0.5240873E-05
   maximum displ.:     0.0737622 α      in ANC's #1, #2, #5, ...

........................................................................
.............................. CYCLE  211 ..............................
........................................................................

 iter      E             dE          RMSdq      gap      omega  full diag
   1    -95.0188426 -0.950188E+02  0.202E-02    0.67       0.0  T
   2    -95.0188427 -0.586584E-07  0.119E-02    0.67       1.0  T
   3    -95.0188415  0.117229E-05  0.427E-03    0.67       2.7  T
   4    -95.0188420 -0.519126E-06  0.294E-03    0.67       3.9  T
   5    -95.0188427 -0.707102E-06  0.410E-04    0.67      28.2  T
   6    -95.0188427 -0.332768E-08  0.249E-04    0.67      46.4  T
   7    -95.0188427 -0.834348E-09  0.975E-05    0.67     118.4  T
     SCC iter.                  ...        0 min,  0.079 sec
     gradient                   ...        0 min,  0.053 sec
 * total energy  :   -93.7389185 Eh     change       -0.6414969E-05 Eh
   gradient norm :     0.0003482 Eh/α   predicted    -0.2644081E-05 ( -58.78%)
   displ. norm   :     0.1100218 α      lambda       -0.4305264E-05
   maximum displ.:     0.0641538 α      in ANC's #2, #1, #6, ...

........................................................................
.............................. CYCLE  212 ..............................
........................................................................

 iter      E             dE          RMSdq      gap      omega  full diag
   1    -95.0187772 -0.950188E+02  0.189E-02    0.67       0.0  T
   2    -95.0187773 -0.517343E-07  0.112E-02    0.67       1.0  T
   3    -95.0187765  0.760184E-06  0.477E-03    0.66       2.4  T
   4    -95.0187769 -0.394901E-06  0.229E-03    0.67       5.0  T
   5    -95.0187773 -0.397773E-06  0.583E-04    0.67      19.8  T
   6    -95.0187773 -0.148084E-07  0.292E-04    0.67      39.5  T
   7    -95.0187773 -0.185703E-08  0.948E-05    0.67     121.8  T
     SCC iter.                  ...        0 min,  0.074 sec
     gradient                   ...        0 min,  0.052 sec
 * total energy  :   -93.7389241 Eh     change       -0.5585032E-05 Eh
   gradient norm :     0.0004895 Eh/α   predicted    -0.2168949E-05 ( -61.16%)
   displ. norm   :     0.1269338 α      lambda       -0.5309192E-05
   maximum displ.:     0.0777471 α      in ANC's #2, #1, #6, ...

........................................................................
.............................. CYCLE  213 ..............................
........................................................................

 iter      E             dE          RMSdq      gap      omega  full diag
   1    -95.0187427 -0.950187E+02  0.230E-02    0.67       0.0  T
   2    -95.0187426  0.868693E-07  0.136E-02    0.67       1.0  T
   3    -95.0187324  0.102219E-04  0.112E-02    0.66       1.0  T
   4    -95.0187422 -0.984375E-05  0.329E-03    0.67       3.5  T
   5    -95.0187429 -0.663558E-06  0.592E-04    0.66      19.5  T
   6    -95.0187429 -0.689370E-08  0.332E-04    0.66      34.8  T
   7    -95.0187429 -0.808882E-09  0.133E-04    0.66      87.0  T
     SCC iter.                  ...        0 min,  0.094 sec
     gradient                   ...        0 min,  0.060 sec
 * total energy  :   -93.7389312 Eh     change       -0.7041766E-05 Eh
   gradient norm :     0.0005430 Eh/α   predicted    -0.2676248E-05 ( -61.99%)
   displ. norm   :     0.1755075 α      lambda       -0.7504072E-05
   maximum displ.:     0.1121708 α      in ANC's #2, #1, #6, ...

........................................................................
.............................. CYCLE  214 ..............................
........................................................................

 iter      E             dE          RMSdq      gap      omega  full diag
   1    -95.0188440 -0.950188E+02  0.344E-02    0.66       0.0  T
   2    -95.0188439  0.932324E-07  0.203E-02    0.66       1.0  T
   3    -95.0188288  0.151386E-04  0.144E-02    0.65       1.0  T
   4    -95.0188415 -0.127339E-04  0.633E-03    0.66       1.8  T
   5    -95.0188444 -0.285844E-05  0.851E-04    0.66      13.6  T
   6    -95.0188444 -0.146785E-07  0.476E-04    0.66      24.3  T
   7    -95.0188444 -0.120838E-08  0.161E-04    0.66      71.5  T
     SCC iter.                  ...        0 min,  0.084 sec
     gradient                   ...        0 min,  0.063 sec
 * total energy  :   -93.7389409 Eh     change       -0.9774366E-05 Eh
   gradient norm :     0.0006815 Eh/α   predicted    -0.3805082E-05 ( -61.07%)
   displ. norm   :     0.2182996 α      lambda       -0.8956222E-05
   maximum displ.:     0.1446789 α      in ANC's #2, #6, #4, ...

........................................................................
.............................. CYCLE  215 ..............................
........................................................................

 iter      E             dE          RMSdq      gap      omega  full diag
   1    -95.0189277 -0.950189E+02  0.417E-02    0.66       0.0  T
   2    -95.0189274  0.342854E-06  0.247E-02    0.66       1.0  T
   3    -95.0188922  0.351664E-04  0.212E-02    0.65       1.0  T
   4    -95.0189243 -0.320963E-04  0.795E-03    0.66       1.5  T
   5    -95.0189284 -0.414493E-05  0.116E-03    0.66      10.0  T
   6    -95.0189285 -0.297977E-07  0.590E-04    0.66      19.6  T
   7    -95.0189285 -0.168282E-08  0.244E-04    0.66      47.2  T
   8    -95.0189285 -0.424677E-09  0.956E-05    0.66     120.8  T
     SCC iter.                  ...        0 min,  0.108 sec
     gradient                   ...        0 min,  0.057 sec
 * total energy  :   -93.7389524 Eh     change       -0.1144353E-04 Eh
   gradient norm :     0.0004227 Eh/α   predicted    -0.4574485E-05 ( -60.03%)
   displ. norm   :     0.2378782 α      lambda       -0.9346734E-05
   maximum displ.:     0.1613097 α      in ANC's #2, #6, #4, ...

........................................................................
.............................. CYCLE  216 ..............................
........................................................................

 iter      E             dE          RMSdq      gap      omega  full diag
   1    -95.0190938 -0.950191E+02  0.481E-02    0.66       0.0  T
   2    -95.0190928  0.102853E-05  0.286E-02    0.66       1.0  T
   3    -95.0190325  0.602251E-04  0.280E-02    0.64       1.0  T
   4    -95.0190874 -0.548290E-04  0.106E-02    0.66       1.1  T
   5    -95.0190948 -0.745403E-05  0.142E-03    0.66       8.1  T
   6    -95.0190949 -0.510908E-07  0.711E-04    0.66      16.2  T
   7    -95.0190949 -0.238097E-08  0.296E-04    0.66      39.0  T
   8    -95.0190949 -0.759016E-09  0.135E-04    0.66      85.8  T
     SCC iter.                  ...        0 min,  0.111 sec
     gradient                   ...        0 min,  0.063 sec
 * total energy  :   -93.7389642 Eh     change       -0.1185331E-04 Eh
   gradient norm :     0.0006258 Eh/α   predicted    -0.4793840E-05 ( -59.56%)
   displ. norm   :     0.2314101 α      lambda       -0.9712652E-05
   maximum displ.:     0.1606835 α      in ANC's #2, #6, #4, ...

........................................................................
.............................. CYCLE  217 ..............................
........................................................................

 iter      E             dE          RMSdq      gap      omega  full diag
   1    -95.0192060 -0.950192E+02  0.440E-02    0.66       0.0  T
   2    -95.0192056  0.338950E-06  0.261E-02    0.66       1.0  T
   3    -95.0191728  0.328458E-04  0.215E-02    0.64       1.0  T
   4    -95.0191978 -0.250360E-04  0.111E-02    0.66       1.0  T
   5    -95.0192068 -0.898613E-05  0.127E-03    0.66       9.1  T
   6    -95.0192068 -0.407219E-07  0.619E-04    0.66      18.7  T
   7    -95.0192068 -0.160124E-08  0.256E-04    0.66      45.1  T
   8    -95.0192068 -0.688118E-09  0.111E-04    0.66     103.7  T
     SCC iter.                  ...        0 min,  0.102 sec
     gradient                   ...        0 min,  0.065 sec
 * total energy  :   -93.7389775 Eh     change       -0.1323429E-04 Eh
   gradient norm :     0.0004326 Eh/α   predicted    -0.4973686E-05 ( -62.42%)
   displ. norm   :     0.2551463 α      lambda       -0.1128799E-04
   maximum displ.:     0.1780677 α      in ANC's #2, #6, #4, ...

........................................................................
.............................. CYCLE  218 ..............................
........................................................................

 iter      E             dE          RMSdq      gap      omega  full diag
   1    -95.0191844 -0.950192E+02  0.490E-02    0.66       0.0  T
   2    -95.0191827  0.171425E-05  0.294E-02    0.66       1.0  T
   3    -95.0191049  0.777932E-04  0.323E-02    0.64       1.0  T
   4    -95.0191763 -0.714453E-04  0.122E-02    0.66       1.0  T
   5    -95.0191859 -0.950957E-05  0.186E-03    0.65       6.2  T
   6    -95.0191860 -0.104191E-06  0.769E-04    0.65      15.0  T
   7    -95.0191860 -0.166665E-08  0.337E-04    0.65      34.3  T
   8    -95.0191860 -0.141661E-08  0.157E-04    0.65      73.4  T
     SCC iter.                  ...        0 min,  0.112 sec
     gradient                   ...        0 min,  0.056 sec
 * total energy  :   -93.7389935 Eh     change       -0.1601299E-04 Eh
   gradient norm :     0.0004547 Eh/α   predicted    -0.5810049E-05 ( -63.72%)
   displ. norm   :     0.3407233 α      lambda       -0.1610653E-04
   maximum displ.:     0.2374695 α      in ANC's #2, #6, #4, ...

........................................................................
.............................. CYCLE  219 ..............................
........................................................................

 iter      E             dE          RMSdq      gap      omega  full diag
   1    -95.0190236 -0.950190E+02  0.648E-02    0.66       0.0  T
   2    -95.0190214  0.223372E-05  0.387E-02    0.66       1.0  T
   3    -95.0189128  0.108602E-03  0.392E-02    0.63       1.0  T
   4    -95.0190035 -0.907422E-04  0.180E-02    0.67       1.0  T
   5    -95.0190259 -0.224206E-04  0.241E-03    0.65       4.8  T
   6    -95.0190261 -0.179306E-06  0.101E-03    0.65      11.4  T
   7    -95.0190261 -0.301655E-08  0.429E-04    0.65      26.9  T
   8    -95.0190261 -0.233706E-08  0.201E-04    0.65      57.4  T
     SCC iter.                  ...        0 min,  0.091 sec
     gradient                   ...        0 min,  0.054 sec
 * total energy  :   -93.7390170 Eh     change       -0.2350381E-04 Eh
   gradient norm :     0.0005493 Eh/α   predicted    -0.8472219E-05 ( -63.95%)
   displ. norm   :     0.5890459 α      lambda       -0.2841729E-04
   maximum displ.:     0.4085395 α      in ANC's #2, #6, #4, ...
 * RMSD in coord.:     0.5880019 α      energy gain  -0.3946618E-03 Eh

generating ANC from exact Hessian ...
Using Lindh-Hessian (1995)
 Shifting diagonal of input Hessian by    9.9501456413693071E-003
 Lowest  eigenvalues of input Hessian
    0.000000    0.000000    0.000000    0.000000    0.000000    0.000000
    0.010000    0.010047    0.010073    0.010100    0.010328    0.010471
    0.010576    0.010731    0.010792    0.010823    0.010905    0.011041
 Highest eigenvalues
    1.628124    1.890931    1.979586    2.018305    2.240300    2.320811


........................................................................
.............................. CYCLE  220 ..............................
........................................................................

 iter      E             dE          RMSdq      gap      omega  full diag
   1    -95.0179108 -0.950179E+02  0.111E-01    0.65       0.0  T
   2    -95.0179000  0.108355E-04  0.667E-02    0.67       1.0  T
   3    -95.0174659  0.434123E-03  0.771E-02    0.61       1.0  T
   4    -95.0178676 -0.401694E-03  0.286E-02    0.67       1.0  T
   5    -95.0179189 -0.512985E-04  0.473E-03    0.65       2.4  T
   6    -95.0179196 -0.741047E-06  0.180E-03    0.66       6.4  T
   7    -95.0179196 -0.708013E-08  0.778E-04    0.66      14.9  T
   8    -95.0179196 -0.804116E-08  0.363E-04    0.66      31.8  T
   9    -95.0179196 -0.383039E-09  0.131E-04    0.66      87.9  T
     SCC iter.                  ...        0 min,  0.103 sec
     gradient                   ...        0 min,  0.062 sec
 * total energy  :   -93.7390546 Eh     change       -0.3758071E-04 Eh
   gradient norm :     0.0015233 Eh/α   predicted     0.0000000E+00 (-100.00%)
   displ. norm   :     0.0246456 α      lambda       -0.5989957E-05
   maximum displ.:     0.0102783 α      in ANC's #6, #18, #14, ...

........................................................................
.............................. CYCLE  221 ..............................
........................................................................

 iter      E             dE          RMSdq      gap      omega  full diag
   1    -95.0191152 -0.950191E+02  0.669E-03    0.66       0.0  T
   2    -95.0191151  0.576379E-08  0.421E-03    0.66       2.7  T
   3    -95.0191139  0.125613E-05  0.465E-03    0.66       2.5  T
   4    -95.0191148 -0.864217E-06  0.268E-03    0.66       4.3  T
   5    -95.0191153 -0.519273E-06  0.434E-04    0.66      26.6  T
   6    -95.0191153 -0.757292E-08  0.133E-04    0.66      86.9  T
   7    -95.0191153 -0.122441E-09  0.611E-05    0.66     189.1  T
     SCC iter.                  ...        0 min,  0.082 sec
     gradient                   ...        0 min,  0.055 sec
 * total energy  :   -93.7390611 Eh     change       -0.6557970E-05 Eh
   gradient norm :     0.0004942 Eh/α   predicted    -0.3613953E-05 ( -44.89%)
   displ. norm   :     0.0452246 α      lambda       -0.5938661E-05
   maximum displ.:     0.0193377 α      in ANC's #6, #14, #43, ...

........................................................................
.............................. CYCLE  222 ..............................
........................................................................

 iter      E             dE          RMSdq      gap      omega  full diag
   1    -95.0197058 -0.950197E+02  0.133E-02    0.66       0.0  T
   2    -95.0197059 -0.554697E-07  0.820E-03    0.66       1.4  T
   3    -95.0197055  0.411645E-06  0.595E-03    0.66       1.9  T
   4    -95.0197050  0.465765E-06  0.352E-03    0.66       3.3  T
   5    -95.0197059 -0.854515E-06  0.135E-03    0.66       8.6  T
   6    -95.0197060 -0.124421E-06  0.297E-04    0.66      38.9  T
   7    -95.0197060 -0.467324E-09  0.146E-04    0.66      78.9  T
     SCC iter.                  ...        0 min,  0.081 sec
     gradient                   ...        0 min,  0.051 sec
 * total energy  :   -93.7390649 Eh     change       -0.3780629E-05 Eh
   gradient norm :     0.0014146 Eh/α   predicted    -0.2972879E-05 ( -21.37%)
   displ. norm   :     0.0749733 α      lambda       -0.9057579E-05
   maximum displ.:     0.0315900 α      in ANC's #6, #8, #14, ...

........................................................................
.............................. CYCLE  223 ..............................
........................................................................

 iter      E             dE          RMSdq      gap      omega  full diag
   1    -95.0195891 -0.950196E+02  0.184E-02    0.66       0.0  T
   2    -95.0195893 -0.208872E-06  0.109E-02    0.66       1.1  T
   3    -95.0195886  0.691798E-06  0.611E-03    0.66       1.9  T
   4    -95.0195882  0.416806E-06  0.378E-03    0.66       3.1  T
   5    -95.0195891 -0.988257E-06  0.168E-03    0.66       6.9  T
   6    -95.0195893 -0.202220E-06  0.405E-04    0.66      28.5  T
   7    -95.0195893 -0.788873E-09  0.151E-04    0.66      76.5  T
     SCC iter.                  ...        0 min,  0.077 sec
     gradient                   ...        0 min,  0.051 sec
 * total energy  :   -93.7390699 Eh     change       -0.5051813E-05 Eh
   gradient norm :     0.0015656 Eh/α   predicted    -0.4541817E-05 ( -10.10%)
   displ. norm   :     0.1096790 α      lambda       -0.1529418E-04
   maximum displ.:     0.0499892 α      in ANC's #6, #14, #4, ...

........................................................................
.............................. CYCLE  224 ..............................
........................................................................

 iter      E             dE          RMSdq      gap      omega  full diag
   1    -95.0186736 -0.950187E+02  0.281E-02    0.66       0.0  T
   2    -95.0186742 -0.623704E-06  0.175E-02    0.66       1.0  T
   3    -95.0186739  0.254773E-06  0.114E-02    0.66       1.0  T
   4    -95.0186733  0.587486E-06  0.412E-03    0.67       2.8  T
   5    -95.0186737 -0.399720E-06  0.305E-03    0.66       3.8  T
   6    -95.0186745 -0.739285E-06  0.103E-03    0.66      11.2  T
   7    -95.0186745 -0.287001E-07  0.326E-04    0.66      35.4  T
   8    -95.0186745 -0.427832E-09  0.154E-04    0.66      74.8  T
     SCC iter.                  ...        0 min,  0.096 sec
     gradient                   ...        0 min,  0.053 sec
 * total energy  :   -93.7390654 Eh     change        0.4561477E-05 Eh
   gradient norm :     0.0021844 Eh/α   predicted    -0.7691810E-05 (-268.63%)
   displ. norm   :     0.0256042 α      lambda       -0.1737304E-04
   maximum displ.:     0.0100087 α      in ANC's #17, #14, #6, ...

........................................................................
.............................. CYCLE  225 ..............................
........................................................................

 iter      E             dE          RMSdq      gap      omega  full diag
   1    -95.0188627 -0.950189E+02  0.767E-03    0.66       0.0  T
   2    -95.0188627 -0.631846E-07  0.502E-03    0.66       2.3  T
   3    -95.0188628 -0.633337E-08  0.320E-03    0.66       3.6  T
   4    -95.0188626  0.122382E-06  0.153E-03    0.66       7.5  T
   5    -95.0188627 -0.676934E-07  0.106E-03    0.66      10.9  T
   6    -95.0188628 -0.905022E-07  0.306E-04    0.66      37.7  T
   7    -95.0188628 -0.199302E-08  0.112E-04    0.66     102.8  T
     SCC iter.                  ...        0 min,  0.078 sec
     gradient                   ...        0 min,  0.055 sec
 * total energy  :   -93.7390775 Eh     change       -0.1215082E-04 Eh
   gradient norm :     0.0008832 Eh/α   predicted    -0.8699728E-05 ( -28.40%)
   displ. norm   :     0.0337312 α      lambda       -0.8048806E-05
   maximum displ.:     0.0116290 α      in ANC's #17, #18, #15, ...

........................................................................
.............................. CYCLE  226 ..............................
........................................................................

 iter      E             dE          RMSdq      gap      omega  full diag
   1    -95.0190874 -0.950191E+02  0.103E-02    0.66       0.0  T
   2    -95.0190875 -0.124902E-06  0.680E-03    0.66       1.7  T
   3    -95.0190874  0.544499E-07  0.454E-03    0.66       2.5  T
   4    -95.0190867  0.741271E-06  0.359E-03    0.66       3.2  T
   5    -95.0190875 -0.758899E-06  0.160E-03    0.66       7.2  T
   6    -95.0190877 -0.191690E-06  0.421E-04    0.66      27.4  T
   7    -95.0190877 -0.379633E-08  0.126E-04    0.66      91.8  T
     SCC iter.                  ...        0 min,  0.080 sec
     gradient                   ...        0 min,  0.052 sec
 * total energy  :   -93.7390821 Eh     change       -0.4525150E-05 Eh
   gradient norm :     0.0006572 Eh/α   predicted    -0.4028634E-05 ( -10.97%)
   displ. norm   :     0.0448372 α      lambda       -0.3921965E-05
   maximum displ.:     0.0212894 α      in ANC's #6, #4, #1, ...

........................................................................
.............................. CYCLE  227 ..............................
........................................................................

 iter      E             dE          RMSdq      gap      omega  full diag
   1    -95.0189751 -0.950190E+02  0.116E-02    0.66       0.0  T
   2    -95.0189752 -0.123561E-06  0.689E-03    0.66       1.7  T
   3    -95.0189752  0.287720E-07  0.427E-03    0.66       2.7  T
   4    -95.0189751  0.990306E-07  0.216E-03    0.66       5.3  T
   5    -95.0189752 -0.960544E-07  0.109E-03    0.66      10.6  T
   6    -95.0189753 -0.936816E-07  0.427E-04    0.66      27.1  T
   7    -95.0189753 -0.100492E-07  0.118E-04    0.66      98.0  T
     SCC iter.                  ...        0 min,  0.083 sec
     gradient                   ...        0 min,  0.059 sec
 * total energy  :   -93.7390856 Eh     change       -0.3507389E-05 Eh
   gradient norm :     0.0008196 Eh/α   predicted    -0.1963208E-05 ( -44.03%)
   displ. norm   :     0.0920088 α      lambda       -0.6495261E-05
   maximum displ.:     0.0427963 α      in ANC's #6, #4, #1, ...

........................................................................
.............................. CYCLE  228 ..............................
........................................................................

 iter      E             dE          RMSdq      gap      omega  full diag
   1    -95.0187570 -0.950188E+02  0.224E-02    0.66       0.0  T
   2    -95.0187570  0.263829E-07  0.132E-02    0.66       1.0  T
   3    -95.0187505  0.650258E-05  0.108E-02    0.67       1.1  T
   4    -95.0187536 -0.311991E-05  0.665E-03    0.66       1.7  T
   5    -95.0187573 -0.366658E-05  0.111E-03    0.66      10.4  T
   6    -95.0187573 -0.293212E-07  0.372E-04    0.66      31.0  T
   7    -95.0187573 -0.278476E-09  0.156E-04    0.66      74.1  T
     SCC iter.                  ...        0 min,  0.074 sec
     gradient                   ...        0 min,  0.057 sec
 * total energy  :   -93.7390922 Eh     change       -0.6629043E-05 Eh
   gradient norm :     0.0006886 Eh/α   predicted    -0.3262900E-05 ( -50.78%)
   displ. norm   :     0.1592984 α      lambda       -0.8764227E-05
   maximum displ.:     0.0728189 α      in ANC's #6, #4, #5, ...

........................................................................
.............................. CYCLE  229 ..............................
........................................................................

 iter      E             dE          RMSdq      gap      omega  full diag
   1    -95.0186442 -0.950186E+02  0.401E-02    0.66       0.0  T
   2    -95.0186448 -0.636708E-06  0.243E-02    0.66       1.0  T
   3    -95.0186437  0.110229E-05  0.159E-02    0.67       1.0  T
   4    -95.0186395  0.422562E-05  0.909E-03    0.66       1.3  T
   5    -95.0186447 -0.523296E-05  0.335E-03    0.67       3.4  T
   6    -95.0186456 -0.813005E-06  0.680E-04    0.67      17.0  T
   7    -95.0186456  0.238032E-10  0.369E-04    0.67      31.3  T
   8    -95.0186456 -0.205355E-08  0.138E-04    0.67      83.5  T
     SCC iter.                  ...        0 min,  0.092 sec
     gradient                   ...        0 min,  0.057 sec
 * total energy  :   -93.7390989 Eh     change       -0.6724104E-05 Eh
   gradient norm :     0.0009843 Eh/α   predicted    -0.4432865E-05 ( -34.08%)
   displ. norm   :     0.1436819 α      lambda       -0.7805023E-05
   maximum displ.:     0.0656205 α      in ANC's #6, #4, #5, ...

........................................................................
.............................. CYCLE  230 ..............................
........................................................................

 iter      E             dE          RMSdq      gap      omega  full diag
   1    -95.0186733 -0.950187E+02  0.335E-02    0.67       0.0  T
   2    -95.0186718  0.140804E-05  0.206E-02    0.66       1.0  T
   3    -95.0186428  0.290828E-04  0.232E-02    0.68       1.0  T
   4    -95.0186635 -0.207146E-04  0.121E-02    0.66       1.0  T
   5    -95.0186743 -0.107936E-04  0.251E-03    0.67       4.6  T
   6    -95.0186745 -0.193385E-06  0.521E-04    0.67      22.2  T
   7    -95.0186745 -0.225907E-08  0.248E-04    0.67      46.6  T
   8    -95.0186745 -0.289447E-09  0.120E-04    0.67      96.0  T
     SCC iter.                  ...        0 min,  0.116 sec
     gradient                   ...        0 min,  0.059 sec
 * total energy  :   -93.7391045 Eh     change       -0.5591934E-05 Eh
   gradient norm :     0.0006975 Eh/α   predicted    -0.3941121E-05 ( -29.52%)
   displ. norm   :     0.0750143 α      lambda       -0.5385904E-05
   maximum displ.:     0.0354280 α      in ANC's #4, #6, #5, ...

........................................................................
.............................. CYCLE  231 ..............................
........................................................................

 iter      E             dE          RMSdq      gap      omega  full diag
   1    -95.0191053 -0.950191E+02  0.162E-02    0.67       0.0  T
   2    -95.0191057 -0.369631E-06  0.956E-03    0.67       1.2  T
   3    -95.0191057 -0.444111E-07  0.557E-03    0.67       2.1  T
   4    -95.0191043  0.138301E-05  0.424E-03    0.67       2.7  T
   5    -95.0191057 -0.143793E-05  0.104E-03    0.67      11.1  T
   6    -95.0191058 -0.640261E-07  0.363E-04    0.67      31.8  T
   7    -95.0191058 -0.305647E-09  0.210E-04    0.67      55.1  T
     SCC iter.                  ...        0 min,  0.087 sec
     gradient                   ...        0 min,  0.060 sec
 * total energy  :   -93.7391080 Eh     change       -0.3466654E-05 Eh
   gradient norm :     0.0005027 Eh/α   predicted    -0.2702713E-05 ( -22.04%)
   displ. norm   :     0.0414044 α      lambda       -0.4038288E-05
   maximum displ.:     0.0200633 α      in ANC's #4, #3, #6, ...

........................................................................
.............................. CYCLE  232 ..............................
........................................................................

 iter      E             dE          RMSdq      gap      omega  full diag
   1    -95.0195542 -0.950196E+02  0.731E-03    0.67       0.0  T
   2    -95.0195541  0.136271E-06  0.575E-03    0.67       2.0  T
   3    -95.0195542 -0.124988E-06  0.324E-03    0.67       3.6  T
   4    -95.0195539  0.347125E-06  0.323E-03    0.67       3.6  T
   5    -95.0195545 -0.642179E-06  0.127E-03    0.67       9.1  T
   6    -95.0195546 -0.929588E-07  0.266E-04    0.67      43.3  T
   7    -95.0195546 -0.148191E-09  0.143E-04    0.67      80.6  T
     SCC iter.                  ...        0 min,  0.080 sec
     gradient                   ...        0 min,  0.058 sec
 * total energy  :   -93.7391120 Eh     change       -0.4047343E-05 Eh
   gradient norm :     0.0006653 Eh/α   predicted    -0.2025348E-05 ( -49.96%)
   displ. norm   :     0.0430262 α      lambda        0.2836409E-06
   maximum displ.:     0.0208387 α      in ANC's #4, #3, #6, ...

........................................................................
.............................. CYCLE  233 ..............................
........................................................................

 iter      E             dE          RMSdq      gap      omega  full diag
   1    -95.0200011 -0.950200E+02  0.753E-03    0.68       0.0  T
   2    -95.0200009  0.137843E-06  0.592E-03    0.67       2.0  T
   3    -95.0200010 -0.133476E-06  0.332E-03    0.68       3.5  T
   4    -95.0200007  0.387256E-06  0.334E-03    0.67       3.5  T
   5    -95.0200014 -0.690388E-06  0.131E-03    0.68       8.8  T
   6    -95.0200015 -0.979690E-07  0.277E-04    0.68      41.7  T
   7    -95.0200015 -0.157101E-09  0.150E-04    0.68      77.1  T
     SCC iter.                  ...        0 min,  0.083 sec
     gradient                   ...        0 min,  0.056 sec
 * total energy  :   -93.7391120 Eh     change        0.1098195E-07 Eh
   gradient norm :     0.0014606 Eh/α   predicted     0.1406469E-06 (1180.71%)
   displ. norm   :     0.0393388 α      lambda       -0.5085216E-05
   maximum displ.:     0.0170437 α      in ANC's #3, #4, #2, ...

........................................................................
.............................. CYCLE  234 ..............................
........................................................................

 iter      E             dE          RMSdq      gap      omega  full diag
   1    -95.0196837 -0.950197E+02  0.730E-03    0.67       0.0  T
   2    -95.0196839 -0.169331E-06  0.427E-03    0.67       2.7  T
   3    -95.0196838  0.445455E-07  0.296E-03    0.68       3.9  T
   4    -95.0196837  0.904163E-07  0.213E-03    0.67       5.4  T
   5    -95.0196838 -0.648549E-07  0.170E-03    0.68       6.8  T
   6    -95.0196840 -0.207962E-06  0.348E-04    0.67      33.2  T
   7    -95.0196840 -0.890395E-09  0.133E-04    0.68      86.8  T
     SCC iter.                  ...        0 min,  0.082 sec
     gradient                   ...        0 min,  0.058 sec
 * total energy  :   -93.7391165 Eh     change       -0.4492718E-05 Eh
   gradient norm :     0.0008643 Eh/α   predicted    -0.2546519E-05 ( -43.32%)
   displ. norm   :     0.0594241 α      lambda       -0.4277669E-05
   maximum displ.:     0.0286159 α      in ANC's #4, #3, #2, ...

........................................................................
.............................. CYCLE  235 ..............................
........................................................................

 iter      E             dE          RMSdq      gap      omega  full diag
   1    -95.0188891 -0.950189E+02  0.941E-03    0.67       0.0  T
   2    -95.0188887  0.398094E-06  0.611E-03    0.67       1.9  T
   3    -95.0188876  0.110222E-05  0.554E-03    0.68       2.1  T
   4    -95.0188884 -0.769099E-06  0.410E-03    0.67       2.8  T
   5    -95.0188895 -0.107820E-05  0.982E-04    0.67      11.8  T
   6    -95.0188895 -0.166688E-07  0.309E-04    0.67      37.3  T
   7    -95.0188895 -0.912138E-09  0.113E-04    0.67     102.6  T
     SCC iter.                  ...        0 min,  0.081 sec
     gradient                   ...        0 min,  0.052 sec
 * total energy  :   -93.7391204 Eh     change       -0.3842649E-05 Eh
   gradient norm :     0.0005070 Eh/α   predicted    -0.2147001E-05 ( -44.13%)
   displ. norm   :     0.0843521 α      lambda       -0.3430722E-05
   maximum displ.:     0.0411536 α      in ANC's #3, #4, #2, ...

........................................................................
.............................. CYCLE  236 ..............................
........................................................................

 iter      E             dE          RMSdq      gap      omega  full diag
   1    -95.0186928 -0.950187E+02  0.113E-02    0.67       0.0  T
   2    -95.0186926  0.161034E-06  0.774E-03    0.67       1.5  T
   3    -95.0186922  0.417960E-06  0.545E-03    0.68       2.1  T
   4    -95.0186907  0.150171E-05  0.569E-03    0.67       2.0  T
   5    -95.0186931 -0.245381E-05  0.153E-03    0.68       7.6  T
   6    -95.0186932 -0.824658E-07  0.393E-04    0.68      29.4  T
   7    -95.0186932 -0.528473E-09  0.147E-04    0.68      78.3  T
     SCC iter.                  ...        0 min,  0.089 sec
     gradient                   ...        0 min,  0.058 sec
 * total energy  :   -93.7391233 Eh     change       -0.2952314E-05 Eh
   gradient norm :     0.0007197 Eh/α   predicted    -0.1723894E-05 ( -41.61%)
   displ. norm   :     0.0829662 α      lambda       -0.2924399E-05
   maximum displ.:     0.0416574 α      in ANC's #3, #4, #2, ...

........................................................................
.............................. CYCLE  237 ..............................
........................................................................

 iter      E             dE          RMSdq      gap      omega  full diag
   1    -95.0190345 -0.950190E+02  0.973E-03    0.68       0.0  T
   2    -95.0190339  0.529881E-06  0.664E-03    0.68       1.7  T
   3    -95.0190330  0.891247E-06  0.560E-03    0.68       2.1  T
   4    -95.0190337 -0.639716E-06  0.431E-03    0.68       2.7  T
   5    -95.0190348 -0.114408E-05  0.116E-03    0.68       9.9  T
   6    -95.0190349 -0.367711E-07  0.285E-04    0.68      40.5  T
   7    -95.0190349 -0.555417E-09  0.127E-04    0.68      90.6  T
     SCC iter.                  ...        0 min,  0.079 sec
     gradient                   ...        0 min,  0.060 sec
 * total energy  :   -93.7391261 Eh     change       -0.2748777E-05 Eh
   gradient norm :     0.0003942 Eh/α   predicted    -0.1470498E-05 ( -46.50%)
   displ. norm   :     0.0594339 α      lambda       -0.1719577E-05
   maximum displ.:     0.0298929 α      in ANC's #3, #4, #2, ...

........................................................................
.............................. CYCLE  238 ..............................
........................................................................

 iter      E             dE          RMSdq      gap      omega  full diag
   1    -95.0192276 -0.950192E+02  0.760E-03    0.68       0.0  T
   2    -95.0192274  0.137805E-06  0.495E-03    0.68       2.3  T
   3    -95.0192268  0.650410E-06  0.444E-03    0.68       2.6  T
   4    -95.0192266  0.163326E-06  0.384E-03    0.68       3.0  T
   5    -95.0192277 -0.106685E-05  0.841E-04    0.68      13.7  T
   6    -95.0192277 -0.299993E-07  0.208E-04    0.68      55.5  T
   7    -95.0192277 -0.374584E-09  0.871E-05    0.68     132.6  T
     SCC iter.                  ...        0 min,  0.087 sec
     gradient                   ...        0 min,  0.056 sec
 * total energy  :   -93.7391279 Eh     change       -0.1833461E-05 Eh
   gradient norm :     0.0002459 Eh/α   predicted    -0.8659439E-06 ( -52.77%)
   displ. norm   :     0.0555613 α      lambda       -0.1472961E-05
   maximum displ.:     0.0283898 α      in ANC's #3, #4, #2, ...

........................................................................
.............................. CYCLE  239 ..............................
........................................................................

 iter      E             dE          RMSdq      gap      omega  full diag
   1    -95.0193413 -0.950193E+02  0.728E-03    0.68       0.0  T
   2    -95.0193413 -0.187497E-07  0.443E-03    0.68       2.6  T
   3    -95.0193411  0.183536E-06  0.366E-03    0.68       3.2  T
   4    -95.0193412 -0.346428E-07  0.143E-03    0.68       8.1  T
   5    -95.0193413 -0.149591E-06  0.584E-04    0.68      19.8  T
   6    -95.0193414 -0.230076E-07  0.130E-04    0.68      89.1  T
   7    -95.0193414 -0.458726E-10  0.598E-05    0.68     193.2  T
     SCC iter.                  ...        0 min,  0.081 sec
     gradient                   ...        0 min,  0.053 sec
 * total energy  :   -93.7391294 Eh     change       -0.1563590E-05 Eh
   gradient norm :     0.0002759 Eh/α   predicted    -0.7414238E-06 ( -52.58%)
   displ. norm   :     0.0519041 α      lambda       -0.1267545E-05
   maximum displ.:     0.0272516 α      in ANC's #3, #2, #4, ...

........................................................................
.............................. CYCLE  240 ..............................
........................................................................

 iter      E             dE          RMSdq      gap      omega  full diag
   1    -95.0194062 -0.950194E+02  0.741E-03    0.68       0.0  T
   2    -95.0194062 -0.262658E-07  0.439E-03    0.68       2.6  T
   3    -95.0194062  0.570277E-07  0.261E-03    0.68       4.4  T
   4    -95.0194062  0.120647E-07  0.108E-03    0.69      10.7  T
   5    -95.0194062 -0.709281E-07  0.396E-04    0.68      29.1  T
   6    -95.0194062 -0.944664E-08  0.202E-04    0.68      57.3  T
     SCC iter.                  ...        0 min,  0.065 sec
     gradient                   ...        0 min,  0.051 sec
 * total energy  :   -93.7391308 Eh     change       -0.1374642E-05 Eh
   gradient norm :     0.0002776 Eh/α   predicted    -0.6385651E-06 ( -53.55%)
   displ. norm   :     0.0555315 α      lambda       -0.1284194E-05
   maximum displ.:     0.0306209 α      in ANC's #3, #2, #4, ...

........................................................................
.............................. CYCLE  241 ..............................
........................................................................

 iter      E             dE          RMSdq      gap      omega  full diag
   1    -95.0193028 -0.950193E+02  0.847E-03    0.68       0.0  T
   2    -95.0193026  0.250800E-06  0.541E-03    0.69       2.1  T
   3    -95.0192992  0.338210E-05  0.718E-03    0.68       1.6  T
   4    -95.0193025 -0.332311E-05  0.267E-03    0.69       4.3  T
   5    -95.0193029 -0.413924E-06  0.447E-04    0.69      25.8  T
   6    -95.0193029 -0.708872E-08  0.169E-04    0.69      68.4  T
     SCC iter.                  ...        0 min,  0.077 sec
     gradient                   ...        0 min,  0.063 sec
 * total energy  :   -93.7391324 Eh     change       -0.1526957E-05 Eh
   gradient norm :     0.0001960 Eh/α   predicted    -0.6452122E-06 ( -57.75%)
   displ. norm   :     0.0638803 α      lambda       -0.1556263E-05
   maximum displ.:     0.0368743 α      in ANC's #3, #2, #4, ...

........................................................................
.............................. CYCLE  242 ..............................
........................................................................

 iter      E             dE          RMSdq      gap      omega  full diag
   1    -95.0192040 -0.950192E+02  0.102E-02    0.69       0.0  T
   2    -95.0192037  0.270331E-06  0.652E-03    0.69       1.8  T
   3    -95.0192015  0.226440E-05  0.678E-03    0.68       1.7  T
   4    -95.0192025 -0.985372E-06  0.489E-03    0.69       2.4  T
   5    -95.0192042 -0.170591E-05  0.590E-04    0.68      19.6  T
   6    -95.0192042 -0.952940E-08  0.214E-04    0.69      54.0  T
   7    -95.0192042 -0.890594E-10  0.107E-04    0.69     108.4  T
     SCC iter.                  ...        0 min,  0.078 sec
     gradient                   ...        0 min,  0.054 sec
 * total energy  :   -93.7391342 Eh     change       -0.1804361E-05 Eh
   gradient norm :     0.0001816 Eh/α   predicted    -0.7821893E-06 ( -56.65%)
   displ. norm   :     0.0654600 α      lambda       -0.1422523E-05
   maximum displ.:     0.0389809 α      in ANC's #3, #2, #4, ...

........................................................................
.............................. CYCLE  243 ..............................
........................................................................

 iter      E             dE          RMSdq      gap      omega  full diag
   1    -95.0191523 -0.950192E+02  0.103E-02    0.69       0.0  T
   2    -95.0191517  0.633220E-06  0.692E-03    0.69       1.7  T
   3    -95.0191486  0.309844E-05  0.781E-03    0.68       1.5  T
   4    -95.0191514 -0.283431E-05  0.438E-03    0.69       2.6  T
   5    -95.0191526 -0.114219E-05  0.737E-04    0.69      15.7  T
   6    -95.0191526 -0.186572E-07  0.243E-04    0.69      47.5  T
   7    -95.0191526 -0.897700E-10  0.119E-04    0.69      97.3  T
     SCC iter.                  ...        0 min,  0.082 sec
     gradient                   ...        0 min,  0.059 sec
 * total energy  :   -93.7391357 Eh     change       -0.1497774E-05 Eh
   gradient norm :     0.0002044 Eh/α   predicted    -0.7171278E-06 ( -52.12%)
   displ. norm   :     0.0502438 α      lambda       -0.9098385E-06
   maximum displ.:     0.0303412 α      in ANC's #3, #2, #4, ...

........................................................................
.............................. CYCLE  244 ..............................
........................................................................

 iter      E             dE          RMSdq      gap      omega  full diag
   1    -95.0190820 -0.950191E+02  0.782E-03    0.69       0.0  T
   2    -95.0190819  0.552378E-07  0.491E-03    0.69       2.4  T
   3    -95.0190814  0.470571E-06  0.403E-03    0.68       2.9  T
   4    -95.0190807  0.772778E-06  0.418E-03    0.69       2.8  T
   5    -95.0190820 -0.137550E-05  0.578E-04    0.68      20.0  T
   6    -95.0190821 -0.106179E-07  0.179E-04    0.68      64.6  T
   7    -95.0190821 -0.147850E-09  0.809E-05    0.68     142.7  T
     SCC iter.                  ...        0 min,  0.073 sec
     gradient                   ...        0 min,  0.056 sec
 * total energy  :   -93.7391367 Eh     change       -0.1017677E-05 Eh
   gradient norm :     0.0001633 Eh/α   predicted    -0.4588965E-06 ( -54.91%)
   displ. norm   :     0.0463852 α      lambda       -0.8229424E-06
   maximum displ.:     0.0279677 α      in ANC's #3, #2, #4, ...

........................................................................
.............................. CYCLE  245 ..............................
........................................................................

 iter      E             dE          RMSdq      gap      omega  full diag
   1    -95.0191047 -0.950191E+02  0.715E-03    0.68       0.0  T
   2    -95.0191045  0.227986E-06  0.470E-03    0.69       2.5  T
   3    -95.0191035  0.978685E-06  0.470E-03    0.68       2.5  T
   4    -95.0191040 -0.520455E-06  0.343E-03    0.69       3.4  T
   5    -95.0191048 -0.787763E-06  0.546E-04    0.68      21.1  T
   6    -95.0191048 -0.104121E-07  0.161E-04    0.68      71.9  T
   7    -95.0191048 -0.150436E-09  0.819E-05    0.68     141.0  T
     SCC iter.                  ...        0 min,  0.073 sec
     gradient                   ...        0 min,  0.049 sec
 * total energy  :   -93.7391377 Eh     change       -0.9958325E-06 Eh
   gradient norm :     0.0001487 Eh/α   predicted    -0.4146937E-06 ( -58.36%)
   displ. norm   :     0.0564933 α      lambda       -0.9792947E-06
   maximum displ.:     0.0333831 α      in ANC's #3, #2, #4, ...

   *** GEOMETRY OPTIMIZATION CONVERGED AFTER 245 ITERATIONS ***

------------------------------------------------------------------------
 total energy gain   :        -0.4507651 Eh     -282.8593 kcal/mol
 total RMSD          :         2.2788080 a0        1.2059 Å
 total power (kW/mol):        -4.8305449 (step)  -26.1000 (real)
------------------------------------------------------------------------

 ANCopt (total)                0 d,  0 h,  0 min, 45.344 sec
 optimizer setup                ...        0 min,  0.001 sec (  0.002%)
 model hessian                  ...        0 min,  0.850 sec (  1.874%)
 ANC generation                 ...        0 min,  0.124 sec (  0.272%)
 coordinate transformation      ...        0 min,  0.035 sec (  0.078%)
 single point calculation       ...        0 min, 44.065 sec ( 97.179%)
 optimization log               ...        0 min,  0.122 sec (  0.269%)
 hessian update                 ...        0 min,  0.030 sec (  0.066%)
 rational function              ...        0 min,  0.076 sec (  0.168%)

================
 final structure:
================
75
 xtb: 6.7.1 (edcfbbe)
Ru           0.07201783237325        0.22885583410702       -0.56511224954046
N           -0.23180561401528       -2.80194888372697       -0.01637706341306
C            1.07895938957224       -3.16624396981860        0.48932722209915
C            2.22628956070183       -2.45229842024172       -0.23540230899606
P            2.23311030333923       -0.59860857757681       -0.21600468328263
C            3.65138063427465       -0.26347375551257       -1.41366333386884
C            4.75847529935419       -1.31777010552350       -1.43017100260235
C            3.13546156856949       -0.03343201679260       -2.82940195044296
C            3.14547126391837       -0.15563653647406        1.36101334607640
C            2.52972897125974       -0.79092267312706        2.60290397599181
C            3.17293426747341        1.36315200150865        1.51585936202203
C           -0.70977361874987       -1.51100769393883        0.49468384788274
C           -2.21484091941887       -1.36314622704691        0.16971101280245
P           -2.25889759567508        0.41849013378300       -0.24427617045119
C           -2.96022383620923        1.34857370438046        1.21920108597571
C           -2.56473081316874        2.81394041186287        1.04488448498385
C           -2.47110423381450        0.81548307307981        2.55971878583195
C           -3.69220809502599        0.61106681968105       -1.43902318698210
C           -4.86615055602530       -0.29427976949110       -1.07009694052014
C           -3.24256720783635        0.33840163033697       -2.86944697732277
H            1.15061347385129       -2.98700645273677        1.57586818356352
H            1.21462442497920       -4.24272952474121        0.32529649704479
H            3.17073911289832       -2.81961855236055        0.17443432235717
H            2.17030038543915       -2.71941689978298       -1.29672526535581
H            4.08112308405338        0.68204024911499       -1.06045735838109
H            5.60763539803940       -0.92858981942728       -1.99073415293981
H            4.42377421449801       -2.22819098387838       -1.92187142864844
H            5.10785589918211       -1.56477944232324       -0.43036939939574
H            3.96726646563130        0.13706022140927       -3.51210633513724
H            2.57428189146798       -0.89665029618606       -3.18704891400555
H            2.48940440033215        0.84289977173611       -2.85774364106040
H            4.17385104865959       -0.52314384502617        1.24593096538063
H            2.98587886213340       -0.37060915757046        3.49853106228901
H            2.68739073903835       -1.86699997033188        2.61934028399936
H            1.46103251794997       -0.58324091187893        2.63656247334526
H            2.15705481163553        1.73916541613725        1.62713134559314
H            3.75087592943063        1.64147632331070        2.39584726626546
H            3.61375238901306        1.85020425625204        0.64839141682244
H            0.14612875307528        0.71419210549139        0.88496977121823
H           -0.61178238748803       -1.52476704980136        1.60399462786263
H           -2.90144234636647       -1.70926201342846        0.95192191003107
H           -2.43110475909619       -1.91015436911549       -0.75385460278880
H           -4.05344833874957        1.25850146227773        1.17472535302543
H           -2.93082344684011        3.20853070621672        0.09732433685981
H           -2.96933606845121        3.42219870325965        1.85219307135086
H           -1.47768936564007        2.89767991052144        1.04695372341462
H           -2.85409538704378        1.43871384772816        3.36676834081325
H           -2.80658059756200       -0.20554980232387        2.73015903109462
H           -1.38279122165892        0.83761195722932        2.59644465205850
H           -4.00411114284826        1.66115211800619       -1.36081344184241
H           -4.63506899958130       -1.33069881099706       -1.30671306762040
H           -5.11632890183500       -0.22808544805676       -0.01281052900889
H           -5.74520895047810       -0.00663585229443       -1.64544487881673
H           -2.46858374108731        1.04244978812405       -3.17214729098276
H           -2.85520906594724       -0.67684470030642       -2.96006118082434
H           -4.08287223623202        0.43992062860053       -3.55580605902201
C            0.04748016927766        0.35546721537426       -2.40301441106024
O           -0.01175256976495        0.44808382180887       -3.56749510704885
H            0.50612592286371        1.73206723191650       -0.72786636816430
O           -2.26993147000675       -3.14118537146470       -2.70322339611802
C           -1.23528673072942       -3.76894382911625       -2.64678314592636
C           -0.03052464844815       -3.49857537107837       -3.42854074788590
C            1.12899379855581       -4.24508805985564       -3.21064086118311
C            2.26696495555345       -3.98879433868803       -3.95140205545091
C            2.25568406547855       -2.99454117169702       -4.92022168130034
C            1.10486488052803       -2.25387328743626       -5.14950208472905
C           -0.03312327478977       -2.50218412138985       -4.40730209043214
H           -0.89233075273269       -3.52463580531007        0.27551311109684
H           -0.15855160900001       -0.83511376179981       -1.69318737969329
H           -1.14967314533647       -4.64669490445243       -1.97773473952285
H            1.12880570978158       -5.01812635759484       -2.45508930101743
H            3.16588485061957       -4.56303267567127       -3.77874963941383
H            3.14707581311407       -2.79545722003940       -5.49711535123930
H            1.09922014945380       -1.47677398759276       -5.89906208720284
H           -0.93666342045049       -1.93335111021500       -4.57178510755053

 Bond Distances (Angstroems)
 ---------------------------
Ru1-P5=2.3403        Ru1-C12=2.1821       Ru1-P14=2.3605       Ru1-H39=1.5309       Ru1-C57=1.8424       Ru1-H59=1.5731       
Ru1-H69=1.5677       N2-C3=1.4514         N2-C12=1.4684        N2-H68=1.0217        C3-N2=1.4514         C3-C4=1.5334         
C3-H21=1.1036        C3-H22=1.0973        C4-C3=1.5334         C4-P5=1.8538         C4-H23=1.0931        C4-H24=1.0959        
P5-Ru1=2.3403        P5-C4=1.8538         P5-C6=1.8863         P5-C9=1.8750         C6-P5=1.8863         C6-C7=1.5289         
C6-C8=1.5243         C6-H25=1.0970        C7-C6=1.5289         C7-H26=1.0894        C7-H27=1.0875        C7-H28=1.0875        
C8-C6=1.5243         C8-H29=1.0895        C8-H30=1.0899        C8-H31=1.0891        C9-P5=1.8750         C9-C10=1.5248        
C9-C11=1.5269        C9-H32=1.0981        C10-C9=1.5248        C10-H33=1.0894       C10-H34=1.0877       C10-H35=1.0892       
C11-C9=1.5269        C11-H36=1.0889       C11-H37=1.0890       C11-H38=1.0881       C12-Ru1=2.1821       C12-N2=1.4684        
C12-C13=1.5468       C12-H40=1.1137       C13-C12=1.5468       C13-P14=1.8296       C13-H41=1.0968       C13-H42=1.0950       
P14-Ru1=2.3605       P14-C13=1.8296       P14-C15=1.8705       P14-C18=1.8759       C15-P14=1.8705       C15-C16=1.5278       
C15-C17=1.5233       C15-H43=1.0978       C16-C15=1.5278       C16-H44=1.0898       C16-H45=1.0888       C16-H46=1.0903       
C17-C15=1.5233       C17-H47=1.0892       C17-H48=1.0882       C17-H49=1.0892       C18-P14=1.8759       C18-C19=1.5277       
C18-C20=1.5240       C18-H50=1.0982       C19-C18=1.5277       C19-H51=1.0879       C19-H52=1.0885       C19-H53=1.0893       
C20-C18=1.5240       C20-H54=1.0892       C20-H55=1.0904       C20-H56=1.0897       H21-C3=1.1036        H22-C3=1.0973        
H23-C4=1.0931        H24-C4=1.0959        H25-C6=1.0970        H26-C7=1.0894        H27-C7=1.0875        H28-C7=1.0875        
H29-C8=1.0895        H30-C8=1.0899        H31-C8=1.0891        H32-C9=1.0981        H33-C10=1.0894       H34-C10=1.0877       
H35-C10=1.0892       H36-C11=1.0889       H37-C11=1.0890       H38-C11=1.0881       H39-Ru1=1.5309       H40-C12=1.1137       
H41-C13=1.0968       H42-C13=1.0950       H43-C15=1.0978       H44-C16=1.0898       H45-C16=1.0888       H46-C16=1.0903       
H47-C17=1.0892       H48-C17=1.0882       H49-C17=1.0892       H50-C18=1.0982       H51-C19=1.0879       H52-C19=1.0885       
H53-C19=1.0893       H54-C20=1.0892       H55-C20=1.0904       H56-C20=1.0897       C57-Ru1=1.8424       C57-O58=1.1697       
O58-C57=1.1697       H59-Ru1=1.5731       O60-C61=1.2115       C61-O60=1.2115       C61-C62=1.4614       C61-H70=1.1070       
C62-C61=1.4614       C62-C63=1.3962       C62-C67=1.3967       C63-C62=1.3962       C63-C64=1.3818       C63-H71=1.0809       
C64-C63=1.3818       C64-C65=1.3883       C64-H72=1.0806       C65-C64=1.3883       C65-C66=1.3876       C65-H73=1.0803       
C66-C65=1.3876       C66-C67=1.3811       C66-H74=1.0797       C67-C62=1.3967       C67-C66=1.3811       C67-H75=1.0803       
H68-N2=1.0217        H69-Ru1=1.5677       H70-C61=1.1070       H71-C63=1.0809       H72-C64=1.0806       H73-C65=1.0803       
H74-C66=1.0797       H75-C67=1.0803       
 C  H  Rav=1.0910 sigma=0.0068  Rmin=1.0797  Rmax=1.1137    41
 C  C  Rav=1.4754 sigma=0.0662  Rmin=1.3811  Rmax=1.5468    17
 N  H  Rav=1.0217 sigma=0.0000  Rmin=1.0217  Rmax=1.0217     1
 N  C  Rav=1.4599 sigma=0.0085  Rmin=1.4514  Rmax=1.4684     2
 O  C  Rav=1.1906 sigma=0.0209  Rmin=1.1697  Rmax=1.2115     2
 P  C  Rav=1.8652 sigma=0.0186  Rmin=1.8296  Rmax=1.8863     6
 Ru H  Rav=1.5572 sigma=0.0187  Rmin=1.5309  Rmax=1.5731     3
 Ru C  Rav=2.0123 sigma=0.1698  Rmin=1.8424  Rmax=2.1821     2
 Ru P  Rav=2.3504 sigma=0.0101  Rmin=2.3403  Rmax=2.3605     2

 selected bond angles (degree)
 --------------------
C12-Ru1-P5= 88.65              P14-Ru1-P5=156.92              P14-Ru1-C12= 69.16             H39-Ru1-P5= 85.76              
H39-Ru1-C12= 79.05             H39-Ru1-P14= 83.89             C57-Ru1-P5=100.68              C57-Ru1-C12=122.31             
C57-Ru1-P14= 96.71             C57-Ru1-H39=157.48             H59-Ru1-P5= 95.65              H59-Ru1-C12=155.65             
H59-Ru1-P14=102.11             H59-Ru1-H39= 77.39             H59-Ru1-C57= 80.49             H69-Ru1-P5= 90.18              
H69-Ru1-C12= 75.86             H69-Ru1-P14= 90.41             H69-Ru1-H39=154.67             H69-Ru1-C57= 47.69             
H69-Ru1-H59=127.93             C12-N2-C3=113.16               H68-N2-C3=107.87               H68-N2-C12=108.18              
C4-C3-N2=113.22                H21-C3-N2=111.16               H21-C3-C4=109.95               H22-C3-N2=107.81               
H22-C3-C4=107.07               H22-C3-H21=107.37              P5-C4-C3=117.61                H23-C4-C3=108.23               
H23-C4-P5=109.20               H24-C4-C3=107.82               H24-C4-P5=104.72               H24-C4-H23=108.99              
C4-P5-Ru1=110.40               C6-P5-Ru1=122.46               C6-P5-C4=100.01                C9-P5-Ru1=119.42               
C9-P5-C4=104.29                C9-P5-C6= 97.25                C7-C6-P5=115.39                C8-C6-P5=111.23                
C8-C6-C7=109.82                H25-C6-P5=104.08               H25-C6-C7=108.31               H25-C6-C8=107.55               
H26-C7-C6=108.88               H27-C7-C6=111.06               H27-C7-H26=107.84              H28-C7-C6=112.29               
H28-C7-H26=107.69              H28-C7-H27=108.93              H29-C8-C6=110.32               H30-C8-C6=111.07               
H30-C8-H29=108.14              H31-C8-C6=110.27               H31-C8-H29=108.10              H31-C8-H30=108.86              
C10-C9-P5=112.96               C11-C9-P5=109.21               C11-C9-C10=109.82              H32-C9-P5=106.77               
H32-C9-C10=108.91              H32-C9-C11=109.07              H33-C10-C9=109.86              H34-C10-C9=111.47              
H34-C10-H33=107.97             H35-C10-C9=110.00              H35-C10-H33=108.17             H35-C10-H34=109.29             

 selected dihedral angles (degree)
 ---------------------------------
C4-C3-N2-C12=280.66           C4-C3-N2-H68=161.03           H21-C3-N2-C12= 45.00          H21-C3-N2-H68=285.36          
H22-C3-N2-C12=162.41          H22-C3-N2-H68= 42.78          P5-C4-C3-N2= 58.41            P5-C4-C3-H21=293.41           
P5-C4-C3-H22=177.08           H23-C4-C3-N2=182.67           H23-C4-C3-H21= 57.68          H23-C4-C3-H22=301.34          
H24-C4-C3-N2=300.42           H24-C4-C3-H21=175.43          H24-C4-C3-H22= 59.10          C4-P5-Ru1-C12= 33.06          
C4-P5-Ru1-P14= 48.68          C4-P5-Ru1-H39=112.18          C4-P5-Ru1-C57=270.40          C4-P5-Ru1-H59=189.04          
C4-P5-Ru1-H69=317.21          C6-P5-Ru1-C12=150.21          C6-P5-Ru1-P14=165.83          C6-P5-Ru1-H39=229.33          
C6-P5-Ru1-C57= 27.55          C6-P5-Ru1-H59=306.19          C6-P5-Ru1-H69= 74.36          C9-P5-Ru1-C12=272.25          
C9-P5-Ru1-P14=287.87          C9-P5-Ru1-H39=351.37          C9-P5-Ru1-C57=149.59          C9-P5-Ru1-H59= 68.24          
C9-P5-Ru1-H69=196.40          Ru1-P5-C4-C3=318.01           Ru1-P5-C4-H23=194.24          Ru1-P5-C4-H24= 77.64          
C6-P5-C4-C3=187.68            C6-P5-C4-H23= 63.91           C6-P5-C4-H24=307.31           C9-P5-C4-C3= 87.48            
C9-P5-C4-H23=323.70           C9-P5-C4-H24=207.11           C7-C6-P5-Ru1=206.74           C7-C6-P5-C4=328.87            
C7-C6-P5-C9= 74.83            C8-C6-P5-Ru1=332.69           C8-C6-P5-C4= 94.81            C8-C6-P5-C9=200.78            
H25-C6-P5-Ru1= 88.21          H25-C6-P5-C4=210.34           H25-C6-P5-C9=316.31           H26-C7-C6-P5=191.55           
H26-C7-C6-C8= 64.89           H26-C7-C6-H25=307.70          H27-C7-C6-P5= 72.95           H27-C7-C6-C8=306.29           
H27-C7-C6-H25=189.10          H28-C7-C6-P5=310.71           H28-C7-C6-C8=184.05           H28-C7-C6-H25= 66.86          
H29-C8-C6-P5=181.23           H29-C8-C6-C7=310.20           H29-C8-C6-H25= 67.86          H30-C8-C6-P5=301.13           
H30-C8-C6-C7= 70.10           H30-C8-C6-H25=187.77          H31-C8-C6-P5= 61.90           H31-C8-C6-C7=190.87           
H31-C8-C6-H25=308.53          C10-C9-P5-Ru1= 68.36          C10-C9-P5-C4=304.54           C10-C9-P5-C6=202.23           
C11-C9-P5-Ru1=305.84          C11-C9-P5-C4=182.02           C11-C9-P5-C6= 79.71           H32-C9-P5-Ru1=188.05          
H32-C9-P5-C4= 64.22           H32-C9-P5-C6=321.91           H33-C10-C9-P5=189.63          H33-C10-C9-C11=311.81         
H33-C10-C9-H32= 71.19         H34-C10-C9-P5= 69.99          H34-C10-C9-C11=192.17         H34-C10-C9-H32=311.54         
H35-C10-C9-P5=308.60          H35-C10-C9-C11= 70.78         H35-C10-C9-H32=190.15         

 CMA Distance (Angstroems)
 ---------------------------
R(CMA):  4.6539
           -------------------------------------------------
          |                Final Singlepoint                |
           -------------------------------------------------

          ...................................................
          :                      SETUP                      :
          :.................................................:
          :  # basis functions                 183          :
          :  # atomic orbitals                 180          :
          :  # shells                          108          :
          :  # electrons                       176          :
          :  max. iterations                   500          :
          :  Hamiltonian                  GFN2-xTB          :
          :  restarted?                      false          :
          :  GBSA solvation                   true          :
          :  PC potential                    false          :
          :  electronic temp.          300.0000000     K    :
          :  accuracy                    0.5000000          :
          :  -> integral cutoff          0.2801030E+02      :
          :  -> integral neglect         0.5000000E-08      :
          :  -> SCF convergence          0.5000000E-06 Eh   :
          :  -> wf. convergence          0.5000000E-04 e    :
          :  Broyden damping             0.4000000          :
          :  net charge                          0          :
          :  unpaired electrons                  0          :
          ...................................................

 iter      E             dE          RMSdq      gap      omega  full diag
   1    -95.0191048 -0.950191E+02  0.373E-05    0.68       0.0  T
   2    -95.0191048  0.280096E-10  0.349E-05    0.68     331.1  T
   3    -95.0191048 -0.889600E-11  0.236E-05    0.68     488.2  T

   *** convergence criteria satisfied after 3 iterations ***

         #    Occupation            Energy/Eh            Energy/eV
      -------------------------------------------------------------
         1        2.0000           -0.7255370             -19.7429
       ...           ...                  ...                  ...
        82        2.0000           -0.3848650             -10.4727
        83        2.0000           -0.3809467             -10.3661
        84        2.0000           -0.3641521              -9.9091
        85        2.0000           -0.3598620              -9.7923
        86        2.0000           -0.3379266              -9.1955
        87        2.0000           -0.3317876              -9.0284
        88        2.0000           -0.3224913              -8.7754 (HOMO)
        89        0.0000           -0.2973307              -8.0908 (LUMO)
        90                         -0.2422526              -6.5920
        91                         -0.2154434              -5.8625
        92                         -0.2068550              -5.6288
        93                         -0.1998662              -5.4386
       ...                                ...                  ...
       180                          3.1875597              86.7379
      -------------------------------------------------------------
                  HL-Gap            0.0251606 Eh            0.6847 eV
             Fermi-level           -0.3099110 Eh           -8.4331 eV

 SCC (total)                   0 d,  0 h,  0 min,  0.109 sec
 SCC setup                      ...        0 min,  0.002 sec (  2.302%)
 Dispersion                     ...        0 min,  0.001 sec (  1.187%)
 classical contributions        ...        0 min,  0.000 sec (  0.304%)
 integral evaluation            ...        0 min,  0.012 sec ( 11.154%)
 iterations                     ...        0 min,  0.037 sec ( 34.284%)
 molecular gradient             ...        0 min,  0.054 sec ( 50.148%)
 printout                       ...        0 min,  0.001 sec (  0.598%)

         :::::::::::::::::::::::::::::::::::::::::::::::::::::
         ::                     SUMMARY                     ::
         :::::::::::::::::::::::::::::::::::::::::::::::::::::
         :: total energy             -93.739137666640 Eh    ::
         :: total w/o Gsasa/hb       -93.698528838943 Eh    ::
         :: gradient norm              0.000148751580 Eh/a0 ::
         :: HOMO-LUMO gap              0.684654933477 eV    ::
         ::.................................................::
         :: SCC energy               -95.013583749357 Eh    ::
         :: -> isotropic ES            0.051159650019 Eh    ::
         :: -> anisotropic ES          0.013643129672 Eh    ::
         :: -> anisotropic XC          0.048332859115 Eh    ::
         :: -> dispersion             -0.102576099098 Eh    ::
         :: -> Gsolv                  -0.046352257773 Eh    ::
         ::    -> Gelec               -0.005743430076 Eh    ::
         ::    -> Gsasa               -0.042816970836 Eh    ::
         ::    -> Ghb                  0.000000000000 Eh    ::
         ::    -> Gshift               0.002208143139 Eh    ::
         :: repulsion energy           1.274446082717 Eh    ::
         :: add. restraining           0.000000000000 Eh    ::
         :: total charge               0.000000000200 e     ::
         :::::::::::::::::::::::::::::::::::::::::::::::::::::

           -------------------------------------------------
          |                Property Printout                |
           -------------------------------------------------

    * Orbital Energies and Occupations

         #    Occupation            Energy/Eh            Energy/eV
      -------------------------------------------------------------
         1        2.0000           -0.7255370             -19.7429
       ...           ...                  ...                  ...
        76        2.0000           -0.4178031             -11.3690
        77        2.0000           -0.4147501             -11.2859
        78        2.0000           -0.4110813             -11.1861
        79        2.0000           -0.4080728             -11.1042
        80        2.0000           -0.4061205             -11.0511
        81        2.0000           -0.3925228             -10.6811
        82        2.0000           -0.3848650             -10.4727
        83        2.0000           -0.3809467             -10.3661
        84        2.0000           -0.3641521              -9.9091
        85        2.0000           -0.3598620              -9.7923
        86        2.0000           -0.3379266              -9.1955
        87        2.0000           -0.3317876              -9.0284
        88        2.0000           -0.3224913              -8.7754 (HOMO)
        89        0.0000           -0.2973307              -8.0908 (LUMO)
        90                         -0.2422526              -6.5920
        91                         -0.2154434              -5.8625
        92                         -0.2068550              -5.6288
        93                         -0.1998662              -5.4386
        94                         -0.1872906              -5.0964
        95                         -0.1586470              -4.3170
        96                         -0.1439766              -3.9178
        97                         -0.1310628              -3.5664
        98                         -0.1266145              -3.4454
        99                         -0.1009227              -2.7462
       ...                                ...                  ...
       180                          3.1875597              86.7379
      -------------------------------------------------------------
                  HL-Gap            0.0251606 Eh            0.6847 eV
             Fermi-level           -0.3099110 Eh           -8.4331 eV

     #   Z          covCN         q      C6AA      α(0)
     1  44 Ru       6.652    -0.387   325.497    30.346
     2   7 N        2.679    -0.265    26.862     7.698
     3   6 C        3.766     0.039    19.958     6.367
     4   6 C        3.749    -0.051    21.558     6.622
     5  15 P        3.999     0.013   159.658    22.698
     6   6 C        3.797    -0.011    20.780     6.491
     7   6 C        3.784    -0.106    22.549     6.764
     8   6 C        3.812    -0.094    22.282     6.719
     9   6 C        3.797     0.001    20.567     6.458
    10   6 C        3.803    -0.099    22.391     6.737
    11   6 C        3.835    -0.107    22.518     6.751
    12   6 C        3.950     0.027    20.058     6.364
    13   6 C        3.801    -0.040    21.296     6.570
    14  15 P        4.322     0.011   159.712    22.702
    15   6 C        3.798     0.002    20.556     6.456
    16   6 C        3.865    -0.104    22.443     6.737
    17   6 C        3.803    -0.098    22.373     6.734
    18   6 C        3.797    -0.004    20.649     6.470
    19   6 C        3.809    -0.102    22.446     6.744
    20   6 C        3.820    -0.092    22.243     6.712
    21   1 H        0.923     0.014     2.821     2.627
    22   1 H        0.924     0.018     2.772     2.604
    23   1 H        0.925     0.062     2.171     2.304
    24   1 H        0.927     0.062     2.181     2.309
    25   1 H        0.926     0.057     2.235     2.338
    26   1 H        0.925     0.048     2.350     2.397
    27   1 H        0.925     0.044     2.394     2.419
    28   1 H        0.925     0.045     2.385     2.415
    29   1 H        0.925     0.041     2.430     2.438
    30   1 H        0.925     0.034     2.533     2.489
    31   1 H        0.925     0.051     2.313     2.379
    32   1 H        0.925     0.053     2.287     2.365
    33   1 H        0.925     0.045     2.388     2.416
    34   1 H        0.925     0.037     2.485     2.465
    35   1 H        0.925     0.055     2.260     2.351
    36   1 H        0.925     0.070     2.090     2.261
    37   1 H        0.925     0.045     2.386     2.415
    38   1 H        0.925     0.045     2.385     2.415
    39   1 H        0.967    -0.079     4.862     3.446
    40   1 H        0.921    -0.019     3.404     2.885
    41   1 H        0.924     0.026     2.647     2.544
    42   1 H        0.927     0.068     2.111     2.272
    43   1 H        0.925     0.049     2.334     2.389
    44   1 H        0.925     0.041     2.437     2.441
    45   1 H        0.925     0.044     2.391     2.418
    46   1 H        0.924     0.068     2.110     2.271
    47   1 H        0.925     0.043     2.410     2.428
    48   1 H        0.925     0.037     2.488     2.467
    49   1 H        0.925     0.059     2.216     2.328
    50   1 H        0.925     0.046     2.370     2.408
    51   1 H        0.925     0.049     2.328     2.386
    52   1 H        0.925     0.043     2.411     2.428
    53   1 H        0.925     0.043     2.413     2.429
    54   1 H        0.925     0.041     2.442     2.444
    55   1 H        0.924     0.051     2.311     2.377
    56   1 H        0.925     0.036     2.500     2.473
    57   6 C        2.320     0.210    24.748     8.082
    58   8 O        0.857    -0.305    19.867     5.976
    59   1 H        0.957    -0.092     5.273     3.589
    60   8 O        0.856    -0.378    21.249     6.180
    61   6 C        2.767     0.219    23.384     7.920
    62   6 C        2.970    -0.005    28.134     8.700
    63   6 C        2.923    -0.023    28.576     8.766
    64   6 C        2.916    -0.026    28.661     8.779
    65   6 C        2.920    -0.018    28.451     8.747
    66   6 C        2.916    -0.021    28.520     8.757
    67   6 C        2.923    -0.004    28.114     8.695
    68   1 H        0.860     0.116     1.653     2.014
    69   1 H        1.493     0.075     2.015     2.216
    70   1 H        0.922     0.013     2.842     2.637
    71   1 H        0.926     0.042     2.416     2.431
    72   1 H        0.926     0.045     2.383     2.414
    73   1 H        0.926     0.048     2.346     2.395
    74   1 H        0.926     0.047     2.352     2.398
    75   1 H        0.926     0.055     2.258     2.350

 Mol. C6AA /au·bohr⁶  :      59358.315416
 Mol. C8AA /au·bohr⁸  :    1691608.769900
 Mol. α(0) /au        :        380.427720


Wiberg/Mayer (AO) data.
largest (>0.10) Wiberg bond orders for each atom

 ---------------------------------------------------------------------------
     #   Z sym  total        # sym  WBO       # sym  WBO       # sym  WBO
 ---------------------------------------------------------------------------
     1  44 Ru   6.801 --    57 C    1.238     5 P    0.973    14 P    0.867
                            39 H    0.819    59 H    0.808    12 C    0.782
                            69 H    0.453    58 O    0.317
     2   7 N    3.099 --     3 C    1.016    12 C    0.976    68 H    0.950
     3   6 C    3.991 --     2 N    1.016     4 C    0.987    22 H    0.974
                            21 H    0.956
     4   6 C    3.993 --     5 P    0.998     3 C    0.987    23 H    0.940
                            24 H    0.932
     5  15 P    4.409 --     4 C    0.998     1 Ru   0.973     9 C    0.964
                             6 C    0.956
     6   6 C    3.987 --     8 C    1.002     7 C    0.997     5 P    0.956
                            25 H    0.933
     7   6 C    3.994 --     6 C    0.997    27 H    0.983    26 H    0.981
                            28 H    0.976
     8   6 C    3.993 --     6 C    1.002    29 H    0.982    30 H    0.973
                            31 H    0.965
     9   6 C    3.989 --    10 C    1.000    11 C    0.998     5 P    0.964
                            32 H    0.931
    10   6 C    3.993 --     9 C    1.000    33 H    0.981    34 H    0.979
                            35 H    0.968
    11   6 C    3.992 --     9 C    0.998    37 H    0.981    38 H    0.971
                            36 H    0.963
    12   6 C    3.888 --     2 N    0.976    13 C    0.957    40 H    0.933
                             1 Ru   0.782
    13   6 C    3.992 --    14 P    1.023    12 C    0.957    41 H    0.943
                            42 H    0.920
    14  15 P    4.344 --    13 C    1.023    15 C    0.959    18 C    0.950
                             1 Ru   0.867
    15   6 C    3.989 --    17 C    1.002    16 C    0.996    14 P    0.959
                            43 H    0.932
    16   6 C    3.993 --    15 C    0.996    45 H    0.982    44 H    0.974
                            46 H    0.967
    17   6 C    3.992 --    15 C    1.002    47 H    0.981    48 H    0.979
                            49 H    0.966
    18   6 C    3.986 --    20 C    1.002    19 C    0.996    14 P    0.950
                            50 H    0.938
    19   6 C    3.994 --    18 C    0.996    51 H    0.981    53 H    0.981
                            52 H    0.974
    20   6 C    3.994 --    18 C    1.002    56 H    0.982    54 H    0.975
                            55 H    0.972
    21   1 H    0.999 --     3 C    0.956
    22   1 H    0.999 --     3 C    0.974
    23   1 H    0.995 --     4 C    0.940
    24   1 H    0.996 --     4 C    0.932
    25   1 H    0.996 --     6 C    0.933
    26   1 H    0.996 --     7 C    0.981
    27   1 H    0.998 --     7 C    0.983
    28   1 H    0.998 --     7 C    0.976
    29   1 H    0.998 --     8 C    0.982
    30   1 H    0.999 --     8 C    0.973
    31   1 H    0.997 --     8 C    0.965
    32   1 H    0.996 --     9 C    0.931
    33   1 H    0.997 --    10 C    0.981
    34   1 H    0.999 --    10 C    0.979
    35   1 H    0.997 --    10 C    0.968
    36   1 H    0.995 --    11 C    0.963
    37   1 H    0.997 --    11 C    0.981
    38   1 H    0.998 --    11 C    0.971
    39   1 H    0.993 --     1 Ru   0.819
    40   1 H    0.999 --    12 C    0.933
    41   1 H    0.998 --    13 C    0.943
    42   1 H    0.995 --    13 C    0.920
    43   1 H    0.997 --    15 C    0.932
    44   1 H    0.998 --    16 C    0.974
    45   1 H    0.998 --    16 C    0.982
    46   1 H    0.995 --    16 C    0.967
    47   1 H    0.998 --    17 C    0.981
    48   1 H    0.999 --    17 C    0.979
    49   1 H    0.996 --    17 C    0.966
    50   1 H    0.997 --    18 C    0.938
    51   1 H    0.998 --    19 C    0.981
    52   1 H    0.998 --    19 C    0.974
    53   1 H    0.995 --    19 C    0.981
    54   1 H    0.998 --    20 C    0.975
    55   1 H    0.997 --    20 C    0.972
    56   1 H    0.998 --    20 C    0.982
    57   6 C    3.758 --    58 O    1.905     1 Ru   1.238    69 H    0.442
    58   8 O    2.344 --    57 C    1.905     1 Ru   0.317
    59   1 H    0.990 --     1 Ru   0.808
    60   8 O    2.052 --    61 C    1.823
    61   6 C    3.919 --    60 O    1.823    62 C    1.072    70 H    0.932
    62   6 C    3.990 --    67 C    1.367    63 C    1.364    61 C    1.072
    63   6 C    3.990 --    64 C    1.462    62 C    1.364    71 H    0.967
                            66 C    0.105
    64   6 C    3.992 --    63 C    1.462    65 C    1.424    72 H    0.970
                            67 C    0.103
    65   6 C    3.988 --    66 C    1.429    64 C    1.424    73 H    0.970
    66   6 C    3.991 --    67 C    1.457    65 C    1.429    74 H    0.969
                            63 C    0.105
    67   6 C    3.988 --    66 C    1.457    62 C    1.367    75 H    0.966
                            64 C    0.103
    68   1 H    0.985 --     2 N    0.950
    69   1 H    0.994 --     1 Ru   0.453    57 C    0.442
    70   1 H    0.999 --    61 C    0.932
    71   1 H    0.998 --    63 C    0.967
    72   1 H    0.998 --    64 C    0.970
    73   1 H    0.997 --    65 C    0.970
    74   1 H    0.997 --    66 C    0.969
    75   1 H    0.997 --    67 C    0.966
 ---------------------------------------------------------------------------

Topologies differ in total number of bonds
Writing topology from bond orders to xtbtopo.mol

molecular dipole:
                 x           y           z       tot (Debye)
 q only:        1.618      -0.828       0.929
   full:        1.164      -1.947       0.720       6.049
molecular quadrupole (traceless):
                xx          xy          yy          xz          yz          zz
 q only:       15.812     -19.077      -4.948     -12.461       8.545     -10.864
  q+dip:       15.002     -19.740      -3.588     -14.042       4.782     -11.415
   full:       13.705     -18.617      -2.526     -13.055       6.927     -11.179

           -------------------------------------------------
          |                Geometry Summary                 |
           -------------------------------------------------

      molecular mass/u    :      542.6329725
   center of mass at/Å    :        0.0998379      -0.7690646      -1.0248290
  moments of inertia/u·Å² :        0.3203522E+04   0.4104609E+04   0.5593888E+04
rotational constants/cm⁻¹ :        0.5262218E-02   0.4107001E-02   0.3013580E-02

 * 73 selected distances

     #   Z          #   Z                                           value/Å
     2   7 N        3   6 C                                       1.4513969
     3   6 C        4   6 C                                       1.5334008
     1  44 Ru       5  15 P                                       2.3402767
     4   6 C        5  15 P                                       1.8538041
     5  15 P        6   6 C                                       1.8863173
     6   6 C        7   6 C                                       1.5288794
     6   6 C        8   6 C                                       1.5242729
     5  15 P        9   6 C                                       1.8749969
     9   6 C       10   6 C                                       1.5248016
     9   6 C       11   6 C                                       1.5269088
     2   7 N       12   6 C                                       1.4683890
    12   6 C       13   6 C                                       1.5468350
     1  44 Ru      14  15 P                                       2.3605221 (max)
    13   6 C       14  15 P                                       1.8296325
    14  15 P       15   6 C                                       1.8704759
    15   6 C       16   6 C                                       1.5277765
    15   6 C       17   6 C                                       1.5232898
    14  15 P       18   6 C                                       1.8758694
    18   6 C       19   6 C                                       1.5277108
    18   6 C       20   6 C                                       1.5240196
     3   6 C       21   1 H                                       1.1035542
     3   6 C       22   1 H                                       1.0973297
     4   6 C       23   1 H                                       1.0931035
     4   6 C       24   1 H                                       1.0958530
     6   6 C       25   1 H                                       1.0970096
     7   6 C       26   1 H                                       1.0893876
     7   6 C       27   1 H                                       1.0875020
     7   6 C       28   1 H                                       1.0875127
     8   6 C       29   1 H                                       1.0895194
     8   6 C       30   1 H                                       1.0899450
     8   6 C       31   1 H                                       1.0891055
     9   6 C       32   1 H                                       1.0981215
    10   6 C       33   1 H                                       1.0894422
    10   6 C       34   1 H                                       1.0876902
    10   6 C       35   1 H                                       1.0892093
    11   6 C       36   1 H                                       1.0889347
    11   6 C       37   1 H                                       1.0889720
    11   6 C       38   1 H                                       1.0881367
     1  44 Ru      39   1 H                                       1.5309415
    12   6 C       40   1 H                                       1.1137155
    13   6 C       41   1 H                                       1.0968463
    13   6 C       42   1 H                                       1.0949711
    15   6 C       43   1 H                                       1.0978302
    16   6 C       44   1 H                                       1.0897687
    16   6 C       45   1 H                                       1.0887750
    16   6 C       46   1 H                                       1.0902641
    17   6 C       47   1 H                                       1.0892328
    17   6 C       48   1 H                                       1.0881648
    17   6 C       49   1 H                                       1.0891574
    18   6 C       50   1 H                                       1.0982166
    19   6 C       51   1 H                                       1.0879111
    19   6 C       52   1 H                                       1.0884970
    19   6 C       53   1 H                                       1.0892696
    20   6 C       54   1 H                                       1.0892024
    20   6 C       55   1 H                                       1.0904048
    20   6 C       56   1 H                                       1.0897282
     1  44 Ru      57   6 C                                       1.8424216
    57   6 C       58   8 O                                       1.1696589
     1  44 Ru      59   1 H                                       1.5730810
    60   8 O       61   6 C                                       1.2115099
    62   6 C       63   6 C                                       1.3961536
    63   6 C       64   6 C                                       1.3818076
    64   6 C       65   6 C                                       1.3882645
    65   6 C       66   6 C                                       1.3876396
    62   6 C       67   6 C                                       1.3967020
    66   6 C       67   6 C                                       1.3811359
     2   7 N       68   1 H                                       1.0216506 (min)
     1  44 Ru      69   1 H                                       1.5677205
    63   6 C       71   1 H                                       1.0809471
    64   6 C       72   1 H                                       1.0805627
    65   6 C       73   1 H                                       1.0802871
    66   6 C       74   1 H                                       1.0797016
    67   6 C       75   1 H                                       1.0802827

 * 9 distinct bonds (by element types)

   Z      Z             #   av. dist./Å        max./Å        min./Å
   1 H    6 C          40     1.0906016     1.1137155     1.0797016
   6 C    6 C          16     1.4762249     1.5468350     1.3811359
   1 H    7 N           1     1.0216506     1.0216506     1.0216506
   6 C    7 N           2     1.4598930     1.4683890     1.4513969
   6 C    8 O           2     1.1905844     1.2115099     1.1696589
   6 C   15 P           6     1.8651827     1.8863173     1.8296325
   1 H   44 Ru          3     1.5572477     1.5730810     1.5309415
   6 C   44 Ru          1     1.8424216     1.8424216     1.8424216
  15 P   44 Ru          2     2.3503994     2.3605221     2.3402767


optimized geometry written to: xtbopt.xyz


           -------------------------------------------------
          | TOTAL ENERGY              -93.739137666640 Eh   |
          | GRADIENT NORM               0.000148751580 Eh/α |
          | HOMO-LUMO GAP               0.684654933477 eV   |
           -------------------------------------------------

------------------------------------------------------------------------
 * finished run on 2026/09/13 at 01:18:48.516     
------------------------------------------------------------------------
 total:
 * wall-time:     0 d,  0 h,  0 min, 45.857 sec
 *  cpu-time:     0 d,  0 h,  0 min,  8.156 sec
 * ratio c/w:     0.178 speedup
 SCF:
 * wall-time:     0 d,  0 h,  0 min,  0.328 sec
 *  cpu-time:     0 d,  0 h,  0 min,  0.047 sec
 * ratio c/w:     0.143 speedup
 ANC optimizer:
 * wall-time:     0 d,  0 h,  0 min, 45.460 sec
 *  cpu-time:     0 d,  0 h,  0 min,  8.109 sec
 * ratio c/w:     0.178 speedup


normal termination of xtb
Note: The following floating-point exceptions are signalling: IEEE_DIVIDE_BY_ZERO IEEE_UNDERFLOW_FLAG IEEE_DENORMAL
