75
 energy: -93.739137666640 gnorm: 0.000148751580 xtb: 6.7.1 (edcfbbe)
Ru           0.07201783237325        0.22885583410702       -0.56511224954046
N           -0.23180561401528       -2.80194888372697       -0.01637706341306
C            1.07895938957224       -3.16624396981860        0.48932722209915
C            2.22628956070183       -2.45229842024172       -0.23540230899606
P            2.23311030333923       -0.59860857757681       -0.21600468328263
C            3.65138063427465       -0.26347375551257       -1.41366333386884
C            4.75847529935419       -1.31777010552350       -1.43017100260235
C            3.13546156856949       -0.03343201679260       -2.82940195044296
C            3.14547126391837       -0.15563653647406        1.36101334607640
C            2.52972897125974       -0.79092267312706        2.60290397599181
C            3.17293426747341        1.36315200150865        1.51585936202203
C           -0.70977361874987       -1.51100769393883        0.49468384788274
C           -2.21484091941887       -1.36314622704691        0.16971101280245
P           -2.25889759567508        0.41849013378300       -0.24427617045119
C           -2.96022383620923        1.34857370438046        1.21920108597571
C           -2.56473081316874        2.81394041186287        1.04488448498385
C           -2.47110423381450        0.81548307307981        2.55971878583195
C           -3.69220809502599        0.61106681968105       -1.43902318698210
C           -4.86615055602530       -0.29427976949110       -1.07009694052014
C           -3.24256720783635        0.33840163033697       -2.86944697732277
H            1.15061347385129       -2.98700645273677        1.57586818356352
H            1.21462442497920       -4.24272952474121        0.32529649704479
H            3.17073911289832       -2.81961855236055        0.17443432235717
H            2.17030038543915       -2.71941689978298       -1.29672526535581
H            4.08112308405338        0.68204024911499       -1.06045735838109
H            5.60763539803940       -0.92858981942728       -1.99073415293981
H            4.42377421449801       -2.22819098387838       -1.92187142864844
H            5.10785589918211       -1.56477944232324       -0.43036939939574
H            3.96726646563130        0.13706022140927       -3.51210633513724
H            2.57428189146798       -0.89665029618606       -3.18704891400555
H            2.48940440033215        0.84289977173611       -2.85774364106040
H            4.17385104865959       -0.52314384502617        1.24593096538063
H            2.98587886213340       -0.37060915757046        3.49853106228901
H            2.68739073903835       -1.86699997033188        2.61934028399936
H            1.46103251794997       -0.58324091187893        2.63656247334526
H            2.15705481163553        1.73916541613725        1.62713134559314
H            3.75087592943063        1.64147632331070        2.39584726626546
H            3.61375238901306        1.85020425625204        0.64839141682244
H            0.14612875307528        0.71419210549139        0.88496977121823
H           -0.61178238748803       -1.52476704980136        1.60399462786263
H           -2.90144234636647       -1.70926201342846        0.95192191003107
H           -2.43110475909619       -1.91015436911549       -0.75385460278880
H           -4.05344833874957        1.25850146227773        1.17472535302543
H           -2.93082344684011        3.20853070621672        0.09732433685981
H           -2.96933606845121        3.42219870325965        1.85219307135086
H           -1.47768936564007        2.89767991052144        1.04695372341462
H           -2.85409538704378        1.43871384772816        3.36676834081325
H           -2.80658059756200       -0.20554980232387        2.73015903109462
H           -1.38279122165892        0.83761195722932        2.59644465205850
H           -4.00411114284826        1.66115211800619       -1.36081344184241
H           -4.63506899958130       -1.33069881099706       -1.30671306762040
H           -5.11632890183500       -0.22808544805676       -0.01281052900889
H           -5.74520895047810       -0.00663585229443       -1.64544487881673
H           -2.46858374108731        1.04244978812405       -3.17214729098276
H           -2.85520906594724       -0.67684470030642       -2.96006118082434
H           -4.08287223623202        0.43992062860053       -3.55580605902201
C            0.04748016927766        0.35546721537426       -2.40301441106024
O           -0.01175256976495        0.44808382180887       -3.56749510704885
H            0.50612592286371        1.73206723191650       -0.72786636816430
O           -2.26993147000675       -3.14118537146470       -2.70322339611802
C           -1.23528673072942       -3.76894382911625       -2.64678314592636
C           -0.03052464844815       -3.49857537107837       -3.42854074788590
C            1.12899379855581       -4.24508805985564       -3.21064086118311
C            2.26696495555345       -3.98879433868803       -3.95140205545091
C            2.25568406547855       -2.99454117169702       -4.92022168130034
C            1.10486488052803       -2.25387328743626       -5.14950208472905
C           -0.03312327478977       -2.50218412138985       -4.40730209043214
H           -0.89233075273269       -3.52463580531007        0.27551311109684
H           -0.15855160900001       -0.83511376179981       -1.69318737969329
H           -1.14967314533647       -4.64669490445243       -1.97773473952285
H            1.12880570978158       -5.01812635759484       -2.45508930101743
H            3.16588485061957       -4.56303267567127       -3.77874963941383
H            3.14707581311407       -2.79545722003940       -5.49711535123930
H            1.09922014945380       -1.47677398759276       -5.89906208720284
H           -0.93666342045049       -1.93335111021500       -4.57178510755053
